*SPEF "IEEE 1481-1998"
*DESIGN "sram_wrapper_c"
*DATE "Thu Apr  2 21:36:09 2026"
*VENDOR "Cadence Design Systems, Inc."
*PROGRAM "Innovus"
*VERSION "21.16-s078_1"
*DESIGN_FLOW "COUPLING C" "PIN_CAP NONE" "NAME_SCOPE LOCAL"
*DIVIDER /
*DELIMITER :
*BUS_DELIMITER []
*T_UNIT 1 NS
*C_UNIT 1 PF
*R_UNIT 1 OHM
*L_UNIT 1 HENRY

// MMMC spef file for corner 'RC_TYP'

*NAME_MAP

*1 FE_PHN235_sram_din_18
*2 FE_PHN234_sram_din_13
*3 FE_PHN233_sram_din_1
*4 FE_PHN232_sram_din_8
*5 FE_PHN231_sram_din_9
*6 FE_PHN230_sram_din_3
*7 FE_PHN229_sram_din_5
*8 FE_PHN228_sram_din_4
*9 FE_PHN227_sram_din_11
*10 FE_PHN226_sram_din_10
*11 FE_PHN225_sram_din_0
*12 FE_PHN224_sram_din_12
*13 FE_PHN223_sram_din_6
*14 FE_PHN222_sram_din_2
*15 FE_PHN221_sram_din_33
*16 FE_PHN220_sram_din_35
*17 FE_PHN219_sram_din_34
*18 FE_PHN218_sram_din_42
*19 FE_PHN217_sram_din_47
*20 FE_PHN216_sram_din_37
*21 FE_PHN215_sram_din_49
*22 FE_PHN214_sram_din_32
*23 FE_PHN213_sram_din_43
*24 FE_PHN212_sram_din_38
*25 FE_PHN211_sram_din_50
*26 FE_PHN210_sram_din_41
*27 FE_PHN209_sram_din_45
*28 FE_PHN208_sram_din_46
*29 FE_PHN207_sram_addr_2
*30 FE_PHN206_sram_din_48
*31 FE_PHN205_sram_addr_7
*32 FE_PHN204_sram_addr_8
*33 FE_PHN203_sram_din_36
*34 FE_PHN202_sram_din_53
*35 FE_PHN201_sram_din_51
*36 FE_PHN200_sram_din_62
*37 FE_PHN199_sram_din_54
*38 FE_PHN198_sram_din_52
*39 FE_PHN197_sram_din_55
*40 FE_PHN196_sram_din_60
*41 FE_PHN195_sram_din_7
*42 FE_PHN194_tpu_we
*43 FE_PHN193_bus_addr_0
*44 FE_PHN192_bus_addr_5
*45 FE_PHN191_bus_addr_10
*46 FE_PHN190_bus_addr_11
*47 FE_PHN189_bus_addr_2
*48 FE_PHN188_bus_addr_1
*49 FE_PDN16_n_16
*50 FE_PHN187_tpu_din_18
*51 FE_PHN186_sram_din_1
*52 FE_PHN185_sram_din_8
*53 FE_PHN184_sram_din_0
*54 FE_PHN183_sram_din_19
*55 FE_PHN182_sram_din_20
*56 FE_PHN181_sram_din_21
*57 FE_PHN180_bus_addr_2
*58 FE_PHN179_tpu_we
*59 FE_PHN178_sram_din_11
*60 FE_PHN177_sram_din_9
*61 FE_PHN176_sram_din_10
*62 FE_PHN175_sram_din_8
*63 FE_PHN174_sram_din_0
*64 FE_PHN173_sram_din_1
*65 FE_PHN172_sram_din_12
*66 FE_PHN171_sram_din_13
*67 FE_PHN170_sram_din_4
*68 FE_PHN169_sram_din_3
*69 FE_PHN168_sram_din_5
*70 FE_PHN167_sram_din_33
*71 FE_PHN166_sram_din_32
*72 FE_PHN165_sram_din_35
*73 FE_PHN164_sram_din_34
*74 FE_PHN163_sram_din_37
*75 FE_PHN162_sram_din_38
*76 FE_PHN161_sram_din_36
*77 FE_PHN160_sram_din_31
*78 FE_PHN159_sram_din_16
*79 FE_PHN158_sram_din_28
*80 FE_PHN157_sram_din_22
*81 FE_PHN156_sram_din_23
*82 FE_PHN155_sram_din_24
*83 FE_PHN154_sram_din_25
*84 FE_PHN153_sram_din_26
*85 FE_PHN152_sram_din_29
*86 FE_PHN151_sram_din_27
*87 FE_PHN150_sram_din_14
*88 FE_PHN149_sram_din_15
*89 FE_PHN148_sram_din_44
*90 FE_PHN147_sram_addr_4
*91 FE_PHN146_sram_din_41
*92 FE_PHN145_bus_addr_1
*93 FE_PHN144_sram_din_39
*94 FE_PHN143_sram_din_49
*95 FE_PHN142_bus_addr_0
*96 FE_PHN141_sram_din_40
*97 FE_PHN140_sram_din_42
*98 FE_PHN139_sram_din_47
*99 FE_PHN138_sram_din_43
*100 FE_PHN137_sram_addr_0
*101 FE_PHN136_sram_din_58
*102 FE_PHN135_sram_din_56
*103 FE_PHN134_sram_din_59
*104 FE_PHN133_sram_din_57
*105 FE_PHN132_sram_din_61
*106 FE_PHN131_sram_din_63
*107 FE_PHN130_sram_addr_1
*108 FE_PHN129_sram_din_45
*109 FE_PHN128_sram_din_50
*110 FE_PHN127_sram_din_48
*111 FE_PHN126_sram_din_51
*112 FE_PHN125_sram_din_46
*113 FE_PHN124_sram_din_52
*114 FE_PHN123_sram_addr_6
*115 FE_PHN122_sram_din_62
*116 FE_PHN121_sram_din_53
*117 FE_PHN120_sram_din_60
*118 FE_PHN119_sram_din_54
*119 FE_PHN118_sram_addr_5
*120 FE_PHN117_sram_din_55
*121 FE_PHN116_sram_addr_2
*122 FE_PHN115_sram_addr_3
*123 FE_PHN114_sram_addr_7
*124 FE_PHN113_sram_addr_8
*125 FE_PHN112_sram_cen
*126 FE_PHN111_sram_din_30
*127 FE_PHN110_tpu_we
*128 FE_PHN109_bus_addr_2
*129 FE_PHN108_rstn
*130 FE_PHN107_sram_din_7
*131 FE_PHN106_sram_din_5
*132 FE_PHN105_sram_din_2
*133 FE_PHN104_sram_din_3
*134 FE_PHN103_sram_din_4
*135 FE_PHN102_sram_din_6
*136 FE_PHN101_sram_din_0
*137 FE_PHN100_sram_din_11
*138 FE_PHN99_sram_din_1
*139 FE_PHN98_sram_din_8
*140 FE_PHN97_sram_din_9
*141 FE_PHN96_sram_din_13
*142 FE_PHN95_sram_din_10
*143 FE_PHN94_sram_din_12
*144 FE_PHN93_sram_din_33
*145 FE_PHN92_sram_din_32
*146 FE_PHN91_sram_din_35
*147 FE_PHN90_sram_din_34
*148 FE_PHN89_sram_din_37
*149 FE_PHN88_sram_din_39
*150 FE_PHN87_sram_din_41
*151 FE_PHN86_sram_din_38
*152 FE_PHN85_sram_din_40
*153 FE_PHN84_sram_din_42
*154 FE_PHN83_sram_din_44
*155 FE_PHN82_sram_din_43
*156 FE_PHN81_sram_din_36
*157 FE_PHN80_sram_addr_6
*158 FE_PHN79_sram_addr_4
*159 FE_PHN78_sram_addr_0
*160 FE_PHN77_sram_addr_2
*161 FE_PHN76_sram_addr_5
*162 FE_PHN75_sram_addr_1
*163 FE_PHN74_sram_addr_3
*164 FE_PHN73_sram_addr_7
*165 FE_PHN72_sram_addr_8
*166 FE_PHN71_sram_din_45
*167 FE_PHN70_sram_din_47
*168 FE_PHN69_sram_din_46
*169 FE_PHN68_sram_din_49
*170 FE_PHN67_sram_din_48
*171 FE_PHN66_sram_din_50
*172 FE_PHN65_sram_din_53
*173 FE_PHN64_sram_din_52
*174 FE_PHN63_sram_din_51
*175 FE_PHN62_sram_din_54
*176 FE_PHN61_sram_din_62
*177 FE_PHN60_sram_din_60
*178 FE_PHN59_sram_din_56
*179 FE_PHN58_sram_din_61
*180 FE_PHN57_sram_din_63
*181 FE_PHN56_sram_din_59
*182 FE_PHN55_sram_din_57
*183 FE_PHN54_FE_OFN10_bus_dout_5
*184 FE_PHN53_FE_OFN11_bus_dout_4
*185 FE_PHN52_sram_din_55
*186 FE_PHN51_rstn
*187 FE_PHN50_FE_OFN13_bus_dout_2
*188 FE_PHN49_FE_OFN12_bus_dout_3
*189 FE_PHN48_FE_OFN15_bus_dout_0
*190 FE_PHN47_FE_OFN9_bus_dout_6
*191 FE_PHN46_FE_OFN14_bus_dout_1
*192 FE_PHN45_n_38
*193 FE_PHN44_n_14
*194 FE_PHN43_FE_OFN8_bus_dout_7
*195 FE_PHN42_sram_din_58
*196 FE_PHN41_sram_cen
*197 FE_PHN40_tpu_we
*198 FE_PHN39_tpu_din_17
*199 FE_PHN38_bus_byte_sel_d1_2
*200 FE_PHN37_bus_byte_sel_d1_1
*201 FE_PHN36_bus_byte_sel_d1_0
*202 FE_PHN35_tpu_din_18
*203 FE_PHN34_tpu_din_31
*204 FE_PHN33_tpu_din_20
*205 FE_PHN32_tpu_din_16
*206 FE_PHN31_tpu_din_19
*207 FE_PHN30_tpu_din_21
*208 FE_PHN29_tpu_din_28
*209 FE_PHN28_tpu_din_22
*210 FE_PHN27_tpu_din_23
*211 FE_PHN26_tpu_din_24
*212 FE_PHN25_tpu_din_25
*213 FE_PHN24_bus_addr_0
*214 FE_PHN23_bus_addr_2
*215 FE_PHN22_bus_addr_1
*216 FE_PHN21_tpu_din_26
*217 FE_PHN20_tpu_din_14
*218 FE_PHN19_tpu_din_29
*219 FE_PHN18_tpu_din_15
*220 FE_PHN17_tpu_din_27
*221 FE_PHN16_tpu_din_30
*222 CTS_2
*223 CTS_1
*224 LTIELO_NET
*225 LTIEHI_NET
*226 FE_OFN15_bus_dout_0
*227 FE_OFN14_bus_dout_1
*228 FE_OFN13_bus_dout_2
*229 FE_OFN12_bus_dout_3
*230 FE_OFN11_bus_dout_4
*231 FE_OFN10_bus_dout_5
*232 FE_OFN9_bus_dout_6
*233 FE_OFN8_bus_dout_7
*234 FE_OFN7_n_43
*235 FE_OFN6_n_36
*236 FE_OFN5_n_32
*237 FE_OFN4_n_26
*238 FE_OFN3_n_25
*239 FE_OFN2_n_22
*240 FE_OFN1_n_21
*241 FE_OFN0_n_15
*242 clk
*243 rstn
*244 tpu_we
*245 tpu_addr[8]
*246 tpu_addr[7]
*247 tpu_addr[6]
*248 tpu_addr[5]
*249 tpu_addr[4]
*250 tpu_addr[3]
*251 tpu_addr[2]
*252 tpu_addr[1]
*253 tpu_addr[0]
*254 tpu_din[63]
*255 tpu_din[62]
*256 tpu_din[61]
*257 tpu_din[60]
*258 tpu_din[59]
*259 tpu_din[58]
*260 tpu_din[57]
*261 tpu_din[56]
*262 tpu_din[55]
*263 tpu_din[54]
*264 tpu_din[53]
*265 tpu_din[52]
*266 tpu_din[51]
*267 tpu_din[50]
*268 tpu_din[49]
*269 tpu_din[48]
*270 tpu_din[47]
*271 tpu_din[46]
*272 tpu_din[45]
*273 tpu_din[44]
*274 tpu_din[43]
*275 tpu_din[42]
*276 tpu_din[41]
*277 tpu_din[40]
*278 tpu_din[39]
*279 tpu_din[38]
*280 tpu_din[37]
*281 tpu_din[36]
*282 tpu_din[35]
*283 tpu_din[34]
*284 tpu_din[33]
*285 tpu_din[32]
*286 tpu_din[31]
*287 tpu_din[30]
*288 tpu_din[29]
*289 tpu_din[28]
*290 tpu_din[27]
*291 tpu_din[26]
*292 tpu_din[25]
*293 tpu_din[24]
*294 tpu_din[23]
*295 tpu_din[22]
*296 tpu_din[21]
*297 tpu_din[20]
*298 tpu_din[19]
*299 tpu_din[18]
*300 tpu_din[17]
*301 tpu_din[16]
*302 tpu_din[15]
*303 tpu_din[14]
*304 tpu_din[13]
*305 tpu_din[12]
*306 tpu_din[11]
*307 tpu_din[10]
*308 tpu_din[9]
*309 tpu_din[8]
*310 tpu_din[7]
*311 tpu_din[6]
*312 tpu_din[5]
*313 tpu_din[4]
*314 tpu_din[3]
*315 tpu_din[2]
*316 tpu_din[1]
*317 tpu_din[0]
*318 bus_re
*319 bus_addr[11]
*320 bus_addr[10]
*321 bus_addr[9]
*322 bus_addr[8]
*323 bus_addr[7]
*324 bus_addr[6]
*325 bus_addr[5]
*326 bus_addr[4]
*327 bus_addr[3]
*328 bus_addr[2]
*329 bus_addr[1]
*330 bus_addr[0]
*331 bus_dout[7]
*332 bus_dout[6]
*333 bus_dout[5]
*334 bus_dout[4]
*335 bus_dout[3]
*336 bus_dout[2]
*337 bus_dout[1]
*338 bus_dout[0]
*339 sram_addr[8]
*340 sram_addr[7]
*341 sram_addr[6]
*342 sram_addr[5]
*343 sram_addr[4]
*344 sram_addr[3]
*345 sram_addr[2]
*346 sram_addr[1]
*347 sram_addr[0]
*348 sram_din[63]
*349 sram_din[62]
*350 sram_din[61]
*351 sram_din[60]
*352 sram_din[59]
*353 sram_din[58]
*354 sram_din[57]
*355 sram_din[56]
*356 sram_din[55]
*357 sram_din[54]
*358 sram_din[53]
*359 sram_din[52]
*360 sram_din[51]
*361 sram_din[50]
*362 sram_din[49]
*363 sram_din[48]
*364 sram_din[47]
*365 sram_din[46]
*366 sram_din[45]
*367 sram_din[44]
*368 sram_din[43]
*369 sram_din[42]
*370 sram_din[41]
*371 sram_din[40]
*372 sram_din[39]
*373 sram_din[38]
*374 sram_din[37]
*375 sram_din[36]
*376 sram_din[35]
*377 sram_din[34]
*378 sram_din[33]
*379 sram_din[32]
*380 sram_din[31]
*381 sram_din[30]
*382 sram_din[29]
*383 sram_din[28]
*384 sram_din[27]
*385 sram_din[26]
*386 sram_din[25]
*387 sram_din[24]
*388 sram_din[23]
*389 sram_din[22]
*390 sram_din[21]
*391 sram_din[20]
*392 sram_din[19]
*393 sram_din[18]
*394 sram_din[17]
*395 sram_din[16]
*396 sram_din[15]
*397 sram_din[14]
*398 sram_din[13]
*399 sram_din[12]
*400 sram_din[11]
*401 sram_din[10]
*402 sram_din[9]
*403 sram_din[8]
*404 sram_din[7]
*405 sram_din[6]
*406 sram_din[5]
*407 sram_din[4]
*408 sram_din[3]
*409 sram_din[2]
*410 sram_din[1]
*411 sram_din[0]
*412 sram_q[63]
*413 sram_q[62]
*414 sram_q[61]
*415 sram_q[60]
*416 sram_q[59]
*417 sram_q[58]
*418 sram_q[57]
*419 sram_q[56]
*420 sram_q[55]
*421 sram_q[54]
*422 sram_q[53]
*423 sram_q[52]
*424 sram_q[51]
*425 sram_q[50]
*426 sram_q[49]
*427 sram_q[48]
*428 sram_q[47]
*429 sram_q[46]
*430 sram_q[45]
*431 sram_q[44]
*432 sram_q[43]
*433 sram_q[42]
*434 sram_q[41]
*435 sram_q[40]
*436 sram_q[39]
*437 sram_q[38]
*438 sram_q[37]
*439 sram_q[36]
*440 sram_q[35]
*441 sram_q[34]
*442 sram_q[33]
*443 sram_q[32]
*444 sram_q[31]
*445 sram_q[30]
*446 sram_q[29]
*447 sram_q[28]
*448 sram_q[27]
*449 sram_q[26]
*450 sram_q[25]
*451 sram_q[24]
*452 sram_q[23]
*453 sram_q[22]
*454 sram_q[21]
*455 sram_q[20]
*456 sram_q[19]
*457 sram_q[18]
*458 sram_q[17]
*459 sram_q[16]
*460 sram_q[15]
*461 sram_q[14]
*462 sram_q[13]
*463 sram_q[12]
*464 sram_q[11]
*465 sram_q[10]
*466 sram_q[9]
*467 sram_q[8]
*468 bus_byte_sel_d1[2]
*469 bus_byte_sel_d1[1]
*470 bus_byte_sel_d1[0]
*471 n_0
*472 n_1
*473 n_2
*474 n_3
*475 n_4
*476 n_5
*477 n_6
*478 n_7
*479 n_8
*480 n_9
*481 n_10
*482 n_11
*483 n_12
*484 n_13
*485 n_14
*486 n_15
*487 n_16
*488 n_17
*489 n_18
*490 n_19
*491 n_20
*492 n_21
*493 n_22
*494 n_23
*495 n_24
*496 n_25
*497 n_26
*498 n_27
*499 n_28
*500 n_29
*501 n_30
*502 n_31
*503 n_32
*504 n_33
*505 n_34
*506 n_35
*507 n_36
*508 n_37
*509 n_38
*510 n_39
*511 n_40
*512 n_41
*513 n_42
*514 n_43
*515 n_44
*516 n_45
*517 n_60
*518 n_61
*519 n_62
*520 n_63
*521 n_64
*522 n_65
*523 n_66
*524 n_67
*525 sram_cen
*526 FE_PHC235_sram_din_18
*527 FE_PHC234_sram_din_13
*528 FE_PHC233_sram_din_1
*529 FE_PHC232_sram_din_8
*530 FE_PHC231_sram_din_9
*531 FE_PHC230_sram_din_3
*532 FE_PHC229_sram_din_5
*533 FE_PHC228_sram_din_4
*534 FE_PHC227_sram_din_11
*535 FE_PHC226_sram_din_10
*536 FE_PHC225_sram_din_0
*537 FE_PHC224_sram_din_12
*538 FE_PHC223_sram_din_6
*539 FE_PHC222_sram_din_2
*540 FE_PHC221_sram_din_33
*541 FE_PHC220_sram_din_35
*542 FE_PHC219_sram_din_34
*543 FE_PHC218_sram_din_42
*544 FE_PHC217_sram_din_47
*545 FE_PHC216_sram_din_37
*546 FE_PHC215_sram_din_49
*547 FE_PHC214_sram_din_32
*548 FE_PHC213_sram_din_43
*549 FE_PHC212_sram_din_38
*550 FE_PHC211_sram_din_50
*551 FE_PHC210_sram_din_41
*552 FE_PHC209_sram_din_45
*553 FE_PHC208_sram_din_46
*554 FE_PHC207_sram_addr_2
*555 FE_PHC206_sram_din_48
*556 FE_PHC205_sram_addr_7
*557 FE_PHC204_sram_addr_8
*558 FE_PHC203_sram_din_36
*559 FE_PHC202_sram_din_53
*560 FE_PHC201_sram_din_51
*561 FE_PHC200_sram_din_62
*562 FE_PHC199_sram_din_54
*563 FE_PHC198_sram_din_52
*564 FE_PHC197_sram_din_55
*565 FE_PHC196_sram_din_60
*566 FE_PHC195_sram_din_7
*567 FE_PHC194_tpu_we
*568 FE_PHC193_bus_addr_0
*569 FE_PHC192_bus_addr_5
*570 FE_PHC191_bus_addr_10
*571 FE_PHC190_bus_addr_11
*572 FE_PHC189_bus_addr_2
*573 FE_PHC188_bus_addr_1
*574 FE_PDC16_n_16
*575 FE_PHC187_tpu_din_18
*576 FE_PHC186_sram_din_1
*577 FE_PHC185_sram_din_8
*578 FE_PHC184_sram_din_0
*579 FE_PHC183_sram_din_19
*580 FE_PHC182_sram_din_20
*581 FE_PHC181_sram_din_21
*582 FE_PHC180_bus_addr_2
*583 FE_PHC179_tpu_we
*584 FE_PHC178_sram_din_11
*585 FE_PHC177_sram_din_9
*586 FE_PHC176_sram_din_10
*587 FE_PHC175_sram_din_8
*588 FE_PHC174_sram_din_0
*589 FE_PHC173_sram_din_1
*590 FE_PHC172_sram_din_12
*591 FE_PHC171_sram_din_13
*592 FE_PHC170_sram_din_4
*593 FE_PHC169_sram_din_3
*594 FE_PHC168_sram_din_5
*595 FE_PHC167_sram_din_33
*596 FE_PHC166_sram_din_32
*597 FE_PHC165_sram_din_35
*598 FE_PHC164_sram_din_34
*599 FE_PHC163_sram_din_37
*600 FE_PHC162_sram_din_38
*601 FE_PHC161_sram_din_36
*602 FE_PHC160_sram_din_31
*603 FE_PHC159_sram_din_16
*604 FE_PHC158_sram_din_28
*605 FE_PHC157_sram_din_22
*606 FE_PHC156_sram_din_23
*607 FE_PHC155_sram_din_24
*608 FE_PHC154_sram_din_25
*609 FE_PHC153_sram_din_26
*610 FE_PHC152_sram_din_29
*611 FE_PHC151_sram_din_27
*612 FE_PHC150_sram_din_14
*613 FE_PHC149_sram_din_15
*614 FE_PHC148_sram_din_44
*615 FE_PHC147_sram_addr_4
*616 FE_PHC146_sram_din_41
*617 FE_PHC145_bus_addr_1
*618 FE_PHC144_sram_din_39
*619 FE_PHC143_sram_din_49
*620 FE_PHC142_bus_addr_0
*621 FE_PHC141_sram_din_40
*622 FE_PHC140_sram_din_42
*623 FE_PHC139_sram_din_47
*624 FE_PHC138_sram_din_43
*625 FE_PHC137_sram_addr_0
*626 FE_PHC136_sram_din_58
*627 FE_PHC135_sram_din_56
*628 FE_PHC134_sram_din_59
*629 FE_PHC133_sram_din_57
*630 FE_PHC132_sram_din_61
*631 FE_PHC131_sram_din_63
*632 FE_PHC130_sram_addr_1
*633 FE_PHC129_sram_din_45
*634 FE_PHC128_sram_din_50
*635 FE_PHC127_sram_din_48
*636 FE_PHC126_sram_din_51
*637 FE_PHC125_sram_din_46
*638 FE_PHC124_sram_din_52
*639 FE_PHC123_sram_addr_6
*640 FE_PHC122_sram_din_62
*641 FE_PHC121_sram_din_53
*642 FE_PHC120_sram_din_60
*643 FE_PHC119_sram_din_54
*644 FE_PHC118_sram_addr_5
*645 FE_PHC117_sram_din_55
*646 FE_PHC116_sram_addr_2
*647 FE_PHC115_sram_addr_3
*648 FE_PHC114_sram_addr_7
*649 FE_PHC113_sram_addr_8
*650 FE_PHC112_sram_cen
*651 FE_PHC111_sram_din_30
*652 FE_PHC110_tpu_we
*653 FE_PHC109_bus_addr_2
*654 FE_PHC108_rstn
*655 FE_PHC107_sram_din_7
*656 FE_PHC106_sram_din_5
*657 FE_PHC105_sram_din_2
*658 FE_PHC104_sram_din_3
*659 FE_PHC103_sram_din_4
*660 FE_PHC102_sram_din_6
*661 FE_PHC101_sram_din_0
*662 FE_PHC100_sram_din_11
*663 FE_PHC99_sram_din_1
*664 FE_PHC98_sram_din_8
*665 FE_PHC97_sram_din_9
*666 FE_PHC96_sram_din_13
*667 FE_PHC95_sram_din_10
*668 FE_PHC94_sram_din_12
*669 FE_PHC93_sram_din_33
*670 FE_PHC92_sram_din_32
*671 FE_PHC91_sram_din_35
*672 FE_PHC90_sram_din_34
*673 FE_PHC89_sram_din_37
*674 FE_PHC88_sram_din_39
*675 FE_PHC87_sram_din_41
*676 FE_PHC86_sram_din_38
*677 FE_PHC85_sram_din_40
*678 FE_PHC84_sram_din_42
*679 FE_PHC83_sram_din_44
*680 FE_PHC82_sram_din_43
*681 FE_PHC81_sram_din_36
*682 FE_PHC80_sram_addr_6
*683 FE_PHC79_sram_addr_4
*684 FE_PHC78_sram_addr_0
*685 FE_PHC77_sram_addr_2
*686 FE_PHC76_sram_addr_5
*687 FE_PHC75_sram_addr_1
*688 FE_PHC74_sram_addr_3
*689 FE_PHC73_sram_addr_7
*690 FE_PHC72_sram_addr_8
*691 FE_PHC71_sram_din_45
*692 FE_PHC70_sram_din_47
*693 FE_PHC69_sram_din_46
*694 FE_PHC68_sram_din_49
*695 FE_PHC67_sram_din_48
*696 FE_PHC66_sram_din_50
*697 FE_PHC65_sram_din_53
*698 FE_PHC64_sram_din_52
*699 FE_PHC63_sram_din_51
*700 FE_PHC62_sram_din_54
*701 FE_PHC61_sram_din_62
*702 FE_PHC60_sram_din_60
*703 FE_PHC59_sram_din_56
*704 FE_PHC58_sram_din_61
*705 FE_PHC57_sram_din_63
*706 FE_PHC56_sram_din_59
*707 FE_PHC55_sram_din_57
*708 FE_PHC54_FE_OFN10_bus_dout_5
*709 FE_PHC53_FE_OFN11_bus_dout_4
*710 FE_PHC52_sram_din_55
*711 FE_PHC51_rstn
*712 FE_PHC50_FE_OFN13_bus_dout_2
*713 FE_PHC49_FE_OFN12_bus_dout_3
*714 FE_PHC48_FE_OFN15_bus_dout_0
*715 FE_PHC47_FE_OFN9_bus_dout_6
*716 FE_PHC46_FE_OFN14_bus_dout_1
*717 FE_PHC45_n_38
*718 FE_PHC44_n_14
*719 FE_PHC43_FE_OFN8_bus_dout_7
*720 FE_PHC42_sram_din_58
*721 FE_PHC41_sram_cen
*722 FE_PHC40_tpu_we
*723 FE_PHC39_tpu_din_17
*724 FE_PHC38_bus_byte_sel_d1_2
*725 FE_PHC37_bus_byte_sel_d1_1
*726 FE_PHC36_bus_byte_sel_d1_0
*727 FE_PHC35_tpu_din_18
*728 FE_PHC34_tpu_din_31
*729 FE_PHC33_tpu_din_20
*730 FE_PHC32_tpu_din_16
*731 FE_PHC31_tpu_din_19
*732 FE_PHC30_tpu_din_21
*733 FE_PHC29_tpu_din_28
*734 FE_PHC28_tpu_din_22
*735 FE_PHC27_tpu_din_23
*736 FE_PHC26_tpu_din_24
*737 FE_PHC25_tpu_din_25
*738 FE_PHC24_bus_addr_0
*739 FE_PHC23_bus_addr_2
*740 FE_PHC22_bus_addr_1
*741 FE_PHC21_tpu_din_26
*742 FE_PHC20_tpu_din_14
*743 FE_PHC19_tpu_din_29
*744 FE_PHC18_tpu_din_15
*745 FE_PHC17_tpu_din_27
*746 FE_PHC16_tpu_din_30
*747 CTS_ccl_a_inv_00001
*748 CTS_cmf_inv_00047
*749 LTIELO
*750 LTIEHI
*751 FE_OFC15_bus_dout_0
*752 FE_OFC14_bus_dout_1
*753 FE_OFC13_bus_dout_2
*754 FE_OFC12_bus_dout_3
*755 FE_OFC11_bus_dout_4
*756 FE_OFC10_bus_dout_5
*757 FE_OFC9_bus_dout_6
*758 FE_OFC8_bus_dout_7
*759 FE_OFC7_n_43
*760 FE_OFC6_n_36
*761 FE_OFC5_n_32
*762 FE_OFC4_n_26
*763 FE_OFC3_n_25
*764 FE_OFC2_n_22
*765 FE_OFC1_n_21
*766 FE_OFC0_n_15
*767 u_sram
*768 p70817A__2398
*769 p70817A1797__5107
*770 p70817A1798__6260
*771 p70817A1799__4319
*772 p70817A1800__8428
*773 p70817A1801__5526
*774 p70817A1802__6783
*775 p70817A1803__3680
*776 p70812A__1617
*777 p70816A__2802
*778 p70824A__1705
*779 p70812A1804__5122
*780 p70812A1805__8246
*781 p70810A__7098
*782 p70824A1806__6131
*783 p70810A1807__1881
*784 p70812A1808__5115
*785 p70816A1809__7482
*786 p70812A1810__4733
*787 p70824A1811__6161
*788 p70810A1812__9315
*789 p70824A1813__9945
*790 p70824A1814__2883
*791 p70816A1815__2346
*792 p70810A1816__1666
*793 p70812A1817__7410
*794 p70816A1818__6417
*795 p70816A1819__5477
*796 p70816A1820__2398
*797 p70810A1821__5107
*798 p70810A1822__6260
*799 p70824A1823__4319
*800 p70824A1824__8428
*801 p70810A1825__5526
*802 p70816A1826__6783
*803 p70816A1827__3680
*804 p70812A1828__1617
*805 p70810A1829__2802
*806 p70824A1830__1705
*807 p70812A1831__5122
*808 p71871A__8246
*809 p71849A__7098
*810 p71898A__6131
*811 p71884A__1881
*812 p71849A1832__5115
*813 p71859A__7482
*814 p71846A__4733
*815 p71862A__6161
*816 p71824A__9315
*817 p71822A__9945
*818 p71825A__2883
*819 p71861A__2346
*820 bus_byte_sel_d1_reg\[2\]
*821 bus_byte_sel_d1_reg\[1\]
*822 p96144A__1666
*823 p96144A1087__7410
*824 p96144A1088__6417
*825 p96144A1089__5477
*826 p96144A1090__2398
*827 p96144A1091__5107
*828 p96144A1092__6260
*829 p96144A1093__4319
*830 p96144A1094__8428
*831 p96447A__5526
*832 p96447A1095__6783
*833 p96447A1096__3680
*834 p96447A1097__1617
*835 p96447A1098__2802
*836 p96447A1099__1705
*837 p96447A1100__5122
*838 p96447A1101__8246
*839 p96447A1102__7098
*840 p96447A1103__6131
*841 p96447A1104__1881
*842 p96447A1105__5115
*843 p96447A1106__7482
*844 p96447A1107__4733
*845 p96447A1108__6161
*846 p96447A1109__9315
*847 p96447A1110__9945
*848 p96447A1111__2883
*849 p96447A1112__2346
*850 p96447A1113__1666
*851 p96447A1114__7410
*852 p96447A1115__6417
*853 p96447A1116__5477
*854 p96447A1117__2398
*855 p96447A1118__5107
*856 p96447A1119__6260
*857 p96447A1120__4319
*858 p96447A1121__8428
*859 p96447A1122__5526
*860 p96447A1123__6783
*861 p96447A1124__3680
*862 p96447A1125__1617
*863 p96447A1126__2802
*864 p96447A1127__1705
*865 p96447A1128__5122
*866 p96447A1129__8246
*867 p96447A1130__7098
*868 p96447A1131__6131
*869 p96447A1132__1881
*870 p96447A1133__5115
*871 p96447A1134__7482
*872 p96447A1135__4733
*873 p96407A__6161
*874 p96447A1136__9315
*875 p96447A1137__9945
*876 p96447A1138__2883
*877 p96447A1139__2346
*878 p96447A1140__1666
*879 p96447A1141__7410
*880 p96447A1142__6417
*881 p96447A1143__5477
*882 p96447A1144__2398
*883 p96447A1145__5107
*884 p96447A1146__6260
*885 p96447A1147__4319
*886 p96447A1148__8428
*887 p96447A1149__5526
*888 p96447A1150__6783
*889 p96447A1151__3680
*890 p96447A1152__1617
*891 p96447A1153__2802
*892 p96447A1154__1705
*893 p96447A1155__5122
*894 p96447A1156__8246
*895 p96447A1157__7098
*896 Fp96144A1836
*897 bus_byte_sel_d1_reg\[0\]


*PORTS

*242 I *C 10 153
*243 I *C 15 153
*244 I *C 0 5
*245 I *C 0 37.4
*246 I *C 0 33.8
*247 I *C 0 30.2
*248 I *C 0 26.6
*249 I *C 0 23
*250 I *C 0 19.4
*251 I *C 0 15.8
*252 I *C 0 12.2
*253 I *C 0 8.6
*254 I *C 0 267.8
*255 I *C 0 264.2
*256 I *C 0 260.6
*257 I *C 0 257
*258 I *C 0 253.4
*259 I *C 0 249.8
*260 I *C 0 246.2
*261 I *C 0 242.6
*262 I *C 0 239
*263 I *C 0 235.4
*264 I *C 0 231.8
*265 I *C 0 228.2
*266 I *C 0 224.6
*267 I *C 0 221
*268 I *C 0 217.4
*269 I *C 0 213.8
*270 I *C 0 210.2
*271 I *C 0 206.6
*272 I *C 0 203
*273 I *C 0 199.4
*274 I *C 0 195.8
*275 I *C 0 192.2
*276 I *C 0 188.6
*277 I *C 0 185
*278 I *C 0 181.4
*279 I *C 0 177.8
*280 I *C 0 174.2
*281 I *C 0 170.6
*282 I *C 0 167
*283 I *C 0 163.4
*284 I *C 0 159.8
*285 I *C 0 156.2
*286 I *C 0 152.6
*287 I *C 0 149
*288 I *C 0 145.4
*289 I *C 0 141.8
*290 I *C 0 138.2
*291 I *C 0 134.6
*292 I *C 0 131
*293 I *C 0 127.4
*294 I *C 0 123.8
*295 I *C 0 120.2
*296 I *C 0 116.6
*297 I *C 0 113
*298 I *C 0 109.4
*299 I *C 0 105.8
*300 I *C 0 102.2
*301 I *C 0 98.6
*302 I *C 0 95
*303 I *C 0 91.4
*304 I *C 0 87.8
*305 I *C 0 84.2
*306 I *C 0 80.6
*307 I *C 0 77
*308 I *C 0 73.4
*309 I *C 0 69.8
*310 I *C 0 66.2
*311 I *C 0 62.6
*312 I *C 0 59
*313 I *C 0 55.4
*314 I *C 0 51.8
*315 I *C 0 48.2
*316 I *C 0 44.6
*317 I *C 0 41
*318 I *C 324 5
*319 I *C 324 48.2
*320 I *C 324 44.6
*321 I *C 324 41
*322 I *C 324 37.4
*323 I *C 324 33.8
*324 I *C 324 30.2
*325 I *C 324 26.6
*326 I *C 324 23
*327 I *C 324 19.4
*328 I *C 324 15.8
*329 I *C 324 12.2
*330 I *C 324 8.6
*331 O *C 324 77
*332 O *C 324 73.4
*333 O *C 324 69.8
*334 O *C 324 66.2
*335 O *C 324 62.6
*336 O *C 324 59
*337 O *C 324 55.4
*338 O *C 324 51.8


*D_NET *1 0.00283578

*CONN
*I *526:Z O *C 230.1 145.6 *L 0 *D DEL015
*I *767:D[18] I *C 238.585 134.265 *L 0.00183 *D sram00

*CAP
1 *1:3 0.000329538
2 *1:4 6.87818e-05
3 *1:5 0.000223889
4 *1:6 5.77662e-05
5 *1:7 0.000534428
6 *1:8 0.000229246
7 *1:9 6.75488e-05
8 *1:11 0.0013246

*RES
1 *1:10 *1:11 2.10858
2 *1:7 *1:9 0.355372
3 *1:2 *1:3 2.30614
4 *1:8 *1:9 1.06446
5 *1:4 *1:5 0.355372
6 *1:6 *1:11 7.3745
7 *1:5 *1:6 1.38756
8 *1:4 *1:7 3.06813
9 *526:Z *1:2 0.75
10 *1:3 *1:10 0.75
11 *526:Z *767:D[18] 0.0001
*END

*D_NET *2 0.00239284

*CONN
*I *527:Z O *C 250.9 142.8 *L 0 *D DEL01
*I *767:D[13] I *C 259.855 134.265 *L 0.00183 *D sram00

*CAP
1 *2:2 9.05527e-05
2 *2:3 0.000514224
3 *2:4 8.63822e-05
4 *2:5 8.84486e-05
5 *2:6 6.44213e-05
6 *2:7 0.000102774
7 *2:8 3.75591e-05
8 *2:9 1.34311e-05
9 *2:10 0.000253779
10 *2:11 1.97812e-06
11 *2:12 0.000825708984
12 *2:13 5.67104e-05
13 *2:14 0.000256866

*RES
1 *2:11 *2:12 0.488914
2 *2:10 *2:11 0.11147
3 *2:9 *2:10 2.68958
4 *2:7 *2:14 1.53109
5 *2:8 *2:14 1.23891
6 *2:8 *2:9 0.11147
7 *2:4 *2:5 0.105039
8 *2:3 *2:6 4.19694
9 *2:12 *2:15 8.71708
10 *2:5 *2:7 1.14933
11 *527:Z *2:2 0.75
12 *2:2 *2:3 0.75
13 *2:6 *2:13 0.75
14 *2:13 *2:15 0.75
15 *527:Z *767:D[13] 0.0001
*END

*D_NET *3 0.000297812

*CONN
*I *528:I I *C 287.3 141.6 *L 0.00103 *D DEL015
*I *576:Z O *C 287.3 142.8 *L 0 *D BUFFD1

*CAP
1 *528:I 0.000297812012

*RES
1 *576:Z *528:I 2.43368
*END

*D_NET *4 0.00142905

*CONN
*I *529:Z O *C 273.9 142 *L 0 *D DEL015
*I *767:D[8] I *C 280.585 134.265 *L 0.00183 *D sram00

*CAP
1 *4:2 0.000152462
2 *4:3 4.24226e-05
3 *4:4 0.000454925
4 *4:5 2.60098e-05
5 *4:7 0.000753228047

*RES
1 *4:6 *4:7 2.46174
2 *4:4 *4:5 3.52859
3 *4:5 *4:7 5.88526011
4 *529:Z *4:2 0.750026
5 *4:2 *4:3 0.750026
6 *4:3 *4:6 0.750026
7 *529:Z *767:D[8] 8.98019e-05
*END

*D_NET *5 0.0064355

*CONN
*I *530:I I *C 231.3 141.6 *L 0.00104 *D DEL0
*I *585:Z O *C 189.5 142 *L 0 *D CKBD0

*CAP
1 *585:Z 5.8191e-05
2 *5:2 0.000253621
3 *5:3 0.000183803
4 *5:4 0.00123696008
5 *5:5 6.0003e-05
6 *5:6 2.89728e-05
7 *5:7 0.000440047
8 *5:4 *48:3 0.000327639004
9 *5:4 *135:3 0.00210183
10 *5:3 *392:3 0.000517045977
11 *585:Z *480:10 0.000336721992
12 *585:Z *477:10 0.000620494023
13 *5:2 *454:13 0.000270168984

*RES
1 *5:4 *5:5 1.87087
2 *5:3 *5:6 6.07287
3 *5:5 *5:7 7.3769
4 *585:Z *5:3 1.49998
5 *5:6 *5:7 0.90564
6 *5:2 *5:4 25.0324993
7 *530:I *5:2 2.40562
*END

*D_NET *6 0.000399746

*CONN
*I *531:I I *C 252.1 141.6 *L 0.00104 *D DEL0
*I *593:Z O *C 252.1 139.2 *L 0 *D CKBD0

*CAP
1 *531:I 0.000399746016

*RES
1 *593:Z *531:I 3.58454
*END

*D_NET *7 0.00086105

*CONN
*I *532:I I *C 247.3 139.6 *L 0.00104 *D DEL0
*I *594:Z O *C 250.5 139.2 *L 0 *D CKBD0

*CAP
1 *7:2 0.000116251
2 *7:3 0.000744797969

*RES
1 *532:I *7:3 2.24998
2 *7:2 *7:3 3.93895006
3 *594:Z *7:2 0.749973
*END

*D_NET *8 1.0645e-05

*CONN
*I *533:I I *C 249.5 141.6 *L 0.00104 *D DEL0
*I *592:Z O *C 249.3 142 *L 0 *D CKBD0

*CAP
1 *592:Z 1.0645e-05

*RES
1 *592:Z *533:I 0.190094
*END

*D_NET *9 0.00779852

*CONN
*I *534:I I *C 228.5 143.2 *L 0.00104 *D DEL0
*I *584:Z O *C 179.7 142.8 *L 0 *D CKBD0

*CAP
1 *584:Z 6.511e-05
2 *534:I 0.00051646
3 *9:2 0.000187727
4 *9:3 0.000654637
5 *9:4 0.0028968
6 *534:I *10:2 0.00242688984
7 *9:2 *31:2 0.000347348984
8 *9:3 *241:2 0.000703558984

*RES
1 *9:2 *9:4 39.0695
2 *584:Z *9:3 0.949672
3 *9:3 *9:4 6.31684
4 *534:I *9:2 7.88949
*END

*D_NET *10 0.00681481

*CONN
*I *535:I I *C 228.7 141.6 *L 0.00104 *D DEL0
*I *586:Z O *C 188.7 142 *L 0 *D CKBD0

*CAP
1 *10:2 0.000707153
2 *10:3 0.000737254
3 *10:4 0.000129381
4 *10:5 0.00281414
5 *10:2 *534:I 0.00242688984

*RES
1 *10:3 *10:5 6.97446
2 *10:2 *10:4 8.73613
3 *10:4 *10:5 31.5618
4 *586:Z *10:3 1.81128
5 *535:I *10:2 1.50017
*END

*D_NET *11 1.1352e-05

*CONN
*I *536:I I *C 290.5 145.2 *L 0.00103 *D DEL015
*I *578:Z O *C 290.3 145.6 *L 0 *D BUFFD1

*CAP
1 *578:Z 1.13519995e-05

*RES
1 *578:Z *536:I 0.205252
*END

*D_NET *12 0.00711397

*CONN
*I *537:I I *C 230.5 139.6 *L 0.00104 *D DEL0
*I *590:Z O *C 188.1 139.2 *L 0 *D CKBD0

*CAP
1 *12:2 0.000252809
2 *12:3 0.000751934
3 *12:4 0.00225137
4 *12:3 *131:2 0.000167039004
5 *12:3 *394:2 0.00369083

*RES
1 *12:3 *12:4 39.5522995
2 *590:Z *12:2 2.29579
3 *537:I *12:3 4.59701
4 *12:2 *12:4 1.65546
*END

*D_NET *13 0.00228791

*CONN
*I *538:Z O *C 271.3 142 *L 0 *D DEL0
*I *767:D[6] I *C 288.985 134.265 *L 0.00183 *D sram00

*CAP
1 *13:2 0.000117979
2 *13:3 0.000118345
3 *13:4 0.000751908
4 *13:5 0.00126356008
5 *13:6 3.6132e-05

*RES
1 *13:4 *13:6 6.45714
2 *13:5 *13:6 14.444
3 *538:Z *13:2 0.75
4 *13:2 *13:3 0.75
5 *13:3 *13:5 0.75
6 *538:Z *767:D[6] 0.0001
*END

*D_NET *14 0.00245003

*CONN
*I *539:Z O *C 288.1 145.6 *L 0 *D DEL0
*I *767:D[2] I *C 305.785 134.265 *L 0.00183 *D sram00

*CAP
1 *14:2 7.1093e-05
2 *14:3 2.25849e-05
3 *14:5 0.000477253
4 *14:6 0.000241643
5 *14:7 7.27276e-05
6 *14:8 9.66939e-07
7 *14:9 0.00150877
8 *14:10 5.49774e-05

*RES
1 *14:9 *14:10 14.2215
2 *14:6 *14:8 0.199758
3 *14:4 *14:6 2.13445
4 *14:7 *14:8 0.398534
5 *14:5 *14:10 6.17781
6 *14:4 *14:5 0.199758
7 *14:3 *14:9 1.06123
8 *539:Z *14:2 0.75
9 *14:2 *14:3 0.75
10 *539:Z *767:D[2] 0.0001
*END

*D_NET *15 0.00883976

*CONN
*I *540:I I *C 21.7 145.2 *L 0.00103 *D DEL01
*I *884:Z O *C 79.5 141.8 *L 0 *D CKAN2D0

*CAP
1 *540:I 0.000124636
2 *15:2 0.00404157031
3 *15:3 4.67462e-05
4 *15:4 0.00148003
5 *15:3 *281:2 0.00136999
6 *15:2 *282:2 0.00143819
7 *15:2 *268:2 0.000338609023

*RES
1 *15:3 *15:2 54.0183983
2 *15:3 *15:4 9.06516
3 *540:I *15:2 7.76119
4 *884:Z *15:4 0.750072
*END

*D_NET *16 0.00697321

*CONN
*I *541:I I *C 21.7 143.2 *L 0.00103 *D DEL01
*I *881:Z O *C 79.1 143 *L 0 *D CKAN2D0

*CAP
1 *541:I 5.95736e-05
2 *16:2 0.000128379
3 *16:3 1.21333e-05
4 *16:4 0.000363093
5 *16:5 0.00246942
6 *16:2 *234:2 0.000279702012
7 *16:4 *238:2 0.000465395977
8 *16:4 *417:2 0.00175578
9 *16:4 *419:2 0.00143977

*RES
1 *16:4 *16:5 46.5177994
2 *881:Z *16:2 1.49982
3 *541:I *16:3 1.49982
4 *16:3 *16:5 1.49982
5 *16:2 *16:4 0.750264
*END

*D_NET *17 0.00885571

*CONN
*I *542:I I *C 23.9 145.2 *L 0.00103 *D DEL01
*I *883:Z O *C 80.3 145.4 *L 0 *D CKAN2D0

*CAP
1 *883:Z 0.000191449
2 *542:I 8.67417e-05
3 *17:2 0.000719718
4 *17:3 0.000288717
5 *17:4 2.23939e-05
6 *17:5 0.000303191
7 *17:6 0.000185528
8 *17:7 0.000172142
9 *17:8 0.00165829
10 *17:3 *271:3 0.000593559961
11 *17:6 *279:2 0.00101727
12 *17:3 *300:2 0.000695868047
13 *17:5 *223:5 0.000705942969
14 *17:5 *203:2 0.00197682
15 *17:2 *110:2 0.000238050996

*RES
1 *17:7 *17:8 2.30602
2 *17:6 *17:8 19.4291
3 *17:5 *17:7 20.3183002
4 *17:2 *17:6 1.37251
5 *883:Z *17:3 4.63809
6 *17:3 *17:4 0.111612
7 *17:4 *17:2 8.59969
8 *542:I *17:5 1.49994
*END

*D_NET *18 0.00846912

*CONN
*I *543:I I *C 23.7 143.2 *L 0.00103 *D BUFFD2
*I *870:Z O *C 72.9 141.8 *L 0 *D CKAN2D0

*CAP
1 *543:I 0.000383317
2 *18:2 0.000229974
3 *18:3 0.000138248
4 *18:4 0.000470309
5 *18:5 0.00132612
6 *18:6 0.000109311
7 *18:7 4.75529e-06
8 *543:I *208:3 0.00361304
9 *18:2 *374:2 0.00219406016

*RES
1 *18:5 *18:6 0.111765
2 *18:4 *18:7 13.0691
3 *18:3 *18:5 30.5193996
4 *543:I *18:4 4.53395
5 *18:6 *18:7 3.66218
6 *18:2 *18:3 1.49998
7 *870:Z *18:2 0.750225
*END

*D_NET *19 0.00839785

*CONN
*I *544:I I *C 26.1 145.2 *L 0.00103 *D DEL01
*I *858:Z O *C 66.5 145.4 *L 0 *D CKAN2D0

*CAP
1 *858:Z 0.000153509
2 *19:2 0.00227349
3 *19:3 0.00046122
4 *19:4 0.000424725
5 *19:2 *258:2 0.000455908008
6 *19:3 *366:2 0.00246844
7 *19:3 *27:2 0.00137012
8 *19:3 *378:3 0.000790436016

*RES
1 *19:3 *19:2 44.0331993
2 *858:Z *19:3 4.77985
3 *19:2 *19:4 4.54334
4 *544:I *19:4 0.749833
*END

*D_NET *20 0.0101189

*CONN
*I *545:I I *C 27.1 141.6 *L 0.00103 *D DEL01
*I *878:Z O *C 86.5 143 *L 0 *D CKAN2D0

*CAP
1 *878:Z 9.06615e-05
2 *545:I 6.10506e-05
3 *20:2 0.000695622
4 *20:3 0.00386565
5 *20:4 0.000128295
6 *20:5 0.00122308
7 *20:2 *24:3 0.000674606016
8 *20:2 *282:2 0.00225349
9 *20:2 *240:2 0.00112645992

*RES
1 *20:2 *20:3 56.6183014
2 *20:3 *20:4 0.73261
3 *878:Z *20:2 8.64186
4 *20:4 *20:5 7.7978
5 *545:I *20:5 0.949455
*END

*D_NET *21 0.00348144

*CONN
*I *546:Z O *C 31.9 142.8 *L 0 *D DEL01
*I *694:I I *C 53.5 143.2 *L 0.00105 *D DEL1

*CAP
1 *546:Z 0.000121269
2 *21:2 0.000495219
3 *21:3 0.00286495

*RES
1 *21:2 *21:3 19.4283009
2 *694:I *21:2 1.81132
3 *546:Z *21:3 1.50005
*END

*D_NET *22 0.0108696

*CONN
*I *547:I I *C 28.3 145.2 *L 0.00103 *D DEL01
*I *886:Z O *C 75.5 145.4 *L 0 *D CKAN2D0

*CAP
1 *22:2 0.000123165
2 *22:3 0.00215646
3 *22:4 0.000509311
4 *22:5 0.000544421
5 *22:2 *27:2 0.00397862
6 *22:2 *30:2 0.00355762

*RES
1 *22:2 *22:5 3.08374
2 *22:2 *22:3 66.2391968
3 *22:3 *22:4 3.23939
4 *886:Z *22:5 0.749962
5 *547:I *22:4 0.749962
*END

*D_NET *23 0.00887852

*CONN
*I *548:I I *C 30.5 145.2 *L 0.00103 *D DEL01
*I *869:Z O *C 70.7 145.4 *L 0 *D CKAN2D0

*CAP
1 *869:Z 0.000497385
2 *23:2 1.70098e-05
3 *23:3 0.00180378
4 *23:4 0.000670895
5 *869:Z *378:4 0.00175625
6 *869:Z *285:2 0.000414871992
7 *869:Z *28:5 0.00333367
8 *869:Z *370:5 0.000384663984

*RES
1 *23:2 *23:3 45.5689011
2 *869:Z *23:2 5.90402
3 *23:3 *23:4 4.3291
4 *548:I *23:4 0.750257
*END

*D_NET *24 0.00953903

*CONN
*I *549:I I *C 32.7 145.2 *L 0.00103 *D DEL01
*I *877:Z O *C 83.5 145.4 *L 0 *D CKAN2D0

*CAP
1 *24:2 6.63705e-05
2 *24:3 0.00135357
3 *24:4 2.50354e-05
4 *24:5 0.00144938
5 *24:6 0.000828116
6 *24:7 0.000708601
7 *24:3 *285:2 0.001857
8 *24:3 *20:2 0.000674606016
9 *24:2 *240:2 0.00257634

*RES
1 *24:3 *24:4 28.8376999
2 *24:2 *24:3 0.353343
3 *24:5 *24:6 4.95164
4 *24:4 *24:5 25.6541
5 *24:2 *24:7 4.48477
6 *877:Z *24:7 0.749808
7 *549:I *24:6 0.749808
*END

*D_NET *25 0.00498882

*CONN
*I *550:I I *C 32.3 143.2 *L 0.00103 *D DEL01
*I *634:Z O *C 54.1 139.2 *L 0 *D DEL015

*CAP
1 *25:2 0.000599666
2 *25:3 0.000157321
3 *25:5 0.0027032
4 *25:6 0.00152866

*RES
1 *25:4 *25:6 5.04094
2 *25:2 *25:5 17.9554996
3 *25:3 *25:6 4.54394
4 *25:3 *25:5 1.21674
5 *634:Z *25:2 1.54853
6 *550:I *25:4 0.749881
*END

*D_NET *26 1.0675e-05

*CONN
*I *551:I I *C 69.1 143.2 *L 0.000643 *D CKBD0
*I *871:Z O *C 68.9 143 *L 0 *D CKAN2D0

*CAP
1 *871:Z 1.0675e-05

*RES
1 *871:Z *551:I 0.192801
*END

*D_NET *27 0.00872591

*CONN
*I *552:I I *C 34.9 145.2 *L 0.00103 *D DEL01
*I *864:Z O *C 71.9 143 *L 0 *D CKAN2D0

*CAP
1 *864:Z 0.00084002
2 *27:2 0.00199084
3 *27:3 0.000323043
4 *27:4 0.00022328
5 *27:2 *19:3 0.00137012
6 *27:2 *22:2 0.00397862

*RES
1 *27:2 *27:4 45.846199
2 *27:2 *27:3 3.4845
3 *864:Z *27:4 4.88501
4 *552:I *27:3 0.749926
*END

*D_NET *28 0.0113216

*CONN
*I *553:Z O *C 40.1 139.2 *L 0 *D DEL01
*I *693:I I *C 75.1 141.6 *L 0.00105 *D DEL1

*CAP
1 *693:I 9.49988e-05
2 *28:2 0.00122398
3 *28:3 0.00138689
4 *28:4 0.000203775
5 *28:5 0.00107218
6 *28:5 *869:Z 0.00333367
7 *28:2 *375:5 0.000349981992
8 *28:3 *886:A2 0.00365616

*RES
1 *28:3 *28:4 3.69195
2 *28:4 *28:5 49.6013985
3 *693:I *28:3 9.6802
4 *28:5 *28:2 9.65447
5 *553:Z *28:2 0.750046
*END

*D_NET *29 0.00851542

*CONN
*I *554:I I *C 225.9 145.2 *L 0.00103 *D DEL01
*I *646:Z O *C 159.9 145.6 *L 0 *D DEL015

*CAP
1 *29:4 0.00416248
2 *29:5 6.68182e-05
3 *29:6 0.000744591
4 *29:7 0.000945236
5 *29:2 *490:2 0.00259629016

*RES
1 *29:3 *29:2 0.16365
2 *29:4 *29:5 0.16365
3 *29:2 *29:4 62.719101
4 *29:3 *29:6 6.50772
5 *29:5 *29:7 6.212
6 *646:Z *29:7 0.750302
7 *554:I *29:6 0.750302
*END

*D_NET *30 0.00837421

*CONN
*I *555:Z O *C 38.9 145.6 *L 0 *D DEL01
*I *695:I I *C 72.1 143.2 *L 0.00105 *D DEL1

*CAP
1 *30:2 0.00192479
2 *30:3 2.38194e-05
3 *30:4 0.000452187
4 *30:5 0.000355147
5 *30:6 0.000665416
6 *30:7 0.000258783
7 *30:2 *22:2 0.00355762
8 *30:2 *373:2 0.000814251016
9 *30:2 *379:3 0.000322205996

*RES
1 *30:2 *30:5 2.7732
2 *30:2 *30:3 40.7589989
3 *30:6 *30:7 3.45297
4 *30:4 *30:6 2.95791
5 *30:3 *30:7 1.37261
6 *555:Z *30:5 0.750051
7 *695:I *30:4 1.5001
*END

*D_NET *31 0.00714978

*CONN
*I *556:I I *C 223.7 145.2 *L 0.00103 *D DEL01
*I *648:Z O *C 185.5 142.8 *L 0 *D DEL015

*CAP
1 *648:Z 0.000801234
2 *31:2 0.00193953
3 *31:3 0.00012729
4 *31:4 0.000263369
5 *31:2 *237:3 0.00244530016
6 *31:2 *9:2 0.000347348984
7 *31:2 *241:4 0.00122573992

*RES
1 *31:2 *31:4 36.9831009
2 *648:Z *31:2 4.64038
3 *31:3 *31:4 3.55125
4 *556:I *31:3 0.749978
*END

*D_NET *32 0.00605235

*CONN
*I *557:I I *C 219.9 141.6 *L 0.00103 *D DEL01
*I *649:Z O *C 187.3 139.2 *L 0 *D DEL015

*CAP
1 *649:Z 1.81737e-05
2 *32:2 0.00196537
3 *32:3 0.00057769
4 *32:2 *394:13 0.00029795
5 *32:2 *403:5 0.000498809023
6 *32:3 *45:2 0.000308241992
7 *32:3 *396:4 0.000202262988
8 *32:3 *46:2 0.00218388016

*RES
1 *32:3 *32:2 31.5554008
2 *557:I *32:3 3.55104
3 *649:Z *32:2 2.58949
*END

*D_NET *33 0.0090985

*CONN
*I *558:Z O *C 42.1 142.8 *L 0 *D DEL01
*I *681:I I *C 107.1 143.2 *L 0.00105 *D DEL1

*CAP
1 *681:I 0.000461338
2 *33:2 2.17119e-05
3 *33:3 0.000219909
4 *33:4 0.000144575
5 *33:5 0.000948686
6 *33:6 0.00210175984
7 *33:7 0.00162987
8 *33:8 0.000868606
9 *33:5 *288:3 0.000526288984
10 *33:3 *223:6 0.000613313008
11 *33:4 *419:4 0.000467238008
12 *33:2 *624:I 0.00109519992

*RES
1 *33:7 *33:8 2.64485
2 *33:6 *33:8 29.9468994
3 *681:I *33:3 2.92861
4 *33:2 *33:5 1.96673
5 *33:3 *33:5 10.3546
6 *33:2 *33:7 17.0485
7 *33:4 *33:6 1.37269
8 *558:Z *33:4 1.50018
*END

*D_NET *34 0.00253518

*CONN
*I *559:I I *C 39.3 145.2 *L 0.00103 *D DEL01
*I *840:Z O *C 50.5 145.4 *L 0 *D CKAN2D0

*CAP
1 *34:2 7.45721e-05
2 *34:3 0.000310019
3 *34:4 0.000982255
4 *34:5 0.00116831992

*RES
1 *34:2 *34:4 1.37251
2 *34:3 *34:4 5.95482
3 *34:2 *34:5 6.93997002
4 *559:I *34:5 1.81124
5 *840:Z *34:3 0.749952
*END

*D_NET *35 0.00272899

*CONN
*I *560:I I *C 67.3 139.6 *L 0.00103 *D DEL01
*I *848:Z O *C 59.7 145.4 *L 0 *D CKAN2D0

*CAP
1 *848:Z 0.000310962
2 *35:2 6.21592e-05
3 *35:3 0.00121166
4 *35:4 0.00114421

*RES
1 *35:2 *35:4 6.29155
2 *35:2 *35:3 7.6764102
3 *848:Z *35:3 2.49832
4 *560:I *35:4 0.750001
*END

*D_NET *36 0.00079885

*CONN
*I *561:Z O *C 15.9 145.6 *L 0 *D DEL01
*I *640:I I *C 13.7 141.6 *L 0.00103 *D DEL015

*CAP
1 *640:I 9.39352e-05
2 *561:Z 0.000177669
3 *36:2 0.000527239023

*RES
1 *561:Z *36:2 3.36745
2 *640:I *36:2 4.57121992
*END

*D_NET *37 0.00172405

*CONN
*I *562:Z O *C 51.7 142 *L 0 *D DEL01
*I *643:I I *C 46.7 145.2 *L 0.00103 *D DEL015

*CAP
1 *37:2 0.0012732
2 *37:3 0.000450861

*RES
1 *37:2 *37:3 5.14986992
2 *643:I *37:2 3.93124
3 *562:Z *37:3 2.69351
*END

*D_NET *38 0.00225543

*CONN
*I *563:Z O *C 61.1 142.8 *L 0 *D DEL01
*I *638:I I *C 55.5 145.2 *L 0.00103 *D DEL015

*CAP
1 *638:I 0.000400891
2 *563:Z 0.000503675
3 *38:2 0.00117188
4 *38:3 0.000178996

*RES
1 *38:2 *38:3 8.8930397
2 *563:Z *38:3 3.23977
3 *638:I *38:2 3.80725
*END

*D_NET *39 0.000747788

*CONN
*I *564:I I *C 40.5 139.6 *L 0.00103 *D DEL01
*I *834:Z O *C 42.5 141.8 *L 0 *D CKAN2D0

*CAP
1 *39:2 0.000747788047

*RES
1 *834:Z *39:2 1.37249
2 *564:I *39:2 4.60489988
*END

*D_NET *40 0.00102752

*CONN
*I *565:Z O *C 25.7 139.2 *L 0 *D DEL01
*I *642:I I *C 21.3 139.6 *L 0.00103 *D DEL015

*CAP
1 *565:Z 0.000195762
2 *40:2 7.1549e-05
3 *40:3 0.000760208047

*RES
1 *40:2 *40:3 4.94321012
2 *642:I *40:3 2.25
3 *565:Z *40:2 0.929794
*END

*D_NET *41 0.00196848

*CONN
*I *566:I I *C 41.3 145.2 *L 0.00103 *D BUFFD2
*I *655:Z O *C 49.1 142 *L 0 *D BUFFD2

*CAP
1 *566:I 0.000126574
2 *41:2 0.00124644008
3 *41:3 0.000582357
4 *41:4 1.31044e-05

*RES
1 *566:I *41:2 3.55272
2 *41:3 *41:4 0.26882
3 *41:2 *41:4 5.37443018
4 *655:Z *41:3 3.79612
*END

*D_NET *42 0.0011263

*CONN
*I *567:Z O *C 9.7 139.2 *L 0 *D CKBD0
*I *583:I I *C 13.3 139.6 *L 0.00105 *D DEL1

*CAP
1 *42:2 0.00038479
2 *42:3 0.000741508984

*RES
1 *42:2 *42:3 3.63599992
2 *567:Z *42:3 2.12248
3 *583:I *42:2 3.42379
*END

*D_NET *43 0.00861698

*CONN
*I *568:Z O *C 217.9 142 *L 0 *D DEL01
*I *738:I I *C 184.7 145.2 *L 0.00105 *D DEL1

*CAP
1 *568:Z 0.00080927
2 *43:2 4.54617e-05
3 *43:3 0.000943423984
4 *43:2 *121:2 0.00333087
5 *568:Z *123:2 0.00348795

*RES
1 *43:2 *43:3 44.4421005
2 *738:I *43:3 3.84366
3 *568:Z *43:2 4.7354
*END

*D_NET *44 0.00807313

*CONN
*I *569:Z O *C 139.7 142 *L 0 *D DEL01
*I *825:A2 I *C 164.5 139.6 *L 0.000745 *D AO22D0

*CAP
1 *569:Z 0.00019896
2 *44:2 1.26014e-05
3 *44:3 0.000441741
4 *44:4 7.44848e-05
5 *44:5 0.000226704
6 *44:6 0.000777242
7 *44:7 0.00113283
8 *44:3 *239:3 0.000877156953
9 *44:2 *502:3 0.00202015
10 *44:2 *512:2 0.00231128

*RES
1 *44:2 *44:3 27.9927006
2 *44:4 *44:5 7.92164
3 *44:3 *44:4 0.338718
4 *44:2 *44:7 6.97468
5 *569:Z *44:6 1.55392
6 *44:5 *44:6 4.77579
7 *825:A2 *44:7 0.750049
*END

*D_NET *45 0.00681152

*CONN
*I *570:Z O *C 211.3 145.6 *L 0 *D DEL01
*I *823:A2 I *C 174.7 139.6 *L 0.000745 *D AO22D0

*CAP
1 *570:Z 4.87115e-08
2 *45:2 0.00319231
3 *45:3 0.000231185
4 *45:4 0.000490769
5 *45:2 *32:3 0.000308241992
6 *45:2 *690:I 0.000862376953
7 *570:Z *663:I 0.000332235
8 *45:2 *403:5 0.00139434

*RES
1 *45:3 *45:4 5.00069
2 *45:2 *45:4 33.6853981
3 *570:Z *45:3 2.05856
4 *823:A2 *45:2 1.6854
*END

*D_NET *46 0.0063857

*CONN
*I *571:Z O *C 208.5 142 *L 0 *D DEL01
*I *824:A2 I *C 176.3 139.6 *L 0.000745 *D AO22D0

*CAP
1 *46:2 0.00169222
2 *46:4 0.000474679
3 *46:2 *32:3 0.00218388016
4 *46:2 *394:13 0.000247670996
5 *46:2 *403:6 0.000471884023
6 *46:2 *396:4 0.00131537

*RES
1 *46:2 *46:4 30.4951992
2 *824:A2 *46:2 2.74957
3 *46:3 *46:4 3.39544
4 *571:Z *46:3 0.750096
*END

*D_NET *47 0.00047784

*CONN
*I *572:Z O *C 290.9 142.8 *L 0 *D DEL015
*I *582:I I *C 287.9 143.2 *L 0.00072 *D BUFFD1

*CAP
1 *582:I 0.000415046016
2 *47:2 6.27936e-05

*RES
1 *582:I *47:2 4.8954401
2 *572:Z *47:2 0.749973
*END

*D_NET *48 0.00988206

*CONN
*I *573:Z O *C 280.3 139.2 *L 0 *D CKBD1
*I *740:I I *C 183.3 141.6 *L 0.00105 *D DEL1

*CAP
1 *740:I 0.000149955
2 *573:Z 0.000112573
3 *48:2 0.00032074
4 *48:3 0.0046752
5 *48:4 6.49185e-05
6 *48:5 0.000166791
7 *48:3 *320:2 0.00115488008
8 *48:2 *132:3 0.000714767969
9 *48:2 *476:4 0.000414945
10 *48:2 *134:3 0.000443711992
11 *48:3 *774:A2 0.000937448984
12 *48:3 *5:4 0.000327639004
13 *48:4 *135:3 0.000398443984

*RES
1 *48:2 *48:3 76.1567993
2 *573:Z *48:5 1.50022
3 *740:I *48:4 2.24975
4 *48:4 *48:3 2.74479
5 *48:5 *48:2 3.08411
*END

*D_NET *49 0.0102171

*CONN
*I *770:A4 I *C 187.9 141.6 *L 0.00102 *D ND4D1
*I *574:Z O *C 254.3 139.2 *L 0 *D CKBD0

*CAP
1 *49:2 0.00195031
2 *49:3 1.14873e-05
3 *49:4 0.000289504
4 *49:5 0.0019107
5 *49:6 3.57118e-07
6 *49:7 0.000793129
7 *49:8 1.30646e-05
8 *49:9 0.000262154
9 *49:11 0.000557401
10 *49:12 0.000583054
11 *49:7 *124:3 0.00111649
12 *49:4 *133:4 0.00178455
13 *49:2 *143:2 0.000411548008
14 *49:3 *515:3 0.000533326016

*RES
1 *49:9 *49:10 0.137148
2 *49:4 *49:5 21.1485004
3 *49:7 *49:8 0.137148
4 *49:6 *49:7 10.5081
5 *49:8 *49:9 4.23512
6 *49:3 *49:2 14.205
7 *49:10 *49:11 12.2191
8 *49:11 *49:3 0.137148
9 *49:2 *49:13 6.86545
10 *49:4 *49:12 2.12853
11 *574:Z *49:12 3.57326
12 *49:5 *49:6 0.137148
13 *770:A4 *49:13 0.749956
*END

*D_NET *50 0.00098406

*CONN
*I *575:Z O *C 119.3 142 *L 0 *D DEL01
*I *727:I I *C 123.9 141.6 *L 0.00105 *D DEL1

*CAP
1 *727:I 0.000183405
2 *50:2 0.000800653984

*RES
1 *50:2 *50:3 4.2458601
2 *575:Z *50:2 0.931762
3 *727:I *50:3 2.09144
*END

*D_NET *51 0.00298847

*CONN
*I *528:Z O *C 289.5 142 *L 0 *D DEL015
*I *767:D[1] I *C 310.255 134.265 *L 0.00183 *D sram00

*CAP
1 *51:2 8.20514e-05
2 *51:3 0.000276906
3 *51:4 9.0714e-05
4 *51:5 0.000764721
5 *51:6 0.00177408

*RES
1 *51:4 *51:6 18.6677
2 *51:2 *51:3 2.46175
3 *51:3 *51:5 6.50772
4 *51:5 *51:6 1.06123
5 *528:Z *51:2 0.75
6 *528:Z *767:D[1] 0.0001
*END

*D_NET *52 0.00192523

*CONN
*I *529:I I *C 271.7 141.6 *L 0.00103 *D DEL015
*I *577:Z O *C 262.3 139.2 *L 0 *D BUFFD1

*CAP
1 *577:Z 6.26349e-05
2 *52:3 0.00066224
3 *52:4 5.63156e-05
4 *52:5 0.00114403

*RES
1 *52:4 *52:5 7.75263023
2 *52:2 *52:3 3.21066
3 *577:Z *52:5 4.18045
4 *529:I *52:2 1.49999
5 *52:3 *52:4 0.749995
*END

*D_NET *53 0.00278626

*CONN
*I *536:Z O *C 292.7 145.6 *L 0 *D DEL015
*I *767:D[0] I *C 314.185 134.265 *L 0.00183 *D sram00

*CAP
1 *53:2 6.18161e-05
2 *53:4 0.000292944
3 *53:5 0.000234226
4 *53:6 0.000186798
5 *53:7 0.00201048

*RES
1 *53:6 *53:7 2.77942
2 *53:4 *53:5 6.01837
3 *53:3 *53:6 2.61737
4 *53:5 *53:7 19.3518
5 *536:Z *53:2 0.75
6 *53:2 *53:3 0.75
7 *536:Z *767:D[0] 0.0001
*END

*D_NET *54 0.00645185

*CONN
*I *579:Z O *C 204.3 142 *L 0 *D DEL0
*I *767:D[19] I *C 234.655 134.265 *L 0.00183 *D sram00

*CAP
1 *54:2 0.000590416
2 *54:3 3.18318e-05
3 *54:4 6.88853e-05
4 *54:5 0.000168109
5 *54:6 6.95693e-05
6 *54:7 5.56258e-05
7 *54:8 0.000325786
8 *54:9 0.000135889
9 *54:10 1.63149e-05
10 *54:11 0.000588865
11 *54:12 0.000155317
12 *54:13 0.000747168984
13 *54:14 0.000656291
14 *54:8 *130:10 0.00112654992
15 *54:2 *768:ZN 0.000205152012
16 *54:2 *201:17 0.00104339
17 *54:2 *454:5 0.000466683008

*RES
1 *54:8 *54:10 0.450957
2 *54:7 *54:13 6.08028
3 *54:8 *54:14 2.62519
4 *54:9 *54:12 0.355372
5 *54:4 *54:5 2.45589
6 *54:6 *54:7 0.416267
7 *54:10 *54:11 0.355372
8 *54:13 *54:14 7.41278
9 *54:2 *54:5 10.0585
10 *54:11 *54:12 4.00182
11 *54:3 *54:4 1.20904
12 *54:3 *54:9 1.20096
13 *579:Z *54:2 0.75
14 *579:Z *767:D[19] 0.0001
*END

*D_NET *55 0.0130151

*CONN
*I *580:Z O *C 138.7 142.8 *L 0 *D DEL0
*I *767:D[20] I *C 230.185 134.265 *L 0.00183 *D sram00

*CAP
1 *580:Z 6.04118e-06
2 *55:2 0.000184647
3 *55:3 0.000319287
4 *55:4 0.00092223
5 *55:5 4.48054e-05
6 *55:7 0.000718257
7 *55:8 4.87769e-05
8 *55:10 0.00031168
9 *55:11 4.3351e-06
10 *55:12 0.000286089
11 *55:13 7.83116e-07
12 *55:14 0.000228362
13 *55:15 3.70022e-05
14 *55:16 0.00129228
15 *55:17 0.00115009
16 *55:18 7.63817e-05
17 *55:19 7.60741e-06
18 *55:20 0.00023211
19 *55:21 2.0389e-05
20 *55:22 0.00138354
21 *55:23 0.00183291
22 *55:5 *133:3 0.000799011016
23 *55:2 *322:3 0.000410393008
24 *55:3 *515:12 0.000714672031
25 *55:4 *130:7 0.000824692031
26 *55:4 *83:2 0.00115875992

*RES
1 *55:2 *55:22 9.79036
2 *55:5 *55:6 0.291948
3 *55:9 *55:3 1.37325
4 *55:22 *55:23 11.8553
5 *55:19 *55:20 3.15652
6 *55:13 *55:14 2.06713
7 *55:23 *55:24 0.129172
8 *55:7 *55:8 0.927686
9 *55:9 *55:10 0.199758
10 *55:4 *55:24 4.04017
11 *580:Z *55:10 1.85381
12 *55:3 *55:11 0.199758
13 *55:11 *55:4 3.69816
14 *55:14 *55:15 0.11147
15 *55:20 *55:21 0.111477
16 *55:18 *55:19 0.112156
17 *55:17 *55:18 1.91157
18 *55:16 *55:17 19.0295
19 *55:8 *55:12 3.57312
20 *55:12 *55:13 0.112148
21 *55:21 *55:2 4.86832
22 *55:15 *55:16 10.611
23 *55:6 *55:7 9.37191
24 *580:Z *767:D[20] 0.0001
*END

*D_NET *56 0.0107803

*CONN
*I *581:Z O *C 136.1 139.2 *L 0 *D DEL0
*I *767:D[21] I *C 226.255 134.265 *L 0.00183 *D sram00

*CAP
1 *56:2 0.000479312
2 *56:3 0.000330972
3 *56:4 0.00298846
4 *56:5 3.45655e-05
5 *56:6 5.19395e-05
6 *56:7 0.000168176
7 *56:8 0.000195491
8 *56:9 1.07618e-05
9 *56:10 0.000246701
10 *56:3 *434:6 0.000171917012
11 *56:2 *82:12 0.00126415
12 *56:3 *407:8 0.000447265
13 *56:3 *435:4 0.000264571992
14 *56:4 *291:2 0.000561841016
15 *56:4 *80:15 0.00098046
16 *56:2 *334:3 0.000511163008
17 *56:3 *396:7 0.00207243984

*RES
1 *56:8 *56:9 0.111485
2 *56:7 *56:8 2.53412
3 *56:4 *56:7 0.111505
4 *56:6 *56:2 0.112295
5 *56:5 *56:6 0.376997
6 *581:Z *56:3 2.95451
7 *56:2 *56:4 66.783
8 *56:5 *56:10 2.41118
9 *56:3 *56:9 1.95911
10 *581:Z *767:D[21] 0.0001
*END

*D_NET *57 0.00373957

*CONN
*I *582:Z O *C 288.5 142.8 *L 0 *D BUFFD1
*I *653:I I *C 251.9 143.2 *L 0.000643 *D CKBD0

*CAP
1 *653:I 0.00016423
2 *582:Z 0.000352718
3 *57:2 0.00019838
4 *57:3 1.87814e-05
5 *57:4 0.00044218
6 *57:5 0.000218983
7 *57:6 2.1276e-05
8 *57:7 0.000939571953
9 *57:8 2.86739e-08
10 *57:9 0.000410983
11 *57:10 3.96703e-05
12 *57:11 0.000670625
13 *57:12 0.000262151

*RES
1 *57:3 *57:4 3.77893
2 *57:7 *57:8 0.111465
3 *57:4 *57:5 0.111465
4 *57:8 *57:9 3.62331
5 *57:2 *57:3 1.86732
6 *57:11 *57:12 0.111465
7 *57:10 *57:11 5.80187
8 *57:5 *57:6 2.02294
9 *57:6 *57:7 8.29168034
10 *57:9 *57:10 0.111465
11 *582:Z *57:2 2.74513
12 *653:I *57:12 4.91749
*END

*D_NET *58 0.000836054

*CONN
*I *583:Z O *C 16.5 139.2 *L 0 *D DEL1
*I *722:I I *C 12.5 141.6 *L 0.000975 *D CKBD2

*CAP
1 *722:I 0.000406361992
2 *583:Z 0.000265346
3 *58:2 0.000164343

*RES
1 *583:Z *58:2 2.56728
2 *722:I *58:2 5.71634007
*END

*D_NET *59 0.00543281

*CONN
*I *534:Z O *C 230.9 142.8 *L 0 *D DEL0
*I *767:D[11] I *C 268.255 134.265 *L 0.00183 *D sram00

*CAP
1 *534:Z 0.000194295
2 *59:2 4.2539e-05
3 *59:3 0.00298479
4 *59:4 2.87389e-05
5 *59:6 1.81724e-05
6 *59:7 2.64161e-06
7 *59:8 0.000276822
8 *59:9 5.67035e-05
9 *59:3 *335:2 0.00126842
10 *59:3 *130:8 0.000302206016
11 *59:3 *133:2 0.000257476992

*RES
1 *59:2 *59:3 7.66018
2 *59:8 *59:9 0.11147
3 *59:7 *59:8 5.80186
4 *59:6 *59:7 0.11147
5 *59:4 *59:5 0.238581
6 *59:3 *59:9 22.4024
7 *534:Z *59:2 1.81758
8 *59:5 *59:6 0.320359
9 *534:Z *767:D[11] 0.0001
*END

*D_NET *60 0.00718263

*CONN
*I *530:Z O *C 233.7 142 *L 0 *D DEL0
*I *767:D[9] I *C 276.655 134.265 *L 0.00183 *D sram00

*CAP
1 *60:2 9.23591e-05
2 *60:3 9.96472e-05
3 *60:4 0.00214181
4 *60:5 1.57854e-05
5 *60:6 5.9285e-05
6 *60:7 0.00026894
7 *60:8 0.000116086
8 *60:9 0.00195193
9 *60:10 0.000170567
10 *60:11 0.000150827
11 *60:7 *61:4 0.000303836992
12 *60:9 *130:6 0.000559363008
13 *60:2 *228:10 0.00037754
14 *60:3 *331:6 0.000389291992
15 *60:4 *394:6 0.000485354023

*RES
1 *60:9 *60:10 16.9567
2 *60:8 *60:10 1.35131
3 *60:4 *60:11 20.6915
4 *60:9 *60:11 3.71813
5 *60:3 *60:6 0.105039
6 *60:5 *60:7 4.14427
7 *60:7 *60:4 4.18124
8 *60:6 *60:8 1.14933
9 *530:Z *60:2 0.75
10 *60:2 *60:5 0.75
11 *530:Z *767:D[9] 0.0001
*END

*D_NET *61 0.00576269

*CONN
*I *535:Z O *C 231.1 142 *L 0 *D DEL0
*I *767:D[10] I *C 272.185 134.265 *L 0.00183 *D sram00

*CAP
1 *61:2 0.00029661
2 *61:3 0.000347373
3 *61:4 0.000319055
4 *61:5 0.000115227
5 *61:6 0.00124548992
6 *61:7 4.46046e-05
7 *61:8 1.96131e-05
8 *61:9 0.000721238
9 *61:10 0.000156126
10 *61:11 0.000667739
11 *61:12 2.03543e-05
12 *61:7 *69:2 0.000183565996
13 *61:2 *331:6 0.000211885996
14 *61:3 *338:2 0.00110997
15 *61:4 *60:7 0.000303836992

*RES
1 *61:11 *61:12 0.11147
2 *61:10 *61:11 7.04677
3 *61:7 *61:3 3.18925
4 *61:4 *61:5 0.692263
5 *61:9 *61:10 0.11147
6 *61:8 *61:9 11.0264
7 *61:2 *61:8 0.112185
8 *61:6 *61:12 13.5324
9 *61:5 *61:6 1.2282
10 *535:Z *61:4 2.12845
11 *61:7 *61:2 2.00099
12 *535:Z *767:D[10] 0.0001
*END

*D_NET *62 0.00244298

*CONN
*I *577:I I *C 261.7 139.6 *L 0.00072 *D BUFFD1
*I *587:Z O *C 241.1 139.4 *L 0 *D DEL005

*CAP
1 *62:2 9.39148e-05
2 *62:3 0.000835883
3 *62:4 0.000437857
4 *62:5 0.000109896
5 *62:6 0.000942672031
6 *62:7 2.27559e-05

*RES
1 *62:3 *62:7 6.3673
2 *62:2 *62:4 4.73914
3 *62:6 *62:7 0.11146
4 *62:4 *62:5 0.11146
5 *62:5 *62:6 6.89116001
6 *587:Z *62:3 0.75004
7 *577:I *62:2 0.75004
*END

*D_NET *63 0.00220992

*CONN
*I *578:I I *C 289.7 145.2 *L 0.00072 *D BUFFD1
*I *588:Z O *C 265.1 145.6 *L 0 *D CKBD0

*CAP
1 *588:Z 0.000103351
2 *63:2 8.0535e-05
3 *63:3 0.00202605016

*RES
1 *63:2 *63:3 19.8904991
2 *588:Z *63:3 1.49992
3 *578:I *63:2 0.749961
*END

*D_NET *64 0.00252078

*CONN
*I *576:I I *C 286.7 143.2 *L 0.00072 *D BUFFD1
*I *589:Z O *C 263.1 142.8 *L 0 *D CKBD0

*CAP
1 *576:I 0.000159711
2 *64:2 0.00044236
3 *64:3 0.000134193
4 *64:4 0.000542041
5 *64:5 0.000176625
6 *64:6 0.00106585

*RES
1 *64:5 *64:6 8.91413975
2 *64:2 *64:6 3.84022
3 *64:4 *64:5 1.8232
4 *64:3 *64:4 4.4013
5 *576:I *64:3 2.87843
6 *589:Z *64:2 0.750009
*END

*D_NET *65 0.00483734

*CONN
*I *537:Z O *C 232.9 139.2 *L 0 *D DEL0
*I *767:D[12] I *C 263.785 134.265 *L 0.00183 *D sram00

*CAP
1 *65:2 4.74798e-05
2 *65:3 0.000955229
3 *65:4 2.88432e-05
4 *65:5 0.000214944
5 *65:6 1.01688e-05
6 *65:7 0.000431212
7 *65:8 6.28276e-05
8 *65:9 0.000333493
9 *65:10 3.09224e-05
10 *65:11 0.00247738
11 *65:12 0.000244846

*RES
1 *65:10 *65:11 15.234
2 *65:9 *65:10 0.137175
3 *65:2 *65:3 7.63153
4 *65:8 *65:9 2.52438
5 *65:7 *65:8 0.137223
6 *65:6 *65:7 3.04604
7 *65:4 *65:5 1.57392
8 *65:3 *65:4 0.137223
9 *65:11 *65:13 4.14427
10 *65:5 *65:6 0.137223
11 *65:2 *65:12 1.94434
12 *537:Z *65:13 0.75
13 *537:Z *767:D[12] 0.0001
*END

*D_NET *66 0.00450808

*CONN
*I *527:I I *C 249.1 143.2 *L 0.00103 *D DEL01
*I *591:Z O *C 218.3 145.6 *L 0 *D DEL01

*CAP
1 *591:Z 0.000575682
2 *66:2 0.000194196
3 *66:3 0.000574556
4 *66:4 7.46157e-06
5 *66:5 0.000857945
6 *66:6 0.000540956
7 *66:7 0.000983891016
8 *66:8 0.000773391

*RES
1 *66:7 *66:8 3.98011
2 *66:6 *66:7 6.26870012
3 *66:2 *66:3 5.59607
4 *527:I *66:2 1.48893
5 *591:Z *66:8 3.70731
6 *66:5 *66:6 2.99221
7 *66:4 *66:5 5.42428
8 *66:3 *66:4 0.111435
*END

*D_NET *67 0.00723168

*CONN
*I *533:Z O *C 251.9 142 *L 0 *D DEL0
*I *767:D[4] I *C 297.385 134.265 *L 0.00183 *D sram00

*CAP
1 *67:2 3.52563e-05
2 *67:3 9.68103e-05
3 *67:5 0.000547889
4 *67:6 2.21941e-05
5 *67:7 0.00189387
6 *67:8 5.37803e-05
7 *67:9 0.00106173
8 *67:10 0.00062603
9 *67:11 0.000251447
10 *67:12 0.000151775
11 *67:13 0.000208648
12 *67:14 0.0011065
13 *67:14 *335:2 0.00031595998
14 *67:2 *68:3 0.000859807031

*RES
1 *67:7 *67:8 0.32735
2 *67:2 *67:3 0.629748
3 *67:12 *67:14 5.44914
4 *67:5 *67:6 0.137223
5 *67:9 *67:12 0.32735
6 *67:4 *67:5 6.13697
7 *67:6 *67:7 24.9595
8 *67:10 *67:15 3.01629
9 *67:10 *67:11 2.62572
10 *67:8 *67:9 10.1296
11 *67:11 *67:14 2.9286
12 *67:2 *67:13 1.78872
13 *67:3 *67:4 0.137223
14 *533:Z *67:15 0.75
15 *533:Z *767:D[4] 0.0001
*END

*D_NET *68 0.00633148

*CONN
*I *531:Z O *C 254.5 142 *L 0 *D DEL0
*I *767:D[3] I *C 301.855 134.265 *L 0.00183 *D sram00

*CAP
1 *531:Z 5.77883e-05
2 *68:2 6.59211e-05
3 *68:4 0.000816866
4 *68:6 0.000170688
5 *68:7 1.91954e-05
6 *68:8 4.34422e-05
7 *68:9 0.000238074
8 *68:10 0.00331045
9 *68:4 *337:3 0.00034824
10 *68:3 *67:2 0.000859807031
11 *68:10 *511:2 0.000400936016

*RES
1 *68:8 *68:10 4.48473
2 *68:7 *68:10 33.774
3 *68:2 *68:3 0.35397
4 *531:Z *68:8 0.807952
5 *68:6 *68:7 0.137223
6 *68:4 *68:5 0.137223
7 *68:3 *68:4 8.82586
8 *68:5 *68:6 2.71468
9 *68:2 *68:9 1.94434
10 *531:Z *767:D[3] 0.0001
*END

*D_NET *69 0.0064926

*CONN
*I *532:Z O *C 249.7 139.2 *L 0 *D DEL0
*I *767:D[5] I *C 293.455 134.265 *L 0.00183 *D sram00

*CAP
1 *69:2 0.000486755
2 *69:3 8.42868e-05
3 *69:4 2.85648e-05
4 *69:5 0.00151211
5 *69:6 4.49468e-05
6 *69:8 1.25519e-05
7 *69:9 6.69819e-05
8 *69:11 0.00134568
9 *69:12 0.000252376
10 *69:13 6.08213e-05
11 *69:14 0.000207775
12 *69:2 *495:3 0.000945726953
13 *69:2 *61:7 0.000183565996
14 *69:3 *500:3 0.00126045

*RES
1 *69:3 *69:8 0.137223
2 *69:4 *69:5 15.4267
3 *69:4 *69:14 1.51136
4 *69:12 *69:13 1.79472
5 *69:2 *69:7 0.137223
6 *69:6 *69:2 4.99621
7 *69:7 *69:3 1.19367
8 *69:10 *69:11 15.7932
9 *69:8 *69:9 5.06382
10 *69:9 *69:10 0.137223
11 *69:13 *69:14 0.487786
12 *69:11 *69:15 2.72892
13 *69:5 *69:6 0.137223
14 *532:Z *69:15 0.75
15 *532:Z *767:D[5] 0.0001
*END

*D_NET *70 0.00148001

*CONN
*I *595:Z O *C 129.7 139.2 *L 0 *D DEL015
*I *767:D[33] I *C 135.275 134.195 *L 0.00183 *D sram00

*CAP
1 *595:Z 5.02977e-05
2 *70:2 0.000762847031
3 *70:3 4.03918e-05
4 *70:4 1.42594e-05
5 *70:5 9.58695e-05
6 *70:6 0.00051634

*RES
1 *70:4 *70:5 0.711782
2 *70:3 *70:4 0.238607
3 *70:2 *70:6 1.39459
4 *595:Z *70:2 4.4883399
5 *70:5 *70:6 3.24003
6 *595:Z *767:D[33] 6.84866e-05
*END

*D_NET *71 0.0027189

*CONN
*I *596:Z O *C 131.9 145.6 *L 0 *D DEL015
*I *767:D[32] I *C 139.205 134.195 *L 0.00183 *D sram00

*CAP
1 *71:3 0.000246615
2 *71:4 5.80515e-05
3 *71:5 0.00118186
4 *71:6 6.93769e-05
5 *71:7 3.10185e-06
6 *71:8 0.000575754
7 *71:9 0.000249699
8 *71:10 0.000334441

*RES
1 *71:9 *71:10 1.95494
2 *71:8 *71:10 3.61907
3 *71:2 *71:5 6.02911997
4 *71:2 *71:3 0.199726
5 *596:Z *71:8 0.905619
6 *71:6 *71:7 0.398531
7 *71:4 *71:9 2.19891
8 *71:3 *71:4 1.37848
9 *71:5 *71:7 0.199726
10 *596:Z *767:D[32] 9.19971e-05
*END

*D_NET *72 0.00212385

*CONN
*I *597:Z O *C 132.3 142.8 *L 0 *D DEL015
*I *767:D[35] I *C 126.875 134.195 *L 0.00183 *D sram00

*CAP
1 *72:3 3.37633e-05
2 *72:4 0.000287568
3 *72:5 0.000107794
4 *72:6 0.00104224
5 *72:7 2.09927e-06
6 *72:8 8.63086e-05
7 *72:9 0.000365464
8 *72:10 9.8284e-06
9 *72:11 7.92634e-05
10 *72:12 0.000109528

*RES
1 *72:11 *72:12 0.422788
2 *72:9 *72:10 0.111464
3 *72:5 *72:11 1.70589
4 *72:4 *72:6 6.3520999
5 *72:2 *72:4 1.52803
6 *72:10 *72:12 1.2892
7 *72:8 *72:9 3.77951
8 *72:7 *72:8 0.583297
9 *72:6 *72:7 0.927673
10 *72:3 *72:4 0.334586
11 *597:Z *72:2 0.750008
12 *597:Z *767:D[35] 9.69254e-05
*END

*D_NET *73 0.00184864

*CONN
*I *598:Z O *C 123.1 142 *L 0 *D DEL015
*I *767:D[34] I *C 130.805 134.195 *L 0.00183 *D sram00

*CAP
1 *73:2 0.000159423
2 *73:3 3.62918e-05
3 *73:4 7.83577e-05
4 *73:5 2.39295e-05
5 *73:6 0.00124068
6 *73:7 3.07827e-05
7 *73:8 1.68491e-05
8 *73:9 0.000250275
9 *73:10 1.20405e-05

*RES
1 *73:9 *73:10 0.11147
2 *73:8 *73:9 2.0674
3 *73:7 *73:8 0.11147
4 *73:4 *73:5 0.260621
5 *73:3 *73:6 5.72965002
6 *73:6 *73:10 4.28535
7 *73:5 *73:7 1.23902
8 *598:Z *73:2 0.750041
9 *73:2 *73:3 0.750041
10 *598:Z *767:D[34] 8.74275e-05
*END

*D_NET *74 0.00193319

*CONN
*I *599:Z O *C 123.1 142.8 *L 0 *D DEL015
*I *767:D[37] I *C 118.475 134.195 *L 0.00183 *D sram00

*CAP
1 *74:2 0.00105241
2 *74:3 0.000526566
3 *74:4 4.22345e-05
4 *74:5 0.000308745
5 *74:6 3.22781e-06

*RES
1 *74:2 *74:3 4.53538
2 *74:3 *74:4 0.292086
3 *74:2 *74:6 6.31546021
4 *74:5 *74:6 0.199767
5 *599:Z *74:5 1.7211
6 *599:Z *767:D[37] 9.63663e-05
*END

*D_NET *75 0.00151898

*CONN
*I *600:Z O *C 111.1 139.2 *L 0 *D DEL015
*I *767:D[38] I *C 114.005 134.195 *L 0.00183 *D sram00

*CAP
1 *75:2 0.000113894
2 *75:3 4.12108e-05
3 *75:4 0.000165173
4 *75:5 0.000258135
5 *75:6 4.13013e-05
6 *75:7 0.000393291
7 *75:8 2.74049e-05
8 *75:9 0.00042378
9 *75:10 5.47969e-05

*RES
1 *75:9 *75:10 2.96077991
2 *75:4 *75:6 0.424175
3 *75:2 *75:3 0.705408
4 *75:7 *75:8 2.13443
5 *75:6 *75:7 0.199777
6 *75:5 *75:10 2.03359
7 *75:3 *75:4 0.356138
8 *75:5 *75:8 0.199777
9 *600:Z *75:9 0.749999
10 *600:Z *767:D[38] 9.03558e-05
*END

*D_NET *76 0.0024784

*CONN
*I *601:Z O *C 115.9 142.8 *L 0 *D DEL015
*I *767:D[36] I *C 122.405 134.195 *L 0.00183 *D sram00

*CAP
1 *76:2 4.33715e-05
2 *76:3 0.000155105
3 *76:4 5.85811e-06
4 *76:5 0.000203368
5 *76:6 1.5653e-05
6 *76:7 0.00088053
7 *76:8 0.000210314
8 *76:9 0.000327651
9 *76:11 2.53941e-06
10 *76:12 0.000634006

*RES
1 *76:11 *76:12 3.54384
2 *76:7 *76:10 2.13659
3 *76:2 *76:3 1.24071
4 *76:10 *76:12 0.199762
5 *76:9 *76:11 0.199762
6 *76:6 *76:7 3.60551
7 *76:4 *76:5 1.6321
8 *76:3 *76:4 0.0421971
9 *76:2 *76:8 1.78873
10 *601:Z *76:9 1.93694
11 *76:5 *76:6 0.0421971
12 *601:Z *767:D[36] 0.000110031
*END

*D_NET *77 0.01733

*CONN
*I *602:Z O *C 45.5 142.8 *L 0 *D DEL1
*I *767:D[31] I *C 184.255 134.265 *L 0.00183 *D sram00

*CAP
1 *77:2 9.6211e-07
2 *77:3 0.000189371
3 *77:4 7.16654e-05
4 *77:5 0.000127304
5 *77:6 0.000305059
6 *77:7 2.1096e-05
7 *77:8 3.84844e-06
8 *77:9 0.00041887
9 *77:10 0.000135212
10 *77:11 0.000238791
11 *77:12 0.00015903
12 *77:13 0.000120029
13 *77:14 0.000225791
14 *77:15 2.32314e-05
15 *77:17 9.13535e-05
16 *77:18 1.6614e-05
17 *77:19 0.00102756
18 *77:20 3.3181e-05
19 *77:21 0.000183434
20 *77:22 5.42067e-06
21 *77:23 3.10222e-05
22 *77:24 2.46629e-05
23 *77:25 0.000470636
24 *77:26 2.36303e-05
25 *77:27 0.000512359
26 *77:28 1.04424e-05
27 *77:29 1.81862e-05
28 *77:30 0.000252354
29 *77:31 0.00153785
30 *77:32 3.85548e-05
31 *77:33 0.00112447
32 *77:34 0.000164685
33 *77:35 0.00105081
34 *77:36 2.88868e-05
35 *77:37 8.58624e-05
36 *77:38 0.000127092
37 *77:39 0.000223421
38 *77:32 *313:2 0.000473505
39 *77:14 *79:3 0.000562008984
40 *77:2 *394:17 0.000736365
41 *77:3 *428:2 0.00123672
42 *77:2 *80:17 0.00124437
43 *77:4 *86:14 0.000363761016
44 *77:5 *432:2 0.000232865
45 *77:5 *301:3 0.000939182969
46 *77:2 *396:3 0.000712325
47 *77:3 *295:4 0.00170615

*RES
1 *77:37 *77:38 1.53017
2 *77:16 *77:17 3.62337
3 *77:4 *77:37 1.16627
4 *77:18 *77:19 9.84812
5 *602:Z *77:6 1.87612
6 *77:20 *77:21 3.93461
7 *77:27 *77:28 0.111507
8 *77:8 *77:9 2.45854
9 *77:34 *77:35 8.76103
10 *77:12 *77:36 1.3947
11 *77:2 *77:15 0.488927
12 *77:31 *77:32 0.111536
13 *77:3 *77:30 0.111507
14 *77:33 *77:34 0.111536
15 *77:6 *77:8 0.199758
16 *77:29 *77:3 14.2965
17 *77:24 *77:25 9.69291
18 *77:19 *77:20 0.111477
19 *77:28 *77:5 3.77947
20 *77:14 *77:38 2.6798
21 *77:32 *77:33 20.7467
22 *77:7 *77:9 0.199758
23 *77:21 *77:22 0.111477
24 *77:10 *77:11 0.305
25 *77:17 *77:18 0.111477
26 *77:30 *77:31 25.2592
27 *77:15 *77:16 0.111477
28 *77:22 *77:23 1.13347
29 *77:7 *77:11 1.66161
30 *77:2 *77:39 3.8823
31 *77:35 *77:36 0.11154
32 *77:13 *77:37 0.236747
33 *77:5 *77:29 0.111507
34 *77:26 *77:27 5.02458
35 *77:23 *77:24 0.111477
36 *77:25 *77:26 0.111507
37 *77:11 *77:12 0.75
38 *77:14 *77:39 0.75
39 *602:Z *767:D[31] 0.0001
*END

*D_NET *78 0.00517348

*CONN
*I *603:Z O *C 218.1 142.8 *L 0 *D DEL1
*I *767:D[16] I *C 246.985 134.265 *L 0.00183 *D sram00

*CAP
1 *78:3 0.000459212
2 *78:4 0.000104254
3 *78:5 4.85236e-05
4 *78:7 0.000196639
5 *78:8 0.000397861
6 *78:9 7.28611e-06
7 *78:10 0.0004723
8 *78:11 0.000203233
9 *78:12 3.82899e-05
10 *78:13 0.000364442
11 *78:14 2.13611e-05
12 *78:5 *319:4 0.00101645992
13 *78:4 *335:2 0.00025343498
14 *78:3 *81:3 0.000330424023
15 *78:4 *130:4 0.00125976

*RES
1 *78:2 *78:3 2.24008
2 *78:6 *78:8 2.44678
3 *78:12 *78:13 5.95747
4 *78:4 *78:5 0.883109
5 *78:6 *78:7 0.199758
6 *78:8 *78:9 0.199758
7 *78:9 *78:10 1.25516
8 *78:13 *78:14 0.11147
9 *78:10 *78:14 8.60041
10 *78:3 *78:7 1.83675
11 *78:5 *78:11 9.48645
12 *78:11 *78:12 0.11147
13 *603:Z *78:2 0.75
14 *603:Z *767:D[16] 0.0001
*END

*D_NET *79 0.0108858

*CONN
*I *604:Z O *C 116.9 145.6 *L 0 *D DEL1
*I *767:D[28] I *C 196.585 134.265 *L 0.00183 *D sram00

*CAP
1 *79:2 0.00115465
2 *79:3 0.000526986
3 *79:4 4.36769e-06
4 *79:5 0.000138151
5 *79:6 0.000723091
6 *79:7 0.000167551
7 *79:8 0.000201685
8 *79:9 0.000220697
9 *79:10 9.15747e-05
10 *79:11 3.76943e-05
11 *79:13 2.39305e-05
12 *79:14 0.000122259
13 *79:15 0.00240535
14 *79:16 9.46945e-06
15 *79:17 0.000452258
16 *79:18 2.93259e-05
17 *79:19 0.000128205
18 *79:20 0.000128902
19 *79:21 0.000170707
20 *79:2 *82:2 0.000538538984
21 *79:3 *85:8 0.000333975
22 *79:4 *80:17 0.00105209008
23 *79:5 *86:10 0.00055851
24 *79:2 *432:7 0.000190350996
25 *79:3 *77:14 0.000562008984
26 *79:4 *84:3 0.000913436016

*RES
1 *79:5 *79:19 0.304988
2 *79:12 *79:13 4.55708
3 *79:10 *79:19 1.16627
4 *79:8 *79:9 1.47601
5 *79:4 *79:11 0.955783
6 *79:4 *79:21 3.19336
7 *79:13 *79:14 0.111477
8 *79:3 *79:20 11.4436
9 *79:19 *79:20 1.84224
10 *79:17 *79:18 0.267146
11 *79:6 *79:9 5.96616
12 *79:7 *79:2 7.84187
13 *79:16 *79:17 4.86894
14 *79:15 *79:16 0.267146
15 *79:2 *79:18 2.0899
16 *79:11 *79:12 0.111477
17 *79:14 *79:15 32.57
18 *79:7 *79:8 1.16971
19 *604:Z *79:6 0.75
20 *79:3 *79:21 0.75
21 *604:Z *767:D[28] 0.0001
*END

*D_NET *80 0.0138248

*CONN
*I *605:Z O *C 120.7 145.6 *L 0 *D DEL1
*I *767:D[22] I *C 221.785 134.265 *L 0.00183 *D sram00

*CAP
1 *605:Z 0.000234744
2 *80:2 0.000140035
3 *80:3 0.000760383
4 *80:4 4.01518e-05
5 *80:5 0.000265364
6 *80:6 0.000270108
7 *80:7 0.000116574
8 *80:8 1.11269e-05
9 *80:9 1.60435e-05
10 *80:10 2.33321e-05
11 *80:11 0.000534136
12 *80:12 2.05719e-05
13 *80:13 5.73166e-05
14 *80:14 6.12413e-06
15 *80:15 0.00029564
16 *80:16 2.58766e-05
17 *80:17 0.00282637
18 *80:18 0.00028296
19 *80:19 8.35814e-05
20 *80:21 6.33114e-05
21 *80:22 2.96287e-05
22 *80:23 5.18826e-05
23 *80:24 0.000382758
24 *80:25 0.000116445
25 *80:26 0.000152672
26 *80:27 3.98068e-05
27 *80:28 0.00016975
28 *80:29 0.000480269
29 *80:30 2.27283e-05
30 *80:31 0.000672274
31 *80:32 0.000196274
32 *80:17 *77:2 0.00124437
33 *80:17 *79:4 0.00105209008
34 *80:15 *56:4 0.00098046
35 *605:Z *411:4 0.00116413
36 *80:2 *331:5 0.000995509063

*RES
1 *80:15 *80:16 1.81679
2 *605:Z *80:3 1.68368
3 *80:4 *80:18 2.75202
4 *80:26 *80:27 0.11147
5 *80:9 *80:10 0.111485
6 *80:8 *80:9 0.511011
7 *80:5 *80:6 2.66467
8 *80:13 *80:14 0.111485
9 *80:31 *80:32 0.111477
10 *80:22 *80:25 0.199758
11 *80:4 *80:5 2.49533
12 *80:17 *80:32 34.0308
13 *80:29 *80:30 0.111477
14 *80:28 *80:29 12.3377
15 *80:16 *80:26 3.80893
16 *80:23 *80:24 0.199758
17 *80:19 *80:22 0.422698
18 *80:18 *80:19 0.199758
19 *80:27 *80:2 2.06713
20 *80:6 *80:7 0.945583
21 *80:3 *80:14 8.43701
22 *80:20 *80:21 0.199758
23 *80:7 *80:8 0.111485
24 *80:30 *80:31 8.29193
25 *80:21 *80:23 0.427235
26 *80:10 *80:11 5.95785
27 *80:17 *80:20 1.06723
28 *80:2 *80:28 0.11147
29 *80:11 *80:12 0.111485
30 *80:12 *80:13 0.511011
31 *80:24 *80:25 4.00895
32 *605:Z *767:D[22] 0.0001
*END

*D_NET *81 0.0107174

*CONN
*I *606:Z O *C 124.1 145.6 *L 0 *D DEL1
*I *767:D[23] I *C 217.855 134.265 *L 0.00183 *D sram00

*CAP
1 *81:2 0.00632358
2 *81:3 0.00144602
3 *81:4 0.000461327
4 *81:5 0.00020408
5 *81:7 6.18511e-05
6 *81:8 0.00121927
7 *81:5 *411:3 0.00040795
8 *81:2 *85:6 0.000262865996
9 *81:3 *78:3 0.000330424023

*RES
1 *81:7 *81:8 0.889246
2 *81:5 *81:2 1.68368
3 *81:4 *81:5 2.54679
4 *81:2 *81:8 72.2915
5 *81:3 *81:6 9.75437
6 *81:6 *81:7 0.164745
7 *606:Z *81:4 0.75
8 *606:Z *767:D[23] 0.0001
*END

*D_NET *82 0.0113288

*CONN
*I *607:Z O *C 126.5 142.8 *L 0 *D DEL1
*I *767:D[24] I *C 213.385 134.265 *L 0.00183 *D sram00

*CAP
1 *82:2 0.000602204
2 *82:4 3.54824e-06
3 *82:5 0.000346754
4 *82:6 0.000270269
5 *82:7 1.20594e-06
6 *82:8 8.48795e-05
7 *82:9 4.98145e-05
8 *82:10 0.00019833
9 *82:11 1.92718e-05
10 *82:12 0.000379036
11 *82:13 0.000430775
12 *82:14 0.0010144
13 *82:15 7.29129e-05
14 *82:16 0.00151983
15 *82:17 7.71569e-05
16 *82:18 0.000220919
17 *82:15 *291:2 0.000974673984
18 *82:2 *79:2 0.000538538984
19 *82:12 *56:2 0.00126415
20 *82:8 *83:2 0.00249341984
21 *82:6 *137:3 0.00055494
22 *82:8 *435:2 0.000211752988

*RES
1 *82:7 *82:8 0.600384
2 *82:12 *82:13 0.11147
3 *82:3 *82:6 1.35748
4 *82:4 *82:5 1.50771
5 *82:6 *82:7 0.199758
6 *82:3 *82:5 0.199758
7 *82:9 *82:18 1.78872
8 *82:10 *82:11 0.11147
9 *82:2 *82:4 0.199758
10 *82:9 *82:10 1.4226
11 *82:13 *82:14 41.7498
12 *607:Z *82:2 3.33564
13 *82:16 *82:17 0.111485
14 *82:15 *82:16 21.1768
15 *82:11 *82:12 3.53515
16 *82:14 *82:15 0.111477
17 *82:8 *82:17 1.08332
18 *607:Z *767:D[24] 0.0001
*END

*D_NET *83 0.0105502

*CONN
*I *608:Z O *C 123.7 139.2 *L 0 *D DEL1
*I *767:D[25] I *C 209.455 134.265 *L 0.00183 *D sram00

*CAP
1 *83:2 0.0037355
2 *83:3 2.1603e-05
3 *83:4 9.57601e-05
4 *83:5 8.20801e-06
5 *83:6 0.000127167
6 *83:7 0.000866059
7 *83:8 8.31061e-05
8 *83:2 *55:4 0.00115875992
9 *83:2 *84:5 0.000731511016
10 *83:2 *434:3 0.000380215
11 *83:2 *143:4 0.000432128008
12 *83:2 *82:8 0.00249341984
13 *83:2 *130:9 0.000416783008

*RES
1 *83:6 *83:7 0.11147
2 *83:4 *83:5 0.11147
3 *83:3 *83:4 2.20067
4 *83:2 *83:7 62.8676
5 *608:Z *83:2 3.70666
6 *83:5 *83:6 3.00081
7 *83:3 *83:8 1.63311
8 *608:Z *767:D[25] 0.0001
*END

*D_NET *84 0.0106844

*CONN
*I *609:Z O *C 135.9 145.6 *L 0 *D DEL1
*I *767:D[26] I *C 204.985 134.265 *L 0.00183 *D sram00

*CAP
1 *84:2 0.000734104
2 *84:3 0.00228516
3 *84:4 0.000164513
4 *84:5 0.000276025
5 *84:6 0.000807085
6 *84:7 4.43538e-05
7 *84:8 0.00018812
8 *84:9 3.04409e-05
9 *84:11 0.000256778
10 *84:13 0.000126157
11 *84:14 2.83836e-05
12 *84:15 0.000207716
13 *84:16 6.07423e-05
14 *84:17 8.49068e-05
15 *84:18 0.000125111
16 *84:19 0.000153041
17 *84:20 1.42964e-06
18 *84:21 0.000127238
19 *84:22 0.000124762
20 *84:3 *79:4 0.000913436016
21 *84:2 *343:3 0.000681357969
22 *84:3 *86:15 0.000391273008
23 *84:4 *130:9 0.00214076
24 *84:5 *83:2 0.000731511016

*RES
1 *84:21 *84:22 0.111477
2 *84:10 *84:5 1.35638
3 *84:11 *84:14 1.2053
4 *84:18 *84:19 5.34741
5 *84:7 *84:13 1.85553
6 *84:13 *84:16 0.199758
7 *84:2 *84:8 1.47945
8 *84:4 *84:9 0.883109
9 *84:3 *84:22 29.8837
10 *84:10 *84:11 0.199758
11 *84:19 *84:20 0.111477
12 *84:17 *84:18 4.98745
13 *609:Z *84:6 1.91668
14 *84:6 *84:8 3.38456
15 *84:15 *84:16 1.83838
16 *84:3 *84:12 0.600714
17 *84:9 *84:17 3.72874
18 *84:5 *84:12 0.199758
19 *84:20 *84:21 3.15651
20 *84:14 *84:15 0.199758
21 *84:7 *84:2 7.99361
22 *609:Z *767:D[26] 0.0001
*END

*D_NET *85 0.0070506

*CONN
*I *610:Z O *C 139.3 145.6 *L 0 *D DEL1
*I *767:D[29] I *C 192.655 134.265 *L 0.00183 *D sram00

*CAP
1 *85:2 0.000569809
2 *85:3 0.000108719
3 *85:4 2.66978e-05
4 *85:5 7.54738e-05
5 *85:6 0.00185737
6 *85:7 0.000135218
7 *85:8 0.000145194
8 *85:9 0.00109232
9 *85:10 2.0406e-06
10 *85:11 8.34095e-05
11 *85:12 0.000276076
12 *85:13 9.07783e-05
13 *85:14 9.06933e-07
14 *85:15 4.01601e-05
15 *85:16 9.50579e-05
16 *85:18 0.000105714
17 *85:16 *245:3 0.00024314
18 *85:6 *288:2 0.00025704
19 *85:8 *79:3 0.000333975
20 *85:4 *223:6 0.000276203008
21 *85:6 *81:2 0.000262865996
22 *85:6 *132:2 0.000724705
23 *85:2 *247:5 0.000247686992

*RES
1 *85:8 *85:9 15.4283
2 *85:5 *85:13 1.16627
3 *85:13 *85:14 1.19613
4 *85:7 *85:13 0.304988
5 *85:11 *85:17 1.51485
6 *85:9 *85:10 0.112052
7 *85:10 *85:11 3.93771
8 *85:14 *85:15 0.199968
9 *85:8 *85:15 1.82634
10 *85:17 *85:18 0.199968
11 *85:2 *85:16 1.82681
12 *85:12 *85:2 6.23316
13 *85:6 *85:12 22.8941
14 *85:16 *85:18 1.56034
15 *610:Z *85:3 0.75
16 *85:3 *85:4 0.75
17 *85:4 *85:6 0.75
18 *610:Z *767:D[29] 0.0001
*END

*D_NET *86 0.0101202

*CONN
*I *611:Z O *C 142.7 145.6 *L 0 *D DEL1
*I *767:D[27] I *C 201.055 134.265 *L 0.00183 *D sram00

*CAP
1 *86:3 0.000163148
2 *86:4 0.00179064
3 *86:5 0.000377774
4 *86:6 5.88546e-05
5 *86:7 6.5139e-05
6 *86:9 0.000124267
7 *86:10 0.000344357
8 *86:11 1.0984e-05
9 *86:12 1.72411e-05
10 *86:13 0.000338373
11 *86:14 4.04387e-06
12 *86:15 0.000918039
13 *86:16 0.00136975
14 *86:17 7.10682e-05
15 *86:18 5.47834e-05
16 *86:19 6.3363e-05
17 *86:14 *77:4 0.000363761016
18 *86:10 *79:5 0.00055851
19 *86:15 *84:3 0.000391273008
20 *86:2 *130:9 0.000589937969
21 *86:3 *234:4 0.000617576016
22 *86:2 *322:8 0.000555065977
23 *86:3 *238:10 0.00127229

*RES
1 *86:3 *86:8 0.191618
2 *86:4 *86:5 12.0271
3 *86:12 *86:13 7.2026
4 *86:6 *86:7 0.383875
5 *86:2 *86:6 0.714254
6 *86:8 *86:9 0.199758
7 *86:13 *86:14 0.111477
8 *86:16 *86:19 20.9361
9 *86:15 *86:19 9.07596
10 *86:16 *86:17 1.60033
11 *86:3 *86:17 2.12129
12 *86:11 *86:12 0.111477
13 *86:11 *86:18 1.23893
14 *86:14 *86:15 2.72385
15 *86:7 *86:10 5.8634
16 *86:5 *86:9 1.81723
17 *86:10 *86:18 1.53017
18 *611:Z *86:4 0.75
19 *611:Z *767:D[27] 0.0001
*END

*D_NET *87 0.0151074

*CONN
*I *612:Z O *C 117.1 142 *L 0 *D DEL1
*I *767:D[14] I *C 255.385 134.265 *L 0.00183 *D sram00

*CAP
1 *87:2 0.000133062
2 *87:3 4.72393e-05
3 *87:4 8.00737e-05
4 *87:5 6.36565e-05
5 *87:6 0.00176251
6 *87:7 7.68797e-05
7 *87:8 0.000162096
8 *87:9 0.000149192
9 *87:10 0.000197773
10 *87:11 0.00203666
11 *87:12 0.000115751
12 *87:13 0.00046147
13 *87:14 9.93335e-06
14 *87:15 0.00209319
15 *87:17 0.000172923
16 *87:18 1.96751e-05
17 *87:19 0.000745832
18 *87:20 2.88418e-05
19 *87:21 0.000322275
20 *87:22 2.17512e-05
21 *87:23 0.000563071
22 *87:24 4.19373e-05
23 *87:25 0.00134247
24 *87:26 1.47563e-05
25 *87:19 *249:3 0.000661747969
26 *87:8 *294:2 0.000698863047
27 *87:19 *325:2 0.000562223008
28 *87:5 *130:2 0.000606103008
29 *87:6 *131:2 0.000201178008
30 *87:6 *139:2 0.000376302969
31 *87:11 *393:2 0.00133807

*RES
1 *87:21 *87:22 0.111507
2 *87:22 *87:23 5.95841
3 *87:18 *87:19 9.82693
4 *87:12 *87:13 3.93455
5 *87:24 *87:25 19.0321
6 *87:23 *87:24 0.111507
7 *87:4 *87:5 0.105039
8 *87:6 *87:7 4.52728
9 *87:9 *87:10 0.112104
10 *87:5 *87:9 3.52906
11 *87:13 *87:14 0.111477
12 *87:25 *87:26 0.111507
13 *87:19 *87:20 0.111477
14 *87:17 *87:18 0.111477
15 *87:8 *87:26 1.23898
16 *87:16 *87:17 2.06718
17 *87:15 *87:16 0.111477
18 *87:11 *87:12 0.11147
19 *87:20 *87:21 4.55711
20 *87:14 *87:15 21.3639
21 *87:3 *87:8 1.52807
22 *87:6 *87:10 11.7907
23 *87:7 *87:11 28.4714
24 *612:Z *87:2 0.75
25 *87:2 *87:3 0.75
26 *612:Z *767:D[14] 0.0001
*END

*D_NET *88 0.00416916

*CONN
*I *613:Z O *C 221.1 139.2 *L 0 *D DEL1
*I *767:D[15] I *C 251.455 134.265 *L 0.00183 *D sram00

*CAP
1 *88:2 0.000824502
2 *88:3 0.000280978
3 *88:4 1.63785e-05
4 *88:5 0.000431185
5 *88:6 5.98868e-06
6 *88:7 6.75534e-05
7 *88:8 0.000354042
8 *88:9 0.000140747
9 *88:10 9.982e-05
10 *88:11 0.000845837031
11 *88:12 1.62495e-05
12 *88:13 0.000128253
13 *88:14 7.51167e-06
14 *88:15 0.000458986
15 *88:16 5.4479e-05
16 *88:17 0.000379004
17 *88:18 1.81726e-05
18 *88:19 3.94685e-05

*RES
1 *88:12 *88:13 0.909211
2 *88:5 *88:6 0.11147
3 *88:4 *88:5 3.77888
4 *88:2 *88:6 1.55014
5 *88:8 *88:18 2.1587
6 *88:10 *88:11 9.22537
7 *88:9 *88:10 0.267084
8 *88:13 *88:14 0.11147
9 *88:17 *88:18 0.11147
10 *88:9 *88:19 1.20904
11 *613:Z *88:2 4.37984
12 *88:16 *88:17 2.22274
13 *88:15 *88:16 0.11147
14 *88:11 *88:12 0.267084
15 *88:14 *88:15 2.96956
16 *88:3 *88:8 3.10628
17 *88:3 *88:4 0.11147
18 *88:7 *88:19 0.75
19 *613:Z *767:D[15] 0.0001
*END

*D_NET *89 0.00102942

*CONN
*I *614:Z O *C 48.9 139.2 *L 0 *D DEL0
*I *679:I I *C 51.9 141.6 *L 0.00105 *D DEL1

*CAP
1 *614:Z 0.000667428047
2 *89:2 0.000362001

*RES
1 *614:Z *89:2 5.34417009
2 *679:I *89:2 2.79
*END

*D_NET *90 0.00433029

*CONN
*I *615:Z O *C 141.7 142.8 *L 0 *D DEL0
*I *683:I I *C 168.7 143.2 *L 0.00105 *D DEL1

*CAP
1 *683:I 0.000139043
2 *90:2 3.82304e-05
3 *90:3 0.00242539
4 *90:4 0.00103618
5 *90:5 0.000691404

*RES
1 *90:2 *90:4 8.21908
2 *90:4 *90:5 2.16286
3 *90:3 *90:5 14.3612003
4 *683:I *90:2 1.96673
5 *615:Z *90:3 0.750098
*END

*D_NET *91 0.00430848

*CONN
*I *616:Z O *C 111.9 142 *L 0 *D DEL015
*I *675:I I *C 86.7 143.2 *L 0.00105 *D DEL1

*CAP
1 *675:I 0.000653198
2 *616:Z 0.000370729
3 *91:2 0.000515785
4 *91:3 0.000584169
5 *91:4 0.000358719
6 *91:5 0.000199818
7 *91:6 0.00162611

*RES
1 *91:2 *91:3 3.59737
2 *616:Z *91:2 2.23417
3 *91:5 *91:6 3.11617
4 *91:3 *91:4 3.9012
5 *675:I *91:6 12.4601002
6 *91:4 *91:5 2.80132
*END

*D_NET *92 0.00378092

*CONN
*I *617:Z O *C 199.7 145.6 *L 0 *D DEL015
*I *821:D I *C 181.7 139.6 *L 0.000971 *D DFCNQD1

*CAP
1 *821:D 0.000621772
2 *617:Z 0.000519038
3 *92:2 0.000305586
4 *92:3 0.000284448
5 *92:4 0.000373815
6 *92:5 0.00138391
7 *92:6 0.000292324

*RES
1 *617:Z *92:3 4.20451
2 *92:5 *92:6 4.09182
3 *92:4 *92:5 3.32287
4 *821:D *92:2 3.55105
5 *92:3 *92:4 4.09023
6 *92:2 *92:6 4.34953022
*END

*D_NET *93 0.00354657

*CONN
*I *618:Z O *C 112.9 142.8 *L 0 *D DEL0
*I *674:I I *C 87.1 145.2 *L 0.00105 *D DEL1

*CAP
1 *618:Z 0.000142178
2 *93:2 0.00120163
3 *93:3 0.00138326
4 *93:4 9.27028e-05
5 *93:5 0.000674755
6 *93:6 5.20503e-05

*RES
1 *93:5 *93:6 0.111456
2 *93:3 *93:6 8.00237
3 *674:I *93:3 2.54525
4 *618:Z *93:2 1.23897
5 *93:4 *93:5 5.22059
6 *93:2 *93:4 8.66475964
*END

*D_NET *94 0.00275777

*CONN
*I *546:I I *C 30.1 143.2 *L 0.00103 *D DEL01
*I *619:Z O *C 48.3 142 *L 0 *D DEL015

*CAP
1 *94:2 0.00275777

*RES
1 *546:I *94:2 1.37241
2 *619:Z *94:2 17.6116009
*END

*D_NET *95 0.00268444

*CONN
*I *620:Z O *C 192.9 145.6 *L 0 *D DEL015
*I *897:D I *C 180.9 145.2 *L 0.000949 *D DFCND1

*CAP
1 *897:D 0.000336721
2 *95:2 0.000322944
3 *95:3 0.000478601
4 *95:4 0.00118175992
5 *95:5 0.000364419

*RES
1 *897:D *95:5 2.90051
2 *95:4 *95:5 2.72656
3 *95:3 *95:4 7.43139982
4 *95:2 *95:3 3.67012
5 *620:Z *95:2 2.58936
*END

*D_NET *96 0.00222795

*CONN
*I *621:Z O *C 104.1 145.6 *L 0 *D DEL0
*I *677:I I *C 91.9 145.2 *L 0.00105 *D DEL1

*CAP
1 *96:2 0.00222795016

*RES
1 *677:I *96:2 2.43363
2 *621:Z *96:2 14.4453001
*END

*D_NET *97 0.00235443

*CONN
*I *622:Z O *C 101.5 142.8 *L 0 *D DEL015
*I *678:I I *C 86.7 141.6 *L 0.00105 *D DEL1

*CAP
1 *678:I 0.000461902
2 *97:2 0.0009874
3 *97:3 0.00090512

*RES
1 *622:Z *97:2 0.949645
2 *678:I *97:3 10.1976004
3 *97:2 *97:3 5.68169
*END

*D_NET *98 0.00321396

*CONN
*I *623:Z O *C 99.1 142.8 *L 0 *D DEL015
*I *692:I I *C 79.7 141.6 *L 0.00105 *D DEL1

*CAP
1 *692:I 0.000363666
2 *98:2 0.000371667
3 *98:3 0.00110242
4 *98:4 0.00137619

*RES
1 *98:2 *98:3 7.57549
2 *623:Z *98:2 1.83931
3 *98:3 *98:4 7.65244007
4 *692:I *98:4 3.6276
*END

*D_NET *99 0.00271833

*CONN
*I *624:Z O *C 97.5 145.6 *L 0 *D DEL015
*I *680:I I *C 83.7 145.2 *L 0.00105 *D DEL1

*CAP
1 *624:Z 0.000221439
2 *99:2 8.70385e-05
3 *99:3 0.00240983016

*RES
1 *99:2 *99:3 13.8709002
2 *680:I *99:3 3.18369
3 *624:Z *99:2 1.37236
*END

*D_NET *100 0.00311433

*CONN
*I *625:Z O *C 145.3 145.6 *L 0 *D DEL0
*I *684:I I *C 160.1 143.2 *L 0.00105 *D DEL1

*CAP
1 *100:2 0.00160726
2 *100:3 0.000568789
3 *100:4 0.000938286

*RES
1 *625:Z *100:2 1.15326
2 *100:3 *100:4 5.41072
3 *684:I *100:3 4.07954
4 *100:2 *100:4 9.29870987
*END

*D_NET *101 0.000633309

*CONN
*I *626:Z O *C 32.7 142 *L 0 *D DEL0
*I *720:I I *C 30.1 139.6 *L 0.00105 *D DEL1

*CAP
1 *101:2 0.000633309023

*RES
1 *626:Z *101:2 1.37246
2 *720:I *101:2 4.73996019
*END

*D_NET *102 0.000649949

*CONN
*I *627:Z O *C 39.9 142.8 *L 0 *D DEL0
*I *703:I I *C 37.7 141.6 *L 0.00105 *D DEL1

*CAP
1 *703:I 0.000369565
2 *627:Z 9.98308e-05
3 *102:2 0.000180556

*RES
1 *703:I *102:2 5.05603981
2 *627:Z *102:2 1.50001
*END

*D_NET *103 0.00120522

*CONN
*I *628:Z O *C 28.3 142.8 *L 0 *D DEL0
*I *706:I I *C 25.9 139.6 *L 0.00105 *D DEL1

*CAP
1 *628:Z 0.0003655
2 *103:2 0.000839721016

*RES
1 *706:I *103:2 3.94403
2 *628:Z *103:2 5.06687021
*END

*D_NET *104 0.000974608

*CONN
*I *629:Z O *C 36.7 142.8 *L 0 *D DEL0
*I *707:I I *C 34.3 139.6 *L 0.00105 *D DEL1

*CAP
1 *104:2 0.000974607969

*RES
1 *629:Z *104:2 2.78916
2 *707:I *104:2 4.89555979
*END

*D_NET *105 0.000666099

*CONN
*I *630:Z O *C 20.3 142 *L 0 *D DEL0
*I *704:I I *C 16.9 139.6 *L 0.00105 *D DEL1

*CAP
1 *105:2 0.000666098984

*RES
1 *630:Z *105:2 1.37245
2 *704:I *105:2 6.11246014
*END

*D_NET *106 0.000848364

*CONN
*I *631:Z O *C 12.5 142.8 *L 0 *D DEL0
*I *705:I I *C 9.9 139.6 *L 0.00105 *D DEL1

*CAP
1 *106:2 0.000555280977
2 *106:3 0.000293083

*RES
1 *106:2 *106:3 2.77314
2 *705:I *106:3 2.25002
3 *631:Z *106:2 3.50755
*END

*D_NET *107 0.00154996

*CONN
*I *632:Z O *C 156.3 145.6 *L 0 *D DEL0
*I *687:I I *C 159.9 141.6 *L 0.00105 *D DEL1

*CAP
1 *687:I 0.000264152
2 *107:2 0.00029767
3 *107:3 0.000988137031

*RES
1 *107:2 *107:3 4.86250019
2 *687:I *107:2 3.84067
3 *632:Z *107:3 1.96686
*END

*D_NET *108 0.000814448

*CONN
*I *633:Z O *C 85.3 142 *L 0 *D DEL015
*I *691:I I *C 81.9 143.2 *L 0.00105 *D DEL1

*CAP
1 *691:I 0.000377254
2 *633:Z 0.000437193984

*RES
1 *633:Z *691:I 7.31834
*END

*D_NET *109 0.0050761

*CONN
*I *550:Z O *C 34.1 142.8 *L 0 *D DEL01
*I *696:I I *C 64.5 141.6 *L 0.00105 *D DEL1

*CAP
1 *696:I 1.73417e-06
2 *109:2 0.00113492
3 *109:3 0.00123530992
4 *109:4 0.000499006
5 *109:5 0.000612311
6 *109:6 0.000114738
7 *109:2 *315:7 0.000199020996
8 *109:3 *374:6 0.000894483984
9 *696:I *857:A1 0.000206172012
10 *109:2 *304:8 0.0001784

*RES
1 *109:3 *109:6 17.6032009
2 *109:5 *109:2 7.84242
3 *109:2 *109:6 2.61727
4 *696:I *109:5 4.91222
5 *109:4 *109:3 3.13863
6 *550:Z *109:4 0.749941
*END

*D_NET *110 0.0056957

*CONN
*I *555:I I *C 37.1 145.2 *L 0.00103 *D DEL01
*I *635:Z O *C 72.9 139.2 *L 0 *D DEL015

*CAP
1 *555:I 0.000148629
2 *110:2 0.00214594
3 *110:3 0.000215265
4 *110:4 1.08713e-05
5 *110:5 0.00103428
6 *555:I *847:A2 0.000174666992
7 *110:2 *271:3 0.000571781992
8 *110:2 *300:2 0.000225985
9 *110:2 *223:5 0.000261165
10 *110:2 *17:2 0.000238050996
11 *110:2 *377:2 0.00066906

*RES
1 *110:3 *110:5 6.02377
2 *110:2 *110:3 29.6711006
3 *555:I *110:2 2.14782
4 *110:4 *110:5 1.14952
5 *635:Z *110:4 1.49994
*END

*D_NET *111 0.000846877

*CONN
*I *636:Z O *C 62.7 142 *L 0 *D DEL015
*I *699:I I *C 60.5 139.6 *L 0.00105 *D DEL1

*CAP
1 *111:2 0.000846876953

*RES
1 *636:Z *111:2 1.21681
2 *699:I *111:2 5.79542017
*END

*D_NET *112 0.0111848

*CONN
*I *553:I I *C 38.3 139.6 *L 0.00103 *D DEL01
*I *637:Z O *C 80.9 139.2 *L 0 *D DEL015

*CAP
1 *637:Z 0.000225023
2 *112:2 0.000499277
3 *112:3 0.00172438
4 *112:4 0.000620893
5 *112:5 1.4235e-05
6 *112:2 *309:2 0.00402102
7 *112:2 *311:2 0.00407999

*RES
1 *112:2 *112:4 4.46453
2 *112:2 *112:3 58.2495003
3 *112:3 *112:5 3.23974
4 *637:Z *112:4 7.17186
5 *553:I *112:5 0.750161
*END

*D_NET *113 0.000903626

*CONN
*I *638:Z O *C 57.7 145.6 *L 0 *D DEL015
*I *698:I I *C 55.3 141.6 *L 0.00105 *D DEL1

*CAP
1 *638:Z 0.000342536
2 *113:2 0.000561091016

*RES
1 *698:I *113:2 3.65056
2 *638:Z *113:2 4.45966005
*END

*D_NET *114 0.00423263

*CONN
*I *639:Z O *C 194.7 142.8 *L 0 *D DEL0
*I *682:I I *C 173.1 145.2 *L 0.00105 *D DEL1

*CAP
1 *682:I 0.000298425
2 *639:Z 0.000465598
3 *114:2 0.000127337
4 *114:3 0.00117839
5 *114:4 0.00175685
6 *114:5 0.000372334
7 *114:6 3.36974e-05

*RES
1 *114:5 *114:6 2.64544
2 *114:2 *114:4 11.4315996
3 *114:4 *114:5 0.111462
4 *114:3 *114:6 8.14878
5 *682:I *114:3 2.68382
6 *639:Z *114:2 2.92889
*END

*D_NET *115 0.000522999

*CONN
*I *640:Z O *C 15.9 142 *L 0 *D DEL015
*I *701:I I *C 14.3 143.2 *L 0.00105 *D DEL1

*CAP
1 *640:Z 0.000522998984

*RES
1 *640:Z *701:I 4.32804
*END

*D_NET *116 0.000515567

*CONN
*I *641:Z O *C 52.5 142.8 *L 0 *D DEL015
*I *697:I I *C 50.7 145.2 *L 0.00105 *D DEL1

*CAP
1 *697:I 0.000271928008
2 *641:Z 0.000243638

*RES
1 *697:I *641:Z 4.61699
*END

*D_NET *117 0.000480334

*CONN
*I *642:Z O *C 23.5 139.2 *L 0 *D DEL015
*I *702:I I *C 21.9 141.6 *L 0.00105 *D DEL1

*CAP
1 *702:I 0.000334013984
2 *642:Z 0.000146322

*RES
1 *702:I *642:Z 4.47526
*END

*D_NET *118 0.000788824

*CONN
*I *643:Z O *C 48.9 145.6 *L 0 *D DEL015
*I *700:I I *C 46.9 143.2 *L 0.00105 *D DEL1

*CAP
1 *643:Z 0.00023248
2 *118:2 0.000556347031

*RES
1 *700:I *118:2 3.44797993
2 *643:Z *118:2 3.13504
*END

*D_NET *119 0.00262629

*CONN
*I *644:Z O *C 156.3 142.8 *L 0 *D DEL0
*I *686:I I *C 172.3 143.2 *L 0.00105 *D DEL1

*CAP
1 *686:I 0.000168031
2 *119:2 0.000833038984
3 *119:3 0.000360977
4 *119:4 0.000332224
5 *119:5 0.000513806
6 *119:6 0.000418204

*RES
1 *119:4 *119:5 2.80111
2 *119:5 *119:6 3.12842
3 *119:3 *119:4 2.64553
4 *119:2 *119:6 4.54252
5 *686:I *119:3 4.66005993
6 *644:Z *119:2 0.750035
*END

*D_NET *120 0.000503771

*CONN
*I *645:Z O *C 44.7 139.2 *L 0 *D DEL015
*I *710:I I *C 42.7 141.6 *L 0.00105 *D DEL1

*CAP
1 *710:I 0.000410246992
2 *645:Z 8.57991e-05
3 *120:2 7.73106e-06

*RES
1 *710:I *120:2 4.73992014
2 *645:Z *120:2 1.50003
*END

*D_NET *121 0.0123499

*CONN
*I *554:Z O *C 227.7 145.6 *L 0 *D DEL01
*I *685:I I *C 165.3 143.2 *L 0.00105 *D DEL1

*CAP
1 *554:Z 0.000276412
2 *685:I 0.000529684
3 *121:2 0.0010703
4 *121:3 3.36712e-05
5 *121:4 0.000941921
6 *121:5 0.000577038
7 *121:6 1.39849e-05
8 *121:7 0.00219785
9 *121:8 6.76442e-05
10 *121:2 *556:Z 0.000338606016
11 *121:4 *411:5 0.00297188
12 *121:2 *43:2 0.00333087

*RES
1 *121:5 *121:8 35.9473991
2 *121:2 *121:8 1.23909
3 *121:6 *121:7 13.5598
4 *121:5 *121:6 0.268772
5 *121:3 *121:2 15.5213
6 *554:Z *121:3 1.83917
7 *121:4 *121:7 7.80371
8 *685:I *121:4 3.49842
*END

*D_NET *122 0.00177192

*CONN
*I *647:Z O *C 157.1 142 *L 0 *D DEL0
*I *688:I I *C 168.7 141.6 *L 0.00105 *D DEL1

*CAP
1 *688:I 5.36228e-05
2 *122:2 0.000146191
3 *122:3 0.00078652
4 *122:4 0.000474468
5 *122:5 0.000311116

*RES
1 *122:3 *122:5 4.64191008
2 *688:I *122:2 1.65742
3 *122:2 *122:4 4.35129
4 *122:4 *122:5 1.67704
5 *647:Z *122:3 0.750018
*END

*D_NET *123 0.0109316

*CONN
*I *556:Z O *C 225.5 145.6 *L 0 *D DEL01
*I *689:I I *C 172.1 141.6 *L 0.00105 *D DEL1

*CAP
1 *556:Z 0.000222138
2 *689:I 0.000262881
3 *123:2 0.0031939
4 *123:4 0.000290222
5 *123:5 5.4048e-05
6 *123:6 0.000958584
7 *123:2 *568:Z 0.00348795
8 *123:2 *193:3 0.00212322
9 *556:Z *121:2 0.000338606016

*RES
1 *556:Z *123:3 1.52775
2 *123:5 *123:6 3.1422
3 *123:4 *123:5 1.27288
4 *123:3 *123:2 48.9836998
5 *689:I *123:6 9.17248
6 *123:4 *123:2 4.48982
*END

*D_NET *124 0.00741598

*CONN
*I *557:Z O *C 221.7 142 *L 0 *D DEL01
*I *690:I I *C 177.3 139.6 *L 0.00105 *D DEL1

*CAP
1 *690:I 0.000389124
2 *124:2 0.00310385
3 *124:3 0.000402669
4 *124:4 0.000574687
5 *124:2 *407:2 0.000323776992
6 *124:3 *506:2 0.00064296
7 *690:I *45:2 0.000862376953
8 *124:3 *49:7 0.00111649

*RES
1 *124:3 *124:2 34.2434006
2 *690:I *124:4 12.4311
3 *124:2 *124:4 2.92868
4 *124:3 *124:5 4.79615
5 *557:Z *124:5 0.749806
*END

*D_NET *125 0.000911856

*CONN
*I *650:Z O *C 159.7 142 *L 0 *D DEL0
*I *721:I I *C 163.3 141.6 *L 0.00105 *D DEL1

*CAP
1 *650:Z 0.000811032031
2 *125:2 0.000100824

*RES
1 *650:Z *125:2 5.88210011
2 *721:I *125:2 1.49996
*END

*D_NET *126 0.0046996

*CONN
*I *651:Z O *C 166.1 145.6 *L 0 *D DEL1
*I *767:D[30] I *C 188.185 134.265 *L 0.00183 *D sram00

*CAP
1 *126:3 0.000697684
2 *126:4 9.26472e-05
3 *126:5 4.59573e-05
4 *126:6 0.000901428
5 *126:7 0.000621256
6 *126:8 0.00218247016
7 *126:9 0.00015812

*RES
1 *126:7 *126:9 1.37414
2 *126:6 *126:8 1.21686
3 *126:2 *126:3 3.86228
4 *126:8 *126:9 16.6835
5 *126:4 *126:5 0.416267
6 *126:3 *126:6 5.41842
7 *126:5 *126:7 3.62799
8 *651:Z *126:2 0.75
9 *651:Z *767:D[30] 0.0001
*END

*D_NET *127 0.000339148

*CONN
*I *652:Z O *C 11.9 142 *L 0 *D BUFFD1
*I *876:A1 I *C 10.9 141.6 *L 0.000556 *D CKAN2D0

*CAP
1 *876:A1 0.000249505996
2 *652:Z 8.96409e-05

*RES
1 *652:Z *876:A1 3.4053
*END

*D_NET *128 0.00957859

*CONN
*I *653:Z O *C 252.5 142.8 *L 0 *D CKBD0
*I *739:I I *C 179.9 143.2 *L 0.00105 *D DEL1

*CAP
1 *739:I 0.00042563
2 *653:Z 0.000150779
3 *128:3 0.00206635
4 *128:4 0.000274473
5 *128:5 0.000483205
6 *128:6 0.0001131
7 *128:7 0.000956351
8 *128:8 0.000329872
9 *128:9 0.000608286
10 *128:3 *568:I 0.00145004
11 *128:3 *132:3 0.000618305039
12 *128:2 *136:2 0.00147004
13 *653:Z *138:2 0.00063215

*RES
1 *128:6 *128:7 8.60316
2 *128:2 *128:3 35.7457008
3 *653:Z *128:2 1.37232
4 *128:8 *128:9 1.71158
5 *128:7 *128:8 0.111269
6 *128:5 *128:6 4.97601
7 *128:3 *128:4 0.131996
8 *739:I *128:9 8.99642
9 *128:4 *128:5 3.92714
*END

*D_NET *129 0.00314766

*CONN
*I *654:Z O *C 169.5 145.6 *L 0 *D DEL1
*I *897:CDN I *C 183.3 145.2 *L 0.00167 *D DFCND1

*CAP
1 *897:CDN 0.000311753
2 *654:Z 0.00082936
3 *129:2 0.000138343
4 *129:3 0.00182973
5 *129:4 3.84736e-05

*RES
1 *129:2 *129:3 11.5065002
2 *129:3 *129:4 0.11149
3 *654:Z *129:4 5.37611
4 *897:CDN *129:2 2.00173
*END

*D_NET *130 0.030414

*CONN
*I *566:Z O *C 41.9 145.6 *L 0 *D BUFFD2
*I *767:D[7] I *C 285.055 134.265 *L 0.00183 *D sram00

*CAP
1 *566:Z 9.63226e-05
2 *130:2 5.04091e-05
3 *130:3 0.000487274
4 *130:4 3.82543e-05
5 *130:5 0.00136333
6 *130:6 0.000746063
7 *130:7 0.00191351
8 *130:8 0.000174704
9 *130:9 0.0003666
10 *130:10 0.000114014
11 *130:11 0.00154262
12 *130:12 0.000651655
13 *130:13 1.00735e-05
14 *130:14 0.000145982
15 *130:15 6.19811e-05
16 *130:16 6.52696e-05
17 *130:17 9.50738e-05
18 *130:18 0.000630759
19 *130:19 1.65255e-05
20 *130:21 0.000488315
21 *130:22 0.000114596
22 *130:23 0.000231607
23 *130:24 0.000369431
24 *130:25 0.00039424
25 *130:26 0.000243803
26 *130:27 9.45743e-05
27 *130:28 8.20032e-06
28 *130:29 0.000293713
29 *130:30 5.32813e-06
30 *130:32 0.000140155
31 *130:34 0.000239558
32 *130:35 0.000348992
33 *130:36 1.82322e-05
34 *130:37 0.000207797
35 *130:38 1.95642e-06
36 *130:39 0.000105314
37 *130:40 3.28013e-05
38 *130:41 7.14302e-05
39 *130:42 0.000245593
40 *130:43 4.57053e-05
41 *130:44 0.000162425
42 *130:45 1.66504e-05
43 *130:46 0.00024039
44 *130:47 2.37268e-06
45 *130:48 0.0002048
46 *130:49 4.7412e-05
47 *130:50 0.00272796
48 *130:51 1.11974e-05
49 *130:52 0.000268529
50 *130:53 1.16969e-05
51 *130:54 0.000150728
52 *130:55 3.30094e-05
53 *130:9 *319:2 0.000750556016
54 *130:7 *55:4 0.000824692031
55 *130:9 *83:2 0.000416783008
56 *130:9 *84:4 0.00214076
57 *130:49 *430:2 0.0014976
58 *130:49 *431:3 0.00121865
59 *130:2 *87:5 0.000606103008
60 *130:3 *322:3 0.00136278
61 *130:4 *78:4 0.00125976
62 *130:5 *316:4 0.000713982969
63 *130:6 *60:9 0.000559363008
64 *130:7 *291:3 0.000895488984
65 *130:8 *59:3 0.000302206016
66 *130:9 *86:2 0.000589937969
67 *130:10 *54:8 0.00112654992

*RES
1 *130:40 *130:41 3.0009
2 *130:38 *130:39 1.0671
3 *130:20 *130:21 2.35628
4 *130:8 *130:22 0.11147
5 *130:23 *130:4 0.11147
6 *130:28 *130:29 3.93449
7 *130:16 *130:2 0.105039
8 *130:45 *130:46 2.02337
9 *130:37 *130:38 0.111477
10 *130:3 *130:36 0.111477
11 *130:12 *130:15 5.10749
12 *130:19 *130:6 10.7815
13 *130:33 *130:34 9.61598
14 *130:12 *130:13 0.492805
15 *566:Z *130:13 0.949758
16 *130:52 *130:53 0.111536
17 *130:51 *130:52 3.00163
18 *130:31 *130:32 1.44468
19 *130:2 *130:17 1.14933
20 *130:46 *130:47 0.111507
21 *130:7 *130:43 0.111507
22 *130:35 *130:3 11.1606
23 *130:48 *130:49 0.111507
24 *130:9 *130:31 0.111614
25 *130:8 *130:55 3.72874
26 *130:26 *130:10 2.48251
27 *130:22 *130:23 6.73554
28 *130:29 *130:30 0.11147
29 *130:14 *130:5 5.73608
30 *130:47 *130:48 4.09075
31 *130:39 *130:40 0.111477
32 *130:34 *130:35 3.88645
33 *130:4 *130:24 9.73739
34 *130:11 *130:15 4.32912
35 *130:21 *130:55 1.99974
36 *130:32 *130:33 0.111477
37 *130:6 *130:20 0.11147
38 *130:44 *130:45 0.111507
39 *130:41 *130:42 0.111477
40 *130:24 *130:25 5.46933
41 *130:50 *130:51 0.111536
42 *130:5 *130:53 3.57031
43 *130:42 *130:7 22.7891
44 *130:18 *130:54 6.99663
45 *130:36 *130:37 2.37842
46 *130:49 *130:50 49.4085
47 *130:43 *130:44 1.9118
48 *130:17 *130:54 1.53109
49 *130:30 *130:9 7.13601
50 *130:11 *130:14 5.79649
51 *130:27 *130:28 0.11147
52 *130:25 *130:26 6.75743
53 *130:18 *130:19 0.11147
54 *130:10 *130:27 1.60028
55 *566:Z *767:D[7] 0.0001
*END

*D_NET *131 0.00537536

*CONN
*I *594:I I *C 249.9 139.6 *L 0.000643 *D CKBD0
*I *656:Z O *C 206.5 139.2 *L 0 *D DEL1

*CAP
1 *594:I 8.35449e-06
2 *131:2 0.00251151984
3 *131:3 0.000838515
4 *131:4 0.000112747
5 *131:5 0.000407224
6 *131:6 3.54108e-05
7 *131:5 *139:3 0.000350581992
8 *131:2 *12:3 0.000167039004
9 *131:2 *87:6 0.000201178008
10 *131:2 *338:3 0.000245809004
11 *131:3 *791:A2 0.000496995977

*RES
1 *131:4 *131:2 26.6711006
2 *131:2 *131:6 0.111916
3 *131:5 *131:3 3.58295
4 *594:I *131:4 1.6995
5 *131:6 *131:3 6.57987
6 *656:Z *131:5 0.750043
*END

*D_NET *132 0.0183606

*CONN
*I *539:I I *C 285.7 145.2 *L 0.00104 *D DEL0
*I *657:Z O *C 96.7 142.8 *L 0 *D DEL1

*CAP
1 *539:I 0.000178871
2 *132:2 0.00567667
3 *132:3 0.00434358
4 *132:4 0.000916098
5 *132:5 0.000110528
6 *132:6 0.000774993
7 *132:7 0.000228072
8 *132:8 0.000123348
9 *132:9 0.00011226
10 *132:2 *85:6 0.000724705
11 *132:3 *332:3 0.00131477
12 *132:3 *128:3 0.000618305039
13 *132:3 *136:2 0.000360190977
14 *132:3 *48:2 0.000714767969
15 *132:3 *138:4 0.000300115996
16 *132:4 *234:12 0.00186333

*RES
1 *132:7 *132:8 2.02265
2 *132:5 *132:2 1.37286
3 *539:I *132:3 2.71642
4 *132:2 *132:9 58.3944
5 *132:5 *132:6 4.88686
6 *132:4 *132:8 5.55741
7 *132:3 *132:9 80.0463028
8 *132:6 *132:7 0.111148
9 *657:Z *132:4 0.749946
*END

*D_NET *133 0.00760136

*CONN
*I *593:I I *C 251.5 139.6 *L 0.000643 *D CKBD0
*I *658:Z O *C 203.1 139.2 *L 0 *D DEL1

*CAP
1 *133:2 0.00141732
2 *133:3 0.000531741
3 *133:4 0.000452067
4 *133:6 4.90931e-06
5 *133:7 0.000319084
6 *133:9 0.00110691
7 *133:10 0.000856469
8 *133:11 7.1823e-05
9 *133:2 *59:3 0.000257476992
10 *133:3 *55:5 0.000799011016
11 *133:4 *49:4 0.00178455

*RES
1 *133:4 *133:2 19.9866009
2 *133:9 *133:10 1.25496
3 *133:8 *133:9 10.9591
4 *133:7 *133:8 0.042086
5 *133:6 *133:7 4.99543
6 *133:5 *133:3 10.172
7 *133:2 *133:5 0.042086
8 *133:10 *133:12 4.46661
9 *133:3 *133:6 0.042086
10 *133:4 *133:11 4.4846
11 *658:Z *133:12 0.749924
12 *593:I *133:11 0.749924
*END

*D_NET *134 0.00625793

*CONN
*I *592:I I *C 248.7 141.6 *L 0.000643 *D CKBD0
*I *659:Z O *C 200.1 142 *L 0 *D DEL1

*CAP
1 *592:I 0.000311438
2 *659:Z 0.000244152
3 *134:2 5.20614e-05
4 *134:3 0.00203206984
5 *134:4 0.000373577
6 *134:5 0.000228432
7 *134:6 0.000384089
8 *134:3 *48:2 0.000443711992
9 *134:3 *454:3 0.000347445
10 *659:Z *476:3 0.00147088
11 *134:2 *504:3 0.000370093984

*RES
1 *659:Z *134:6 4.45434
2 *592:I *134:2 2.27566
3 *134:5 *134:6 1.86737
4 *134:2 *134:3 31.0058002
5 *134:4 *134:5 3.73474
6 *134:3 *134:4 0.111654
*END

*D_NET *135 0.0177283

*CONN
*I *538:I I *C 268.9 141.6 *L 0.00104 *D DEL0
*I *660:Z O *C 96.7 142 *L 0 *D DEL1

*CAP
1 *135:2 1.05019e-05
2 *135:3 0.00791081
3 *135:4 0.00031228
4 *135:5 0.000280412
5 *135:6 8.47393e-05
6 *135:7 3.22299e-05
7 *135:8 0.000428887
8 *135:9 0.000118297
9 *135:10 0.000516765
10 *135:3 *48:4 0.000398443984
11 *135:3 *392:4 0.00149274
12 *135:2 *504:5 0.000317142012
13 *135:2 *228:5 0.000454161992
14 *135:3 *238:14 0.000506195
15 *135:3 *393:2 0.0027629
16 *135:3 *5:4 0.00210183

*RES
1 *135:8 *135:9 0.111083
2 *135:7 *135:8 5.18022
3 *135:6 *135:7 0.111083
4 *135:5 *135:3 54.8872
5 *135:9 *135:10 3.46888
6 *135:3 *135:6 72.0786972
7 *135:4 *135:10 3.62835
8 *538:I *135:2 1.50017
9 *660:Z *135:4 0.750087
10 *135:2 *135:5 0.750087
*END

*D_NET *136 0.00571778

*CONN
*I *588:I I *C 264.5 145.2 *L 0.000643 *D CKBD0
*I *661:Z O *C 214.7 145.6 *L 0 *D DEL1

*CAP
1 *588:I 0.000124879
2 *136:2 0.00237285
3 *136:3 5.82939e-05
4 *136:4 0.000125459
5 *136:5 9.41392e-07
6 *136:2 *132:3 0.000360190977
7 *136:2 *192:3 0.00120512
8 *136:2 *128:2 0.00147004

*RES
1 *136:2 *136:5 30.9745998
2 *136:4 *136:5 0.111542
3 *136:3 *136:4 7.51348
4 *588:I *136:3 3.21155
5 *661:Z *136:2 0.750072
*END

*D_NET *137 0.011917

*CONN
*I *584:I I *C 179.1 143.2 *L 0.000643 *D CKBD0
*I *662:Z O *C 94.9 139.2 *L 0 *D DEL1

*CAP
1 *137:2 0.000115161
2 *137:3 0.00315778
3 *137:4 0.000339702
4 *137:5 0.000467969
5 *137:7 0.000437227
6 *137:8 6.84222e-05
7 *137:9 0.000408413
8 *137:10 0.000510034
9 *137:11 0.000519768
10 *137:12 0.000465849
11 *137:5 *302:2 0.000907846953
12 *137:2 *143:4 0.00135123
13 *137:3 *82:6 0.00055494
14 *137:2 *407:7 0.00241727
15 *137:3 *435:3 0.000195363008

*RES
1 *137:5 *137:6 0.137194
2 *137:2 *137:3 53.8390007
3 *137:8 *137:9 6.13756
4 *137:7 *137:8 2.41937
5 *137:3 *137:4 3.75023
6 *137:4 *137:5 4.72208
7 *137:6 *137:7 9.37023
8 *137:10 *137:13 3.24007
9 *137:11 *137:12 3.12341
10 *584:I *137:12 3.75927
11 *137:9 *137:10 1.35058
12 *137:2 *137:11 1.35058
13 *662:Z *137:13 0.750046
*END

*D_NET *138 0.00599022

*CONN
*I *589:I I *C 262.5 143.2 *L 0.000643 *D CKBD0
*I *663:Z O *C 214.7 142.8 *L 0 *D DEL1

*CAP
1 *589:I 0.000130537
2 *138:2 0.000445109
3 *138:3 2.88128e-05
4 *138:4 0.00166954
5 *138:5 0.000608585
6 *138:6 9.15846e-05
7 *138:7 0.000965625
8 *138:8 0.000432396
9 *138:10 0.000664402
10 *138:11 2.1374e-05
11 *138:4 *132:3 0.000300115996
12 *138:2 *653:Z 0.00063215

*RES
1 *138:7 *138:8 0.111563
2 *138:6 *138:7 12.8044996
3 *589:I *138:3 1.62342
4 *138:9 *138:10 6.89109
5 *138:4 *138:11 9.84702
6 *138:3 *138:5 6.06287
7 *138:10 *138:11 0.111563
8 *138:8 *138:9 2.48427
9 *138:2 *138:6 3.19898
10 *138:5 *138:2 0.111563
11 *663:Z *138:4 0.750068
*END

*D_NET *139 0.00532491

*CONN
*I *587:I I *C 240.5 139.6 *L 0.00182 *D DEL005
*I *664:Z O *C 199.7 139.2 *L 0 *D DEL1

*CAP
1 *139:2 0.000165625
2 *139:3 0.00121006
3 *139:4 0.000206819
4 *139:5 8.8278e-05
5 *139:6 0.0008758
6 *139:7 0.000269155
7 *139:8 0.000148121
8 *139:9 1.17064e-05
9 *139:2 *87:6 0.000376302969
10 *139:3 *804:B2 0.00100986
11 *139:4 *791:A2 0.000270015
12 *139:3 *201:18 0.00034258
13 *139:3 *131:5 0.000350581992

*RES
1 *139:8 *139:4 3.7788
2 *139:6 *139:7 3.11224
3 *139:5 *139:2 3.37343
4 *139:4 *139:9 0.111405
5 *139:7 *139:8 2.59528
6 *139:3 *139:9 10.7032
7 *139:2 *139:6 12.2707005
8 *664:Z *139:3 0.750068
9 *587:I *139:5 0.750068
*END

*D_NET *140 0.0134438

*CONN
*I *585:I I *C 188.9 141.6 *L 0.000643 *D CKBD0
*I *665:Z O *C 100.3 142 *L 0 *D DEL1

*CAP
1 *140:2 0.00514651
2 *140:3 0.00104807
3 *140:4 3.09411e-05
4 *140:5 0.000936243
5 *140:2 *398:4 0.000611607031
6 *140:4 *512:5 0.00214818
7 *140:2 *762:Z 0.000482028984
8 *140:3 *812:ZN 0.00033176
9 *140:2 *370:3 0.000472251992
10 *140:4 *510:6 0.00223625

*RES
1 *140:4 *140:3 8.13942
2 *140:4 *140:2 85.1165009
3 *140:2 *140:5 5.73019
4 *665:Z *140:5 0.749393
5 *585:I *140:3 1.50008
*END

*D_NET *141 0.00648038

*CONN
*I *591:I I *C 216.5 145.2 *L 0.00103 *D DEL01
*I *666:Z O *C 172.9 145.6 *L 0 *D DEL1

*CAP
1 *591:I 0.000448754
2 *141:2 5.90261e-05
3 *141:3 0.00154176
4 *141:4 1.68444e-05
5 *141:5 0.000300988
6 *141:6 6.73777e-05
7 *141:7 0.000522366
8 *141:8 0.000643194
9 *141:2 *769:A4 0.000951322031
10 *141:3 *772:A1 0.000302839004
11 *591:I *510:2 0.00162593

*RES
1 *141:6 *141:7 12.7661
2 *141:5 *141:6 1.9906
3 *141:4 *141:3 18.8465996
4 *141:7 *141:8 3.74482
5 *141:2 *141:5 6.32754
6 *141:3 *141:2 1.9328
7 *591:I *141:4 4.77664
8 *666:Z *141:8 0.749999
*END

*D_NET *142 0.0117206

*CONN
*I *586:I I *C 188.1 141.6 *L 0.000643 *D CKBD0
*I *667:Z O *C 103.7 142 *L 0 *D DEL1

*CAP
1 *586:I 0.000200499
2 *667:Z 0.000769149
3 *142:2 1.2245e-06
4 *142:3 0.00348904
5 *142:4 1.38422e-05
6 *142:5 0.00111515
7 *142:6 0.00126646
8 *142:7 0.000439278
9 *586:I *236:2 0.000724602969
10 *142:2 *240:3 0.00199916
11 *142:2 *491:2 0.00170213

*RES
1 *142:6 *142:8 5.83752
2 *667:Z *142:7 4.77633
3 *142:4 *142:5 14.3733
4 *142:2 *142:8 1.86446
5 *142:2 *142:3 64.5139008
6 *586:I *142:6 3.3263
7 *142:5 *142:7 3.27019
8 *142:3 *142:4 0.136832
*END

*D_NET *143 0.0116689

*CONN
*I *590:I I *C 187.5 139.6 *L 0.000643 *D CKBD0
*I *668:Z O *C 105.3 139.2 *L 0 *D DEL1

*CAP
1 *668:Z 0.000512098
2 *143:2 0.000610838
3 *143:3 0.000253449
4 *143:4 0.00366419
5 *143:5 0.000338715
6 *143:6 0.00048744
7 *143:8 0.000597475
8 *143:6 *299:2 0.000389950977
9 *143:8 *302:2 0.000424418008
10 *143:2 *49:2 0.000411548008
11 *143:4 *83:2 0.000432128008
12 *143:4 *137:2 0.00135123
13 *143:4 *434:2 0.000184918008
14 *143:2 *515:2 0.00201046984

*RES
1 *143:6 *143:7 0.0419031
2 *143:7 *143:8 9.6395
3 *143:5 *143:6 4.48631
4 *143:3 *143:4 58.4290009
5 *143:2 *143:9 5.61948
6 *143:2 *143:3 4.07084
7 *668:Z *143:8 4.6138
8 *143:4 *143:5 3.22743
9 *590:I *143:9 1.4996
*END

*D_NET *144 0.00486815

*CONN
*I *595:I I *C 127.5 139.6 *L 0.00103 *D DEL015
*I *669:Z O *C 93.3 142 *L 0 *D DEL1

*CAP
1 *595:I 0.000171664
2 *669:Z 0.000420934
3 *144:2 6.9984e-05
4 *144:3 0.00192868
5 *144:4 0.000268782
6 *144:5 0.000594776
7 *144:6 0.000310778
8 *144:7 0.000466109
9 *144:8 0.000636478

*RES
1 *144:7 *144:8 3.93474
2 *144:2 *144:3 13.0052004
3 *669:Z *144:8 3.36818
4 *144:6 *144:7 3.00205
5 *144:5 *144:6 3.44835
6 *144:4 *144:5 2.64565
7 *144:3 *144:4 2.60179
8 *595:I *144:2 1.96677
*END

*D_NET *145 0.00230152

*CONN
*I *596:I I *C 129.7 145.2 *L 0.00103 *D DEL015
*I *670:Z O *C 112.3 145.6 *L 0 *D DEL1

*CAP
1 *596:I 0.000189828
2 *670:Z 0.000225642
3 *145:2 4.95728e-05
4 *145:3 0.00183649

*RES
1 *145:2 *145:3 14.1788998
2 *596:I *145:2 2.43375
3 *670:Z *145:3 2.53284
*END

*D_NET *146 0.00467807

*CONN
*I *597:I I *C 130.1 143.2 *L 0.00103 *D DEL015
*I *671:Z O *C 93.3 142.8 *L 0 *D DEL1

*CAP
1 *597:I 0.000220799
2 *671:Z 0.000366347
3 *146:2 3.83001e-05
4 *146:3 0.000340709
5 *146:4 0.000447938
6 *146:5 0.000425479
7 *146:6 0.000389804
8 *146:7 0.000445406
9 *146:8 0.000141481
10 *146:9 0.00121139
11 *146:10 0.000125418
12 *146:11 0.000525

*RES
1 *146:8 *146:9 9.8484602
2 *146:7 *146:8 0.111504
3 *146:6 *146:7 4.3347
4 *146:2 *146:3 3.52922
5 *146:10 *146:11 2.96088
6 *146:5 *146:6 2.00362
7 *146:4 *146:5 2.84532
8 *597:I *146:2 2.58925
9 *671:Z *146:11 3.33161
10 *146:9 *146:10 0.933812
11 *146:3 *146:4 3.11251
*END

*D_NET *147 0.0025138

*CONN
*I *598:I I *C 120.9 141.6 *L 0.00103 *D DEL015
*I *672:Z O *C 108.9 145.6 *L 0 *D DEL1

*CAP
1 *598:I 0.000286775
2 *147:2 0.000124416
3 *147:3 0.00106583
4 *147:4 0.000573403
5 *147:5 0.000452793
6 *147:6 1.05876e-05

*RES
1 *147:2 *147:4 4.19631
2 *672:Z *147:3 1.99487
3 *147:5 *147:6 0.111476
4 *147:3 *147:6 5.50955009
5 *598:I *147:2 2.65171
6 *147:4 *147:5 3.25759
*END

*D_NET *148 0.00266152

*CONN
*I *599:I I *C 120.9 143.2 *L 0.00103 *D DEL015
*I *673:Z O *C 105.7 142.8 *L 0 *D DEL1

*CAP
1 *599:I 0.000144672
2 *148:2 0.00109028008
3 *148:3 0.000584677
4 *148:4 0.000303685
5 *148:5 0.000538194

*RES
1 *148:4 *148:5 3.32991
2 *148:2 *148:5 6.40888977
3 *148:3 *148:4 2.33439
4 *599:I *148:3 5.93264
5 *673:Z *148:2 0.749966
*END

*D_NET *149 0.00308383

*CONN
*I *674:Z O *C 90.3 145.6 *L 0 *D DEL1
*I *767:D[39] I *C 110.075 134.195 *L 0.00183 *D sram00

*CAP
1 *149:2 0.000104595
2 *149:3 4.16357e-05
3 *149:4 0.00010532
4 *149:5 0.00041857
5 *149:6 2.43749e-05
6 *149:7 0.00012813
7 *149:8 0.000974253
8 *149:10 3.70011e-05
9 *149:11 0.00124993

*RES
1 *149:10 *149:11 8.24631
2 *149:4 *149:6 1.08334
3 *149:9 *149:11 3.72957
4 *149:8 *149:9 0.111536
5 *149:7 *149:8 10.628
6 *149:6 *149:7 0.425354
7 *149:5 *149:10 2.34937
8 *149:3 *149:5 1.68368
9 *674:Z *149:2 0.75
10 *149:2 *149:3 0.75
11 *674:Z *767:D[39] 0.0001
*END

*D_NET *150 0.00267729

*CONN
*I *675:Z O *C 89.9 142.8 *L 0 *D DEL1
*I *767:D[41] I *C 101.675 134.195 *L 0.00183 *D sram00

*CAP
1 *150:3 0.000278503
2 *150:4 0.000984131953
3 *150:5 9.80152e-05
4 *150:6 0.00062709
5 *150:7 0.000326677
6 *150:8 1.79752e-05
7 *150:9 0.000314829
8 *150:10 3.00638e-05

*RES
1 *150:9 *150:10 0.111542
2 *150:2 *150:3 1.21688
3 *150:8 *150:9 2.2233
4 *150:7 *150:8 0.111542
5 *150:4 *150:5 6.17398024
6 *150:6 *150:10 5.28617
7 *150:5 *150:7 3.2624
8 *675:Z *150:2 0.749986
9 *150:3 *150:6 0.749986
10 *675:Z *767:D[41] 9.42075e-05
*END

*D_NET *151 0.00221378

*CONN
*I *600:I I *C 108.9 139.6 *L 0.00103 *D DEL015
*I *676:Z O *C 101.5 145.6 *L 0 *D DEL1

*CAP
1 *600:I 0.000425973
2 *676:Z 0.000244502
3 *151:2 5.74751e-05
4 *151:3 0.00148585

*RES
1 *151:2 *151:3 7.75352001
2 *676:Z *151:3 4.08463
3 *600:I *151:2 3.5507
*END

*D_NET *152 0.00280783

*CONN
*I *677:Z O *C 95.1 145.6 *L 0 *D DEL1
*I *767:D[40] I *C 105.605 134.195 *L 0.00183 *D sram00

*CAP
1 *152:2 0.00111666
2 *152:3 3.89515e-05
3 *152:4 0.00016591
4 *152:5 3.51006e-06
5 *152:6 0.000197433
6 *152:7 2.44341e-05
7 *152:8 9.42776e-05
8 *152:9 6.0932e-05
9 *152:10 0.000215477
10 *152:11 4.67895e-05
11 *152:12 0.000843437

*RES
1 *152:10 *152:11 0.111504
2 *152:9 *152:10 1.756
3 *152:8 *152:9 0.111504
4 *152:7 *152:8 0.822248
5 *152:6 *152:7 0.111504
6 *152:4 *152:5 0.111504
7 *152:3 *152:12 5.52345991
8 *152:3 *152:4 1.00986
9 *677:Z *152:2 4.01786
10 *152:5 *152:6 1.60042
11 *152:2 *152:11 3.88461
12 *677:Z *767:D[40] 8.42813e-05
*END

*D_NET *153 0.00192359

*CONN
*I *678:Z O *C 89.9 142 *L 0 *D DEL1
*I *767:D[42] I *C 97.205 134.195 *L 0.00183 *D sram00

*CAP
1 *153:3 0.00039542
2 *153:4 0.000629176016
3 *153:5 3.84984e-05
4 *153:6 0.000163306
5 *153:7 0.000183448
6 *153:8 3.78936e-05
7 *153:9 0.000463066
8 *153:10 1.27784e-05

*RES
1 *153:9 *153:10 0.267194
2 *153:2 *153:3 2.30614
3 *153:8 *153:9 3.62423
4 *153:7 *153:8 0.267194
5 *153:4 *153:5 3.68415999
6 *153:6 *153:10 1.86164
7 *153:5 *153:7 1.95935
8 *678:Z *153:2 0.749975
9 *153:3 *153:6 0.749975
10 *678:Z *767:D[42] 0.000112432
*END

*D_NET *154 0.00656871

*CONN
*I *679:Z O *C 55.1 142 *L 0 *D DEL1
*I *767:D[44] I *C 88.805 134.195 *L 0.00183 *D sram00

*CAP
1 *154:2 0.000818923
2 *154:3 9.32412e-05
3 *154:4 8.24457e-05
4 *154:5 0.00179564
5 *154:6 2.1317e-05
6 *154:2 *315:3 0.00031074
7 *154:2 *374:6 0.00344641

*RES
1 *154:2 *154:6 6.14591
2 *154:5 *154:6 34.1113
3 *679:Z *154:3 0.75
4 *154:3 *154:4 0.75
5 *154:4 *154:5 0.75
6 *679:Z *767:D[44] 0.0001
*END

*D_NET *155 0.00235237

*CONN
*I *680:Z O *C 86.9 145.6 *L 0 *D DEL1
*I *767:D[43] I *C 93.275 134.195 *L 0.00183 *D sram00

*CAP
1 *155:2 0.000155762
2 *155:3 6.77804e-05
3 *155:4 0.000156053
4 *155:5 0.00136341
5 *155:6 0.000192544
6 *155:7 2.6047e-05
7 *155:8 0.000262613
8 *155:9 1.51247e-05
9 *155:10 0.000112988

*RES
1 *155:9 *155:10 1.00486
2 *155:4 *155:6 2.1066
3 *155:8 *155:9 0.273253
4 *155:7 *155:8 2.84597
5 *155:6 *155:7 0.267194
6 *155:5 *155:10 1.06132
7 *155:3 *155:5 9.08847
8 *680:Z *155:2 0.75
9 *155:2 *155:3 0.75
10 *680:Z *767:D[43] 0.0001
*END

*D_NET *156 0.00087628

*CONN
*I *601:I I *C 113.7 143.2 *L 0.00103 *D DEL015
*I *681:Z O *C 110.3 142.8 *L 0 *D DEL1

*CAP
1 *601:I 0.000142157
2 *681:Z 9.45826e-05
3 *156:2 0.000639545039

*RES
1 *601:I *156:2 5.10075998
2 *681:Z *156:2 1.49997
*END

*D_NET *157 0.0019629

*CONN
*I *682:Z O *C 176.3 145.6 *L 0 *D DEL1
*I *767:A[6] I *C 173.3 134.265 *L 0.00555 *D sram00

*CAP
1 *157:2 0.000917915
2 *157:3 1.84465e-05
3 *157:4 0.000650979
4 *157:5 0.000337948
5 *157:6 3.76074e-05

*RES
1 *157:2 *157:5 3.26196
2 *157:2 *157:3 5.06973982
3 *682:Z *157:4 4.2738
4 *157:3 *157:4 0.199893
5 *157:5 *157:6 0.238572
6 *682:Z *767:A[6] 7.73581e-05
*END

*D_NET *158 0.00172906

*CONN
*I *683:Z O *C 171.9 142.8 *L 0 *D DEL1
*I *767:A[4] I *C 170.05 134.265 *L 0.00555 *D sram00

*CAP
1 *158:2 0.000484691992
2 *158:3 0.000414586
3 *158:5 5.1276e-05
4 *158:6 0.000322751
5 *158:7 7.75463e-05
6 *158:8 0.000378198

*RES
1 *158:4 *158:6 0.199751
2 *158:2 *158:4 2.72838
3 *158:7 *158:8 2.54701
4 *158:3 *158:5 0.199751
5 *158:5 *158:6 1.8272
6 *158:3 *158:8 3.07296991
7 *683:Z *158:7 0.750002
8 *683:Z *767:A[4] 9.37796e-05
*END

*D_NET *159 0.00187685

*CONN
*I *684:Z O *C 163.3 142.8 *L 0 *D DEL1
*I *767:A[0] I *C 160.755 134.195 *L 0.00555 *D sram00

*CAP
1 *159:2 0.000207355
2 *159:3 0.000412511
3 *159:4 0.000126712
4 *159:5 0.000390504
5 *159:7 6.29842e-05
6 *159:8 0.000676778047

*RES
1 *159:6 *159:8 0.199737
2 *159:4 *159:6 0.398558
3 *159:2 *159:3 3.01144
4 *159:7 *159:8 4.00182009
5 *159:3 *159:5 2.76114
6 *684:Z *159:2 0.905624
7 *159:5 *159:7 0.199737
8 *684:Z *767:A[0] 0.000122126
*END

*D_NET *160 0.00179109

*CONN
*I *685:Z O *C 168.5 142.8 *L 0 *D DEL1
*I *767:A[2] I *C 166.8 134.265 *L 0.00555 *D sram00

*CAP
1 *160:2 0.000265949
2 *160:4 0.000864661953
3 *160:5 0.000305663
4 *160:6 3.82623e-06
5 *160:7 9.55766e-05
6 *160:8 0.000255421

*RES
1 *160:6 *160:7 0.398507
2 *160:3 *160:5 1.51201
3 *160:3 *160:4 0.199731
4 *160:2 *160:8 2.26213
5 *685:Z *160:2 1.68368
6 *160:5 *160:6 0.199731
7 *160:4 *160:8 5.20873022
8 *685:Z *767:A[2] 7.94789e-05
*END

*D_NET *161 0.00170566

*CONN
*I *686:Z O *C 175.5 142.8 *L 0 *D DEL1
*I *767:A[5] I *C 171.71 134.265 *L 0.00555 *D sram00

*CAP
1 *161:2 0.00010492
2 *161:3 0.000261335
3 *161:4 0.000565341
4 *161:5 0.000196398
5 *161:6 0.000577664023

*RES
1 *161:2 *161:3 2.92868
2 *161:4 *161:5 0.846204
3 *161:3 *161:4 4.27478981
4 *161:5 *161:6 3.19526
5 *686:Z *161:2 0.749993
6 *686:Z *767:A[5] 0.000130456
*END

*D_NET *162 0.00158807

*CONN
*I *687:Z O *C 163.1 142 *L 0 *D DEL1
*I *767:A[1] I *C 161.335 134.265 *L 0.00555 *D sram00

*CAP
1 *162:2 0.000332925
2 *162:3 0.00114106
3 *162:4 0.000110493
4 *162:5 3.58676e-06

*RES
1 *162:2 *162:5 2.547
2 *162:2 *162:3 6.16259003
3 *687:Z *162:4 0.750012
4 *162:4 *162:5 0.750012
5 *687:Z *767:A[1] 9.40337e-05
*END

*D_NET *163 0.00142332

*CONN
*I *688:Z O *C 171.9 142 *L 0 *D DEL1
*I *767:A[3] I *C 168.46 134.265 *L 0.00555 *D sram00

*CAP
1 *163:3 0.000178261
2 *163:4 0.000310153
3 *163:5 0.00024862
4 *163:6 0.000372725977
5 *163:7 7.29925e-05
6 *163:8 0.000240567

*RES
1 *163:2 *163:4 1.97882
2 *163:2 *163:3 0.199761
3 *163:7 *163:8 2.77304006
4 *163:4 *163:5 0.82477
5 *163:5 *163:6 2.26156
6 *163:3 *163:8 1.67129
7 *688:Z *163:7 0.750002
8 *688:Z *767:A[3] 8.46265e-05
*END

*D_NET *164 0.00126552

*CONN
*I *689:Z O *C 175.3 142 *L 0 *D DEL1
*I *767:A[7] I *C 174.96 134.265 *L 0.00555 *D sram00

*CAP
1 *164:2 0.000774667031
2 *164:3 0.000109578
3 *164:4 0.000381275

*RES
1 *164:2 *164:3 0.309841
2 *164:3 *164:4 2.10596
3 *689:Z *164:2 4.73990011
4 *689:Z *767:A[7] 7.23251e-05
*END

*D_NET *165 0.00120376

*CONN
*I *690:Z O *C 180.5 139.2 *L 0 *D DEL1
*I *767:A[8] I *C 176.55 134.265 *L 0.00555 *D sram00

*CAP
1 *165:2 0.000739127969
2 *165:3 0.000386803
3 *165:4 2.41357e-05
4 *165:5 5.36963e-05

*RES
1 *165:2 *165:5 4.32912016
2 *165:2 *165:3 3.78184
3 *165:3 *165:4 0.292303
4 *690:Z *165:5 0.750013
5 *690:Z *767:A[8] 0.000132114
*END

*D_NET *166 0.00159301

*CONN
*I *691:Z O *C 85.1 142.8 *L 0 *D DEL1
*I *767:D[45] I *C 84.875 134.195 *L 0.00183 *D sram00

*CAP
1 *166:3 0.000405896016
2 *166:4 0.000185826
3 *166:5 0.000231683
4 *166:6 4.77401e-05
5 *166:7 0.000396779
6 *166:8 0.000325082

*RES
1 *166:4 *166:6 0.356709
2 *166:2 *166:4 0.959192
3 *166:2 *166:3 0.199769
4 *166:7 *166:8 1.99447
5 *691:Z *166:3 2.36660004
6 *166:5 *166:7 1.96454
7 *166:5 *166:6 0.598981
8 *691:Z *767:D[45] 0.000108334
*END

*D_NET *167 0.00234135

*CONN
*I *692:Z O *C 82.9 142 *L 0 *D DEL1
*I *767:D[47] I *C 76.475 134.195 *L 0.00183 *D sram00

*CAP
1 *167:2 0.000990697969
2 *167:3 0.000147875
3 *167:4 1.60392e-05
4 *167:5 0.000441857
5 *167:6 4.76793e-05
6 *167:7 0.000447526
7 *167:8 0.000232773
8 *167:9 1.6916e-05

*RES
1 *167:2 *167:3 1.14272
2 *167:7 *167:8 2.41118
3 *167:6 *167:7 2.44639
4 *167:4 *167:5 3.28538
5 *167:3 *167:4 0.137225
6 *167:5 *167:6 0.137225
7 *167:2 *167:9 5.04949999
8 *692:Z *167:9 0.749997
9 *692:Z *767:D[47] 7.70493e-05
*END

*D_NET *168 0.00135775

*CONN
*I *693:Z O *C 78.3 142 *L 0 *D DEL1
*I *767:D[46] I *C 80.405 134.195 *L 0.00183 *D sram00

*CAP
1 *168:2 5.9712e-05
2 *168:4 0.000476657
3 *168:6 0.000572025
4 *168:7 0.000234772
5 *168:8 1.45767e-05

*RES
1 *168:2 *168:3 0.292048
2 *168:7 *168:8 0.199734
3 *168:3 *168:4 1.92791
4 *693:Z *168:6 3.33327007
5 *168:5 *168:7 1.20079
6 *168:5 *168:6 0.199734
7 *168:4 *168:8 1.97318
8 *693:Z *767:D[46] 0.000101723
*END

*D_NET *169 0.0029598

*CONN
*I *694:Z O *C 56.7 142.8 *L 0 *D DEL1
*I *767:D[49] I *C 68.075 134.195 *L 0.00183 *D sram00

*CAP
1 *169:3 0.000122767
2 *169:4 6.87067e-05
3 *169:5 0.000384533
4 *169:6 0.000480078
5 *169:7 1.38027e-06
6 *169:8 0.00167511
7 *169:9 0.000212434
8 *169:10 1.47996e-05

*RES
1 *169:9 *169:10 0.111486
2 *169:8 *169:10 8.68714
3 *169:2 *169:5 1.99342
4 *169:2 *169:3 0.199758
5 *694:Z *169:8 2.14764
6 *169:6 *169:7 2.7284
7 *169:4 *169:9 2.12863
8 *169:3 *169:4 0.600384
9 *169:5 *169:7 0.199758
10 *694:Z *767:D[49] 0.0001
*END

*D_NET *170 0.00173007

*CONN
*I *695:Z O *C 75.3 142.8 *L 0 *D DEL1
*I *767:D[48] I *C 72.005 134.195 *L 0.00183 *D sram00

*CAP
1 *170:2 0.00116682008
2 *170:3 0.000289751
3 *170:4 4.26775e-05
4 *170:5 0.000215008
5 *170:6 1.58282e-05

*RES
1 *170:2 *170:3 2.87867
2 *170:3 *170:4 0.292051
3 *170:2 *170:6 6.7601
4 *170:5 *170:6 0.199758
5 *695:Z *170:5 1.35038
6 *695:Z *767:D[48] 0.0001
*END

*D_NET *171 0.00166884

*CONN
*I *696:Z O *C 67.7 142 *L 0 *D DEL1
*I *767:D[50] I *C 63.605 134.195 *L 0.00183 *D sram00

*CAP
1 *171:2 0.000513742
2 *171:3 0.000576871
3 *171:4 0.000578221016

*RES
1 *171:2 *171:3 4.05505991
2 *171:3 *171:4 3.8117
3 *696:Z *171:2 2.92862
4 *696:Z *767:D[50] 0.000123751
*END

*D_NET *172 0.00217928

*CONN
*I *697:Z O *C 53.9 145.6 *L 0 *D DEL1
*I *767:D[53] I *C 51.275 134.195 *L 0.00183 *D sram00

*CAP
1 *697:Z 8.58258e-05
2 *172:2 0.000741052969
3 *172:3 0.000206785
4 *172:4 0.000170057
5 *172:5 0.000124023
6 *172:6 0.000374886
7 *172:7 0.000476644

*RES
1 *172:4 *172:6 1.96067
2 *172:3 *172:7 3.18927
3 *172:2 *172:3 1.59151
4 *172:4 *172:5 0.783429
5 *172:2 *172:6 4.17489004
6 *697:Z *172:5 1.6047
7 *697:Z *767:D[53] 0.000127408
*END

*D_NET *173 0.00184403

*CONN
*I *698:Z O *C 58.5 142 *L 0 *D DEL1
*I *767:D[52] I *C 55.205 134.195 *L 0.00183 *D sram00

*CAP
1 *173:2 0.0011324
2 *173:3 0.000523373
3 *173:4 0.000188258

*RES
1 *173:2 *173:5 5.96984005
2 *173:2 *173:3 3.45259
3 *173:3 *173:4 1.32184
4 *698:Z *173:5 0.749965
5 *698:Z *767:D[52] 9.10925e-05
*END

*D_NET *174 0.00139139

*CONN
*I *699:Z O *C 63.7 139.2 *L 0 *D DEL1
*I *767:D[51] I *C 59.675 134.195 *L 0.00183 *D sram00

*CAP
1 *174:2 0.000240307
2 *174:3 0.000158905
3 *174:5 5.69481e-05
4 *174:6 0.000454634023
5 *174:7 5.8176e-05
6 *174:8 0.000337505
7 *174:9 5.37014e-05
8 *174:10 3.12108e-05

*RES
1 *174:9 *174:10 0.238612
2 *174:4 *174:6 0.199764
3 *174:2 *174:4 0.653739
4 *174:8 *174:9 0.510997
5 *174:7 *174:8 2.28062
6 *174:3 *174:5 0.199764
7 *174:2 *174:7 1.23892
8 *699:Z *174:3 1.20101
9 *174:5 *174:6 2.4456799
10 *699:Z *767:D[51] 0.000111954
*END

*D_NET *175 0.00198297

*CONN
*I *700:Z O *C 50.1 142.8 *L 0 *D DEL1
*I *767:D[54] I *C 46.805 134.195 *L 0.00183 *D sram00

*CAP
1 *175:2 0.000473387
2 *175:3 0.00101224992
3 *175:4 0.000497344

*RES
1 *175:2 *175:4 3.72126
2 *175:3 *175:4 6.12415981
3 *700:Z *175:2 2.37365
4 *700:Z *767:D[54] 9.34473e-05
*END

*D_NET *176 0.002007

*CONN
*I *701:Z O *C 17.5 142.8 *L 0 *D DEL1
*I *767:D[62] I *C 13.205 134.195 *L 0.00183 *D sram00

*CAP
1 *176:2 0.000266638
2 *176:3 4.7254e-05
3 *176:4 6.59322e-05
4 *176:5 0.00116246
5 *176:6 9.40469e-05
6 *176:7 0.000370671

*RES
1 *176:4 *176:6 0.349613
2 *176:2 *176:5 3.43838
3 *176:2 *176:3 0.292032
4 *176:6 *176:7 2.20068
5 *176:5 *176:7 7.24606
6 *701:Z *176:6 0.75
7 *701:Z *767:D[62] 0.0001
*END

*D_NET *177 0.00140096

*CONN
*I *702:Z O *C 25.1 142 *L 0 *D DEL1
*I *767:D[60] I *C 21.605 134.195 *L 0.00183 *D sram00

*CAP
1 *702:Z 6.92038e-05
2 *177:2 0.000931841016
3 *177:3 0.000355759
4 *177:4 4.41499e-05

*RES
1 *177:2 *177:5 5.72290993
2 *177:2 *177:3 3.44889
3 *177:3 *177:4 0.292014
4 *702:Z *177:5 0.949743
5 *702:Z *767:D[60] 8.73247e-05
*END

*D_NET *178 0.00129426

*CONN
*I *703:Z O *C 40.9 142 *L 0 *D DEL1
*I *767:D[56] I *C 38.405 134.195 *L 0.00183 *D sram00

*CAP
1 *178:2 0.00102863
2 *178:3 0.000222065
3 *178:4 2.10639e-05
4 *178:5 2.25079e-05

*RES
1 *178:2 *178:5 5.72965002
2 *178:2 *178:3 2.30809
3 *178:3 *178:4 0.292008
4 *703:Z *178:5 0.750041
5 *703:Z *767:D[56] 8.74275e-05
*END

*D_NET *179 0.000998212

*CONN
*I *704:Z O *C 20.1 139.2 *L 0 *D DEL1
*I *767:D[61] I *C 17.675 134.195 *L 0.00183 *D sram00

*CAP
1 *179:2 0.000722093984
2 *179:3 0.000230396
3 *179:4 1.76295e-06
4 *179:5 4.39526e-05

*RES
1 *179:2 *179:5 4.32912016
2 *179:2 *179:3 2.3081
3 *179:3 *179:4 0.292039
4 *704:Z *179:5 0.750013
5 *704:Z *767:D[61] 0.000132114
*END

*D_NET *180 0.00129417

*CONN
*I *705:Z O *C 13.1 139.2 *L 0 *D DEL1
*I *767:D[63] I *C 9.275 134.195 *L 0.00183 *D sram00

*CAP
1 *180:2 0.000819186953
2 *180:3 5.6825e-05
3 *180:4 0.000338312
4 *180:5 4.96625e-05
5 *180:6 3.01875e-05

*RES
1 *180:2 *180:3 1.23897
2 *180:4 *180:5 0.51101
3 *180:3 *180:4 2.12073
4 *705:Z *180:2 4.57757998
5 *180:5 *180:6 0.238602
6 *705:Z *767:D[63] 6.98483e-05
*END

*D_NET *181 0.00108578

*CONN
*I *706:Z O *C 29.1 139.2 *L 0 *D DEL1
*I *767:D[59] I *C 26.075 134.195 *L 0.00183 *D sram00

*CAP
1 *181:2 0.000752748047
2 *181:3 0.000262104
3 *181:4 4.9965e-06
4 *181:5 6.59308e-05

*RES
1 *181:2 *181:5 4.32912016
2 *181:2 *181:3 2.87851
3 *181:3 *181:4 0.292039
4 *706:Z *181:5 0.750013
5 *706:Z *767:D[59] 0.000132114
*END

*D_NET *182 0.00109089

*CONN
*I *707:Z O *C 37.5 139.2 *L 0 *D DEL1
*I *767:D[57] I *C 34.475 134.195 *L 0.00183 *D sram00

*CAP
1 *182:2 0.000757255
2 *182:3 0.000259178
3 *182:4 8.52757e-06
4 *182:5 6.59327e-05

*RES
1 *182:2 *182:5 4.32912016
2 *182:2 *182:3 2.87851
3 *182:3 *182:4 0.292039
4 *707:Z *182:5 0.750013
5 *707:Z *767:D[57] 0.000132114
*END

*D_NET *183 0.000877061

*CONN
*I *708:Z O *C 204.3 142.8 *L 0 *D DEL1
*I *756:I I *C 200.5 145.2 *L 0.00382 *D BUFFD12

*CAP
1 *756:I 0.000103441
2 *183:2 0.00068565
3 *183:3 8.79779e-05

*RES
1 *183:2 *183:3 4.75718021
2 *756:I *183:2 1.7483
3 *708:Z *183:3 0.749988
*END

*D_NET *184 0.00072033

*CONN
*I *709:Z O *C 209.1 145.6 *L 0 *D DEL1
*I *755:I I *C 205.9 143.2 *L 0.00382 *D BUFFD12

*CAP
1 *709:Z 0.000181143
2 *184:2 0.000539185

*RES
1 *755:I *184:2 2.43367
2 *709:Z *184:2 3.98982
*END

*D_NET *185 0.00148872

*CONN
*I *710:Z O *C 45.9 142 *L 0 *D DEL1
*I *767:D[55] I *C 42.875 134.195 *L 0.00183 *D sram00

*CAP
1 *185:2 0.00040697
2 *185:3 0.000295681
3 *185:4 4.35753e-05
4 *185:6 0.000341188
5 *185:7 0.000360383
6 *185:8 4.09237e-05

*RES
1 *185:2 *185:3 2.87852001
2 *185:7 *185:8 0.199761
3 *185:3 *185:4 0.292042
4 *185:2 *185:8 2.28407
5 *710:Z *185:6 2.60154
6 *185:5 *185:7 1.51252
7 *185:5 *185:6 0.199761
8 *710:Z *767:D[55] 8.78455e-05
*END

*D_NET *186 0.00118732

*CONN
*I *711:Z O *C 178.7 142 *L 0 *D DEL1
*I *820:CDN I *C 182.3 141.6 *L 0.00163 *D DFCNQD1
*I *821:CDN I *C 184.1 139.6 *L 0.00163 *D DFCNQD1

*CAP
1 *821:CDN 0.000285945
2 *186:3 0.00053673
3 *186:4 0.00036465

*RES
1 *820:CDN *186:4 1.6556
2 *186:3 *186:4 3.55115
3 *821:CDN *186:4 4.24562979
4 *711:Z *186:3 0.749995
*END

*D_NET *187 0.000526221

*CONN
*I *712:Z O *C 319.5 142 *L 0 *D DEL1
*I *753:I I *C 316.3 139.6 *L 0.00382 *D BUFFD12

*CAP
1 *187:2 8.37365e-05
2 *187:3 0.000442483008

*RES
1 *753:I *187:3 2.58928
2 *187:2 *187:3 3.09897995
3 *712:Z *187:2 0.750014
*END

*D_NET *188 0.000127683

*CONN
*I *713:Z O *C 224.5 139.2 *L 0 *D DEL1
*I *754:I I *C 225.5 139.6 *L 0.0045 *D BUFFD16

*CAP
1 *713:Z 0.000127682998

*RES
1 *713:Z *754:I 1.0152
*END

*D_NET *189 0.000894291

*CONN
*I *714:Z O *C 223.3 145.6 *L 0 *D DEL1
*I *751:I I *C 220.1 143.2 *L 0.0045 *D BUFFD16

*CAP
1 *189:2 0.000894291016

*RES
1 *714:Z *189:2 1.21688
2 *751:I *189:2 5.86740017
*END

*D_NET *190 0.00157115

*CONN
*I *715:Z O *C 199.5 142.8 *L 0 *D DEL1
*I *757:I I *C 193.5 145.2 *L 0.00382 *D BUFFD12

*CAP
1 *190:2 3.60637e-05
2 *190:3 0.00101522008
3 *190:4 0.000519856

*RES
1 *190:2 *190:4 3.00625
2 *190:2 *190:3 5.85821009
3 *757:I *190:3 2.43371
4 *715:Z *190:4 0.749975
*END

*D_NET *191 0.00116251

*CONN
*I *716:Z O *C 228.3 142.8 *L 0 *D DEL1
*I *752:I I *C 223.7 141.6 *L 0.0045 *D BUFFD16

*CAP
1 *191:2 0.00116251

*RES
1 *716:Z *191:2 1.21684
2 *752:I *191:2 6.95324993
*END

*D_NET *192 0.00795533

*CONN
*I *717:Z O *C 262.5 142 *L 0 *D DEL0
*I *772:A4 I *C 200.9 143.2 *L 0.00102 *D ND4D1

*CAP
1 *772:A4 0.000435307
2 *717:Z 8.44798e-05
3 *192:2 0.000227909
4 *192:4 0.000243116
5 *192:5 0.000464083
6 *192:6 9.14221e-05
7 *192:7 0.000344441
8 *192:8 0.000984771016
9 *192:9 0.00020848
10 *192:10 0.000449041
11 *192:11 7.71919e-05
12 *192:12 1.85429e-05
13 *192:13 0.000144977
14 *192:14 3.47717e-05
15 *192:15 0.000189576
16 *192:2 *333:3 0.000802523984
17 *192:2 *332:3 0.000584549023
18 *192:2 *193:3 0.000646103008
19 *192:3 *136:2 0.00120512
20 *192:4 *330:3 0.000718927969

*RES
1 *192:7 *192:3 0.111587
2 *192:14 *192:15 4.17604
3 *192:2 *192:15 4.82471
4 *192:9 *192:10 8.91418
5 *192:6 *192:7 7.77477
6 *192:8 *192:9 2.44559
7 *192:3 *192:8 16.0723991
8 *192:5 *192:6 0.336231
9 *192:10 *192:11 0.111587
10 *192:13 *192:14 0.111587
11 *717:Z *192:5 3.42412
12 *192:12 *192:13 3.15631
13 *192:4 *192:12 0.111587
14 *772:A4 *192:2 2.58145
15 *192:11 *192:4 3.62325
*END

*D_NET *193 0.00854062

*CONN
*I *718:Z O *C 265.1 142 *L 0 *D DEL0
*I *774:A3 I *C 205.5 141.8 *L 0.00103 *D ND4D1

*CAP
1 *774:A3 0.000137355
2 *718:Z 4.09771e-06
3 *193:2 0.000651427
4 *193:3 0.000568762
5 *193:4 9.12424e-06
6 *193:5 0.00358058
7 *193:3 *333:3 0.000819926016
8 *193:3 *123:2 0.00212322
9 *193:3 *192:2 0.000646103008

*RES
1 *718:Z *193:2 1.15411
2 *193:4 *193:5 52.0547981
3 *193:2 *193:4 4.28521
4 *193:3 *193:5 4.6633
5 *774:A3 *193:3 2.25023
*END

*D_NET *194 0.00134651

*CONN
*I *719:Z O *C 196.3 139.2 *L 0 *D DEL1
*I *758:I I *C 190.5 141.6 *L 0.0045 *D BUFFD16

*CAP
1 *194:2 0.000119764
2 *194:3 0.00122675

*RES
1 *758:I *194:3 2.58928
2 *194:2 *194:3 6.11652994
3 *719:Z *194:2 0.750007
*END

*D_NET *195 0.00109134

*CONN
*I *720:Z O *C 33.3 139.2 *L 0 *D DEL1
*I *767:D[58] I *C 30.005 134.195 *L 0.00183 *D sram00

*CAP
1 *195:2 0.000735666016
2 *195:3 0.000302686
3 *195:4 9.03656e-06
4 *195:5 4.3948e-05

*RES
1 *195:2 *195:5 4.32912016
2 *195:2 *195:3 3.06868
3 *195:3 *195:4 0.292039
4 *720:Z *195:5 0.750013
5 *720:Z *767:D[58] 0.000132114
*END

*D_NET *196 0.00456627

*CONN
*I *721:Z O *C 166.5 142 *L 0 *D DEL1
*I *767:CEN I *C 145.65 134.195 *L 0.00171 *D sram00

*CAP
1 *196:2 0.000267354
2 *196:3 3.86604e-06
3 *196:4 0.000260219
4 *196:5 0.000281425
5 *196:7 2.95639e-06
6 *196:8 0.000294502
7 *196:9 0.00186295
8 *196:10 0.00115404
9 *196:11 0.000254363
10 *196:12 0.000184575

*RES
1 *196:11 *196:12 1.32188
2 *196:10 *196:11 1.20911
3 *196:9 *196:10 6.61013
4 *196:6 *196:8 0.199758
5 *196:4 *196:6 1.06723
6 *196:2 *196:3 0.199877
7 *196:7 *196:8 1.97884
8 *196:4 *196:9 9.88507
9 *196:3 *196:5 1.17531
10 *721:Z *196:2 1.55371
11 *196:5 *196:7 0.199758
12 *721:Z *767:CEN 0.0001
*END

*D_NET *197 0.0443692

*CONN
*I *722:Z O *C 13.3 141.8 *L 0 *D CKBD2
*I *857:A1 I *C 66.1 139.6 *L 0.00098 *D AN2XD1
*I *867:A1 I *C 66.1 143.2 *L 0.000556 *D CKAN2D0
*I *871:A1 I *C 68.1 143.2 *L 0.000556 *D CKAN2D0
*I *870:A1 I *C 72.1 141.6 *L 0.000556 *D CKAN2D0
*I *864:A1 I *C 71.1 143.2 *L 0.000556 *D CKAN2D0
*I *880:A1 I *C 105.1 141.6 *L 0.000993 *D AN2D2
*I *891:A1 I *C 112.9 141.6 *L 0.000556 *D CKAN2D0
*I *889:A1 I *C 145.5 143.2 *L 0.000556 *D CKAN2D0
*I *872:A1 I *C 145.7 145.2 *L 0.000556 *D CKAN2D0
*I *896:I I *C 148.9 143 *L 0.00062 *D CKND0
*I *873:A1 I *C 163.3 139.6 *L 0.000647 *D NR2D0
*I *824:B2 I *C 175.7 139.4 *L 0.000698 *D AO22D0
*I *823:B2 I *C 174.1 139.4 *L 0.000698 *D AO22D0
*I *829:B2 I *C 171.9 139.4 *L 0.000698 *D AO22D0
*I *822:B2 I *C 170.3 139.4 *L 0.000698 *D AO22D0
*I *830:B2 I *C 167.5 139.4 *L 0.000698 *D AO22D0
*I *827:B2 I *C 165.9 139.4 *L 0.000698 *D AO22D0
*I *825:B2 I *C 163.9 139.4 *L 0.000698 *D AO22D0
*I *828:B2 I *C 162.1 139.4 *L 0.000698 *D AO22D0
*I *826:B2 I *C 157.9 139.4 *L 0.000698 *D AO22D0
*I *892:A1 I *C 150.9 139.6 *L 0.000556 *D CKAN2D0
*I *894:A1 I *C 149.5 139.6 *L 0.000556 *D CKAN2D0
*I *832:A1 I *C 148.3 139.6 *L 0.000556 *D CKAN2D0
*I *895:A1 I *C 146.5 139.6 *L 0.000556 *D CKAN2D0
*I *846:A1 I *C 144.5 139.6 *L 0.000556 *D CKAN2D0
*I *833:A1 I *C 142.5 139.6 *L 0.000556 *D CKAN2D0
*I *835:A1 I *C 136.5 139.6 *L 0.000556 *D CKAN2D0
*I *839:A1 I *C 132.7 139.6 *L 0.000556 *D CKAN2D0
*I *836:A1 I *C 130.1 139.6 *L 0.000556 *D CKAN2D0
*I *838:A1 I *C 126.5 139.6 *L 0.000556 *D CKAN2D0
*I *841:A1 I *C 125.3 139.6 *L 0.000556 *D CKAN2D0
*I *843:A1 I *C 124.1 139.6 *L 0.000556 *D CKAN2D0
*I *831:A1 I *C 112.9 139.6 *L 0.00098 *D AN2XD1
*I *866:A1 I *C 111.7 139.6 *L 0.00098 *D AN2XD1
*I *868:A1 I *C 107.9 139.6 *L 0.00098 *D AN2XD1
*I *849:A1 I *C 106.1 139.6 *L 0.00098 *D AN2XD1
*I *845:A1 I *C 101.1 139.6 *L 0.00098 *D AN2XD1
*I *842:A1 I *C 99.9 139.6 *L 0.00098 *D AN2XD1
*I *854:A1 I *C 96.7 139.6 *L 0.00098 *D AN2XD1
*I *856:A1 I *C 90.7 139.6 *L 0.00098 *D AN2XD1
*I *865:A1 I *C 87.7 139.6 *L 0.00098 *D AN2XD1
*I *878:A1 I *C 85.7 143.2 *L 0.000556 *D CKAN2D0
*I *850:A1 I *C 85.7 141.6 *L 0.00098 *D AN2XD1
*I *879:A1 I *C 84.5 139.6 *L 0.00098 *D AN2XD1
*I *862:A1 I *C 81.7 139.6 *L 0.00098 *D AN2XD1
*I *852:A1 I *C 73.3 139.6 *L 0.00098 *D AN2XD1
*I *860:A1 I *C 75.3 139.6 *L 0.00098 *D AN2XD1
*I *859:A1 I *C 77.7 139.6 *L 0.00098 *D AN2XD1
*I *884:A1 I *C 78.7 141.6 *L 0.000556 *D CKAN2D0
*I *883:A1 I *C 79.5 145.2 *L 0.000556 *D CKAN2D0
*I *877:A1 I *C 82.7 145.2 *L 0.000556 *D CKAN2D0
*I *875:A1 I *C 80.9 143.2 *L 0.000556 *D CKAN2D0
*I *881:A1 I *C 78.3 143.2 *L 0.000556 *D CKAN2D0
*I *887:A1 I *C 75.9 143.2 *L 0.000556 *D CKAN2D0
*I *874:A1 I *C 77.1 145.2 *L 0.000556 *D CKAN2D0
*I *886:A1 I *C 74.7 145.2 *L 0.000556 *D CKAN2D0
*I *861:A1 I *C 72.3 145.2 *L 0.000556 *D CKAN2D0
*I *869:A1 I *C 69.9 145.2 *L 0.000556 *D CKAN2D0
*I *855:A1 I *C 67.9 145.2 *L 0.000556 *D CKAN2D0
*I *858:A1 I *C 65.7 145.2 *L 0.000556 *D CKAN2D0
*I *853:A1 I *C 63.5 145.2 *L 0.000556 *D CKAN2D0
*I *851:A1 I *C 61.3 145.2 *L 0.000556 *D CKAN2D0
*I *848:A1 I *C 58.9 145.2 *L 0.000556 *D CKAN2D0
*I *844:A1 I *C 54.5 145.2 *L 0.000556 *D CKAN2D0
*I *840:A1 I *C 49.7 145.2 *L 0.000556 *D CKAN2D0
*I *837:A1 I *C 45.9 143.2 *L 0.000556 *D CKAN2D0
*I *834:A1 I *C 41.7 141.6 *L 0.000556 *D CKAN2D0
*I *847:A1 I *C 36.7 141.6 *L 0.000556 *D CKAN2D0
*I *893:A1 I *C 33.5 141.6 *L 0.000556 *D CKAN2D0
*I *890:A1 I *C 29.3 141.6 *L 0.000556 *D CKAN2D0
*I *888:A1 I *C 26.5 141.6 *L 0.000556 *D CKAN2D0
*I *885:A1 I *C 21.5 141.6 *L 0.000556 *D CKAN2D0
*I *882:A1 I *C 17.5 141.6 *L 0.000556 *D CKAN2D0
*I *863:A1 I *C 13.9 143.2 *L 0.000556 *D CKAN2D0

*CAP
1 *882:A1 0.000322197
2 *885:A1 9.77608e-05
3 *847:A1 5.24364e-05
4 *834:A1 4.68255e-05
5 *840:A1 0.000103343
6 *844:A1 7.23587e-05
7 *848:A1 7.90189e-05
8 *851:A1 7.55066e-05
9 *853:A1 6.58879e-05
10 *858:A1 1.71533e-05
11 *855:A1 8.75446e-05
12 *869:A1 5.52928e-05
13 *861:A1 0.00014291
14 *886:A1 4.24679e-05
15 *874:A1 0.000297377
16 *887:A1 0.000227409
17 *881:A1 2.71655e-05
18 *875:A1 0.000259602
19 *877:A1 0.00034773
20 *883:A1 0.000321526
21 *884:A1 0.000454162
22 *859:A1 0.000188045
23 *860:A1 0.000129517
24 *862:A1 0.000159976
25 *879:A1 0.000269265
26 *878:A1 1.66578e-05
27 *865:A1 0.000151611
28 *856:A1 9.84603e-05
29 *854:A1 0.000279044
30 *842:A1 0.000230557
31 *845:A1 3.78335e-05
32 *868:A1 0.000400239
33 *839:A1 4.35027e-05
34 *846:A1 8.94829e-06
35 *895:A1 9.74984e-06
36 *832:A1 2.2633e-05
37 *826:B2 0.000305451
38 *828:B2 8.54605e-05
39 *827:B2 0.000127928
40 *823:B2 0.000108064
41 *824:B2 6.11952e-05
42 *873:A1 3.93491e-07
43 *872:A1 7.70806e-05
44 *880:A1 0.000192461
45 *864:A1 9.6041e-06
46 *870:A1 0.000585865
47 *871:A1 0.000372797
48 *867:A1 1.06971e-05
49 *857:A1 0.000493715
50 *722:Z 0.000231329
51 *197:75 0.000599389
52 *197:76 0.000598908
53 *197:77 0.000460851
54 *197:78 0.000468342
55 *197:79 0.000227321
56 *197:80 0.000492389
57 *197:81 0.000163182
58 *197:82 7.56232e-05
59 *197:83 0.000102716
60 *197:84 0.000118062
61 *197:85 0.000228925
62 *197:86 0.000152369
63 *197:87 0.000144732
64 *197:88 0.000435333
65 *197:89 0.000457222
66 *197:90 1.53316e-05
67 *197:91 0.00075664
68 *197:92 0.000257649
69 *197:93 0.000484636
70 *197:94 0.000102351
71 *197:95 0.00027097
72 *197:96 0.0001489
73 *197:97 0.000157309
74 *197:98 0.000621104
75 *197:99 0.000389571
76 *197:100 0.000285981
77 *197:101 0.000311733
78 *197:102 0.000162862
79 *197:103 0.000681469
80 *197:104 0.000550145
81 *197:105 0.000166884
82 *197:106 0.000293413
83 *197:107 0.000415148
84 *197:108 8.10301e-05
85 *197:109 0.000135798
86 *197:110 0.000309459
87 *197:111 0.000945939
88 *197:112 6.40517e-05
89 *197:113 0.000329177
90 *197:114 0.000371806
91 *197:115 0.00061749
92 *197:116 0.000238922
93 *197:117 0.00031711
94 *197:118 0.000323683
95 *197:119 4.82829e-05
96 *197:120 0.000418179
97 *197:121 0.000238558
98 *197:122 0.000286666
99 *197:123 0.000274322
100 *197:124 0.000221856
101 *197:125 0.00029678
102 *197:126 0.000351359
103 *197:127 0.000359841
104 *197:128 0.000520196
105 *197:129 0.000223663
106 *197:130 0.000576946
107 *197:131 0.000332952
108 *197:132 4.86763e-05
109 *197:133 0.000222308
110 *197:134 0.000704014
111 *197:135 0.000153564
112 *197:136 0.000255507
113 *197:137 0.000239418
114 *197:138 8.3289e-05
115 *197:139 0.000305145
116 *197:140 9.74838e-05
117 *197:141 0.00012959
118 *197:142 0.000345427
119 *197:143 0.000844739
120 *197:144 0.000176503
121 *197:145 0.000229376
122 *197:146 4.50038e-05
123 *197:147 0.000500973
124 *197:148 0.000309386
125 *197:149 0.000955091016
126 *197:150 0.000586171
127 *197:151 0.000348284
128 *197:152 0.000203727
129 *197:153 0.000213243
130 *197:154 0.000121793
131 *197:155 0.000893648
132 *197:156 0.000283999
133 *197:157 0.000110265
134 *197:158 6.30315e-05
135 *197:159 0.000293326
136 *197:160 0.000313234
137 *197:161 0.000268623
138 *197:162 0.000457397
139 *197:163 0.000500885
140 *197:164 0.000628741
141 *197:165 0.00020036
142 *862:A1 *313:3 0.000684351016
143 *868:A1 *208:5 0.000805051953
144 *857:A1 *696:I 0.000206172012
145 *875:A1 *376:5 0.000863653984
146 *197:75 *394:20 0.000482328008
147 *823:B2 *471:33 0.000302868984
148 *874:A1 *887:A2 0.00245690984
149 *197:76 *343:3 0.000402806016
150 *865:A1 *408:5 0.00044767

*RES
1 *197:124 *197:125 1.55623
2 *197:119 *197:163 2.82327
3 *830:B2 *197:75 3.18364
4 *197:132 *197:133 2.73252
5 *870:A1 *197:95 3.65128
6 *197:117 *197:147 3.45274
7 *197:107 *197:142 1.30006
8 *197:76 *197:143 2.28192
9 *885:A1 *197:164 2.56122
10 *842:A1 *197:139 3.41541
11 *197:141 *197:155 0.599082
12 *197:116 *197:140 3.23212
13 *854:A1 *197:144 3.03779
14 *197:102 *197:162 1.51795
15 *846:A1 *197:125 2.00493
16 *834:A1 *197:134 2.35258
17 *878:A1 *197:101 2.8341
18 *863:A1 *197:91 2.65091
19 *835:A1 *197:149 2.75176
20 *197:112 *197:113 3.11245
21 *197:109 *197:150 2.93484
22 *197:84 *197:155 4.48476
23 *890:A1 *197:163 2.77994
24 *197:164 *197:165 2.69119
25 *197:115 *197:131 1.88957
26 *892:A1 *197:121 2.40558
27 *197:130 *197:152 3.69544
28 *197:100 *197:112 1.35043
29 *197:92 *197:143 3.85444
30 *197:159 *197:160 2.19642
31 *197:122 *197:123 1.40059
32 *197:119 *197:136 0.600449
33 *197:103 *197:163 4.00313
34 *197:75 *197:77 2.02008
35 *882:A1 *197:165 3.60322
36 *875:A1 *197:81 2.65438
37 *197:139 *197:144 2.17876
38 *722:Z *197:91 1.77716
39 *843:A1 *197:151 2.44964
40 *197:106 *197:120 2.20126
41 *197:88 *197:162 3.97779
42 *197:110 *197:151 1.4762
43 *874:A1 *197:83 2.90329
44 *197:91 *197:165 4.49369
45 *197:80 *197:100 1.33445
46 *844:A1 *197:147 2.34606
47 *197:80 *197:130 3.05493
48 *884:A1 *197:94 3.62204
49 *197:118 *197:135 0.911715
50 *197:85 *197:95 1.31131
51 *893:A1 *197:136 2.40558
52 *886:A1 *197:84 1.72143
53 *197:90 *197:103 0.399283
54 *861:A1 *197:85 2.65302
55 *197:115 *197:145 4.6283
56 *856:A1 *197:145 1.89536
57 *832:A1 *197:123 2.16961
58 *197:156 *197:157 2.19642
59 *197:121 *197:122 1.08933
60 *840:A1 *197:88 1.7901
61 *855:A1 *197:86 2.11125
62 *197:109 *197:149 1.27787
63 *836:A1 *197:127 2.40558
64 *847:A1 *197:135 2.13522
65 *864:A1 *197:95 1.07134
66 *828:B2 *197:120 2.2367
67 *197:118 *197:134 3.16377
68 *197:108 *197:149 4.48349
69 *197:89 *197:134 4.41861
70 *197:106 *197:142 2.87816
71 *197:89 *197:102 1.82154
72 *197:77 *197:78 2.85492
73 *197:147 *197:161 3.85791
74 *839:A1 *197:150 2.35784
75 *197:158 *197:159 3.19479
76 *197:157 *197:158 1.19806
77 *197:132 *197:154 1.14653
78 *197:81 *197:153 2.61747
79 *894:A1 *197:122 2.45248
80 *197:123 *197:124 1.24496
81 *197:108 *197:126 0.600975
82 *197:78 *197:79 0.51096
83 *197:127 *197:128 3.3866
84 *197:114 *197:145 1.11141
85 *197:88 *197:117 2.16877
86 *872:A1 *197:76 3.47598
87 *825:B2 *197:78 1.99126
88 *858:A1 *197:87 2.01965
89 *197:113 *197:138 0.488982
90 *197:114 *197:144 2.98185
91 *197:131 *197:140 1.47725
92 *197:160 *197:161 2.39612
93 *197:105 *197:143 4.68256
94 *197:135 *197:136 2.29033
95 *197:90 *197:164 5.37439
96 *197:93 *197:115 1.43971
97 *197:128 *197:129 1.19806
98 *197:116 *197:146 1.14569
99 *824:B2 *197:137 4.12869
100 *197:92 *197:124 0.927699
101 *860:A1 *197:141 1.89525
102 *197:79 *197:120 1.37252
103 *197:125 *197:126 1.24496
104 *838:A1 *197:128 2.44964
105 *826:B2 *197:142 2.87732
106 *833:A1 *197:126 2.40558
107 *197:137 *197:148 1.48977
108 *869:A1 *197:156 2.66942
109 *829:B2 *197:148 2.24995
110 *867:A1 *197:96 1.09963
111 *868:A1 *197:130 3.61069
112 *853:A1 *197:159 2.8585
113 *857:A1 *197:96 3.79513
114 *197:138 *197:139 2.58141
115 *883:A1 *197:82 2.95598
116 *197:153 *197:154 1.80114
117 *197:99 *197:152 2.68246
118 *841:A1 *197:129 2.40558
119 *851:A1 *197:160 2.86028
120 *877:A1 *197:81 3.81869
121 *197:87 *197:96 1.08933
122 *197:75 *197:104 4.5182
123 *197:133 *197:156 1.85445
124 *197:107 *197:121 3.60133
125 *895:A1 *197:92 1.07345
126 *197:127 *197:150 1.64771
127 *871:A1 *197:86 2.99047
128 *880:A1 *197:80 2.61306
129 *887:A1 *197:83 2.00746
130 *197:104 *197:148 2.45921
131 *859:A1 *197:146 2.84398
132 *865:A1 *197:93 2.66911
133 *197:98 *197:111 2.42588
134 *845:A1 *197:138 2.24995
135 *852:A1 *197:155 3.03853
136 *879:A1 *197:131 3.22518
137 *827:B2 *197:77 2.70118
138 *848:A1 *197:161 2.91928
139 *873:A1 *197:79 1.26336
140 *862:A1 *197:140 2.08653
141 *197:97 *197:98 1.71302
142 *197:82 *197:94 0.933693
143 *881:A1 *197:94 1.26199
144 *197:141 *197:146 1.30385
145 *823:B2 *197:137 1.88032
146 *197:110 *197:111 6.89160013
147 *197:97 *197:152 2.05225
148 *197:129 *197:151 1.19806
149 *197:93 *197:101 1.77853
150 *896:I *197:105 0.749983
151 *822:B2 *197:104 0.749983
152 *888:A1 *197:103 1.49997
153 *837:A1 *197:102 1.49997
154 *850:A1 *197:101 1.49997
155 *849:A1 *197:100 1.49997
156 *866:A1 *197:99 1.49997
157 *831:A1 *197:98 1.49997
158 *891:A1 *197:97 1.49997
159 *889:A1 *197:76 1.49997
160 *197:82 *197:153 0.749983
161 *197:83 *197:154 0.749983
162 *197:84 *197:132 0.749983
163 *197:85 *197:133 0.749983
164 *197:86 *197:157 0.749983
165 *197:87 *197:158 0.749983
*END

*D_NET *198 0.00197086

*CONN
*I *723:Z O *C 129.5 145.6 *L 0 *D DEL2
*I *843:A2 I *C 124.3 139.6 *L 0.000585 *D CKAN2D0

*CAP
1 *198:2 0.000906067
2 *198:4 0.00106479

*RES
1 *198:2 *198:4 4.99706
2 *198:3 *198:4 5.41480017
3 *843:A2 *198:2 2.41194
4 *723:Z *198:3 0.749972
*END

*D_NET *199 0.00260771

*CONN
*I *724:Z O *C 179.7 145.6 *L 0 *D DEL1
*I *817:B1 I *C 176.7 143.2 *L 0.000658 *D IND2D0
*I *819:A2 I *C 178.7 143.2 *L 0.000606 *D CKND2D0
*I *816:A1 I *C 188.5 143.2 *L 0.000647 *D NR2D0
*I *818:A1 I *C 186.7 143.2 *L 0.000681 *D IND2D0

*CAP
1 *818:A1 0.000116606
2 *819:A2 9.76288e-05
3 *817:B1 0.000320141
4 *199:5 0.000379361
5 *199:6 0.000433467
6 *199:7 0.000574697031
7 *199:8 0.00019168
8 *199:9 0.000494133

*RES
1 *199:7 *199:8 0.998329
2 *816:A1 *199:9 3.46300006
3 *818:A1 *199:9 1.5
4 *817:B1 *199:8 3.16926
5 *199:6 *199:7 1.53615
6 *199:5 *199:9 2.42478
7 *199:5 *199:6 2.16802
8 *724:Z *199:7 2.69797
9 *819:A2 *199:8 1.69964
*END

*D_NET *200 0.00336176

*CONN
*I *725:Z O *C 192.9 139.2 *L 0 *D DEL1
*I *817:A1 I *C 177.3 143.2 *L 0.000681 *D IND2D0
*I *819:A1 I *C 178.3 143 *L 0.000617 *D CKND2D0
*I *816:A2 I *C 188.1 143.2 *L 0.000664 *D NR2D0
*I *818:B1 I *C 187.3 143.2 *L 0.000658 *D IND2D0

*CAP
1 *816:A2 0.000106284
2 *817:A1 0.000229451
3 *725:Z 0.000583123
4 *200:5 0.000224021
5 *200:6 0.000972267969
6 *200:7 0.000178461
7 *200:8 0.000326597
8 *200:9 0.000342872
9 *200:10 0.000398684

*RES
1 *200:7 *200:9 1.82219
2 *200:6 *200:10 5.70100021
3 *725:Z *200:5 3.04049
4 *817:A1 *200:6 1.86812
5 *200:9 *200:10 3.04597
6 *200:8 *200:9 2.13892
7 *200:5 *200:8 3.69587
8 *816:A2 *200:7 1.67857
9 *818:B1 *200:7 0.750031
10 *819:A1 *200:6 0.750031
*END

*D_NET *201 0.0145361

*CONN
*I *726:Z O *C 192.1 142.8 *L 0 *D DEL1
*I *809:B1 I *C 242.7 141.6 *L 0.000651 *D INR2D0
*I *810:A2 I *C 242.3 143.2 *L 0.000585 *D CKAN2D0
*I *815:A2 I *C 189.9 145.2 *L 0.000996 *D NR2D1
*I *811:A2 I *C 157.5 143.2 *L 0.00155 *D NR2XD1
*I *813:A2 I *C 157.9 143.2 *L 0.000996 *D NR2D1

*CAP
1 *813:A2 0.000197385
2 *811:A2 4.02333e-05
3 *201:6 0.000671487
4 *201:7 0.000229022
5 *201:8 0.00013043
6 *201:9 0.000475539
7 *201:10 0.000459708
8 *201:11 0.000470523
9 *201:12 0.000963431
10 *201:13 0.00130418
11 *201:14 1.87049e-05
12 *201:15 0.000583735
13 *201:16 1.54782e-05
14 *201:17 0.00165206
15 *201:18 0.000315337
16 *201:19 0.000511613
17 *201:20 0.000212838
18 *201:21 0.000225064
19 *201:22 0.00151699
20 *201:17 *54:2 0.00104339
21 *201:18 *139:3 0.00034258
22 *201:7 *235:3 0.00142133
23 *201:6 *331:2 0.000485904023
24 *201:7 *237:4 0.00124919

*RES
1 *201:16 *201:17 13.4537
2 *201:8 *201:10 0.535861
3 *201:17 *201:18 3.25112
4 *201:13 *201:14 0.111348
5 *201:19 *201:20 1.79935
6 *201:18 *201:19 4.31202
7 *201:6 *201:11 2.53123
8 *201:7 *201:22 25.3377991
9 *201:8 *201:13 11.8651
10 *201:11 *201:12 4.68356
11 *813:A2 *201:9 1.44829
12 *201:7 *201:12 2.7141
13 *811:A2 *813:A2 0.405569
14 *201:6 *201:21 4.10595
15 *810:A2 *201:10 3.24339
16 *201:20 *201:21 2.25943
17 *201:14 *201:15 5.42434
18 *201:9 *201:22 4.10749
19 *201:15 *201:16 0.111348
20 *815:A2 *201:12 0.750051
21 *726:Z *201:11 0.750051
22 *809:B1 *201:10 0.750051
*END

*D_NET *202 0.000660384

*CONN
*I *727:Z O *C 127.1 142 *L 0 *D DEL1
*I *841:A2 I *C 125.5 139.6 *L 0.000585 *D CKAN2D0

*CAP
1 *727:Z 5.1193e-06
2 *202:2 0.000655260039

*RES
1 *727:Z *202:2 0.905581
2 *841:A2 *202:2 5.14906979
*END

*D_NET *203 0.0111329

*CONN
*I *728:Z O *C 8.9 145.6 *L 0 *D DEL1
*I *887:A2 I *C 76.1 143.2 *L 0.000585 *D CKAN2D0

*CAP
1 *887:A2 0.000340666
2 *203:2 0.00258727
3 *203:3 0.000587964
4 *203:4 3.47417e-05
5 *203:5 0.000267551
6 *203:6 0.0020132
7 *203:7 0.000363683
8 *203:8 2.36875e-05
9 *887:A2 *874:A1 0.00245690984
10 *887:A2 *364:2 0.00048042
11 *203:2 *17:5 0.00197682

*RES
1 *887:A2 *203:4 4.9538
2 *203:2 *203:8 0.111374
3 *203:7 *203:2 30.6681004
4 *203:6 *203:7 1.98929
5 *203:4 *203:5 1.83908
6 *203:3 *203:8 5.44095
7 *203:5 *203:6 23.5013
8 *728:Z *203:3 0.750137
*END

*D_NET *204 0.00131475

*CONN
*I *729:Z O *C 129.9 142.8 *L 0 *D DEL1
*I *838:A2 I *C 126.7 139.6 *L 0.000585 *D CKAN2D0

*CAP
1 *729:Z 0.000215184
2 *204:2 0.000604978984
3 *204:3 0.00049459

*RES
1 *204:2 *204:3 3.59013
2 *729:Z *204:3 4.2140398
3 *838:A2 *204:2 1.50002
*END

*D_NET *205 0.000820472

*CONN
*I *730:Z O *C 145.1 142.8 *L 0 *D DEL1
*I *846:A2 I *C 144.7 139.6 *L 0.000585 *D CKAN2D0

*CAP
1 *846:A2 0.000168363
2 *730:Z 0.00065211

*RES
1 *730:Z *846:A2 4.55454
*END

*D_NET *206 0.00109733

*CONN
*I *731:Z O *C 136.1 142.8 *L 0 *D DEL1
*I *839:A2 I *C 132.9 139.6 *L 0.000585 *D CKAN2D0

*CAP
1 *839:A2 0.000348426
2 *206:2 0.000748903984

*RES
1 *839:A2 *206:2 4.59036016
2 *731:Z *206:2 3.74739
*END

*D_NET *207 0.000644287

*CONN
*I *732:Z O *C 132.7 142 *L 0 *D DEL1
*I *836:A2 I *C 130.3 139.6 *L 0.000585 *D CKAN2D0

*CAP
1 *732:Z 7.04758e-05
2 *207:2 0.000573813984

*RES
1 *732:Z *207:2 1.2919
2 *836:A2 *207:2 5.48993015
*END

*D_NET *208 0.0142249

*CONN
*I *733:Z O *C 8.9 142 *L 0 *D DEL1
*I *891:A2 I *C 113.1 141.6 *L 0.000585 *D CKAN2D0

*CAP
1 *733:Z 3.98558e-05
2 *208:2 0.000271985
3 *208:3 0.00118418
4 *208:4 0.000210685
5 *208:5 0.000599674
6 *208:6 0.000317437
7 *208:7 0.000329184
8 *208:8 0.000234265
9 *208:9 0.000303297
10 *208:10 0.00279952
11 *208:11 0.000298598
12 *208:12 0.000108888
13 *208:13 0.000218588
14 *208:14 0.000216281
15 *208:15 0.000495058
16 *208:16 0.000414108
17 *208:3 *257:2 0.000507448008
18 *208:2 *238:17 0.000852566016
19 *208:3 *543:I 0.00361304
20 *208:4 *374:6 0.000405068008
21 *208:5 *868:A1 0.000805051953

*RES
1 *208:14 *208:15 5.18057
2 *208:15 *208:16 0.267294
3 *208:10 *208:16 46.0983009
4 *208:13 *208:14 1.97938
5 *208:4 *208:9 2.30717
6 *208:7 *208:8 2.9128
7 *208:6 *208:10 3.72875
8 *208:3 *208:9 13.8465
9 *208:12 *208:13 3.15688
10 *208:6 *208:7 3.11256
11 *208:11 *208:12 0.111841
12 *208:2 *208:5 4.13813
13 *208:5 *208:11 5.90789
14 *733:Z *208:3 1.51021
15 *891:A2 *208:2 3.57048
16 *208:8 *208:4 2.02299
*END

*D_NET *209 0.000919406

*CONN
*I *734:Z O *C 140.7 139.2 *L 0 *D DEL1
*I *835:A2 I *C 136.7 139.6 *L 0.000585 *D CKAN2D0

*CAP
1 *209:2 0.000104645
2 *209:3 0.000814767031

*RES
1 *835:A2 *209:3 2.42602
2 *209:2 *209:3 4.12002993
3 *734:Z *209:2 0.749999
*END

*D_NET *210 0.000756535

*CONN
*I *735:Z O *C 145.5 142 *L 0 *D DEL1
*I *833:A2 I *C 142.7 139.6 *L 0.000585 *D CKAN2D0

*CAP
1 *210:2 9.40787e-05
2 *210:3 0.000662452969

*RES
1 *833:A2 *210:3 3.18368006
2 *210:2 *210:3 3.01254
3 *735:Z *210:2 0.750013
*END

*D_NET *211 0.00180025

*CONN
*I *736:Z O *C 153.3 145.6 *L 0 *D DEL1
*I *832:A2 I *C 148.5 139.6 *L 0.000585 *D CKAN2D0

*CAP
1 *832:A2 0.000659862
2 *211:2 0.000317475
3 *211:3 0.000822912969

*RES
1 *211:2 *211:3 4.59888
2 *736:Z *211:2 1.68367
3 *832:A2 *211:3 5.40992022
*END

*D_NET *212 0.00143774

*CONN
*I *737:Z O *C 152.3 142.8 *L 0 *D DEL1
*I *895:A2 I *C 146.7 139.6 *L 0.000585 *D CKAN2D0

*CAP
1 *895:A2 0.000437678
2 *212:2 0.000664978984
3 *212:3 0.000335082

*RES
1 *212:2 *212:3 2.79614
2 *737:Z *212:2 1.99494
3 *895:A2 *212:3 5.43439007
*END

*D_NET *213 0.000945299

*CONN
*I *620:I I *C 190.7 145.2 *L 0.00103 *D DEL015
*I *738:Z O *C 187.9 145.6 *L 0 *D DEL1

*CAP
1 *213:2 0.000286711
2 *213:3 0.000658590938

*RES
1 *213:2 *213:3 4.51933002
2 *620:I *213:2 3.18365
3 *738:Z *213:3 0.750004
*END

*D_NET *214 0.000964744

*CONN
*I *739:Z O *C 183.1 142.8 *L 0 *D DEL1
*I *820:D I *C 179.9 141.6 *L 0.000971 *D DFCNQD1

*CAP
1 *214:2 0.000964743984

*RES
1 *739:Z *214:2 1.28043
2 *820:D *214:2 5.57754993
*END

*D_NET *215 0.00241069

*CONN
*I *617:I I *C 197.5 145.2 *L 0.00103 *D DEL015
*I *740:Z O *C 186.5 142 *L 0 *D DEL1

*CAP
1 *740:Z 0.000392629
2 *215:2 0.00117794
3 *215:3 0.000386985
4 *215:4 0.00045313

*RES
1 *215:2 *215:4 6.91917992
2 *740:Z *215:2 2.31597
3 *215:3 *215:4 3.11234
4 *617:I *215:3 4.40652
*END

*D_NET *216 0.00129159

*CONN
*I *741:Z O *C 156.3 139.2 *L 0 *D DEL1
*I *894:A2 I *C 149.7 139.6 *L 0.000585 *D CKAN2D0

*CAP
1 *216:2 0.000506317
2 *216:3 0.000785267031

*RES
1 *216:2 *216:3 7.56822014
2 *741:Z *216:3 0.750055
3 *894:A2 *216:2 1.49999
*END

*D_NET *217 0.000891107

*CONN
*I *742:Z O *C 109.5 142 *L 0 *D DEL1
*I *849:A2 I *C 106.3 139.6 *L 0.00104 *D AN2XD1

*CAP
1 *217:2 0.000891107031

*RES
1 *742:Z *217:2 1.21682
2 *849:A2 *217:2 6.41145992
*END

*D_NET *218 0.00122375

*CONN
*I *743:Z O *C 148.9 142 *L 0 *D DEL1
*I *889:A2 I *C 145.7 143.2 *L 0.000585 *D CKAN2D0

*CAP
1 *743:Z 0.000269641
2 *218:2 0.000954101016

*RES
1 *889:A2 *218:2 3.48116
2 *743:Z *218:2 4.89448023
*END

*D_NET *219 0.000771811

*CONN
*I *744:Z O *C 117.1 139.2 *L 0 *D DEL1
*I *831:A2 I *C 113.1 139.6 *L 0.00104 *D AN2XD1

*CAP
1 *744:Z 0.000104986
2 *219:2 0.000624059961
3 *219:3 4.27657e-05

*RES
1 *219:2 *219:3 4.2521801
2 *831:A2 *219:2 1.69968
3 *744:Z *219:3 1.49997
*END

*D_NET *220 0.000790847

*CONN
*I *745:Z O *C 154.3 142 *L 0 *D DEL1
*I *892:A2 I *C 151.1 139.6 *L 0.000585 *D CKAN2D0

*CAP
1 *892:A2 0.000262233
2 *745:Z 0.000132109
3 *220:2 0.000396508008

*RES
1 *745:Z *220:2 4.8955102
2 *892:A2 *220:2 2.27804
*END

*D_NET *221 0.00113858

*CONN
*I *746:Z O *C 149.9 145.6 *L 0 *D DEL1
*I *872:A2 I *C 145.9 145.2 *L 0.000585 *D CKAN2D0

*CAP
1 *746:Z 0.000251451
2 *221:2 4.41831e-05
3 *221:3 0.000842952031

*RES
1 *221:2 *221:3 4.04039001
2 *746:Z *221:2 2.12247
3 *872:A2 *221:3 3.39749
*END

*D_NET *222 0.000486685

*CONN
*I *747:I I *C 11.3 145.4 *L 0.0054 *D CKND6
*I *748:ZN O *C 9.1 145.4 *L 0 *D CKND1

*CAP
1 *747:I 0.000121358
2 *222:2 0.000365326992

*RES
1 *747:I *222:2 4.23121023
2 *748:ZN *222:2 0.75003
*END

*D_NET *223 0.0219896

*CONN
*I *897:CP I *C 179.9 145.2 *L 0.000688 *D DFCND1
*I *747:ZN O *C 12.3 145.6 *L 0 *D CKND6
*I *821:CP I *C 180.7 139.6 *L 0.000642 *D DFCNQD1
*I *820:CP I *C 178.9 141.6 *L 0.000642 *D DFCNQD1
*I *767:CLK I *C 142.535 134.195 *L 0.031 *D sram00

*CAP
1 *897:CP 0.000151596
2 *223:5 0.000600707
3 *223:6 0.0112768
4 *223:7 0.0038448
5 *223:8 2.64992e-05
6 *223:9 2.27136e-05
7 *223:10 7.41634e-05
8 *223:13 1.47983e-05
9 *223:14 0.000252087
10 *223:15 1.60028e-05
11 *223:16 2.03046e-05
12 *223:17 0.000495226
13 *223:18 3.04569e-05
14 *223:19 3.09731e-06
15 *223:20 5.16219e-06
16 *223:21 3.80281e-05
17 *223:22 0.00145333
18 *223:23 0.000441367
19 *223:5 *110:2 0.000261165
20 *223:6 *85:4 0.000276203008
21 *223:5 *17:5 0.000705942969
22 *223:6 *33:3 0.000613313008
23 *223:6 *364:4 0.000768947031
24 *223:7 *288:4 0.000596903008

*RES
1 *223:5 *223:6 71.5258
2 *223:13 *223:14 2.15057
3 *223:17 *223:23 3.86228
4 *897:CP *223:9 1.06123
5 *223:9 *223:17 1.52809
6 *223:10 *223:12 0.410797
7 *223:11 *223:5 0.33457
8 *223:16 *223:21 0.202304
9 *223:14 *223:23 2.15053
10 *223:7 *223:22 9.32164
11 *223:18 *223:20 0.221764
12 *223:19 *223:20 0.095918
13 *223:17 *223:7 29.1359
14 *223:15 *223:21 0.202304
15 *223:8 *223:13 0.361021
16 *223:6 *223:7 33.6709
17 *821:CP *223:13 0.75
18 *820:CP *223:12 1.5
19 *747:ZN *223:5 0.75
20 *223:12 *223:21 0.75
21 *223:18 *223:22 0.75
22 *223:21 *223:23 0.75
23 *747:ZN *767:CLK 0.0001
*END

*D_NET *224 0.00214515

*CONN
*I *749:ZN O *C 152.3 139.2 *L 0 *D TIEL
*I *767:EMA[2] I *C 143.545 134.195 *L 0.00755 *D sram00
*I *767:EMA[0] I *C 152.68 134.195 *L 0.00755 *D sram00

*CAP
1 *749:ZN 2.54921e-05
2 *224:3 9.81273e-06
3 *224:4 9.65069e-05
4 *224:5 0.000983298984
5 *224:6 2.96783e-05
6 *224:7 0.000675038
7 *224:8 3.10587e-05
8 *224:9 0.000294262

*RES
1 *224:3 *224:4 0.292045
2 *749:ZN *224:9 1.66161
3 *224:8 *224:9 0.339811
4 *224:7 *224:8 3.55034
5 *224:5 *224:6 0.292066
6 *224:4 *224:5 8.80141
7 *749:ZN *224:6 1e-06
8 *749:ZN *767:EMA[2] 0.0001
9 *767:EMA[2] *767:EMA[0] 0.0001
*END

*D_NET *225 0.00267237

*CONN
*I *750:Z O *C 152.9 139.8 *L 0 *D TIEH
*I *767:RETN I *C 144.905 134.195 *L 0.00453 *D sram00
*I *767:EMA[1] I *C 153.84 134.195 *L 0.00755 *D sram00

*CAP
1 *225:4 4.71537e-05
2 *225:5 2.15462e-05
3 *225:6 0.00127359
4 *225:7 1.90055e-05
5 *225:8 0.00131108

*RES
1 *225:4 *225:5 0.23859
2 *225:3 *225:8 6.38789
3 *225:6 *225:8 7.993
4 *225:6 *225:7 0.238601
5 *225:5 *225:8 0.949503
6 *750:Z *225:3 0.75
7 *750:Z *767:EMA[1] 0.0001
8 *767:EMA[1] *767:RETN 0.0001
*END

*D_NET *226 0.00150275

*CONN
*I *714:I I *C 220.1 145.2 *L 0.00105 *D DEL1
*I *773:ZN O *C 214.9 141.2 *L 0 *D ND4D1

*CAP
1 *714:I 4.97794e-05
2 *773:ZN 0.000380461
3 *226:2 0.00062592
4 *226:3 0.000446592

*RES
1 *773:ZN *226:2 2.71006
2 *714:I *226:3 4.16789
3 *226:2 *226:3 4.4822998
*END

*D_NET *227 0.00161947

*CONN
*I *716:I I *C 225.1 143.2 *L 0.00105 *D DEL1
*I *771:ZN O *C 218.7 141.2 *L 0 *D ND4D1

*CAP
1 *771:ZN 0.00040542
2 *227:2 0.000603608
3 *227:3 0.000610436016

*RES
1 *716:I *227:2 4.85956001
2 *771:ZN *227:3 2.86468
3 *227:2 *227:3 3.28659
*END

*D_NET *228 0.0113657

*CONN
*I *712:I I *C 316.3 141.6 *L 0.00105 *D DEL1
*I *768:ZN O *C 212.7 141.2 *L 0 *D ND4D1

*CAP
1 *712:I 0.000606542
2 *768:ZN 0.000283685
3 *228:2 6.52123e-05
4 *228:3 0.00295757
5 *228:4 1.42158e-05
6 *228:5 0.000552928
7 *228:6 0.000288108
8 *228:7 3.66904e-05
9 *228:8 0.000951197
10 *228:9 8.25872e-06
11 *228:10 0.000867166
12 *228:11 0.000187649
13 *228:12 3.61037e-07
14 *228:13 0.000862337
15 *228:14 0.00022267
16 *768:ZN *54:2 0.000205152012
17 *228:10 *60:2 0.00037754
18 *228:5 *135:2 0.000454161992
19 *768:ZN *454:2 0.000299234004
20 *228:3 *797:A2 0.000311145
21 *228:3 *504:2 0.0018138

*RES
1 *228:6 *228:7 2.95658
2 *228:10 *228:11 0.111642
3 *228:4 *228:5 6.89812
4 *228:3 *228:4 0.111642
5 *228:5 *228:6 0.111642
6 *228:8 *228:9 0.111642
7 *228:7 *228:8 14.8273
8 *712:I *228:2 7.05373
9 *228:13 *228:14 0.111642
10 *228:12 *228:13 8.58138
11 *228:11 *228:12 2.26776
12 *228:9 *228:10 12.7065
13 *228:2 *228:3 28.2493992
14 *768:ZN *228:14 6.16576
*END

*D_NET *229 0.00240235

*CONN
*I *713:I I *C 221.3 139.6 *L 0.00105 *D DEL1
*I *775:ZN O *C 210.1 141.2 *L 0 *D ND4D1

*CAP
1 *713:I 0.000236693
2 *229:2 0.0016486
3 *229:3 0.000217801
4 *229:4 0.000299256

*RES
1 *713:I *229:3 4.45072
2 *775:ZN *229:2 0.905594
3 *229:3 *229:4 1.64805
4 *229:2 *229:4 8.71370029
*END

*D_NET *230 0.000953623

*CONN
*I *709:I I *C 205.9 145.2 *L 0.00105 *D DEL1
*I *774:ZN O *C 205.9 141.2 *L 0 *D ND4D1

*CAP
1 *709:I 2.06006e-05
2 *774:ZN 0.000404831
3 *230:2 0.000528193008

*RES
1 *709:I *230:2 0.410253
2 *774:ZN *230:2 5.60481977
*END

*D_NET *231 0.000444614

*CONN
*I *708:I I *C 201.1 143.2 *L 0.00105 *D DEL1
*I *772:ZN O *C 200.1 143.6 *L 0 *D ND4D1

*CAP
1 *708:I 0.00020472
2 *231:2 0.000239894004

*RES
1 *708:I *231:2 4.40052986
2 *772:ZN *231:2 0.750029
*END

*D_NET *232 0.000527537

*CONN
*I *715:I I *C 196.3 143.2 *L 0.00105 *D DEL1
*I *769:ZN O *C 195.3 143.6 *L 0 *D ND4D1

*CAP
1 *769:ZN 0.000527536992

*RES
1 *769:ZN *715:I 4.34243
*END

*D_NET *233 0.00126586

*CONN
*I *719:I I *C 193.1 139.6 *L 0.00105 *D DEL1
*I *770:ZN O *C 187.1 141.2 *L 0 *D ND4D1

*CAP
1 *719:I 0.000392929
2 *233:2 0.000872932031

*RES
1 *719:I *233:2 9.40614033
2 *770:ZN *233:2 0.750068
*END

*D_NET *234 0.0184398

*CONN
*I *768:A1 I *C 212.5 141.8 *L 0.000996 *D ND4D1
*I *759:Z O *C 64.5 142.8 *L 0 *D CKBD1

*CAP
1 *234:2 0.000687574
2 *234:3 0.00029729
3 *234:4 7.17546e-05
4 *234:5 0.00325203
5 *234:6 0.000233128
6 *234:7 0.000513844
7 *234:8 0.000387901
8 *234:9 0.000363685
9 *234:10 3.45871e-05
10 *234:11 0.000568677
11 *234:12 0.00294417
12 *234:12 *132:4 0.00186333
13 *234:2 *16:2 0.000279702012
14 *234:3 *376:9 0.000932772969
15 *234:2 *481:14 0.0018651
16 *234:4 *86:3 0.000617576016
17 *234:5 *320:2 0.00352659

*RES
1 *234:10 *234:4 3.46803
2 *234:9 *234:5 51.5026016
3 *234:3 *234:7 3.37373
4 *234:4 *234:11 0.111593
5 *234:5 *234:10 0.111593
6 *234:6 *234:7 6.5447
7 *768:A1 *234:8 3.05624
8 *234:11 *234:12 46.7528
9 *234:2 *234:12 13.7362
10 *234:6 *234:2 2.90692
11 *759:Z *234:3 0.749717
12 *234:8 *234:9 0.749717
*END

*D_NET *235 0.0182337

*CONN
*I *771:A2 I *C 218.9 141.8 *L 0.00103 *D ND4D1
*I *760:Z O *C 74.9 142 *L 0 *D CKBD1

*CAP
1 *760:Z 0.000474772
2 *771:A2 0.000624183
3 *235:2 0.00282343
4 *235:3 0.000130713
5 *235:4 0.000256946
6 *235:5 0.000116151
7 *235:6 0.000795136
8 *235:7 6.04882e-05
9 *235:8 4.0067e-06
10 *235:9 0.00216215
11 *235:10 1.42604e-05
12 *235:11 0.000931148
13 *235:12 4.19626e-05
14 *235:3 *512:4 0.000626088984
15 *235:2 *243:4 0.00317993
16 *235:3 *237:4 0.000727783984
17 *235:3 *201:7 0.00142133
18 *235:3 *411:6 0.00117376992
19 *235:4 *746:I 0.00266933

*RES
1 *235:8 *235:4 0.111829
2 *771:A2 *235:5 4.0005
3 *235:2 *235:7 0.111829
4 *760:Z *235:6 6.04996
5 *235:5 *235:3 1.73857
6 *235:3 *235:2 48.8588982
7 *235:4 *235:9 43.3129
8 *235:11 *235:12 0.111829
9 *235:10 *235:11 9.58227
10 *235:6 *235:12 4.81835
11 *235:7 *235:8 7.98087
12 *235:9 *235:10 0.111829
*END

*D_NET *236 0.0148388

*CONN
*I *770:A1 I *C 186.9 141.8 *L 0.000996 *D ND4D1
*I *761:Z O *C 61.9 142.8 *L 0 *D CKBD0

*CAP
1 *761:Z 0.000844316
2 *236:2 0.000117681
3 *236:3 0.00052698
4 *236:4 0.000372904
5 *236:5 0.000198278
6 *236:6 0.000420551
7 *236:7 0.0075241
8 *236:8 3.6969e-05
9 *236:9 7.43971e-05
10 *236:10 0.000614351
11 *236:11 0.00043892
12 *236:12 0.00104546
13 *236:4 *484:9 0.0018992
14 *236:2 *586:I 0.000724602969

*RES
1 *236:10 *236:11 2.91231
2 *236:7 *236:8 20.0196
3 *236:2 *236:12 5.97453
4 *236:6 *236:11 3.88437
5 *236:4 *236:7 63.3879013
6 *236:9 *236:10 4.45696
7 *236:5 *236:6 1.42278
8 *236:3 *236:4 4.33606
9 *236:8 *236:9 0.734122
10 *236:3 *236:12 3.10962
11 *761:Z *236:5 4.79936
12 *770:A1 *236:2 0.749598
*END

*D_NET *237 0.0163835

*CONN
*I *773:A2 I *C 215.1 141.8 *L 0.00103 *D ND4D1
*I *762:Z O *C 104.5 142 *L 0 *D CKBD1

*CAP
1 *762:Z 0.000907899
2 *773:A2 0.000758911
3 *237:2 0.000327586
4 *237:3 4.72448e-06
5 *237:4 0.00436082969
6 *237:5 0.000109861
7 *237:6 4.22542e-05
8 *237:7 5.3899e-05
9 *237:4 *287:2 0.00173002
10 *237:3 *31:2 0.00244530016
11 *762:Z *140:2 0.000482028984
12 *237:4 *201:7 0.00124919
13 *237:4 *235:3 0.000727783984
14 *237:4 *241:2 0.00276999
15 *237:2 *510:2 0.0004132

*RES
1 *237:7 *237:8 0.111003
2 *237:6 *237:7 7.82463
3 *237:2 *237:3 2.51536
4 *773:A2 *237:2 4.16364
5 *237:5 *237:6 0.111003
6 *237:4 *237:8 68.6288986
7 *762:Z *237:4 5.88523
8 *237:3 *237:5 15.5362
*END

*D_NET *238 0.0167478

*CONN
*I *774:A2 I *C 205.7 141.8 *L 0.00103 *D ND4D1
*I *763:Z O *C 58.9 142.8 *L 0 *D CKBD1

*CAP
1 *774:A2 0.000196827
2 *238:2 0.000203805
3 *238:3 0.00013229
4 *238:4 0.000288126
5 *238:5 0.000155523
6 *238:6 0.000949286
7 *238:7 8.04773e-05
8 *238:8 0.00115136
9 *238:9 1.01746e-05
10 *238:10 5.04968e-05
11 *238:11 4.67989e-06
12 *238:12 0.000253612
13 *238:13 5.26487e-05
14 *238:14 0.000414358
15 *238:15 0.000326276
16 *238:16 0.00136918
17 *238:17 0.000321826
18 *238:18 0.000126357
19 *238:19 0.000112192
20 *238:20 0.000603872
21 *238:21 0.00029383
22 *238:22 3.58722e-05
23 *238:23 0.00034838
24 *238:24 8.41962e-06
25 *238:25 0.000930106
26 *774:A2 *48:3 0.000937448984
27 *238:17 *208:2 0.000852566016
28 *238:10 *86:3 0.00127229
29 *238:14 *135:3 0.000506195
30 *238:5 *392:2 0.00158334
31 *238:2 *417:4 0.000209882012
32 *238:10 *481:9 0.00250068
33 *238:2 *16:4 0.000465395977

*RES
1 *238:24 *238:25 15.1939
2 *238:18 *238:19 0.111661
3 *238:13 *238:14 3.15692
4 *238:20 *238:21 2.75786
5 *238:19 *238:20 7.20422
6 *238:14 *238:15 2.53486
7 *238:2 *238:25 4.77519
8 *774:A2 *238:4 4.63861
9 *238:10 *238:11 0.111337
10 *238:22 *238:23 5.02505
11 *238:16 *238:17 2.53486
12 *238:21 *238:22 0.624653
13 *238:17 *238:18 6.11415
14 *238:23 *238:24 0.111661
15 *238:15 *238:16 21.2110004
16 *238:9 *238:10 3.46763
17 *238:3 *238:2 1.50014
18 *238:11 *238:12 4.71305
19 *238:7 *238:8 19.5853
20 *238:4 *238:5 1.86748
21 *238:8 *238:9 0.111337
22 *238:5 *238:6 14.9166
23 *238:12 *238:13 0.111661
24 *238:6 *238:7 1.51211
25 *763:Z *238:3 0.749907
*END

*D_NET *239 0.0207824

*CONN
*I *769:A1 I *C 195.1 143 *L 0.000996 *D ND4D1
*I *764:Z O *C 53.3 142.8 *L 0 *D CKBD1

*CAP
1 *764:Z 8.98996e-05
2 *239:2 0.00641783
3 *239:3 0.000269503
4 *239:4 0.00050757
5 *239:5 3.0652e-05
6 *239:6 4.79856e-06
7 *239:7 0.000693343
8 *239:8 2.89872e-05
9 *239:9 0.000528429
10 *239:11 0.00160311
11 *239:12 0.000501792
12 *239:13 0.000605206
13 *239:14 0.000408367
14 *239:9 *373:3 0.00139457
15 *239:2 *243:4 0.000667967031
16 *239:2 *379:2 0.00151668
17 *239:2 *624:I 0.00155336
18 *239:3 *44:3 0.000877156953
19 *239:4 *411:6 0.000874372031
20 *239:5 *502:7 0.00220879

*RES
1 *239:5 *239:4 5.29908
2 *239:12 *239:14 2.94473
3 *239:8 *239:9 9.57183
4 *239:6 *239:7 7.10922
5 *239:5 *239:13 3.93209
6 *239:3 *239:2 94.6009979
7 *239:7 *239:3 2.874
8 *764:Z *239:14 1.49979
9 *239:9 *239:10 0.137132
10 *239:11 *239:12 3.3951
11 *239:2 *239:8 0.137132
12 *239:4 *239:6 0.0418614
13 *239:10 *239:11 23.6791
14 *769:A1 *239:13 0.750618
*END

*D_NET *240 0.0194772

*CONN
*I *775:A1 I *C 209.9 141.8 *L 0.000996 *D ND4D1
*I *765:Z O *C 60.1 142 *L 0 *D CKBD1

*CAP
1 *765:Z 0.000251012
2 *775:A1 0.000177024
3 *240:2 0.00897929937
4 *240:3 5.13807e-05
5 *240:4 7.52214e-05
6 *240:5 0.00107735
7 *240:6 6.79596e-05
8 *240:7 0.00120176
9 *240:2 *20:2 0.00112645992
10 *240:2 *24:2 0.00257634
11 *240:3 *494:2 0.00189412
12 *240:3 *142:2 0.00199916

*RES
1 *240:4 *240:7 6.95331
2 *240:3 *240:2 94.9160995
3 *775:A1 *240:5 1.39906
4 *765:Z *240:7 1.86397
5 *240:5 *240:6 6.25378
6 *240:2 *240:4 43.8112
7 *240:3 *240:6 10.9448
*END

*D_NET *241 0.0193213

*CONN
*I *772:A1 I *C 199.9 143 *L 0.000996 *D ND4D1
*I *766:Z O *C 57.5 142.8 *L 0 *D BUFFD2

*CAP
1 *766:Z 0.000868684
2 *772:A1 0.000900497
3 *241:2 0.000473634
4 *241:3 0.000253552
5 *241:4 4.02861e-05
6 *241:5 7.12936e-05
7 *241:7 4.45467e-05
8 *241:8 0.00310241
9 *241:9 7.24298e-06
10 *241:10 0.000408211
11 *241:11 4.93753e-05
12 *241:12 0.000628388
13 *241:13 0.000701386
14 *241:8 *287:3 0.000801345
15 *241:4 *31:2 0.00122573992
16 *772:A1 *141:3 0.000302839004
17 *766:Z *364:3 0.00103313992
18 *241:8 *370:3 0.000267358008
19 *241:2 *398:4 0.000707517031
20 *241:2 *484:12 0.00352529
21 *241:2 *237:4 0.00276999
22 *241:2 *9:3 0.000703558984
23 *241:3 *491:3 0.000434966016

*RES
1 *241:7 *241:8 51.3334999
2 *766:Z *241:5 5.11878
3 *241:6 *241:2 26.3662
4 *241:3 *241:6 0.111227
5 *241:2 *241:7 0.111227
6 *772:A1 *241:4 5.87465
7 *241:10 *241:11 0.111227
8 *241:8 *241:9 0.111227
9 *241:4 *241:3 9.94618
10 *241:9 *241:10 9.22634
11 *241:11 *241:12 5.69685
12 *241:12 *241:13 2.81983
13 *241:5 *241:13 11.8958
*END

*D_NET *242 0.00129171

*CONN
*I *748:I I *C 9.5 145.4 *L 0.000942 *D CKND1
*P *242 I *C 10 153 *L 0.5

*CAP
1 *748:I 7.03758e-05
2 *242 0.000101337
3 *242:2 0.00102218
4 *242:3 9.78273e-05

*RES
1 *242:2 *242:3 6.17657995
2 *748:I *242:2 1.92142
3 *242 *242:3 0.277558
*END

*D_NET *243 0.0235425

*CONN
*I *654:I I *C 166.3 145.2 *L 0.00105 *D DEL1
*I *711:I I *C 175.5 141.6 *L 0.00105 *D DEL1
*P *243 I *C 15 153 *L 0.5

*CAP
1 *711:I 0.000622204
2 *243 0.000320514
3 *243:3 6.9061e-05
4 *243:4 0.000170455
5 *243:5 7.04382e-05
6 *243:6 0.000550455
7 *243:7 0.000252764
8 *243:8 0.000149534
9 *243:9 3.43009e-05
10 *243:10 0.000198854
11 *243:11 3.39074e-05
12 *243:12 5.16809e-05
13 *243:13 0.00012389
14 *243:14 0.000846046
15 *243:15 0.000227645
16 *243:16 0.0010428
17 *243:17 0.000849981
18 *243:18 0.000102837
19 *243:19 0.00429811
20 *243:17 *275:2 0.00580728
21 *243 *276:2 0.00124913
22 *243:4 *239:2 0.000667967031
23 *243:4 *235:2 0.00317993
24 *243:4 *411:2 0.00262272

*RES
1 *243:8 *243:9 1.5109
2 *243:18 *243:19 3.68604
3 *243:13 *243:14 9.53755
4 *243:6 *243:7 7.5942
5 *243:7 *243:8 5.33536
6 *243:15 *243:17 2.77284
7 *243:4 *243:6 15.5554
8 *243:11 *243:12 9.42702
9 *243:9 *243:10 6.43849
10 *243:10 *243:11 1.5109
11 *243:17 *243:19 70.3255005
12 *711:I *243:3 4.52411
13 *243:3 *243:16 8.7703
14 *243:14 *243:15 2.46809
15 *243:12 *243:13 0.111601
16 *243 *243:18 1.83819
17 *243:4 *243:5 1.71157
18 *654:I *243:5 1.50017
19 *243:5 *243:16 0.750084
*END

*D_NET *244 0.0161104

*CONN
*I *567:I I *C 9.1 139.6 *L 0.000643 *D CKBD0
*I *652:I I *C 11.3 141.6 *L 0.00072 *D BUFFD1
*P *244 I *C 0 5 *L 0.5

*CAP
1 *244 7.16683e-05
2 *244:3 0.000460061
3 *244:4 0.000810004
4 *244:5 0.000151529
5 *244:6 0.000366018
6 *244:7 0.00039927
7 *244:8 0.000207122
8 *244:10 0.000307224
9 *244:11 0.000377722
10 *244:13 0.00017535
11 *244:14 0.00037125
12 *244:16 2.6781e-05
13 *244:17 0.000849418
14 *244:18 2.16864e-05
15 *244:19 1.48018e-06
16 *244:20 0.000263782
17 *244:21 0.000397102
18 *244:23 0.000186572
19 *244:24 0.00225589984
20 *244:25 0.000324297
21 *244:26 1.17038e-06
22 *244:27 1.68672e-06
23 *244:28 0.000614654
24 *244:29 0.000380028
25 *244:30 1.51116e-05
26 *244:31 0.000134559
27 *244:32 0.00017504
28 *244:33 0.000243438
29 *244:34 1.17038e-06
30 *244:35 0.000121513
31 *244:36 0.000747526
32 *244:37 0.000243645
33 *244:23 *252:3 0.00119632008
34 *244:4 *295:2 0.000758625
35 *244:6 *303:3 0.000501016016
36 *244:4 *310:2 0.00123704008
37 *244:4 *312:3 0.000501563008
38 *244:3 *307 0.000444828984
39 *244:4 *311:5 0.000767167969

*RES
1 *244:4 *244:8 3.75634
2 *244:9 *244:11 3.5457
3 *244:21 *244:23 0.355409
4 *244:31 *244:32 2.02294
5 *244:22 *244:25 3.07867
6 *244:31 *244:33 3.69885
7 *244:27 *244:28 7.31756
8 *244:12 *244:13 0.199734
9 *244:30 *244:36 7.89201
10 *244:26 *244:29 4.00181
11 *244:12 *244:14 3.54402
12 *244 *244:36 0.317644
13 *244:29 *244:30 0.355409
14 *244:11 *244:13 2.18029
15 *244:6 *244:7 1.24498
16 *244:5 *244:37 2.29568
17 *244:15 *244:17 0.199734
18 *244:15 *244:3 9.13699
19 *244:10 *244:34 3.1819
20 *244:25 *244:27 0.199734
21 *244:33 *244:35 1.86768
22 *244:16 *244:17 10.3883
23 *244:3 *244:19 0.199734
24 *244:4 *244:7 6.49219
25 *244:26 *244:28 0.355409
26 *244:6 *244:37 3.70683
27 *244:18 *244:21 4.15749
28 *567:I *244:7 3.05601
29 *244:8 *244:32 3.00608
30 *244:34 *244:35 0.199734
31 *244:18 *244:20 0.355409
32 *244:23 *244:24 27.4995003
33 *244:14 *244:16 0.199734
34 *244:22 *244:24 0.199734
35 *244:9 *244:10 0.199734
36 *244:19 *244:20 4.52003
37 *652:I *244:5 0.749841
*END

*D_NET *245 0.0223247

*CONN
*P *245 I *C 0 37.4 *L 0.5
*I *824:B1 I *C 176.1 139.4 *L 0.000863 *D AO22D0

*CAP
1 *245 0.000118009
2 *245:2 0.010862
3 *245:3 0.000144197
4 *245:4 0.000223091
5 *245:5 0.000366625
6 *245:7 0.000456292
7 *245:8 0.0019518
8 *245:9 0.0011138
9 *245:10 0.000433585
10 *245:11 0.000451154
11 *245:12 0.00237394
12 *245:13 7.02752e-05
13 *245:14 9.94461e-05
14 *245:12 *248:2 0.00122083
15 *245:2 *247:8 0.00219671984
16 *245:3 *85:16 0.00024314

*RES
1 *245:3 *245:14 3.12026
2 *824:B1 *245:4 1.49959
3 *245:7 *245:8 20.5192
4 *245:7 *245:2 76.3021011
5 *245:9 *245:13 3.58365
6 *245:2 *245:12 52.8314
7 *245:6 *245:9 7.59691
8 *245:10 *245:11 3.15636
9 *245:11 *245:3 3.41133
10 *245:6 *245:8 0.200256
11 *245:5 *245:10 3.52893
12 *245:12 *245:14 45.5454
13 *245 *245:13 1.35056
14 *245:4 *245:5 2.30643
*END

*D_NET *246 0.0221251

*CONN
*P *246 I *C 0 33.8 *L 0.5
*I *823:B1 I *C 174.5 139.4 *L 0.000863 *D AO22D0

*CAP
1 *246 0.000474123
2 *246:2 0.00877979
3 *246:4 0.000464611
4 *246:5 0.000695577
5 *246:6 0.00413274
6 *246:7 0.000844687
7 *246:8 0.000237531
8 *246:9 0.00292325
9 *246:8 *326:2 0.00178152
10 *246:4 *396:3 0.000402723008
11 *246:2 *325:9 0.00138836

*RES
1 *246:8 *246:9 44.6141
2 *246:2 *246:9 51.5581
3 *246:3 *246:4 2.94618
4 *246 *246:6 4.12348
5 *246:5 *246:6 36.0173
6 *246:4 *246:7 8.4641
7 *246:5 *246:2 76.9245987
8 *823:B1 *246:3 0.750043
9 *246:7 *246:8 0.750043
*END

*D_NET *247 0.0209193

*CONN
*P *247 I *C 0 30.2 *L 0.5
*I *829:B1 I *C 172.3 139.4 *L 0.000863 *D AO22D0

*CAP
1 *247 4.48123e-05
2 *247:2 0.000375284
3 *247:3 5.65025e-05
4 *247:4 0.00982199
5 *247:5 0.000441079
6 *247:6 4.63111e-05
7 *247:8 0.00440869
8 *247:9 8.75264e-05
9 *247:10 4.22645e-05
10 *247:8 *245:2 0.00219671984
11 *247 *248 0.000619588984
12 *247:5 *323:2 0.00253085
13 *247:5 *85:2 0.000247686992

*RES
1 *247:9 *247:10 3.12017
2 *247:6 *247:8 55.2718
3 *247:5 *247:10 2.05131
4 *247:3 *247:5 5.59998
5 *247:8 *247:9 25.423
6 *829:B1 *247:2 2.90001
7 *247:4 *247:7 77.5735016
8 *247:4 *247:6 52.3635
9 *247 *247:7 0.750452
10 *247:2 *247:3 0.750452
*END

*D_NET *248 0.0200151

*CONN
*P *248 I *C 0 26.6 *L 0.5
*I *822:B1 I *C 170.7 139.4 *L 0.000863 *D AO22D0

*CAP
1 *248 0.000436463
2 *248:2 6.62684e-05
3 *248:3 0.000249564
4 *248:4 4.26123e-05
5 *248:5 0.000245491
6 *248:6 5.87486e-05
7 *248:7 0.0102669
8 *248:8 4.71555e-05
9 *248:9 0.00452583
10 *248 *247 0.000619588984
11 *248:2 *324:6 0.00223548
12 *248:2 *245:12 0.00122083

*RES
1 *248:2 *248:9 31.4889
2 *248:8 *248:9 52.9288
3 *248:6 *248:2 2.87832
4 *248:4 *248:7 78.0122986
5 *822:B1 *248:3 1.657
6 *248:7 *248:8 53.6085
7 *248:4 *248:5 2.01887
8 *248 *248:5 3.79967
9 *248:3 *248:6 0.749935
*END

*D_NET *249 0.0186518

*CONN
*P *249 I *C 0 23 *L 0.5
*I *827:B1 I *C 166.3 139.4 *L 0.000863 *D AO22D0

*CAP
1 *249 7.12528e-05
2 *249:2 0.000289261
3 *249:3 8.15937e-05
4 *249:4 0.000196618
5 *249:5 0.00928341
6 *249:7 0.00633031
7 *249:2 *251:15 0.00101992
8 *249:3 *87:19 0.000661747969
9 *249:4 *471:37 0.000223570996
10 *249:3 *393:7 0.000494002031

*RES
1 *249:2 *249:7 32.2695
2 *249:3 *249:2 13.8216
3 *249 *249:5 78.3235016
4 *249:6 *249:7 60.895
5 *827:B1 *249:4 2.09863
6 *249:5 *249:6 38.9813
7 *249:4 *249:3 0.750537
*END

*D_NET *250 0.0211087

*CONN
*P *250 I *C 0 19.4 *L 0.5
*I *830:B1 I *C 167.9 139.4 *L 0.000863 *D AO22D0

*CAP
1 *250 0.000308789
2 *250:2 0.000434086
3 *250:3 0.000213954
4 *250:4 5.14409e-05
5 *250:5 0.00941670063
6 *250:6 9.25361e-05
7 *250:7 0.000610681
8 *250:8 1.6668e-05
9 *250:9 5.76195e-05
10 *250:11 0.000670887
11 *250:12 0.00459017
12 *250:2 *327:2 0.0012631
13 *250 *252:6 0.000755872031
14 *250:2 *253:3 0.00262627

*RES
1 *830:B1 *250:3 2.01353
2 *250:5 *250:10 44.2717
3 *250:9 *250:12 31.0215
4 *250:4 *250:11 14.0077
5 *250:8 *250:2 4.09057
6 *250:6 *250:7 4.17995
7 *250:7 *250:8 0.111732
8 *250:2 *250:9 0.599824
9 *250:10 *250:12 50.5852
10 *250 *250:11 2.12291
11 *250:4 *250:5 77.078598
12 *250:3 *250:6 2.10056
*END

*D_NET *251 0.0212894

*CONN
*P *251 I *C 0 15.8 *L 0.5
*I *825:B1 I *C 164.3 139.4 *L 0.000863 *D AO22D0

*CAP
1 *825:B1 0.000243174
2 *251 0.000153577
3 *251:2 0.000133726
4 *251:3 0.000606393
5 *251:4 0.000210581
6 *251:5 0.000295618
7 *251:6 5.78092e-05
8 *251:7 1.03279e-05
9 *251:8 0.000809598
10 *251:9 0.00027161
11 *251:10 0.00143893
12 *251:11 0.000434173
13 *251:12 0.000507809
14 *251:13 0.00879008938
15 *251:14 0.000171818
16 *251:15 0.00379207
17 *251:15 *249:2 0.00101992
18 *251 *252 0.00132578
19 *251:7 *315:2 0.00101615

*RES
1 *251:13 *251:15 37.5531
2 *251:10 *251:11 4.29492
3 *251:7 *251:8 8.23212
4 *251:7 *251:13 76.6118011
5 *251:2 *251:3 4.55678
6 *825:B1 *251:2 3.19021
7 *251:4 *251:5 3.15631
8 *251:5 *251:6 0.111055
9 *251:6 *251:12 4.19555
10 *251:3 *251:4 1.97912
11 *251 *251:11 1.99081
12 *251:14 *251:15 71.522
13 *251:9 *251:10 12.271
14 *251:8 *251:9 2.37892
15 *251:12 *251:14 0.7505
*END

*D_NET *252 0.0224651

*CONN
*P *252 I *C 0 12.2 *L 0.5
*I *828:B1 I *C 161.7 139.4 *L 0.000863 *D AO22D0

*CAP
1 *252 0.000207391
2 *252:2 0.000272408
3 *252:3 0.00152989
4 *252:4 0.000225569
5 *252:5 0.000538313
6 *252:6 0.00024786
7 *252:7 0.00869567938
8 *252:8 0.000279971
9 *252:9 0.000900418
10 *252:10 0.000145956
11 *252:11 6.63438e-07
12 *252:12 0.00560764
13 *252:6 *250 0.000755872031
14 *252 *251 0.00132578
15 *252:2 *315:2 0.000535321016
16 *252:3 *244:23 0.00119632008

*RES
1 *252:9 *252:10 0.601078
2 *828:B1 *252:4 1.49974
3 *252:7 *252:12 36.308
4 *252:2 *252:3 23.4976
5 *252:3 *252:11 1.37221
6 *252:5 *252:8 1.35095
7 *252:2 *252:7 77.3915024
8 *252:10 *252:12 65.899
9 *252:6 *252:11 5.19006
10 *252:8 *252:9 11.0934
11 *252 *252:6 2.99122
12 *252:4 *252:5 4.64094
*END

*D_NET *253 0.0196303

*CONN
*P *253 I *C 0 8.6 *L 0.5
*I *826:B1 I *C 158.3 139.4 *L 0.000863 *D AO22D0

*CAP
1 *253 7.12699e-05
2 *253:2 0.000228664
3 *253:3 6.3843e-05
4 *253:4 0.00936007
5 *253:5 0.000491463
6 *253:6 0.00010312
7 *253:7 0.00668566
8 *253:3 *250:2 0.00262627

*RES
1 *253:5 *253:7 31.6456
2 *253:3 *253:5 3.54593
3 *253 *253:4 78.3235016
4 *253:6 *253:7 72.1423
5 *826:B1 *253:2 1.49988
6 *253:4 *253:6 43.6494
7 *253:2 *253:3 0.750537
*END

*D_NET *254 0.0214746

*CONN
*P *254 I *C 0 267.8 *L 0.5
*I *876:A2 I *C 10.7 141.6 *L 0.000585 *D CKAN2D0

*CAP
1 *876:A2 0.00104979
2 *254 0.000134866
3 *254:2 0.00530519
4 *254:3 3.73998e-05
5 *254:4 0.000316522
6 *254:5 9.32567e-05
7 *254:6 0.0001054
8 *254:7 0.000151785
9 *876:A2 *256:3 1.9909e-05
10 *876:A2 *256:4 1.9909e-05
11 *254:4 *256:3 1.3766e-05
12 *254:4 *256:5 2.23e-05
13 *254:5 *256:6 0.00111743
14 *254:2 *256 8.064e-06
15 *254:2 *256:5 0.00126629
16 *254:2 *256:6 0.00550576
17 *254:2 *256:7 0.00185838
18 *254:7 *256:6 0.00111232959
19 *254:3 *263:3 0.000855407031
20 *254:6 *279:3 0.00107500992
21 *254:2 *274 0.000513441016
22 *254:3 *266:2 0.000892383984

*RES
1 *254:2 *254:7 66.0877991
2 *254:4 *254:5 3.08173
3 *254:3 *254:6 11.8883
4 *876:A2 *254:3 8.503
5 *254 *254:7 1.40675
6 *254:5 *254:2 48.621
7 *254:4 *254:6 0.750264
*END

*D_NET *255 0.0251908

*CONN
*P *255 I *C 0 264.2 *L 0.5
*I *863:A2 I *C 13.7 143.2 *L 0.000585 *D CKAN2D0

*CAP
1 *255 0.000102534
2 *255:2 2.58108e-05
3 *255:3 0.00221402
4 *255:4 0.00143693
5 *255:5 0.000719155
6 *255:6 0.000307872
7 *255:7 4.14189e-05
8 *255:8 7.30743e-05
9 *255:3 *257 8.12e-07
10 *255:3 *257:3 0.00113485
11 *255:3 *257:4 0.00141472
12 *255:3 *257:5 0.00501003
13 *255:5 *257:6 7.754e-06
14 *255:5 *257:7 3.1113e-05
15 *255:5 *257:5 0.00116071
16 *255:6 *257:5 0.00138464952
17 *255:2 *267:2 0.000467151992
18 *255:3 *259 1.813e-05
19 *255:4 *259:5 3.6402e-05
20 *255:3 *259:5 0.000993401
21 *255:3 *259:6 0.00536478
22 *255:5 *259:6 0.00121453
23 *255:6 *259:6 0.00095622
24 *255:3 *259:7 0.00107479012

*RES
1 *255:3 *255:6 78.8326035
2 *255:2 *255:4 8.55014
3 *255:3 *255:5 63.0651
4 *255:7 *255:4 7.44228
5 *255 *255:6 0.94066
6 *255:8 *255:5 6.85888
7 *863:A2 *255:7 1.5
8 *255:2 *255:8 0.7494
*END

*D_NET *256 0.0272022

*CONN
*P *256 I *C 0 260.6 *L 0.5
*I *882:A2 I *C 17.3 141.6 *L 0.000585 *D CKAN2D0

*CAP
1 *256 0.000203116
2 *256:2 0.000837563
3 *256:3 0.00132159
4 *256:4 9.69081e-06
5 *256:5 0.000190776
6 *256:6 0.00197232
7 *256:7 0.000210098
8 *256:8 8.74881e-05
9 *256:9 0.0001794
10 *256:3 *257:7 4.2916e-05
11 *256:8 *257:7 5.772e-06
12 *256:5 *257:6 3.746e-06
13 *256:5 *257:3 2.9039e-05
14 *256:5 *257:7 2.398e-06
15 *256:5 *257:5 0.00113554
16 *256:6 *257:3 0.00124193
17 *256:6 *257:4 0.00135176
18 *256:6 *257:5 0.0049929
19 *256:7 *257:5 0.00135691014
20 *256:2 *260:3 0.000551630977
21 *256:3 *876:A2 1.9909e-05
22 *256:4 *876:A2 1.9909e-05
23 *256:3 *254:4 1.3766e-05
24 *256:5 *254:4 2.23e-05
25 *256:6 *254:5 0.00111743
26 *256 *254:2 8.064e-06
27 *256:5 *254:2 0.00126629
28 *256:6 *254:2 0.00550576
29 *256:7 *254:2 0.00185838
30 *256:6 *254:7 0.00111232959
31 *256:2 *262:3 0.000531458008

*RES
1 *256:6 *256:7 79.2082977
2 *256 *256:7 4.55651
3 *256:5 *256:6 63.9446
4 *256:2 *256:4 5.88478
5 *256:2 *256:8 0.949977
6 *882:A2 *256:9 2.40516
7 *256:8 *256:9 2.43417
8 *256:3 *256:4 12.7328
9 *256:3 *256:5 3.92319
*END

*D_NET *257 0.0257226

*CONN
*P *257 I *C 0 257 *L 0.5
*I *885:A2 I *C 21.3 141.6 *L 0.000585 *D CKAN2D0

*CAP
1 *257 0.000178436
2 *257:2 1.5733e-05
3 *257:3 6.81118e-05
4 *257:4 0.000229992
5 *257:5 0.0031725
6 *257:6 0.00014547
7 *257:7 0.00109739
8 *257:2 *208:3 0.000507448008
9 *257 *255:3 8.12e-07
10 *257:3 *255:3 0.00113485
11 *257:4 *255:3 0.00141472
12 *257:5 *255:3 0.00501003
13 *257:6 *255:5 7.754e-06
14 *257:7 *255:5 3.1113e-05
15 *257:5 *255:5 0.00116071
16 *257:5 *255:6 0.00138464952
17 *257:7 *256:3 4.2916e-05
18 *257:7 *256:8 5.772e-06
19 *257:6 *256:5 3.746e-06
20 *257:3 *256:5 2.9039e-05
21 *257:7 *256:5 2.398e-06
22 *257:5 *256:5 0.00113554
23 *257:3 *256:6 0.00124193
24 *257:4 *256:6 0.00135176
25 *257:5 *256:6 0.0049929
26 *257:5 *256:7 0.00135691014

*RES
1 *257:6 *257:7 10.2221
2 *257:6 *257:3 1.46669
3 *257:2 *257:7 15.5349
4 *885:A2 *257:2 1.65605
5 *257:4 *257:5 77.0818024
6 *257:3 *257:5 64.3521
7 *257 *257:4 2.74519
*END

*D_NET *258 0.0165166

*CONN
*P *258 I *C 0 253.4 *L 0.5
*I *888:A2 I *C 26.3 141.6 *L 0.000585 *D CKAN2D0

*CAP
1 *258 0.000357992
2 *258:2 5.47978e-05
3 *258:3 0.00109636
4 *258:4 0.00142805
5 *258:5 0.00657724
6 *258:6 1.81656e-05
7 *258:4 *260:2 0.00145277
8 *258:4 *261:2 0.00174873
9 *258:3 *271:2 0.00109479
10 *258:2 *281:2 0.00223174
11 *258:2 *19:2 0.000455908008

*RES
1 *258:5 *258:7 41.5267982
2 *258:2 *258:4 10.9659
3 *258:2 *258:3 25.6248
4 *258 *258:7 5.41263
5 *258:5 *258:6 36.8587
6 *258:3 *258:6 0.932097
7 *888:A2 *258:4 1.49985
*END

*D_NET *259 0.0247552

*CONN
*P *259 I *C 0 249.8 *L 0.5
*I *890:A2 I *C 29.5 141.6 *L 0.000585 *D CKAN2D0

*CAP
1 *890:A2 0.000752465
2 *259 9.22288e-05
3 *259:2 0.00027042
4 *259:3 3.99987e-05
5 *259:4 8.58341e-07
6 *259:5 0.000647962
7 *259:6 0.00281257
8 *259:7 0.000125146
9 *259 *255:3 1.813e-05
10 *259:5 *255:4 3.6402e-05
11 *259:5 *255:3 0.000993401
12 *259:6 *255:3 0.00536478
13 *259:6 *255:5 0.00121453
14 *259:6 *255:6 0.00095622
15 *259:7 *255:3 0.00107479012
16 *259:5 *263:3 0.00114332
17 *259:6 *263 1.8148e-05
18 *259:6 *263:3 0.00453912
19 *259:6 *263:4 0.00210799
20 *259:7 *263:3 0.000534436304
21 *259:2 *267:2 0.000857912031
22 *259:2 *283:2 0.000685188984
23 *890:A2 *377:3 0.000469133984

*RES
1 *259:3 *259:2 4.91566
2 *259 *259:7 0.784764
3 *259:6 *259:7 61.3177
4 *259:4 *259:5 18.5412
5 *259:2 *259:4 0.269729
6 *890:A2 *259:3 5.92767
7 *259:5 *259:6 69.5943985
*END

*D_NET *260 0.0155464

*CONN
*P *260 I *C 0 246.2 *L 0.5
*I *893:A2 I *C 33.7 141.6 *L 0.000585 *D CKAN2D0

*CAP
1 *893:A2 0.000927482
2 *260 2.05378e-05
3 *260:2 0.000123227
4 *260:3 0.00693785
5 *260:5 0.000372432
6 *260:3 *256:2 0.000551630977
7 *893:A2 *264:2 0.000736721016
8 *260:2 *258:4 0.00145277
9 *893:A2 *267:5 0.00110133008
10 *893:A2 *261:2 0.00332238

*RES
1 *260:2 *260:3 22.7822
2 *260:4 *260:5 5.70136
3 *260:3 *260:4 76.2228012
4 *893:A2 *260:2 7.41339
5 *260 *260:5 1.50036
*END

*D_NET *261 0.0175951

*CONN
*P *261 I *C 0 242.6 *L 0.5
*I *847:A2 I *C 36.9 141.6 *L 0.000585 *D CKAN2D0

*CAP
1 *847:A2 0.00111691
2 *261 2.21397e-05
3 *261:2 0.0050032
4 *261:3 1.18333e-05
5 *261:5 0.000342861
6 *261:2 *893:A2 0.00332238
7 *261:2 *262:3 0.000923582969
8 *261:3 *264:2 0.0013355
9 *261:2 *271:2 0.00119783
10 *261:2 *258:4 0.00174873
11 *847:A2 *267:5 0.0023955
12 *847:A2 *555:I 0.000174666992

*RES
1 *261:3 *261:2 25.5763
2 *261:4 *261:5 5.39023
3 *261:2 *261:4 74.4005966
4 *847:A2 *261:3 7.43484
5 *261 *261:5 1.49968
*END

*D_NET *262 0.0162145

*CONN
*P *262 I *C 0 239 *L 0.5
*I *834:A2 I *C 41.9 141.6 *L 0.000585 *D CKAN2D0

*CAP
1 *834:A2 0.000625378
2 *262 2.21052e-05
3 *262:2 0.000660166
4 *262:3 0.00593715
5 *262:4 5.41759e-05
6 *262:5 9.37659e-05
7 *262:6 0.00030141
8 *262:3 *256:2 0.000531458008
9 *262:4 *263:3 0.00155467
10 *262:3 *271:2 0.000788501953
11 *262:3 *272:3 0.00111415992
12 *262:4 *364:3 0.000862093984
13 *262:2 *267:5 0.00167033
14 *262:3 *261:2 0.000923582969
15 *262:3 *269 0.000682852031
16 *262:2 *285:2 0.000392671992

*RES
1 *262:5 *262:6 4.76756
2 *262:4 *262:3 31.2574
3 *262:2 *262:4 3.96014
4 *834:A2 *262:2 3.68486
5 *262:3 *262:5 71.0268021
6 *262 *262:6 1.49996
*END

*D_NET *263 0.0251403

*CONN
*P *263 I *C 0 235.4 *L 0.5
*I *837:A2 I *C 46.1 143.2 *L 0.000585 *D CKAN2D0

*CAP
1 *837:A2 0.00101798
2 *263 6.35174e-05
3 *263:2 1.83469e-05
4 *263:3 0.00253662984
5 *263:4 0.000120455
6 *837:A2 *264:2 1.6571e-05
7 *837:A2 *264:5 1.6571e-05
8 *263:3 *264 1.9879e-05
9 *263:3 *264:2 3.878e-06
10 *263:3 *264:6 9.52e-07
11 *263:3 *264:3 0.00401223
12 *263:3 *264:4 0.00191108
13 *263:4 *264:3 0.00195260017
14 *837:A2 *280:3 0.000792345
15 *263:2 *266:3 0.00190412
16 *263:3 *259:5 0.00114332
17 *263 *259:6 1.8148e-05
18 *263:3 *259:6 0.00453912
19 *263:4 *259:6 0.00210799
20 *263:3 *259:7 0.000534436304
21 *263:3 *254:3 0.000855407031
22 *263:3 *262:4 0.00155467

*RES
1 *263:2 *263:3 37.7141
2 *263:3 *263:4 111.889
3 *837:A2 *263:2 7.08867
4 *263 *263:4 0.628283
*END

*D_NET *264 0.0239253

*CONN
*P *264 I *C 0 231.8 *L 0.5
*I *840:A2 I *C 49.9 145.2 *L 0.000585 *D CKAN2D0

*CAP
1 *264 6.88816e-05
2 *264:2 0.00283909
3 *264:3 0.000757351
4 *264:4 0.000117489
5 *264:5 0.000180435
6 *264:6 0.000116795
7 *264:7 0.000551659
8 *264:2 *280:4 0.00119558
9 *264:2 *261:3 0.0013355
10 *264:2 *893:A2 0.000736721016
11 *264:3 *266 1.9629e-05
12 *264:2 *266:2 7.638e-06
13 *264:3 *266:2 0.00381036
14 *264:4 *266:2 0.00179052
15 *264:3 *266:4 0.00185241987
16 *264:2 *278:2 0.000611438984
17 *264:2 *837:A2 1.6571e-05
18 *264:5 *837:A2 1.6571e-05
19 *264 *263:3 1.9879e-05
20 *264:2 *263:3 3.878e-06
21 *264:6 *263:3 9.52e-07
22 *264:3 *263:3 0.00401223
23 *264:4 *263:3 0.00191108
24 *264:3 *263:4 0.00195260017

*RES
1 *264:7 *264:5 3.3955
2 *264:2 *264:6 4.77047
3 *264 *264:4 0.473091
4 *264:6 *264:3 1.087
5 *264:2 *264:5 38.4153
6 *264:3 *264:4 103.694
7 *840:A2 *264:7 0.749984
*END

*D_NET *265 0.012218

*CONN
*P *265 I *C 0 228.2 *L 0.5
*I *844:A2 I *C 54.7 145.2 *L 0.000585 *D CKAN2D0

*CAP
1 *844:A2 0.00105594
2 *265 2.212e-05
3 *265:2 0.000770965
4 *265:3 0.000108207
5 *265:4 3.46675e-05
6 *265:5 0.00423869
7 *265:7 0.000941133
8 *265:3 *273:6 0.00282628
9 *265:3 *281:2 0.000430125
10 *265:2 *268:3 0.00101678
11 *265:2 *277:2 0.000773053984

*RES
1 *265:3 *265:2 30.4034
2 *265:6 *265:7 13.6378
3 *265:4 *265:5 8.39647
4 *265:2 *265:4 0.267032
5 *844:A2 *265:3 6.66304
6 *265:5 *265:6 59.7276993
7 *265 *265:7 1.50012
*END

*D_NET *266 0.0223863

*CONN
*P *266 I *C 0 224.6 *L 0.5
*I *848:A2 I *C 59.1 145.2 *L 0.000585 *D CKAN2D0

*CAP
1 *848:A2 0.000969839
2 *266 3.97044e-05
3 *266:2 0.00415659
4 *266:3 0.000468334
5 *266:4 2.72095e-05
6 *266:2 *254:3 0.000892383984
7 *266:3 *263:2 0.00190412
8 *266 *264:3 1.9629e-05
9 *266:2 *264:2 7.638e-06
10 *266:2 *264:3 0.00381036
11 *266:2 *264:4 0.00179052
12 *266:4 *264:3 0.00185241987
13 *266:3 *270:2 0.00123668
14 *266:2 *278 0.00292266
15 *266:2 *280 0.000534101016
16 *848:A2 *274:4 0.00111807
17 *266:2 *276 0.000636029023

*RES
1 *266:3 *266:2 50.2378
2 *266:2 *266:4 84.0108032
3 *848:A2 *266:3 5.43399
4 *266 *266:4 0.317912
*END

*D_NET *267 0.0152361

*CONN
*P *267 I *C 0 221 *L 0.5
*I *851:A2 I *C 61.5 145.2 *L 0.000585 *D CKAN2D0

*CAP
1 *267 0.000317139
2 *267:2 0.00386027
3 *267:3 7.78121e-05
4 *267:4 0.000318906
5 *267:5 0.000812992
6 *267:6 0.00118432
7 *267:7 2.76849e-05
8 *267:2 *255:2 0.000467151992
9 *267:2 *259:2 0.000857912031
10 *267:5 *893:A2 0.00110133008
11 *267:5 *847:A2 0.0023955
12 *267:5 *262:2 0.00167033
13 *267:6 *269 0.000858811016
14 *267:2 *283:2 0.000517269023
15 *267:2 *542:Z 0.000768625938

*RES
1 *267:4 *267:5 2.77264
2 *267:2 *267:3 5.46657
3 *267 *267:7 4.94563
4 *267:6 *267:7 53.1775017
5 *267:2 *267:5 44.5699
6 *267:3 *267:6 3.33414
7 *851:A2 *267:4 0.749756
*END

*D_NET *268 0.0206855

*CONN
*P *268 I *C 0 217.4 *L 0.5
*I *853:A2 I *C 63.7 145.2 *L 0.000585 *D CKAN2D0

*CAP
1 *853:A2 0.000993357
2 *268 2.71784e-05
3 *268:2 0.00025715
4 *268:3 0.00326216
5 *268:4 0.000349238
6 *268:5 0.000306778
7 *268:3 *265:2 0.00101678
8 *268:2 *269:3 0.00253324016
9 *268:3 *270:3 0.00578083
10 *268:2 *273:3 0.00153972
11 *268:3 *276 0.00157223
12 *268:3 *277:3 0.000411850977
13 *268:2 *15:2 0.000338609023
14 *853:A2 *274:3 0.00229631

*RES
1 *268:2 *268:3 50.5967
2 *268:4 *268:5 3.98947
3 *268:3 *268:4 64.492897
4 *853:A2 *268:2 6.19677
5 *268 *268:5 1.49974
*END

*D_NET *269 0.0164621

*CONN
*P *269 I *C 0 213.8 *L 0.5
*I *855:A2 I *C 68.1 145.2 *L 0.000585 *D CKAN2D0

*CAP
1 *269 0.000295172
2 *269:2 0.000413009
3 *269:3 0.000293081
4 *269:4 0.00197001
5 *269:5 0.00244614
6 *269:6 0.000165241
7 *269:7 0.00023769
8 *269:8 0.000693437
9 *269 *262:3 0.000682852031
10 *269:3 *270:2 0.00344074
11 *269 *267:6 0.000858811016
12 *269:2 *274:3 0.00141223
13 *269:3 *268:2 0.00253324016
14 *269:2 *276:6 0.000506723984
15 *269:4 *275:6 0.000513777031

*RES
1 *269:2 *269:3 5.8851
2 *269:7 *269:8 8.37718
3 *269:3 *269:5 43.322
4 *269 *269:6 4.16722
5 *269:4 *269:8 2.88534
6 *269:4 *269:6 47.4631996
7 *269:5 *269:7 1.99526
8 *855:A2 *269:2 0.750303
*END

*D_NET *270 0.0198022

*CONN
*P *270 I *C 0 210.2 *L 0.5
*I *858:A2 I *C 65.9 145.2 *L 0.000585 *D CKAN2D0

*CAP
1 *858:A2 0.000972973
2 *270 0.000359007
3 *270:2 0.000315079
4 *270:3 0.00163012
5 *270:4 0.000180113
6 *270:5 0.0015649
7 *270:3 *272:4 0.0014668
8 *858:A2 *274:3 0.00113437
9 *270:2 *282:3 0.000468408008
10 *270:3 *268:3 0.00578083
11 *270:2 *266:3 0.00123668
12 *270:4 *275:3 0.00125219
13 *270:2 *269:3 0.00344074

*RES
1 *270:2 *270:3 47.7091
2 *270:3 *270:5 3.57446
3 *858:A2 *270:2 6.53805
4 *270:4 *270:5 60.1119003
5 *270 *270:4 3.98997
*END

*D_NET *271 0.0168105

*CONN
*P *271 I *C 0 206.6 *L 0.5
*I *861:A2 I *C 72.5 145.2 *L 0.000585 *D CKAN2D0

*CAP
1 *271 0.00044353
2 *271:2 0.00199356
3 *271:3 0.000297613
4 *271:4 0.00323611
5 *271:6 0.000239591
6 *271:7 0.000157423
7 *271:2 *272 0.00349783
8 *271:2 *258:3 0.00109479
9 *271:3 *110:2 0.000571781992
10 *271:3 *17:3 0.000593559961
11 *271:2 *261:2 0.00119783
12 *271:4 *276:2 0.00269843
13 *271:2 *262:3 0.000788501953

*RES
1 *271:6 *271:7 4.32938
2 *271:4 *271:7 49.3014984
3 *271:2 *271:5 41.9713
4 *861:A2 *271:3 2.60365
5 *271:3 *271:6 7.82448
6 *271:2 *271:4 3.51014
7 *271 *271:5 4.9455
*END

*D_NET *272 0.0153989

*CONN
*P *272 I *C 0 203 *L 0.5
*I *864:A2 I *C 71.3 143.2 *L 0.000585 *D CKAN2D0

*CAP
1 *272 0.00037367
2 *272:2 0.00118791
3 *272:3 0.000160637
4 *272:4 0.000485811
5 *272:5 0.000214334
6 *272:6 0.00426035031
7 *272:6 *273:5 0.00105598
8 *272:2 *275:4 0.00158148
9 *272:3 *262:3 0.00111415992
10 *272:4 *270:3 0.0014668
11 *272 *271:2 0.00349783

*RES
1 *272:4 *272:6 53.1372986
2 *272:2 *272:5 6.97459
3 *272 *272:3 4.32324
4 *272:3 *272:6 42.2384
5 *864:A2 *272:2 0.75
6 *272:5 *272:4 0.75
*END

*D_NET *273 0.0145648

*CONN
*P *273 I *C 0 199.4 *L 0.5
*I *867:A2 I *C 66.3 143.2 *L 0.000585 *D CKAN2D0

*CAP
1 *273 0.00014381
2 *273:2 0.000798088
3 *273:3 0.000136101
4 *273:5 7.41325e-05
5 *273:6 0.00204207
6 *273:7 0.0032804
7 *273:2 *274:3 0.00170994
8 *273:3 *282:3 0.000430911016
9 *273:3 *268:2 0.00153972
10 *273:4 *279 0.000527395
11 *273:5 *272:6 0.00105598
12 *273:6 *265:3 0.00282628

*RES
1 *273:6 *273:5 1.37228
2 *273:2 *273:3 8.17605
3 *273 *273:4 2.27812
4 *273:5 *273:7 22.6718
5 *273:3 *273:6 35.9987
6 *273:4 *273:7 38.5485992
7 *867:A2 *273:2 0.749961
*END

*D_NET *274 0.0143279

*CONN
*P *274 I *C 0 195.8 *L 0.5
*I *869:A2 I *C 70.1 145.2 *L 0.000585 *D CKAN2D0

*CAP
1 *274 0.000186195
2 *274:2 0.000644305
3 *274:3 0.000448232
4 *274:4 0.00149154
5 *274:5 0.000230107
6 *274:7 5.89527e-06
7 *274:8 0.00208836
8 *274 *254:2 0.000513441016
9 *274:4 *848:A2 0.00111807
10 *274:3 *853:A2 0.00229631
11 *274:3 *269:2 0.00141223
12 *274:3 *858:A2 0.00113437
13 *274:3 *273:2 0.00170994
14 *274:7 *277:2 0.0010489

*RES
1 *274:2 *274:3 5.04105
2 *274:7 *274:8 36.9294014
3 *274:3 *274:4 19.2626
4 *274 *274:6 4.01211
5 *274:5 *274:8 2.06804
6 *274:5 *274:6 33.4583
7 *274:4 *274:7 1.99478
8 *869:A2 *274:2 0.750016
*END

*D_NET *275 0.0218056

*CONN
*P *275 I *C 0 192.2 *L 0.5
*I *870:A2 I *C 72.3 141.6 *L 0.000585 *D CKAN2D0

*CAP
1 *870:A2 0.00018512
2 *275 0.000326947
3 *275:2 0.000134622
4 *275:3 0.000134797
5 *275:4 0.000953073
6 *275:6 0.000210193
7 *275:7 0.00383918
8 *275:6 *269:4 0.000513777031
9 *275:3 *270:4 0.00125219
10 *275:4 *272:2 0.00158148
11 *275:2 *243:17 0.00580728
12 *275:3 *276 0.00384517
13 *275:2 *284:4 0.00302178

*RES
1 *275:6 *275:7 5.08099
2 *275:3 *275:5 38.6735
3 *275:4 *275:2 6.77633
4 *870:A2 *275:4 2.54353
5 *275:2 *275:7 66.2529984
6 *275:3 *275:6 0.928043
7 *275 *275:5 4.01141
*END

*D_NET *276 0.0163524

*CONN
*P *276 I *C 0 188.6 *L 0.5
*I *871:A2 I *C 68.3 143.2 *L 0.000585 *D CKAN2D0

*CAP
1 *276 0.000252765
2 *276:2 0.0033696
3 *276:3 0.000566099
4 *276:5 0.000177234
5 *276:6 0.00037488
6 *276:7 0.000323103
7 *276 *266:2 0.000636029023
8 *276:6 *269:2 0.000506723984
9 *276:2 *271:4 0.00269843
10 *276 *275:3 0.00384517
11 *276:3 *277 0.000781033984
12 *276:2 *243 0.00124913
13 *276 *268:3 0.00157223

*RES
1 *276:2 *276:7 51.6809006
2 *276:6 *276:7 6.35208
3 *276:3 *276:4 35.7207
4 *871:A2 *276:5 1.49989
5 *276:3 *276:2 2.89333
6 *276 *276:4 3.8562
7 *276:5 *276:6 0.749947
*END

*D_NET *277 0.0114779

*CONN
*P *277 I *C 0 185 *L 0.5
*I *874:A2 I *C 77.3 145.2 *L 0.000585 *D CKAN2D0

*CAP
1 *277 0.000267199
2 *277:2 0.00300978
3 *277:3 0.00222113
4 *277:4 0.000752824
5 *277:5 0.000170203
6 *277:7 9.07044e-05
7 *277:8 0.000754294
8 *277:9 0.00112203
9 *277:10 7.48139e-05
10 *277:2 *265:2 0.000773053984
11 *277:2 *274:7 0.0010489
12 *277:3 *268:3 0.000411850977
13 *277 *276:3 0.000781033984

*RES
1 *277:8 *277:10 2.46208
2 *277:2 *277:10 51.0133018
3 *277:7 *277:8 5.18104
4 *277:5 *277:9 5.51964
5 *277:3 *277:9 3.06612
6 *277:3 *277:6 25.0552
7 *277:4 *277:7 4.95141
8 *277:5 *277:2 1.99504
9 *277 *277:6 3.38916
10 *874:A2 *277:4 0.750379
*END

*D_NET *278 0.0164542

*CONN
*P *278 I *C 0 181.4 *L 0.5
*I *875:A2 I *C 81.1 143.2 *L 0.000585 *D CKAN2D0

*CAP
1 *278 2.82179e-05
2 *278:2 0.0047055
3 *278:3 8.24279e-05
4 *278:4 0.000282251
5 *278:5 0.00036511
6 *278:6 7.46734e-06
7 *278:2 *264:2 0.000611438984
8 *278 *280 0.00335583
9 *278:2 *287 0.00236070984
10 *278:2 *282 0.000622457969
11 *278:2 *284 0.000386991992
12 *278 *266:2 0.00292266
13 *278:2 *283 0.000723077031

*RES
1 *278:5 *278:6 4.80214
2 *278:2 *278:4 33.2394
3 *278:3 *278:5 1.37204
4 *875:A2 *278:3 1.50043
5 *278 *278:4 0.161924
6 *278:2 *278:6 62.7919006
*END

*D_NET *279 0.0145172

*CONN
*P *279 I *C 0 177.8 *L 0.5
*I *877:A2 I *C 82.9 145.2 *L 0.000585 *D CKAN2D0

*CAP
1 *279 0.000204539
2 *279:2 0.000171555
3 *279:3 0.000412347
4 *279:4 0.000437734
5 *279:5 4.91393e-05
6 *279:6 0.000980381
7 *279:8 0.000135782
8 *279:9 0.00630204
9 *279 *273:4 0.000527395
10 *279:2 *17:6 0.00101727
11 *279:3 *283:2 0.00320406
12 *279:3 *254:6 0.00107500992

*RES
1 *279:6 *279:8 4.84303
2 *279:4 *279:5 2.83257
3 *279:6 *279:7 19.4524
4 *279:2 *279:9 61.8578987
5 *279:3 *279:8 5.42068
6 *279 *279:7 3.07798
7 *877:A2 *279:4 0.750382
8 *279:5 *279:2 0.750382
9 *279:3 *279:9 0.750382
*END

*D_NET *280 0.0173781

*CONN
*P *280 I *C 0 174.2 *L 0.5
*I *878:A2 I *C 85.9 143.2 *L 0.000585 *D CKAN2D0

*CAP
1 *280 3.69093e-05
2 *280:2 0.000260368
3 *280:3 0.00468769969
4 *280:4 8.15439e-06
5 *280:5 0.000571809
6 *280:7 0.000463441
7 *280:8 5.96558e-05
8 *280:4 *281:4 0.00211984984
9 *280 *266:2 0.000534101016
10 *280:2 *283:3 0.00329232
11 *280 *278 0.00335583
12 *280:3 *837:A2 0.000792345
13 *280:4 *264:2 0.00119558

*RES
1 *280:8 *280:3 68.3389969
2 *280:2 *280:6 20.5582
3 *280:4 *280:2 1.69242
4 *280 *280:6 2.14498
5 *280:4 *280:7 5.46307
6 *280:5 *280:8 4.32958
7 *878:A2 *280:5 1.4995
8 *280:7 *280:3 0.749752
*END

*D_NET *281 0.0174822

*CONN
*P *281 I *C 0 170.6 *L 0.5
*I *880:A2 I *C 105.3 141.6 *L 0.00104 *D AN2D2

*CAP
1 *880:A2 0.000539341
2 *281 6.46544e-05
3 *281:2 0.00778883
4 *281:3 0.000379844
5 *281:4 2.91182e-05
6 *281:6 0.000902546
7 *281:2 *258:2 0.00223174
8 *281 *283:3 0.00114697
9 *281:3 *377:4 0.000479166016
10 *281:2 *15:3 0.00136999
11 *281:4 *280:4 0.00211984984
12 *281:2 *265:3 0.000430125

*RES
1 *281:6 *281:7 21.4682
2 *281:2 *281:4 99.1080017
3 *281:2 *281:5 4.84077
4 *281:4 *281:6 2.46046
5 *281:3 *281:5 0.216254
6 *880:A2 *281:3 12.148
7 *281 *281:7 1.98863
*END

*D_NET *282 0.0126999

*CONN
*P *282 I *C 0 167 *L 0.5
*I *881:A2 I *C 78.5 143.2 *L 0.000585 *D CKAN2D0

*CAP
1 *282 2.59621e-05
2 *282:2 0.000141071
3 *282:3 0.00470008
4 *282:4 0.00112519
5 *282:5 0.000324742
6 *282:6 0.00103433
7 *282:8 0.000135046
8 *282:3 *270:2 0.000468408008
9 *282:3 *273:3 0.000430911016
10 *282 *278:2 0.000622457969
11 *282:2 *15:2 0.00143819
12 *282:2 *20:2 0.00225349

*RES
1 *282:6 *282:7 11.0046
2 *282:2 *282:4 7.12976
3 *282:2 *282:3 73.456398
4 *282 *282:7 1.83372
5 *282:6 *282:8 2.42553
6 *282:5 *282:8 2.07695
7 *282:3 *282:5 1.4997
8 *881:A2 *282:4 0.749852
*END

*D_NET *283 0.0144408

*CONN
*P *283 I *C 0 163.4 *L 0.5
*I *883:A2 I *C 79.7 145.2 *L 0.000585 *D CKAN2D0

*CAP
1 *283 1.16459e-05
2 *283:2 0.00372301
3 *283:3 0.000499299
4 *283:4 5.43667e-05
5 *283:6 0.000218773
6 *283:7 0.000363467
7 *283:8 1.30662e-06
8 *283:2 *259:2 0.000685188984
9 *283 *278:2 0.000723077031
10 *283:2 *279:3 0.00320406
11 *283:3 *280:2 0.00329232
12 *283:3 *281 0.00114697
13 *283:2 *267:2 0.000517269023

*RES
1 *283:7 *283:8 3.09931
2 *283:3 *283:5 10.7637
3 *883:A2 *283:6 1.50042
4 *283 *283:5 1.83333
5 *283:2 *283:8 61.4572983
6 *283:4 *283:2 5.84227
7 *283:3 *283:4 1.68516
8 *283:6 *283:7 0.750211
*END

*D_NET *284 0.0122309

*CONN
*P *284 I *C 0 159.8 *L 0.5
*I *884:A2 I *C 78.9 141.6 *L 0.000585 *D CKAN2D0

*CAP
1 *284 3.62531e-05
2 *284:2 0.000713922
3 *284:3 7.23711e-05
4 *284:4 0.00442429031
5 *284:5 0.000137586
6 *284:6 0.000335121
7 *284:7 0.00063561
8 *284:8 0.000202396
9 *284:4 *275:2 0.00302178
10 *284 *278:2 0.000386991992
11 *284:4 *287 0.00226448016

*RES
1 *284:6 *284:8 4.01819
2 *284:2 *284:3 4.02647
3 *284:4 *284:5 3.08886
4 *284:5 *284:7 4.05315
5 *284:4 *284:8 60.3013
6 *284 *284:7 7.10244
7 *884:A2 *284:2 1.4998
8 *284:3 *284:6 0.749902
*END

*D_NET *285 0.0124824

*CONN
*P *285 I *C 0 156.2 *L 0.5
*I *886:A2 I *C 74.9 145.2 *L 0.000585 *D CKAN2D0

*CAP
1 *886:A2 0.000861153
2 *285 7.07363e-05
3 *285:2 0.00483389
4 *285:3 9.44871e-05
5 *285:4 0.000301459
6 *285:2 *262:2 0.000392671992
7 *285:2 *869:Z 0.000414871992
8 *886:A2 *28:3 0.00365616
9 *285:2 *24:3 0.001857

*RES
1 *285:2 *285:3 83.4000015
2 *886:A2 *285:2 4.95162
3 *285 *285:4 4.18934
4 *285:3 *285:4 0.749551
*END

*D_NET *286 0.00240151

*CONN
*I *728:I I *C 5.7 145.2 *L 0.00105 *D DEL1
*P *286 I *C 0 152.6 *L 0.5

*CAP
1 *728:I 0.000398094
2 *286 9.47377e-05
3 *286:2 0.000246997
4 *286:3 0.000431762
5 *286:4 0.00122992

*RES
1 *286:2 *286:3 3.30898
2 *286:2 *286:4 6.49993992
3 *728:I *286:3 3.10626
4 *286 *286:4 1.66158
*END

*D_NET *287 0.01864

*CONN
*I *746:I I *C 146.7 145.2 *L 0.00105 *D DEL1
*P *287 I *C 0 149 *L 0.5

*CAP
1 *746:I 0.000627584
2 *287 0.00350121
3 *287:2 5.631e-05
4 *287:3 0.00170009
5 *287:4 5.26771e-05
6 *287:5 0.000477887
7 *287:6 3.25893e-05
8 *287:7 0.000586286
9 *287:8 5.5562e-05
10 *287:9 0.000649275
11 *287:10 3.8466e-05
12 *287:11 0.000619891
13 *287:12 0.000416234
14 *746:I *235:4 0.00266933
15 *287:2 *237:4 0.00173002
16 *287 *284:4 0.00226448016
17 *287:3 *241:8 0.000801345
18 *287 *278:2 0.00236070984

*RES
1 *287:7 *287:8 0.111213
2 *287 *287:12 42.6226997
3 *287:2 *287:3 34.1874
4 *287:5 *287:6 0.111213
5 *287:4 *287:5 9.3816
6 *287:6 *287:7 15.9634
7 *287:10 *287:11 6.99734
8 *287:8 *287:9 7.51438
9 *287:9 *287:10 0.111213
10 *746:I *287:2 4.6495
11 *287:11 *287:12 1.37228
12 *287:3 *287:4 0.111213
*END

*D_NET *288 0.0139698

*CONN
*I *743:I I *C 145.7 141.6 *L 0.00105 *D DEL1
*P *288 I *C 0 145.4 *L 0.5

*CAP
1 *743:I 0.000200819
2 *288 0.000992366
3 *288:2 0.000248727
4 *288:3 0.00926156063
5 *288:4 0.000513707
6 *288:5 0.000141464
7 *288:6 1.71e-05
8 *288:4 *223:7 0.000596903008
9 *288:2 *85:6 0.00025704
10 *288:3 *300:5 0.00121384
11 *288:3 *33:5 0.000526288984

*RES
1 *288:5 *288:6 0.1118
2 *288:2 *288:3 36.1796
3 *288:4 *288:2 3.08994
4 *743:I *288:4 3.83102
5 *288:3 *288:5 69.7802963
6 *288 *288:6 8.86628
*END

*D_NET *289 0.000776873

*CONN
*I *733:I I *C 5.7 141.6 *L 0.00105 *D DEL1
*P *289 I *C 0 141.8 *L 0.5

*CAP
1 *733:I 0.00029105
2 *289 0.000485825

*RES
1 *289 *733:I 7.20451
*END

*D_NET *290 0.0161626

*CONN
*I *745:I I *C 151.1 141.6 *L 0.00105 *D DEL1
*P *290 I *C 0 138.2 *L 0.5

*CAP
1 *745:I 0.000252595
2 *290 0.000143076
3 *290:2 0.00541682
4 *290:3 0.000299626
5 *290:4 0.0018433
6 *290:5 3.42193e-05
7 *290:6 0.000727946
8 *290:7 0.000346574
9 *290:8 0.000261439
10 *290:9 0.000149772
11 *290:10 0.0004775
12 *290:4 *294:3 0.0013943
13 *290 *295:2 0.000862798984
14 *290:3 *325:2 0.00134164
15 *290:3 *408:2 0.00112156
16 *290:2 *412:2 0.000542918984
17 *290:2 *315:3 0.000946481016

*RES
1 *290:8 *290:9 2.91357
2 *290:7 *290:8 6.89197
3 *290:3 *290:4 21.6253
4 *745:I *290:3 4.52803
5 *290 *290:2 0.762814
6 *290:9 *290:10 5.07099
7 *290:6 *290:7 2.84584
8 *290:5 *290:6 11.7176
9 *290:4 *290:5 0.111035
10 *290:2 *290:10 72.7682037
*END

*D_NET *291 0.0179655

*CONN
*I *741:I I *C 153.1 139.6 *L 0.00105 *D DEL1
*P *291 I *C 0 134.6 *L 0.5

*CAP
1 *291 0.000103819
2 *291:2 0.000635603
3 *291:3 0.000264656
4 *291:4 0.000965516
5 *291:5 0.00269991
6 *291:6 0.000619329
7 *291:7 0.000149631
8 *291:8 0.00042162
9 *291:9 0.000202735
10 *291:10 2.08462e-05
11 *291:11 0.000211552
12 *291:12 1.44193e-05
13 *291:13 0.000567791
14 *291:14 7.94297e-05
15 *291:15 0.000219503
16 *291:16 0.000182878
17 *291:17 0.00133449
18 *291:18 3.47711e-05
19 *291:14 *313:2 0.000635958008
20 *291:9 *432:4 0.00146556
21 *291:2 *56:4 0.000561841016
22 *291:3 *130:7 0.000895488984
23 *291:9 *429:3 0.000183312988
24 *291:9 *430:2 0.00140125
25 *291:2 *82:15 0.000974673984
26 *291:3 *435:3 0.00047844
27 *291 *292 0.00126566008
28 *291:4 *428:8 0.000433811992
29 *291:5 *317:3 0.000940958047

*RES
1 *291:16 *291:17 11.7188
2 *291:2 *291:6 10.5762
3 *291:7 *291:8 4.93029
4 *291:17 *291:18 0.111296
5 *291:4 *291:10 0.111296
6 *291:10 *291:11 6.42602
7 *291:13 *291:14 1.8239
8 *291:14 *291:15 12.2415
9 *291:5 *291:18 34.0834999
10 *741:I *291:2 4.89441
11 *291:12 *291:13 7.9826
12 *291:8 *291:9 1.9794
13 *291:3 *291:7 2.32837
14 *291:9 *291:4 26.2392
15 *291:15 *291:16 0.111296
16 *291:11 *291:12 0.111296
17 *291 *291:5 0.911688
18 *291:6 *291:3 4.46743
*END

*D_NET *292 0.018127

*CONN
*I *737:I I *C 149.1 143.2 *L 0.00105 *D DEL1
*P *292 I *C 0 131 *L 0.5

*CAP
1 *737:I 0.000292193
2 *292 0.000640839
3 *292:2 0.00010061
4 *292:3 0.000197022
5 *292:4 0.000512181
6 *292:5 0.00190928
7 *292:6 0.000294233
8 *292:7 0.00129397
9 *292:8 0.000174323
10 *292:9 7.29153e-05
11 *292:10 0.00153125
12 *292:11 0.00193697
13 *292:12 0.000301563
14 *292 *291 0.00126566008
15 *292 *295:2 0.00103996
16 *292:10 *304:2 0.00102180008
17 *292 *310:2 0.0006529
18 *292:8 *314:3 0.00148873
19 *292:4 *396:2 0.00109647
20 *292:4 *403:3 0.00145555
21 *292:2 *308:2 0.000848558984

*RES
1 *737:I *292:3 4.13177
2 *292:10 *292:12 2.43683
3 *292:9 *292:10 26.5053
4 *292:5 *292:6 0.111725
5 *292:4 *292:5 29.0518
6 *292:6 *292:7 12.1828
7 *292:2 *292:8 4.09022
8 *292 *292:11 4.83414
9 *292:11 *292:12 44.6463013
10 *292:8 *292:9 0.111725
11 *292:3 *292:4 2.32374
12 *292:7 *292:2 1.20104
*END

*D_NET *293 0.0148054

*CONN
*I *736:I I *C 150.1 145.2 *L 0.00105 *D DEL1
*P *293 I *C 0 127.4 *L 0.5

*CAP
1 *293 7.72311e-05
2 *293:2 0.000182366
3 *293:3 0.011798
4 *293:4 0.00173419
5 *293:5 0.00101355

*RES
1 *293:4 *293:6 14.4879
2 *293:2 *293:5 5.29354
3 *293 *293:3 78.3462982
4 *736:I *293:2 2.24987
5 *293:3 *293:4 36.1857
6 *293:5 *293:6 0.749559
*END

*D_NET *294 0.0132427

*CONN
*I *735:I I *C 142.3 141.6 *L 0.00105 *D DEL1
*P *294 I *C 0 123.8 *L 0.5

*CAP
1 *735:I 0.000126359
2 *294 6.91348e-05
3 *294:2 0.00123242
4 *294:3 8.45808e-05
5 *294:4 0.000366703
6 *294:5 0.000104679
7 *294:6 0.000322319
8 *294:7 6.03882e-05
9 *294:8 0.000487386
10 *294:9 0.000214662
11 *294:10 0.000209824
12 *294:11 4.62449e-05
13 *294:12 0.00609791
14 *294:13 0.00128602
15 *294:2 *87:8 0.000698863047
16 *294:3 *290:4 0.0013943
17 *294:3 *325:2 0.000441061992

*RES
1 *294:6 *294:7 0.11187
2 *735:I *294:4 3.95908
3 *294:8 *294:9 2.2911
4 *294:12 *294:13 73.3151016
5 *294:2 *294:5 0.11187
6 *294:3 *294:2 23.5397
7 *294:5 *294:6 3.15697
8 *294:10 *294:11 0.600742
9 *294:7 *294:8 6.89231
10 *294:11 *294:13 12.7755
11 *294 *294:12 1.03927
12 *294:9 *294:10 3.15697
13 *294:4 *294:3 0.749529
*END

*D_NET *295 0.0162429

*CONN
*I *734:I I *C 137.5 139.6 *L 0.00105 *D DEL1
*P *295 I *C 0 120.2 *L 0.5

*CAP
1 *295 5.33876e-05
2 *295:2 0.000524856
3 *295:3 0.000700499
4 *295:4 0.000169061
5 *295:5 0.000355552
6 *295:6 8.97107e-05
7 *295:7 0.00798803
8 *295:4 *77:3 0.00170615
9 *295:2 *290 0.000862798984
10 *295:2 *244:4 0.000758625
11 *295:2 *292 0.00103996
12 *295:2 *310:2 0.000707071016
13 *295:3 *408:15 0.000659614063
14 *295:4 *301:3 0.000627560977

*RES
1 *295:4 *295:7 24.382
2 *295:5 *295:3 6.81987
3 *295:6 *295:7 77.5680008
4 *295:3 *295:4 1.37297
5 *734:I *295:5 2.49857
6 *295:2 *295:6 14.5984
7 *295 *295:2 1.68425
*END

*D_NET *296 0.0106852

*CONN
*I *732:I I *C 129.5 141.6 *L 0.00105 *D DEL1
*P *296 I *C 0 116.6 *L 0.5

*CAP
1 *732:I 0.000159166
2 *296 0.000508764
3 *296:2 5.53941e-05
4 *296:3 7.60746e-05
5 *296:4 0.00806723
6 *296:5 0.00159449
7 *296:6 6.09335e-05
8 *732:I *433:6 0.000163183008

*RES
1 *296:4 *296:5 22.6451
2 *732:I *296:3 2.81248
3 *296 *296:2 3.19351
4 *296:5 *296:6 17.2976
5 *296:3 *296:6 1.50031
6 *296:2 *296:4 78.0350037
*END

*D_NET *297 0.0247353

*CONN
*I *729:I I *C 126.7 143.2 *L 0.00105 *D DEL1
*P *297 I *C 0 113 *L 0.5

*CAP
1 *729:I 7.80873e-05
2 *297 5.48195e-05
3 *297:2 0.00028295
4 *297:3 0.00244044
5 *297:4 0.000535241
6 *297:5 0.000430394
7 *297:6 0.000941473
8 *297:8 4.26374e-05
9 *297:9 0.000117029
10 *297:10 0.00266118
11 *297:11 0.000412445
12 *297:12 0.000405217
13 *297:13 0.00108108
14 *297:14 0.000348368
15 *297:3 *305:4 0.00149327
16 *297:2 *375:2 0.00583675
17 *297:3 *311:2 0.0031907
18 *297:4 *407:9 0.00174954
19 *297:3 *308:2 0.00147927
20 *297:2 *303:5 0.00115434

*RES
1 *297:6 *297:7 0.137278
2 *297:11 *297:12 1.97739
3 *297:5 *297:6 8.60959
4 *297:8 *297:3 63.8061981
5 *297:7 *297:2 5.56708
6 *297:2 *297:8 0.158698
7 *297:10 *297:13 20.2305
8 *297:4 *297:12 3.73962
9 *297:3 *297:9 2.57129
10 *729:I *297:11 3.70359
11 *297:4 *297:5 3.96842
12 *297:13 *297:14 2.9286
13 *297:9 *297:10 45.6592
14 *297 *297:14 0.749676
*END

*D_NET *298 0.0116964

*CONN
*I *731:I I *C 132.9 143.2 *L 0.00105 *D DEL1
*P *298 I *C 0 109.4 *L 0.5

*CAP
1 *731:I 0.000154269
2 *298 0.000729124
3 *298:2 6.11736e-05
4 *298:3 0.00833475
5 *298:4 0.00040049
6 *298:5 0.0020167

*RES
1 *298:4 *298:5 22.137
2 *298:3 *298:5 25.9104
3 *298 *298:2 5.18088
4 *731:I *298:4 3.77571
5 *298:2 *298:3 78.1076965
*END

*D_NET *299 0.0197235

*CONN
*I *575:I I *C 117.5 141.6 *L 0.00103 *D DEL01
*P *299 I *C 0 105.8 *L 0.5

*CAP
1 *575:I 4.83583e-06
2 *299 4.76989e-05
3 *299:2 0.000466108
4 *299:3 0.000532051
5 *299:4 0.000301992
6 *299:5 0.000133892
7 *299:6 0.00140129
8 *299:7 0.000228411
9 *299:8 0.000183871
10 *299:9 0.000323231
11 *299:10 0.000256079
12 *299:11 0.00033359
13 *299:12 0.000170243
14 *299:13 0.000276577
15 *299:14 0.000293392
16 *299:15 0.000373211
17 *299:16 0.000193735
18 *299:17 0.000534112
19 *299:18 0.000345515
20 *299:19 0.000123781
21 *299:20 0.00180066
22 *299:21 0.000102184
23 *299:22 0.000308284
24 *299:23 7.50103e-05
25 *299:24 0.000357824
26 *299:25 0.000561176
27 *299:26 0.000324743
28 *299:27 0.000342767
29 *299:28 0.000568512
30 *299:29 0.00123608
31 *299:30 0.000308916
32 *299:5 *305:2 0.00462018
33 *299:26 *309:3 0.00121939
34 *299:2 *434:5 0.00020862
35 *299:2 *143:6 0.000389950977
36 *299:3 *316:3 0.000775521016

*RES
1 *299:16 *299:17 5.63888
2 *299:9 *299:10 3.04226
3 *299:25 *299:26 3.01594
4 *299:18 *299:19 1.46813
5 *299:27 *299:28 3.06821
6 *299:14 *299:15 2.66837
7 *299:13 *299:14 2.51803
8 *299:10 *299:11 4.30415
9 *299:29 *299:30 2.46178
10 *299:24 *299:25 7.27827
11 *299:11 *299:12 1.8485
12 *299:4 *299:3 8.06497
13 *299:2 *299:28 3.82499
14 *299:5 *299:6 20.2088
15 *299:20 *299:21 1.08776
16 *575:I *299:27 2.29233
17 *299:22 *299:23 0.95075
18 *299:17 *299:18 3.80264
19 *299:15 *299:16 2.66224
20 *299:23 *299:24 3.61263
21 *299:21 *299:22 3.23226
22 *299:12 *299:13 3.8679
23 *299:6 *299:7 2.98962
24 *299:26 *299:29 23.6285
25 *299:7 *299:8 2.47188
26 *299:19 *299:20 19.0666
27 *299:2 *299:4 3.27985
28 *299:8 *299:9 3.803
29 *299:3 *299:5 3.17962
30 *299 *299:30 0.749928
*END

*D_NET *300 0.0143246

*CONN
*I *723:I I *C 124.3 145.2 *L 0.00103 *D DEL2
*P *300 I *C 0 102.2 *L 0.5

*CAP
1 *300 0.000715541
2 *300:2 0.00488062
3 *300:3 0.000263711
4 *300:4 0.00297469
5 *300:5 0.000549019
6 *300:6 0.00154443
7 *300:7 0.000599065
8 *300:9 0.000358217
9 *300:10 0.000303628
10 *300:5 *288:3 0.00121384
11 *300:2 *110:2 0.000225985
12 *300:2 *17:3 0.000695868047

*RES
1 *300:5 *300:2 61.2942009
2 *300:9 *300:10 4.32845
3 *300:8 *300:10 0.200149
4 *300:2 *300:7 7.13615
5 *300:4 *300:6 35.7986
6 *300:3 *300:5 1.94444
7 *723:I *300:3 3.02842
8 *300:7 *300:9 0.200149
9 *300:6 *300:8 19.7914
10 *300 *300:4 5.02617
*END

*D_NET *301 0.0167181

*CONN
*I *730:I I *C 141.9 143.2 *L 0.00105 *D DEL1
*P *301 I *C 0 98.6 *L 0.5

*CAP
1 *730:I 0.0001345
2 *301 9.60917e-05
3 *301:2 0.000401485
4 *301:3 0.000817643
5 *301:4 6.57394e-05
6 *301:5 0.00942720063
7 *301:6 0.00115425
8 *301:7 0.00275357
9 *301:3 *295:4 0.000627560977
10 *301:3 *77:5 0.000939182969
11 *730:I *343:3 0.000300772988

*RES
1 *301:5 *301:7 14.0549
2 *301 *301:4 0.444595
3 *301:6 *301:7 30.5683
4 *301:2 *301:3 5.10687
5 *730:I *301:2 6.02354
6 *301:4 *301:5 78.3252029
7 *301:3 *301:6 17.9822
*END

*D_NET *302 0.0214364

*CONN
*I *744:I I *C 113.9 139.6 *L 0.00105 *D DEL1
*P *302 I *C 0 95 *L 0.5

*CAP
1 *302 0.000290121
2 *302:2 0.000693673
3 *302:3 0.000440123
4 *302:4 0.00048274
5 *302:5 0.000163723
6 *302:6 0.000156107
7 *302:7 0.00381023
8 *302:8 0.00247911
9 *302 *305:3 0.00418615
10 *302:2 *143:8 0.000424418008
11 *302 *311:5 0.00176871
12 *302 *309:10 0.00543764
13 *302:2 *137:5 0.000907846953
14 *302:3 *429:2 0.000195869004

*RES
1 *302:7 *302:8 31.7172
2 *302:6 *302:7 85.9322968
3 *302:3 *302:6 2.98959
4 *302:2 *302:4 8.7157
5 *302 *302:8 3.19021
6 *302:5 *302:3 7.71523
7 *302:4 *302:5 3.17972
8 *302:2 *302:9 4.21951
9 *744:I *302:9 1.50004
*END

*D_NET *303 0.0203355

*CONN
*I *742:I I *C 106.3 141.6 *L 0.00105 *D DEL1
*P *303 I *C 0 91.4 *L 0.5

*CAP
1 *303 0.000101743
2 *303:2 0.00260127
3 *303:3 0.0026251
4 *303:4 0.000133708
5 *303:5 0.000172563
6 *303:6 0.00247261
7 *303:5 *297:2 0.00115434
8 *303:2 *406:4 0.00135142
9 *303:3 *413:2 0.000345564023
10 *303:2 *375:2 0.00248783
11 *303 *311:6 0.00196987
12 *303:3 *244:6 0.000501016016
13 *303 *312:6 0.00441841969

*RES
1 *303:3 *303:6 36.6964
2 *303:2 *303:4 2.58629
3 *303 *303:6 1.06123
4 *742:I *303:5 5.21525
5 *303:4 *303:3 48.5011
6 *303:2 *303:5 51.7859001
*END

*D_NET *304 0.0160459

*CONN
*P *304 I *C 0 87.8 *L 0.5
*I *850:A2 I *C 85.9 141.6 *L 0.00104 *D AN2XD1

*CAP
1 *304 0.000258035
2 *304:2 0.000662166
3 *304:3 0.000849696
4 *304:4 0.00105645
5 *304:5 0.00021055
6 *304:6 0.000210765
7 *304:7 0.000146898
8 *304:8 0.000416229
9 *304:9 4.97869e-06
10 *304:10 0.00303572
11 *304:11 0.000216011
12 *304:12 0.000433788
13 *304:13 8.95093e-05
14 *304:14 0.000322384
15 *304:15 0.000629242
16 *304:16 0.000133086
17 *304:17 0.00350837
18 *304:8 *109:2 0.0001784
19 *304:2 *292:10 0.00102180008
20 *304:3 *306:2 0.00110936
21 *304 *312:7 0.000769846953
22 *304:4 *413:2 0.000782558047

*RES
1 *304:12 *304:13 1.04529
2 *304:5 *304:6 2.33418
3 *850:A2 *304:2 5.78283
4 *304:13 *304:14 5.95781
5 *304:11 *304:12 6.26888
6 *304:8 *304:4 10.6039
7 *304:2 *304:5 2.13461
8 *304:10 *304:11 2.44568
9 *304:6 *304:3 9.22577
10 *304:15 *304:17 37.4748993
11 *304 *304:16 3.0621
12 *304:4 *304:9 0.111505
13 *304:16 *304:17 2.92887
14 *304:14 *304:15 0.600413
15 *304:3 *304:7 1.04872
16 *304:7 *304:8 3.32343
17 *304:9 *304:10 24.59
*END

*D_NET *305 0.0205228

*CONN
*P *305 I *C 0 84.2 *L 0.5
*I *845:A2 I *C 101.3 139.6 *L 0.00104 *D AN2XD1

*CAP
1 *305 4.82623e-05
2 *305:2 0.0053247
3 *305:3 0.00214711
4 *305:4 0.000316061
5 *305:5 4.46873e-05
6 *305:6 0.00035043
7 *305:8 0.000315411
8 *305:2 *308:3 0.000759827031
9 *305:2 *306:2 0.000709777031
10 *305:2 *299:5 0.00462018
11 *305:2 *429:2 0.000206907012
12 *305:3 *302 0.00418615
13 *305:4 *297:3 0.00149327

*RES
1 *305:3 *305:6 22.1194
2 *305:4 *305:2 93.9784012
3 *305:2 *305:5 1.95884
4 *305:4 *305:7 4.26327
5 *305:5 *305:6 17.7816
6 *305:3 *305:8 2.77335
7 *305 *305:8 0.74998
8 *845:A2 *305:7 1.49996
*END

*D_NET *306 0.0153241

*CONN
*P *306 I *C 0 80.6 *L 0.5
*I *852:A2 I *C 73.5 139.6 *L 0.00104 *D AN2XD1

*CAP
1 *306 5.87273e-05
2 *306:2 0.000418866
3 *306:3 0.00259524
4 *306:4 0.000291005
5 *306:5 0.00391924
6 *306:2 *304:3 0.00110936
7 *306:2 *305:2 0.000709777031
8 *306:3 *310:2 0.00136679
9 *306:2 *317:3 0.000833586016
10 *306:2 *369:3 0.00130828
11 *306:2 *316:4 0.00271328

*RES
1 *306:2 *306:3 56.5763016
2 *306:4 *306:5 2.46209
3 *306:3 *306:5 43.5744
4 *852:A2 *306:2 5.0131
5 *306 *306:4 0.750195
*END

*D_NET *307 0.0114236

*CONN
*P *307 I *C 0 77 *L 0.5
*I *842:A2 I *C 100.1 139.6 *L 0.00104 *D AN2XD1

*CAP
1 *307 0.000261152
2 *307:2 0.000191295
3 *307:3 0.000240415
4 *307:4 0.000307197
5 *307:5 0.000326089
6 *307:6 0.000548402
7 *307:7 0.00575862
8 *307:8 0.0033456
9 *307 *244:3 0.000444828984

*RES
1 *307:6 *307:8 39.492
2 *307:4 *307:5 3.02596
3 *307:3 *307:7 3.32915
4 *307:7 *307:8 77.3135986
5 *842:A2 *307:2 1.49941
6 *307 *307:5 2.60126
7 *307:3 *307:4 3.20056
8 *307:2 *307:6 2.27802
*END

*D_NET *308 0.0187068

*CONN
*P *308 I *C 0 73.4 *L 0.5
*I *854:A2 I *C 96.9 139.6 *L 0.00104 *D AN2XD1

*CAP
1 *308 0.000390399
2 *308:2 0.000423788
3 *308:3 0.00250224
4 *308:4 0.00330041
5 *308:5 0.000460753
6 *308:6 4.13968e-05
7 *308:7 0.000710695
8 *308:8 0.000111449
9 *308:2 *292:2 0.000848558984
10 *308:2 *297:3 0.00147927
11 *308:3 *305:2 0.000759827031
12 *308 *310:3 0.00261123984
13 *308:3 *314:2 0.00292528
14 *308 *317:2 0.00214146

*RES
1 *308:2 *308:5 14.9342
2 *308:7 *308:8 0.111697
3 *308:6 *308:7 9.33784
4 *308:3 *308:4 48.863
5 *854:A2 *308:2 3.08437
6 *308:5 *308:6 0.111697
7 *308:3 *308:8 50.483799
8 *308 *308:4 4.27914
*END

*D_NET *309 0.0225255

*CONN
*P *309 I *C 0 69.8 *L 0.5
*I *856:A2 I *C 90.9 139.6 *L 0.00104 *D AN2XD1

*CAP
1 *309 0.000264318
2 *309:2 0.000181895
3 *309:3 0.00133989
4 *309:4 0.000583259
5 *309:5 0.000645918
6 *309:6 0.00021089
7 *309:7 0.000237495
8 *309:8 0.00355836
9 *309:9 6.47221e-05
10 *309:10 0.000761245
11 *309:11 1.68321e-06
12 *309:13 0.0018878
13 *309:10 *302 0.00543764
14 *309 *311:8 0.00210992
15 *309:2 *112:2 0.00402102
16 *309:3 *299:26 0.00121939

*RES
1 *309:4 *309:5 7.06189
2 *309:6 *309:7 2.56696
3 *309:7 *309:2 2.98768
4 *309:9 *309:10 7.42529
5 *309:9 *309:3 0.199991
6 *309 *309:13 1.99504
7 *309:5 *309:6 2.19137
8 *309:11 *309:13 20.8076
9 *309:2 *309:8 79.9185028
10 *309:8 *309:3 24.8477
11 *309:4 *309:12 3.55107
12 *309:10 *309:11 0.199991
13 *856:A2 *309:12 0.749968
*END

*D_NET *310 0.0170917

*CONN
*P *310 I *C 0 66.2 *L 0.5
*I *857:A2 I *C 66.3 139.6 *L 0.00104 *D AN2XD1

*CAP
1 *310 0.000270389
2 *310:2 0.00120484
3 *310:3 0.000189196
4 *310:4 0.000438125
5 *310:5 0.00417332969
6 *310:6 0.000242179
7 *310:7 0.000343622
8 *310:2 *295:2 0.000707071016
9 *310:4 *317:3 0.00221866984
10 *310:4 *369:4 0.000827187031
11 *310 *311:8 0.000609022031
12 *310:2 *244:4 0.00123704008
13 *310:3 *308 0.00261123984
14 *310:2 *292 0.0006529
15 *310:2 *306:3 0.00136679

*RES
1 *310:4 *310:2 52.8126984
2 *310:3 *310:7 5.34767
3 *310:3 *310:6 2.32812
4 *310:2 *310:5 45.0781
5 *857:A2 *310:4 3.39508
6 *310 *310:7 2.80197
7 *310:5 *310:6 2.96878
*END

*D_NET *311 0.021784

*CONN
*P *311 I *C 0 62.6 *L 0.5
*I *859:A2 I *C 77.9 139.6 *L 0.00104 *D AN2XD1

*CAP
1 *311 0.000116087
2 *311:2 0.00260540016
3 *311:3 0.000372314
4 *311:5 0.00225078
5 *311:6 0.000169161
6 *311:7 1.47097e-06
7 *311:8 0.00177343
8 *311:5 *244:4 0.000767167969
9 *311:2 *297:3 0.0031907
10 *311:5 *302 0.00176871
11 *311:6 *303 0.00196987
12 *311:8 *309 0.00210992
13 *311:8 *310 0.000609022031
14 *311:2 *112:2 0.00407999

*RES
1 *311:7 *311:8 21.2969
2 *311:6 *311:7 0.200025
3 *311:4 *311:6 3.38882
4 *311:2 *311:3 84.5733032
5 *311 *311:8 2.87907
6 *311:4 *311:5 0.200025
7 *311:2 *311:5 32.7848
8 *859:A2 *311:3 2.76164
*END

*D_NET *312 0.0179393

*CONN
*P *312 I *C 0 59 *L 0.5
*I *860:A2 I *C 75.5 139.6 *L 0.00104 *D AN2XD1

*CAP
1 *312 2.50609e-05
2 *312:2 0.000347353
3 *312:3 0.00521387
4 *312:5 9.94482e-06
5 *312:6 0.00273363
6 *312:7 0.00248318
7 *312:6 *303 0.00441841969
8 *312:7 *304 0.000769846953
9 *312:2 *375:4 0.00143638
10 *312:3 *244:4 0.000501563008

*RES
1 *312:2 *312:3 75.4307022
2 *312:5 *312:6 36.0625
3 *312:4 *312:7 25.6266
4 *312:3 *312:5 1.39729
5 *860:A2 *312:2 3.29641
6 *312:4 *312:6 0.200271
7 *312 *312:7 0.75044
*END

*D_NET *313 0.0125322

*CONN
*P *313 I *C 0 55.4 *L 0.5
*I *862:A2 I *C 81.9 139.6 *L 0.00104 *D AN2XD1

*CAP
1 *313 0.000209727
2 *313:2 0.000508084
3 *313:3 7.97813e-05
4 *313:4 0.000371703
5 *313:5 0.000222232
6 *313:6 7.03479e-05
7 *313:7 0.000425598
8 *313:8 0.000105156
9 *313:9 0.00395338
10 *313:10 0.00479235969
11 *313:2 *291:14 0.000635958008
12 *313:3 *862:A1 0.000684351016
13 *313:2 *77:32 0.000473505

*RES
1 *313:6 *313:7 10.6288
2 *313:2 *313:6 1.97303
3 *313:4 *313:5 3.03288
4 *313:3 *313:4 4.5971
5 *313 *313:9 2.43955
6 *313:9 *313:10 46.0344
7 *313:8 *313:10 62.0163994
8 *313:5 *313:2 3.70664
9 *313:7 *313:8 1.47622
10 *862:A2 *313:3 0.750412
*END

*D_NET *314 0.0184417

*CONN
*P *314 I *C 0 51.8 *L 0.5
*I *879:A2 I *C 84.7 139.6 *L 0.00104 *D AN2XD1

*CAP
1 *314 0.000491386
2 *314:2 0.0016861
3 *314:3 0.000480562
4 *314:4 0.0018435
5 *314:5 0.005415
6 *314:2 *413:2 0.00160028
7 *314:2 *308:3 0.00292528
8 *314 *316:9 0.00251086
9 *314:3 *292:8 0.00148873

*RES
1 *314:3 *314:4 25.4727
2 *314 *314:5 4.48486
3 *314:2 *314:4 38.835
4 *879:A2 *314:3 2.99094
5 *314:2 *314:5 67.1970978
*END

*D_NET *315 0.0134863

*CONN
*P *315 I *C 0 48.2 *L 0.5
*I *865:A2 I *C 87.9 139.6 *L 0.00104 *D AN2XD1

*CAP
1 *315 0.000107575
2 *315:2 0.00174581
3 *315:3 0.000149614
4 *315:4 5.12669e-05
5 *315:5 0.000195242
6 *315:6 0.000503014
7 *315:7 0.0021263
8 *315:8 0.00559963
9 *315:2 *252:2 0.000535321016
10 *315:3 *290:2 0.000946481016
11 *315:7 *109:2 0.000199020996
12 *315:3 *154:2 0.00031074
13 *315:2 *251:7 0.00101615

*RES
1 *315:7 *315:8 71.8616028
2 *315:2 *315:8 33.2728
3 *315:6 *315:7 29.753
4 *315:4 *315:5 6.68659
5 *865:A2 *315:3 1.50004
6 *315:5 *315:6 0.111845
7 *315 *315:2 1.35091
8 *315:3 *315:4 0.75002
*END

*D_NET *316 0.022111

*CONN
*P *316 I *C 0 44.6 *L 0.5
*I *866:A2 I *C 111.9 139.6 *L 0.00104 *D AN2XD1

*CAP
1 *866:A2 0.000214112
2 *316 0.000454079
3 *316:2 9.57844e-05
4 *316:3 0.000392247
5 *316:4 0.00603
6 *316:5 0.000361515
7 *316:6 3.0732e-05
8 *316:7 8.37308e-05
9 *316:8 0.000818354
10 *316:9 0.00280406
11 *316:3 *299:3 0.000775521016
12 *316:4 *306:2 0.00271328
13 *316:9 *314 0.00251086
14 *316 *317:2 0.00305426
15 *316:4 *130:5 0.000713982969
16 *316:3 *429:2 0.000767518984
17 *316:3 *434:4 0.000291027988

*RES
1 *316:6 *316:7 3.6232
2 *316:4 *316:8 77.623497
3 *316:7 *316:8 0.111337
4 *316:3 *316:6 2.0704
5 *316:2 *316:5 1.23892
6 *316:2 *316:3 3.98446
7 *866:A2 *316:5 5.46501
8 *316 *316:9 4.01762
9 *316:4 *316:9 71.0878
*END

*D_NET *317 0.0246582

*CONN
*P *317 I *C 0 41 *L 0.5
*I *868:A2 I *C 108.1 139.6 *L 0.00104 *D AN2XD1

*CAP
1 *317 0.000414943
2 *317:2 0.00392004
3 *317:3 0.00374885
4 *317:4 0.000369603
5 *317:5 0.000450833
6 *317:6 0.00050377
7 *317:7 5.87991e-05
8 *317:3 *291:5 0.000940958047
9 *317:3 *369:3 0.00507829
10 *317:4 *429:2 0.000746148984
11 *317:2 *308 0.00214146
12 *317:2 *316 0.00305426
13 *317:3 *428:6 0.000177965996
14 *317:3 *306:2 0.000833586016
15 *317:3 *310:4 0.00221866984

*RES
1 *317:3 *317:7 70.5411
2 *317:4 *317:5 3.95231
3 *317 *317:2 3.55127
4 *317:6 *317:7 0.111654
5 *868:A2 *317:4 4.27474
6 *317:5 *317:6 19.4972
7 *317:3 *317:2 74.6666031
*END

*D_NET *318 0.0224744

*CONN
*P *318 I *C 324 5 *L 0.5
*I *873:A2 I *C 163.7 139.6 *L 0.000664 *D NR2D0

*CAP
1 *318 6.09252e-05
2 *318:2 0.000228196
3 *318:3 0.00187192
4 *318:4 0.0102641
5 *318:5 2.50592e-05
6 *318:6 0.000108225
7 *318:7 0.00710711
8 *318:2 *325:7 0.00280887

*RES
1 *318:5 *318:7 74.9541
2 *318 *318:3 19.1906
3 *318:6 *318:7 31.6447
4 *318:4 *318:5 28.2445
5 *873:A2 *318:2 2.42553
6 *318:3 *318:4 77.8069992
7 *318:2 *318:6 1.49948
*END

*D_NET *319 0.01986

*CONN
*I *571:I I *C 206.7 141.6 *L 0.00103 *D DEL01
*P *319 I *C 324 48.2 *L 0.5

*CAP
1 *319 6.0858e-05
2 *319:2 0.000936244
3 *319:3 0.00231627
4 *319:4 0.000785839
5 *319:5 0.000311345
6 *319:6 0.000380903
7 *319:7 0.00170934
8 *319:8 3.31098e-05
9 *319:9 3.16518e-05
10 *319:10 0.000326583
11 *319:11 6.43383e-05
12 *319:12 0.000481832
13 *319:13 0.000135543
14 *319:14 0.00308217
15 *319:2 *331:5 0.00387801
16 *319:3 *338:17 0.000660487031
17 *319:4 *78:5 0.00101645992
18 *319:3 *332 0.00210569
19 *319:2 *334:3 0.000792741016
20 *319:2 *130:9 0.000750556016

*RES
1 *319:6 *319:7 22.7414
2 *319:10 *319:11 0.111326
3 *319:3 *319:14 22.2062
4 *319:6 *319:14 48.3168983
5 *319:2 *319:13 4.35129
6 *319:5 *319:2 5.57367
7 *571:I *319:5 1.65588
8 *319:4 *319:9 0.111326
9 *319:7 *319:8 0.111326
10 *319:8 *319:4 19.496
11 *319:11 *319:12 5.02367
12 *319:9 *319:10 4.16624
13 *319:12 *319:13 0.111326
14 *319 *319:3 37.4748
*END

*D_NET *320 0.024152

*CONN
*I *570:I I *C 209.5 145.2 *L 0.00103 *D DEL01
*P *320 I *C 324 44.6 *L 0.5

*CAP
1 *320 6.08272e-05
2 *320:2 0.000104663
3 *320:3 0.000413796
4 *320:4 0.00186808
5 *320:5 0.00935752938
6 *320:6 0.00518544
7 *320:7 0.00248006
8 *320:2 *234:5 0.00352659
9 *320:2 *48:3 0.00115488008

*RES
1 *320:6 *320:7 78.0407028
2 *320 *320:4 19.1898
3 *320:2 *320:7 33.0961
4 *320:5 *320:6 17.818
5 *570:I *320:3 2.89723
6 *320:4 *320:5 77.8073
7 *320:3 *320:2 1.50042
*END

*D_NET *321 0.0186454

*CONN
*P *321 I *C 324 41 *L 0.5
*I *829:A2 I *C 172.5 139.6 *L 0.000745 *D AO22D0

*CAP
1 *321 6.08714e-05
2 *321:2 0.00022211
3 *321:3 0.0010259
4 *321:4 0.00195242
5 *321:5 0.00927723
6 *321:6 5.90311e-05
7 *321:7 0.00604793

*RES
1 *321:5 *321:7 15.1444
2 *321 *321:4 19.1906
3 *321:6 *321:7 77.5755
4 *829:A2 *321:2 1.6562
5 *321:4 *321:5 77.8069992
6 *321:3 *321:6 7.75268
7 *321:2 *321:3 0.750336
*END

*D_NET *322 0.0189499

*CONN
*P *322 I *C 324 37.4 *L 0.5
*I *822:A2 I *C 170.9 139.6 *L 0.000745 *D AO22D0

*CAP
1 *822:A2 0.000183898
2 *322 6.08555e-05
3 *322:2 0.000161052
4 *322:3 0.000637548
5 *322:4 0.00671408
6 *322:5 0.000142713
7 *322:6 0.000228772
8 *322:7 0.000208589
9 *322:8 0.000576898
10 *322:10 0.000613063
11 *322:11 0.000180313
12 *322:12 0.00118515
13 *322:13 0.00572871
14 *322:3 *55:2 0.000410393008
15 *322:8 *86:2 0.000555065977
16 *322:3 *130:3 0.00136278

*RES
1 *322:10 *322:11 0.112107
2 *322:5 *322:6 1.06735
3 *322:6 *322:7 2.48971
4 *822:A2 *322:2 3.08411
5 *322:11 *322:12 2.02259
6 *322:7 *322:8 3.42393
7 *322:4 *322:13 67.4311
8 *322:5 *322:13 76.531601
9 *322:8 *322:9 6.22427
10 *322:3 *322:12 13.8475
11 *322:9 *322:10 8.92767
12 *322:2 *322:3 4.17948
13 *322 *322:4 19.1901
*END

*D_NET *323 0.0198416

*CONN
*P *323 I *C 324 33.8 *L 0.5
*I *827:A2 I *C 166.5 139.6 *L 0.000745 *D AO22D0

*CAP
1 *323 6.08318e-05
2 *323:2 0.00482778
3 *323:3 0.000227625
4 *323:4 0.00152563
5 *323:5 0.00719605
6 *323:6 4.56788e-05
7 *323:7 0.000105303
8 *323:6 *326:3 0.0033218
9 *323:2 *247:5 0.00253085

*RES
1 *323:6 *323:2 52.4606
2 *323 *323:4 19.1906
3 *323:7 *323:2 31.6447
4 *323:5 *323:6 26.0659
5 *827:A2 *323:3 1.49948
6 *323:4 *323:5 77.8069992
7 *323:3 *323:7 1.49948
*END

*D_NET *324 0.019245

*CONN
*P *324 I *C 324 30.2 *L 0.5
*I *830:A2 I *C 168.1 139.6 *L 0.000745 *D AO22D0

*CAP
1 *324 6.08384e-05
2 *324:2 0.000189405
3 *324:3 0.00152563
4 *324:4 0.00765268
5 *324:5 1.92674e-05
6 *324:6 0.000127048
7 *324:7 0.00743467
8 *324:6 *248:2 0.00223548

*RES
1 *324:5 *324:7 55.272
2 *324 *324:3 19.1906
3 *324:6 *324:7 31.6447
4 *324:4 *324:5 23.4195
5 *830:A2 *324:2 1.49948
6 *324:3 *324:4 77.8069992
7 *324:2 *324:6 3.15094
*END

*D_NET *325 0.0239421

*CONN
*I *569:I I *C 137.9 141.6 *L 0.00103 *D DEL01
*P *325 I *C 324 26.6 *L 0.5

*CAP
1 *325 5.33239e-05
2 *325:2 0.00227314
3 *325:3 0.000184819
4 *325:4 0.00152561
5 *325:5 0.00720532
6 *325:7 0.000108847
7 *325:8 0.000506852
8 *325:9 0.00437509
9 *325:9 *246:2 0.00138836
10 *325:2 *294:3 0.000441061992
11 *325:7 *318:2 0.00280887
12 *325:2 *326:2 0.00116682008
13 *325:2 *87:19 0.000562223008
14 *325:2 *290:3 0.00134164

*RES
1 *325:7 *325:8 1.48761
2 *325:2 *325:8 25.5767
3 *325 *325:4 19.1906
4 *325:7 *325:9 31.3337
5 *325:6 *325:9 58.0834
6 *325:5 *325:6 27.6212
7 *325:3 *325:2 2.30562
8 *569:I *325:3 1.49948
9 *325:4 *325:5 77.8069992
*END

*D_NET *326 0.0210774

*CONN
*P *326 I *C 324 23 *L 0.5
*I *828:A2 I *C 161.5 139.6 *L 0.000745 *D AO22D0

*CAP
1 *326 6.09221e-05
2 *326:2 0.000304285
3 *326:3 0.00549155
4 *326:4 0.000244664
5 *326:5 0.00152565
6 *326:6 0.00710414
7 *326:7 5.34423e-05
8 *326:8 2.26561e-05
9 *326:2 *325:2 0.00116682008
10 *326:2 *246:8 0.00178152
11 *326:3 *323:6 0.0033218

*RES
1 *326 *326:5 19.1906
2 *326:8 *326:3 31.4892
3 *326:8 *326:2 2.47777
4 *326:7 *326:3 60.8948
5 *326:6 *326:7 26.5325
6 *326:4 *326:2 3.38601
7 *828:A2 *326:4 1.49948
8 *326:5 *326:6 77.8069992
*END

*D_NET *327 0.0180288

*CONN
*P *327 I *C 324 19.4 *L 0.5
*I *826:A2 I *C 158.5 139.6 *L 0.000745 *D AO22D0

*CAP
1 *327 5.32144e-05
2 *327:2 0.000553173
3 *327:4 0.00152565
4 *327:5 0.00840338062
5 *327:6 0.000103223
6 *327:7 3.70577e-05
7 *327:8 0.00609016
8 *327:2 *250:2 0.0012631

*RES
1 *327:6 *327:8 63.7073
2 *327:3 *327:2 3.61159
3 *327 *327:4 19.1906
4 *327:7 *327:8 29.9291
5 *327:5 *327:6 31.9783
6 *327:4 *327:5 77.8069992
7 *826:A2 *327:3 0.750336
8 *327:2 *327:7 0.750336
*END

*D_NET *328 0.0111448

*CONN
*I *572:I I *C 288.7 143.2 *L 0.00103 *D DEL015
*P *328 I *C 324 15.8 *L 0.5

*CAP
1 *328 6.09256e-05
2 *328:2 0.000370058
3 *328:3 0.00292088
4 *328:4 2.50103e-05
5 *328:5 0.00776802

*RES
1 *572:I *328:2 4.17715
2 *328 *328:3 28.6049
3 *328:4 *328:5 34.337
4 *328:3 *328:5 66.6067963
5 *328:2 *328:4 0.750058
*END

*D_NET *329 0.0126473

*CONN
*I *573:I I *C 279.7 139.6 *L 0.000968 *D CKBD1
*P *329 I *C 324 12.2 *L 0.5

*CAP
1 *573:I 2.49972e-05
2 *329 5.3306e-05
3 *329:2 6.23862e-05
4 *329:3 7.93715e-05
5 *329:4 0.00355612
6 *329:5 0.00700082
7 *329:2 *335:3 0.00187039

*RES
1 *329:4 *329:5 69.4224014
2 *573:I *329:3 1.49997
3 *329:2 *329:5 31.6816
4 *329 *329:4 34.9856
5 *329:3 *329:2 1.49997
*END

*D_NET *330 0.0217034

*CONN
*I *568:I I *C 216.1 141.6 *L 0.00103 *D DEL01
*P *330 I *C 324 8.6 *L 0.5

*CAP
1 *568:I 0.000458183
2 *330 6.09272e-05
3 *330:2 5.08374e-05
4 *330:3 0.00038031
5 *330:4 2.08265e-05
6 *330:5 0.000439426
7 *330:6 2.06971e-05
8 *330:7 0.000432182
9 *330:8 0.00152564
10 *330:9 0.00675089
11 *330:10 0.000892176
12 *330:11 2.49659e-05
13 *330:12 0.00847742
14 *330:3 *192:4 0.000718927969
15 *568:I *128:3 0.00145004

*RES
1 *330:2 *330:3 7.62446
2 *330:5 *330:6 0.425032
3 *330:4 *330:5 9.05983
4 *330:6 *330:7 4.19571
5 *330:8 *330:9 77.8069992
6 *330 *330:8 19.1906
7 *568:I *330:2 3.99032
8 *330:11 *330:12 72.1427
9 *330:9 *330:11 10.9713
10 *330:10 *330:12 36.326
11 *330:3 *330:4 0.134158
12 *330:7 *330:10 8.79389
*END

*D_NET *331 0.0201481

*CONN
*I *758:Z O *C 192.9 142 *L 0 *D BUFFD16
*P *331 O *C 324 77 *L 0.5

*CAP
1 *331 6.08617e-05
2 *331:2 0.000447439
3 *331:3 0.000136315
4 *331:4 0.000144762
5 *331:5 0.00063924
6 *331:6 0.000396849
7 *331:7 0.000269462
8 *331:8 0.0014697
9 *331:9 0.000113756
10 *331:10 0.000567338
11 *331:12 0.00629112
12 *331:5 *319:2 0.00387801
13 *331:6 *337:2 0.000652549023
14 *331:6 *338:2 0.00299823
15 *331:6 *60:3 0.000389291992
16 *331:6 *61:2 0.000211885996
17 *331:5 *80:2 0.000995509063
18 *331:2 *201:6 0.000485904023

*RES
1 *331:7 *331:8 0.266788
2 *331:6 *331:7 25.5426
3 *331:2 *331:4 5.83735
4 *331:11 *331:12 37.1635
5 *331:9 *331:10 4.92431
6 *331:8 *331:9 17.8944
7 *331:6 *331:12 47.6408997
8 *331:5 *331:10 12.9098
9 *331:3 *331:4 1.25179
10 *331:3 *331:5 4.01781
11 *331 *331:11 0.750205
12 *758:Z *331:2 0.750205
*END

*D_NET *332 0.0169217

*CONN
*I *757:Z O *C 195.5 145.6 *L 0 *D BUFFD12
*P *332 O *C 324 73.4 *L 0.5

*CAP
1 *332 0.00396372
2 *332:2 0.000140869
3 *332:3 0.00481577
4 *332:4 9.22223e-05
5 *332:5 0.000121616
6 *332:6 0.00267967
7 *332:7 0.000142559
8 *332 *319:3 0.00210569
9 *332 *333:2 0.000960377969
10 *332:3 *132:3 0.00131477
11 *332:3 *192:2 0.000584549023

*RES
1 *332:6 *332:7 48.1008
2 *332:5 *332:7 0.20046
3 *332:3 *332:4 63.4655991
4 *332 *332:6 39.8093
5 *332:4 *332:5 7.75792
6 *757:Z *332:2 1.50006
7 *332:2 *332:3 0.749548
*END

*D_NET *333 0.0190864

*CONN
*I *756:Z O *C 202.5 145.6 *L 0 *D BUFFD12
*P *333 O *C 324 69.8 *L 0.5

*CAP
1 *333 6.08283e-05
2 *333:2 0.00789383
3 *333:3 0.000293301
4 *333:4 0.000262586
5 *333:5 0.00253805
6 *333:6 0.000259333
7 *333:6 *334:4 0.00311548
8 *333:6 *335:3 0.00208006
9 *333:2 *332 0.000960377969
10 *333:3 *193:3 0.000819926016
11 *333:3 *192:2 0.000802523984

*RES
1 *333:5 *333:6 47.7623
2 *333:4 *333:5 6.23666
3 *333:7 *333:2 36.0742
4 *333:3 *333:4 8.53321
5 *333:6 *333:2 60.6147995
6 *333 *333:7 0.750101
7 *756:Z *333:3 0.750101
*END

*D_NET *334 0.0192507

*CONN
*I *755:Z O *C 207.9 142.8 *L 0 *D BUFFD12
*P *334 O *C 324 66.2 *L 0.5

*CAP
1 *334 5.32558e-05
2 *334:2 7.09866e-05
3 *334:3 0.000953457
4 *334:4 0.00416482031
5 *334:5 0.00360665
6 *334:6 0.00042522
7 *334:7 0.00020616
8 *334:3 *319:2 0.000792741016
9 *334:5 *335:2 0.0012781
10 *334:5 *337:4 0.00123362992
11 *334:3 *56:2 0.000511163008
12 *334:2 *338:17 0.00217459016
13 *334:3 *477:9 0.000300264004
14 *334:3 *506:2 0.000364153008
15 *334:4 *333:6 0.00311548

*RES
1 *334:2 *334:4 55.3073997
2 *334:3 *334:6 4.3057
3 *334:8 *334:4 36.3858
4 *334:5 *334:7 52.2212
5 *334:5 *334:6 0.111398
6 *755:Z *334:3 6.87629
7 *334 *334:8 0.750248
8 *334:7 *334:2 0.750248
*END

*D_NET *335 0.0158517

*CONN
*I *754:Z O *C 227.9 139.2 *L 0 *D BUFFD16
*P *335 O *C 324 62.6 *L 0.5

*CAP
1 *335 6.1176e-05
2 *335:2 0.00254098
3 *335:3 0.00476148
4 *335:5 0.000544408
5 *335:6 0.000866344
6 *335:8 1.0971e-05
7 *335:3 *329:2 0.00187039
8 *335:2 *78:4 0.00025343498
9 *335:2 *59:3 0.00126842
10 *335:2 *67:14 0.00031595998
11 *335:3 *333:6 0.00208006
12 *335:2 *334:5 0.0012781

*RES
1 *335:7 *335:3 27.8567
2 *335:4 *335:2 3.70669
3 *335 *335:6 8.8636
4 *335:8 *335:3 57.8110008
5 *335:2 *335:5 40.4763
6 *335:6 *335:7 0.111148
7 *754:Z *335:4 0.749807
8 *335:5 *335:8 0.749807
*END

*D_NET *336 0.00629507

*CONN
*I *753:Z O *C 318.3 139.2 *L 0 *D BUFFD12
*P *336 O *C 324 59 *L 0.5

*CAP
1 *336 5.32836e-05
2 *336:2 9.93518e-05
3 *336:3 8.00179e-05
4 *336:5 0.0060624

*RES
1 *336:4 *336:5 5.26258
2 *336:2 *336:3 1.81131
3 *753:Z *336:2 1.49958
4 *336:3 *336:5 63.4452019
5 *336 *336:4 0.750275
*END

*D_NET *337 0.0152583

*CONN
*I *752:Z O *C 226.1 142 *L 0 *D BUFFD16
*P *337 O *C 324 55.4 *L 0.5

*CAP
1 *337 6.08768e-05
2 *337:2 0.00357225
3 *337:3 0.000850145
4 *337:4 0.000885961
5 *337:5 2.16113e-05
6 *337:6 0.000858363
7 *337:7 8.78655e-05
8 *337:9 3.75407e-05
9 *337:10 0.00664927
10 *337:2 *331:6 0.000652549023
11 *337:3 *68:4 0.00034824
12 *337:4 *334:5 0.00123362992

*RES
1 *337:9 *337:10 64.2236023
2 *337:8 *337:10 21.2909
3 *337:5 *337:6 7.98091
4 *337:3 *337:7 7.55266
5 *337:3 *337:5 0.111717
6 *337:4 *337:2 41.6548
7 *752:Z *337:4 4.0179
8 *337:6 *337:2 0.111717
9 *337 *337:8 0.74968
10 *337:7 *337:9 0.74968
*END

*D_NET *338 0.0184494

*CONN
*I *751:Z O *C 222.5 142.8 *L 0 *D BUFFD16
*P *338 O *C 324 51.8 *L 0.5

*CAP
1 *338 3.72535e-05
2 *338:2 0.000626494
3 *338:3 0.00119838
4 *338:4 7.43252e-05
5 *338:5 2.85307e-05
6 *338:6 0.000837295
7 *338:8 0.000150104
8 *338:9 7.06907e-05
9 *338:10 0.000664838
10 *338:11 3.04388e-05
11 *338:12 0.000654116
12 *338:13 0.000254505
13 *338:14 1.8445e-05
14 *338:15 0.000168731
15 *338:17 0.00595465
16 *338:17 *319:3 0.000660487031
17 *338:17 *334:2 0.00217459016
18 *338:2 *61:3 0.00110997
19 *338:3 *131:2 0.000245809004
20 *338:3 *495:2 0.000491635
21 *338:2 *331:6 0.00299823

*RES
1 *338:6 *338:7 0.111751
2 *338:15 *338:17 68.4459
3 *338:11 *338:12 11.0926
4 *338:2 *338:5 0.111751
5 *338:4 *338:2 4.28936
6 *338:5 *338:6 8.46487
7 *338:9 *338:10 6.42411
8 *338:7 *338:8 3.77864
9 *338:8 *338:9 0.111751
10 *338:12 *338:13 0.111751
11 *338 *338:16 1.03918
12 *338:16 *338:17 36.8622
13 *338:13 *338:14 2.42406
14 *751:Z *338:3 4.32904
15 *338:3 *338:14 6.5296
16 *338:10 *338:11 0.111751
17 *338:4 *338:15 2.5922
*END

*D_NET *339 0.00138574

*CONN
*I *649:I I *C 185.1 139.6 *L 0.00103 *D DEL015
*I *824:Z O *C 177.1 140.2 *L 0 *D AO22D0

*CAP
1 *649:I 0.000114459
2 *339:2 0.00107387992
3 *339:3 0.00019739

*RES
1 *339:2 *339:3 6.74811983
2 *649:I *339:3 3.67802
3 *824:Z *339:2 0.75002
*END

*D_NET *340 0.00150167

*CONN
*I *648:I I *C 183.3 143.2 *L 0.00103 *D DEL015
*I *823:Z O *C 175.5 140.2 *L 0 *D AO22D0

*CAP
1 *823:Z 0.000412016
2 *340:2 0.000656715
3 *340:3 0.00043295

*RES
1 *823:Z *340:3 4.21153
2 *340:2 *340:3 3.3121
3 *648:I *340:2 5.40828991
*END

*D_NET *341 0.00328537

*CONN
*I *639:I I *C 192.3 143.2 *L 0.00104 *D DEL0
*I *829:Z O *C 173.3 140.2 *L 0 *D AO22D0

*CAP
1 *341:2 0.000754081
2 *341:3 0.00135762
3 *341:4 0.000726094
4 *341:5 0.000447568

*RES
1 *341:2 *341:4 6.38069
2 *639:I *341:2 4.81309
3 *341:4 *341:5 3.11237
4 *341:3 *341:5 8.69744968
5 *829:Z *341:3 0.749959
*END

*D_NET *342 0.00360025

*CONN
*I *644:I I *C 153.9 143.2 *L 0.00104 *D DEL0
*I *822:Z O *C 171.7 140.2 *L 0 *D AO22D0

*CAP
1 *342:2 0.00115746
2 *342:3 0.000128807
3 *342:4 0.00109904
4 *342:5 0.00028642
5 *342:6 0.000928511

*RES
1 *644:I *342:2 4.69473
2 *342:5 *342:6 5.50551
3 *342:4 *342:5 1.49455
4 *342:3 *342:4 6.94758987
5 *342:2 *342:6 3.43796
6 *822:Z *342:3 0.750034
*END

*D_NET *343 0.00532777

*CONN
*I *615:I I *C 139.3 143.2 *L 0.00104 *D DEL0
*I *827:Z O *C 167.3 140.2 *L 0 *D AO22D0

*CAP
1 *827:Z 0.000471718
2 *343:2 0.000203818
3 *343:3 0.00065836
4 *343:4 0.000365987
5 *343:5 0.000910858
6 *343:6 0.000915945
7 *343:7 1.1251e-05
8 *343:3 *730:I 0.000300772988
9 *343:3 *197:76 0.000402806016
10 *343:3 *84:2 0.000681357969
11 *343:3 *481:10 0.000404898984

*RES
1 *343:2 *343:4 3.85751
2 *827:Z *343:2 3.08424
3 *343:6 *343:7 2.95684
4 *343:5 *343:6 6.13547
5 *343:4 *343:5 3.54152
6 *343:3 *343:7 12.2972002
7 *615:I *343:3 1.5
*END

*D_NET *344 0.00383481

*CONN
*I *647:I I *C 154.7 141.6 *L 0.00104 *D DEL0
*I *830:Z O *C 168.9 140.2 *L 0 *D AO22D0

*CAP
1 *830:Z 0.000218974
2 *344:2 0.000203144
3 *344:3 0.00341272

*RES
1 *344:2 *344:3 17.4008999
2 *830:Z *344:2 2.90502
3 *344:3 *344:4 3.86221
4 *647:I *344:4 1.4999
*END

*D_NET *345 0.00230096

*CONN
*I *646:I I *C 157.7 145.2 *L 0.00103 *D DEL015
*I *825:Z O *C 165.3 140.2 *L 0 *D AO22D0

*CAP
1 *646:I 6.93793e-05
2 *825:Z 0.000674061
3 *345:2 5.8151e-05
4 *345:3 0.00126651
5 *345:4 0.000232855

*RES
1 *345:2 *345:4 2.07056
2 *646:I *345:3 1.37249
3 *345:3 *345:4 7.45338011
4 *825:Z *345:2 4.01784
*END

*D_NET *346 0.00198093

*CONN
*I *632:I I *C 153.9 145.2 *L 0.00104 *D DEL0
*I *828:Z O *C 160.7 140.2 *L 0 *D AO22D0

*CAP
1 *828:Z 0.000380691
2 *346:2 8.87624e-05
3 *346:3 6.66269e-05
4 *346:4 0.00144487

*RES
1 *346:2 *346:4 6.79552984
2 *346:3 *346:4 3.13553
3 *828:Z *346:2 2.46174
4 *632:I *346:3 0.750001
*END

*D_NET *347 0.0036191

*CONN
*I *625:I I *C 142.9 145.2 *L 0.00104 *D DEL0
*I *826:Z O *C 159.3 140.2 *L 0 *D AO22D0

*CAP
1 *625:I 0.000594022
2 *826:Z 0.000202836
3 *347:2 0.000302055
4 *347:3 0.0005289
5 *347:4 0.000402132
6 *347:5 0.000529628
7 *347:6 0.00105953

*RES
1 *347:5 *347:6 6.37503004
2 *347:4 *347:5 2.11895
3 *347:2 *347:3 3.27681
4 *826:Z *347:3 1.86136
5 *347:2 *347:4 4.81814
6 *625:I *347:6 5.10938
*END

*D_NET *348 0.000274014

*CONN
*I *631:I I *C 10.1 143.2 *L 0.00104 *D DEL0
*I *876:Z O *C 10.1 141.8 *L 0 *D CKAN2D0

*CAP
1 *631:I 0.000274014004

*RES
1 *876:Z *631:I 2.5937
*END

*D_NET *349 0.000357755

*CONN
*I *561:I I *C 14.1 145.2 *L 0.00103 *D DEL01
*I *863:Z O *C 13.1 143 *L 0 *D CKAN2D0

*CAP
1 *561:I 6.90638e-05
2 *863:Z 0.000288691016

*RES
1 *863:Z *561:I 3.76562
*END

*D_NET *350 0.000745636

*CONN
*I *630:I I *C 17.9 141.6 *L 0.00104 *D DEL0
*I *882:Z O *C 16.7 141.8 *L 0 *D CKAN2D0

*CAP
1 *882:Z 0.000134897
2 *350:2 0.000610742969

*RES
1 *882:Z *350:2 1.37243
2 *630:I *350:2 5.14697981
*END

*D_NET *351 0.000822503

*CONN
*I *565:I I *C 23.9 139.6 *L 0.00103 *D DEL01
*I *885:Z O *C 20.7 141.8 *L 0 *D CKAN2D0

*CAP
1 *565:I 0.000196469
2 *351:2 0.000626033008

*RES
1 *565:I *351:2 4.33539009
2 *885:Z *351:2 2.4337
*END

*D_NET *352 0.000480161

*CONN
*I *628:I I *C 25.9 143.2 *L 0.00104 *D DEL0
*I *888:Z O *C 25.7 141.8 *L 0 *D CKAN2D0

*CAP
1 *628:I 0.000237411
2 *888:Z 0.000242751992

*RES
1 *888:Z *628:I 5.37611
*END

*D_NET *353 1.0685e-05

*CONN
*I *626:I I *C 30.3 141.6 *L 0.00104 *D DEL0
*I *890:Z O *C 30.1 141.8 *L 0 *D CKAN2D0

*CAP
1 *890:Z 1.0685e-05

*RES
1 *890:Z *626:I 0.192268
*END

*D_NET *354 0.00036752

*CONN
*I *629:I I *C 34.3 143.2 *L 0.00104 *D DEL0
*I *893:Z O *C 34.3 141.8 *L 0 *D CKAN2D0

*CAP
1 *629:I 0.00036752

*RES
1 *893:Z *629:I 3.63374
*END

*D_NET *355 0.000298658

*CONN
*I *627:I I *C 37.5 143.2 *L 0.00104 *D DEL0
*I *847:Z O *C 37.5 141.8 *L 0 *D CKAN2D0

*CAP
1 *627:I 0.000298658008

*RES
1 *847:Z *627:I 2.5893
*END

*D_NET *356 1.1367e-05

*CONN
*I *564:Z O *C 42.3 139.2 *L 0 *D DEL01
*I *645:I I *C 42.5 139.6 *L 0.00103 *D DEL015

*CAP
1 *564:Z 1.13669995e-05

*RES
1 *564:Z *645:I 0.201612
*END

*D_NET *357 0.00102231

*CONN
*I *562:I I *C 49.9 141.6 *L 0.00103 *D DEL01
*I *837:Z O *C 46.7 143 *L 0 *D CKAN2D0

*CAP
1 *562:I 0.000278371
2 *357:2 0.000743947031

*RES
1 *562:I *357:2 5.01276016
2 *837:Z *357:2 2.27003
*END

*D_NET *358 0.00193106

*CONN
*I *559:Z O *C 41.1 145.6 *L 0 *D DEL01
*I *641:I I *C 50.3 143.2 *L 0.00103 *D DEL015

*CAP
1 *559:Z 0.000202924
2 *358:2 3.78035e-05
3 *358:3 0.00113074008
4 *358:4 0.000559581

*RES
1 *358:2 *358:4 3.35775
2 *358:2 *358:3 9.29201031
3 *559:Z *358:3 2.12252
4 *641:I *358:4 1.49994
*END

*D_NET *359 0.00159806

*CONN
*I *563:I I *C 59.3 143.2 *L 0.00103 *D DEL01
*I *844:Z O *C 55.3 145.4 *L 0 *D CKAN2D0

*CAP
1 *844:Z 0.000290566
2 *359:2 5.91165e-05
3 *359:3 0.00062219
4 *359:4 0.000626183984

*RES
1 *359:2 *359:4 3.40129
2 *359:2 *359:3 4.1585598
3 *844:Z *359:3 2.49833
4 *563:I *359:4 0.74997
*END

*D_NET *360 0.00211822

*CONN
*I *560:Z O *C 69.1 139.2 *L 0 *D DEL01
*I *636:I I *C 60.5 141.6 *L 0.00103 *D DEL015

*CAP
1 *360:2 0.00119285
2 *360:3 0.000103368
3 *360:4 0.000822008

*RES
1 *360:2 *360:5 5.08707
2 *360:4 *360:5 0.311756
3 *360:3 *360:4 5.09126997
4 *636:I *360:2 3.25507
5 *560:Z *360:3 0.749987
*END

*D_NET *361 0.00260014

*CONN
*I *634:I I *C 51.9 139.6 *L 0.00103 *D DEL015
*I *851:Z O *C 62.1 145.4 *L 0 *D CKAN2D0

*CAP
1 *361:2 0.000770831
2 *361:3 0.00182931

*RES
1 *361:2 *361:3 9.63055038
2 *634:I *361:3 3.49331
3 *851:Z *361:2 4.18339
*END

*D_NET *362 0.0034493

*CONN
*I *619:I I *C 46.1 141.6 *L 0.00103 *D DEL015
*I *853:Z O *C 64.3 145.4 *L 0 *D CKAN2D0

*CAP
1 *619:I 0.000260653
2 *362:2 0.000825022
3 *362:3 0.00236362

*RES
1 *362:2 *362:3 12.0888004
2 *619:I *362:3 6.39561
3 *853:Z *362:2 2.70917
*END

*D_NET *363 0.00140828

*CONN
*I *635:I I *C 70.7 139.6 *L 0.00103 *D DEL015
*I *855:Z O *C 68.7 145.4 *L 0 *D CKAN2D0

*CAP
1 *363:2 0.000832686016
2 *363:3 0.000517451
3 *363:4 5.81425e-05

*RES
1 *363:2 *363:4 2.90401
2 *855:Z *363:2 2.77297
3 *363:3 *363:4 3.16789007
4 *635:I *363:3 1.49998
*END

*D_NET *364 0.0108651

*CONN
*I *544:Z O *C 27.9 145.6 *L 0 *D DEL01
*I *623:I I *C 96.9 143.2 *L 0.00103 *D DEL015

*CAP
1 *544:Z 0.000610785
2 *623:I 0.000339861
3 *364:2 9.08015e-05
4 *364:3 0.00312864
5 *364:4 0.00114094
6 *364:5 0.000358575
7 *364:6 1.83799e-05
8 *364:7 9.28543e-05
9 *364:8 7.33764e-05
10 *364:9 0.000117106
11 *364:10 0.000471528
12 *364:11 0.000189766
13 *364:12 9.04673e-05
14 *364:4 *223:6 0.000768947031
15 *623:I *373:4 0.000997498984
16 *364:2 *887:A2 0.00048042
17 *364:3 *262:4 0.000862093984
18 *364:3 *766:Z 0.00103313992

*RES
1 *364:7 *364:8 1.13332
2 *364:11 *364:12 3.23712
3 *364:6 *364:7 5.3145
4 *364:4 *364:3 28.8439999
5 *364:10 *364:2 2.59277
6 *364:8 *364:9 3.87706
7 *364:9 *364:10 5.48879
8 *364:5 *364:13 6.95089
9 *364:4 *364:12 4.74542
10 *364:3 *364:13 0.267156
11 *623:I *364:6 4.97121
12 *364:2 *364:11 1.16149
13 *544:Z *364:5 4.0179
*END

*D_NET *365 0.0020055

*CONN
*I *637:I I *C 78.7 139.6 *L 0.00103 *D DEL015
*I *861:Z O *C 73.1 145.4 *L 0 *D CKAN2D0

*CAP
1 *637:I 0.000292042
2 *861:Z 0.0004934
3 *365:2 0.000216186
4 *365:3 0.00100388

*RES
1 *861:Z *365:3 4.61014
2 *637:I *365:2 3.37302
3 *365:2 *365:3 5.56112003
*END

*D_NET *366 0.0112071

*CONN
*I *552:Z O *C 36.7 145.6 *L 0 *D DEL01
*I *633:I I *C 83.1 141.6 *L 0.00103 *D DEL015

*CAP
1 *633:I 0.000142414
2 *366:2 0.000111101
3 *366:3 0.000501012
4 *366:4 0.00308125
5 *366:5 0.000671965
6 *366:6 0.000276929
7 *366:7 0.000895624
8 *366:2 *19:3 0.00246844
9 *633:I *369:2 0.000565850977
10 *633:I *378:2 0.00249255984

*RES
1 *366:2 *366:4 6.46969
2 *366:2 *366:3 33.9524002
3 *633:I *366:6 6.15626
4 *366:6 *366:7 7.0033
5 *366:4 *366:7 13.2979
6 *366:3 *366:5 4.14665
7 *552:Z *366:5 0.750169
*END

*D_NET *367 0.00463646

*CONN
*I *614:I I *C 46.5 139.6 *L 0.00104 *D DEL0
*I *867:Z O *C 66.9 143 *L 0 *D CKAN2D0

*CAP
1 *614:I 0.000733633
2 *867:Z 0.000221196
3 *367:2 0.000355295
4 *367:3 0.00332632

*RES
1 *367:2 *367:3 19.9435005
2 *614:I *367:3 5.83521
3 *867:Z *367:2 3.62438
*END

*D_NET *368 0.012046

*CONN
*I *548:Z O *C 32.3 145.6 *L 0 *D DEL01
*I *624:I I *C 95.3 145.2 *L 0.00103 *D DEL015

*CAP
1 *548:Z 0.000249242
2 *624:I 0.000274836
3 *368:2 6.85263e-05
4 *368:3 0.00199683
5 *368:4 4.45771e-05
6 *368:5 0.000781242
7 *368:6 0.000143329
8 *368:7 0.000484742
9 *368:8 2.79407e-05
10 *368:9 0.000369567
11 *368:10 2.9129e-05
12 *624:I *239:2 0.00155336
13 *624:I *33:2 0.00109519992
14 *548:Z *377:3 0.00109544
15 *548:Z *379:4 0.00383206

*RES
1 *368:8 *368:9 5.59991
2 *368:7 *368:8 0.111831
3 *368:6 *368:7 6.89167
4 *368:2 *368:3 49.8568001
5 *548:Z *368:3 2.94336
6 *368:9 *368:10 0.111831
7 *368:4 *368:6 3.80605
8 *368:2 *368:5 1.1495
9 *368:5 *368:10 8.88105
10 *624:I *368:4 2.7448
*END

*D_NET *369 0.0160071

*CONN
*I *543:Z O *C 24.3 142.8 *L 0 *D BUFFD2
*I *622:I I *C 99.3 143.2 *L 0.00103 *D DEL015

*CAP
1 *369:2 0.00011849
2 *369:3 0.000780122
3 *369:4 0.000823502
4 *369:5 0.00118263
5 *369:6 0.000331087
6 *369:7 0.000803218
7 *369:8 0.000293939
8 *369:9 0.000187098
9 *369:10 7.11142e-07
10 *369:11 0.00221927
11 *369:12 0.000441721
12 *369:13 0.000231087
13 *369:2 *633:I 0.000565850977
14 *369:3 *306:2 0.00130828
15 *369:4 *310:4 0.000827187031
16 *369:5 *378:7 0.00081467
17 *369:3 *317:3 0.00507829

*RES
1 *369:8 *369:9 2.02316
2 *369:11 *369:13 33.2972984
3 *369:9 *369:2 5.46081
4 *369:5 *369:8 2.80611
5 *369:3 *369:4 18.7475
6 *543:Z *369:7 5.14529
7 *622:I *369:6 2.58916
8 *369:6 *369:5 9.2536
9 *369:4 *369:13 1.06137
10 *369:3 *369:12 5.26266
11 *369:2 *369:10 0.111269
12 *369:7 *369:11 5.99378
13 *369:10 *369:12 4.35168
*END

*D_NET *370 0.007578

*CONN
*I *551:Z O *C 69.7 142.8 *L 0 *D CKBD0
*I *616:I I *C 109.7 141.6 *L 0.00103 *D DEL015

*CAP
1 *551:Z 5.93067e-05
2 *616:I 0.000510753
3 *370:2 0.000339673
4 *370:3 0.00182988
5 *370:4 0.000447983
6 *370:5 0.000806839
7 *370:6 0.000422267
8 *370:7 0.000789779
9 *370:5 *869:Z 0.000384663984
10 *370:3 *140:2 0.000472251992
11 *370:3 *398:5 0.000981166016
12 *370:2 *378:3 0.000266088984
13 *370:3 *241:8 0.000267358008

*RES
1 *370:5 *370:7 5.56302
2 *370:2 *370:5 7.16946
3 *616:I *370:6 6.61497
4 *370:4 *370:2 3.74998
5 *370:3 *370:6 24.7541008
6 *370:3 *370:4 4.61646
7 *551:Z *370:7 1.55809
*END

*D_NET *371 0.0039622

*CONN
*I *621:I I *C 101.7 145.2 *L 0.00104 *D DEL0
*I *874:Z O *C 77.9 145.4 *L 0 *D CKAN2D0

*CAP
1 *371:2 0.00020032
2 *371:3 0.000313181
3 *371:4 0.00255309016
4 *371:5 0.000397875
5 *371:6 0.000497723

*RES
1 *371:2 *371:3 2.70969
2 *371:4 *371:6 4.04305
3 *371:3 *371:4 19.8283005
4 *371:2 *371:5 3.08425
5 *874:Z *371:6 0.750036
6 *621:I *371:5 1.50007
*END

*D_NET *372 0.00485297

*CONN
*I *618:I I *C 110.5 143.2 *L 0.00104 *D DEL0
*I *875:Z O *C 81.7 143 *L 0 *D CKAN2D0

*CAP
1 *372:2 8.50794e-05
2 *372:3 0.00333075
3 *372:4 0.000519472
4 *372:5 0.000917627

*RES
1 *372:2 *372:4 3.78094
2 *372:4 *372:5 2.6142
3 *372:3 *372:5 21.9029007
4 *875:Z *372:3 0.749971
5 *618:I *372:2 1.49994
*END

*D_NET *373 0.0121993

*CONN
*I *549:Z O *C 34.5 145.6 *L 0 *D DEL01
*I *676:I I *C 98.3 145.2 *L 0.00105 *D DEL1

*CAP
1 *676:I 4.33088e-05
2 *373:2 8.45596e-05
3 *373:3 2.68443e-06
4 *373:4 0.000134266
5 *373:5 0.00121068
6 *373:6 0.000830787
7 *373:7 0.00293207
8 *373:8 0.000346918
9 *373:9 0.000741529
10 *373:10 0.000164869
11 *373:11 3.5345e-06
12 *373:2 *379:4 0.00249777
13 *373:2 *30:2 0.000814251016
14 *373:3 *239:9 0.00139457
15 *373:4 *623:I 0.000997498984

*RES
1 *373:9 *373:10 0.111488
2 *373:3 *373:6 2.72083
3 *373:5 *373:8 2.46185
4 *373:2 *373:5 27.0712
5 *676:I *373:4 1.65801
6 *373:10 *373:11 1.86753
7 *373:6 *373:11 4.81481
8 *373:4 *373:9 8.051
9 *373:2 *373:7 1.52786
10 *373:3 *373:7 28.4298992
11 *549:Z *373:8 0.75005
*END

*D_NET *374 0.0125379

*CONN
*I *545:Z O *C 28.9 142 *L 0 *D DEL01
*I *673:I I *C 102.5 143.2 *L 0.00105 *D DEL1

*CAP
1 *673:I 0.000254745
2 *374:2 0.000598114
3 *374:3 0.000847205
4 *374:5 0.0015378
5 *374:6 0.00236000984
6 *374:6 *208:4 0.000405068008
7 *374:6 *109:3 0.000894483984
8 *374:6 *154:2 0.00344641
9 *374:2 *18:2 0.00219406016

*RES
1 *374:5 *374:2 7.00424
2 *545:Z *374:6 2.87261
3 *673:I *374:3 3.51479
4 *374:4 *374:5 5.26973
5 *374:6 *374:2 53.5437012
6 *374:3 *374:4 3.30808
*END

*D_NET *375 0.0154897

*CONN
*I *558:I I *C 40.3 143.2 *L 0.00103 *D DEL01
*I *880:Z O *C 105.9 141.8 *L 0 *D AN2D2

*CAP
1 *880:Z 0.000262649
2 *375:2 0.000402737
3 *375:3 3.54914e-05
4 *375:4 3.63052e-06
5 *375:5 0.000572057
6 *375:6 0.00410217
7 *375:2 *297:2 0.00583675
8 *375:2 *303:2 0.00248783
9 *375:4 *312:2 0.00143638
10 *375:5 *28:2 0.000349981992

*RES
1 *375:2 *375:3 0.955295
2 *375:4 *375:6 1.52769
3 *375:3 *375:6 64.0145035
4 *880:Z *375:2 8.53514
5 *375:5 *375:7 5.85582
6 *375:4 *375:5 15.5719
7 *558:I *375:7 0.75017
*END

*D_NET *376 0.010626

*CONN
*I *541:Z O *C 23.5 142.8 *L 0 *D DEL01
*I *671:I I *C 90.1 143.2 *L 0.00105 *D DEL1

*CAP
1 *541:Z 0.000102089
2 *671:I 4.83437e-05
3 *376:2 4.65229e-05
4 *376:3 0.000856318
5 *376:4 3.78435e-05
6 *376:5 0.000432059
7 *376:6 2.71308e-05
8 *376:7 0.000508535
9 *376:8 0.000161722
10 *376:9 0.000732864
11 *376:10 0.000750982
12 *376:11 0.000248061
13 *376:12 0.000124577
14 *376:13 0.00198883
15 *376:5 *875:A1 0.000863653984
16 *376:9 *234:3 0.000932772969
17 *376:9 *417:3 0.00258118016
18 *376:9 *419:3 0.000182519004

*RES
1 *541:Z *376:10 1.50006
2 *376:6 *376:7 5.29171
3 *376:9 *376:11 1.68376
4 *376:4 *376:5 3.46788
5 *376:3 *376:4 0.111352
6 *376:5 *376:6 0.267033
7 *376:2 *376:3 5.42612
8 *376:11 *376:13 23.2406998
9 *671:I *376:2 1.65574
10 *376:12 *376:13 0.905712
11 *376:7 *376:8 1.04473
12 *376:10 *376:12 11.6111
13 *376:8 *376:9 13.7885
*END

*D_NET *377 0.0112766

*CONN
*I *542:Z O *C 25.7 145.6 *L 0 *D DEL01
*I *672:I I *C 105.7 145.2 *L 0.00105 *D DEL1

*CAP
1 *542:Z 0.000276443
2 *672:I 1.92908e-05
3 *377:2 0.00197013
4 *377:3 0.00208121
5 *377:4 0.000493204
6 *377:5 0.00228199
7 *377:6 0.000108328
8 *377:7 7.79293e-05
9 *377:3 *890:A2 0.000469133984
10 *377:4 *281:3 0.000479166016
11 *377:4 *398:2 0.000486595
12 *542:Z *267:2 0.000768625938
13 *377:2 *110:2 0.00066906
14 *377:3 *548:Z 0.00109544

*RES
1 *377:2 *377:7 14.6066
2 *672:I *377:4 0.407683
3 *377:3 *377:7 32.3069992
4 *377:5 *377:6 25.3424
5 *377:5 *377:2 3.28364
6 *377:4 *377:6 5.34227
7 *542:Z *377:3 1.99503
*END

*D_NET *378 0.0128462

*CONN
*I *540:Z O *C 23.5 145.6 *L 0 *D DEL01
*I *669:I I *C 90.1 141.6 *L 0.00105 *D DEL1

*CAP
1 *378:2 0.00118374
2 *378:3 0.00016628
3 *378:4 0.00352203
4 *378:5 0.000534149
5 *378:6 0.000730418
6 *378:7 9.2545e-05
7 *378:8 0.000497067
8 *378:3 *19:3 0.000790436016
9 *378:4 *869:Z 0.00175625
10 *378:7 *369:5 0.00081467
11 *378:3 *370:2 0.000266088984
12 *378:2 *633:I 0.00249255984

*RES
1 *378:3 *378:5 3.46758
2 *378:3 *378:4 59.8502998
3 *378:7 *378:2 10.5808
4 *378:6 *378:2 1.89133
5 *378:5 *378:6 3.60548
6 *378:4 *378:8 3.74886
7 *540:Z *378:8 0.749773
8 *669:I *378:7 1.49955
*END

*D_NET *379 0.0139351

*CONN
*I *547:Z O *C 30.1 145.6 *L 0 *D DEL01
*I *670:I I *C 109.1 145.2 *L 0.00105 *D DEL1

*CAP
1 *547:Z 0.000328258
2 *379:2 5.5603e-05
3 *379:3 0.000358918
4 *379:4 0.00468373
5 *379:5 0.000339907
6 *379:3 *30:2 0.000322205996
7 *379:2 *239:2 0.00151668
8 *379:4 *548:Z 0.00383206
9 *379:4 *373:2 0.00249777

*RES
1 *379:2 *379:3 1.90202
2 *379:3 *379:4 90.7210999
3 *379:2 *379:5 3.35138
4 *547:Z *379:4 3.09805
5 *670:I *379:5 1.50057
*END

*D_NET *380 0.0045433

*CONN
*I *602:I I *C 42.3 143.2 *L 0.00105 *D DEL1
*I *887:Z O *C 76.7 143 *L 0 *D CKAN2D0

*CAP
1 *602:I 0.000424278
2 *380:2 9.36645e-05
3 *380:3 0.000738985
4 *380:4 0.000476246
5 *380:5 4.23097e-05
6 *380:6 0.000401195
7 *380:7 3.71518e-05
8 *380:8 0.000687451
9 *380:9 0.000415518
10 *380:10 0.000979776953
11 *380:11 0.000246727

*RES
1 *380:10 *380:11 8.31511974
2 *380:7 *380:8 4.91376
3 *380:6 *380:7 0.111526
4 *380:5 *380:6 3.15661
5 *380:8 *380:9 0.111526
6 *380:4 *380:5 3.02935
7 *380:3 *380:4 0.111526
8 *380:2 *380:3 4.90754
9 *380:9 *380:10 2.80123
10 *602:I *380:11 5.18477
11 *887:Z *380:2 0.74998
*END

*D_NET *381 0.0021773

*CONN
*I *651:I I *C 162.9 145.2 *L 0.00105 *D DEL1
*I *872:Z O *C 146.5 145.4 *L 0 *D CKAN2D0

*CAP
1 *651:I 0.000394943
2 *872:Z 0.000199422
3 *381:2 0.000726101016
4 *381:3 4.32769e-05
5 *381:4 0.000696164
6 *381:5 0.000117399

*RES
1 *872:Z *381:2 1.34899
2 *381:4 *381:5 0.11146
3 *381:3 *381:4 6.42451
4 *651:I *381:3 4.45508
5 *381:2 *381:5 5.2851
*END

*D_NET *382 0.00237766

*CONN
*I *610:I I *C 136.1 145.2 *L 0.00105 *D DEL1
*I *889:Z O *C 146.3 143 *L 0 *D CKAN2D0

*CAP
1 *610:I 0.00063959
2 *889:Z 8.60762e-05
3 *382:2 0.00130217
4 *382:3 0.000228444
5 *382:4 0.000121385

*RES
1 *382:3 *382:4 1.86749
2 *889:Z *382:2 0.905572
3 *382:2 *382:3 8.22443962
4 *610:I *382:4 6.00318
*END

*D_NET *383 0.000792972

*CONN
*I *604:I I *C 113.7 145.2 *L 0.00105 *D DEL1
*I *891:Z O *C 113.7 141.8 *L 0 *D CKAN2D0

*CAP
1 *604:I 5.19269e-05
2 *891:Z 0.000125646
3 *383:2 0.000156774
4 *383:3 0.000458629023

*RES
1 *891:Z *383:3 1.97126
2 *383:2 *383:3 4.31735992
3 *604:I *383:2 2.12251
*END

*D_NET *384 0.00284327

*CONN
*I *611:I I *C 139.5 145.2 *L 0.00105 *D DEL1
*I *892:Z O *C 151.7 139.4 *L 0 *D CKAN2D0

*CAP
1 *611:I 0.000307449
2 *892:Z 0.00101143
3 *384:2 0.000109577
4 *384:3 0.000384262
5 *384:4 0.000674318
6 *384:5 0.00035625

*RES
1 *384:2 *384:4 5.40181
2 *892:Z *384:2 6.04087019
3 *384:4 *384:5 0.111441
4 *384:3 *384:5 5.93883
5 *611:I *384:3 2.89766
*END

*D_NET *385 0.00349117

*CONN
*I *609:I I *C 132.7 145.2 *L 0.00105 *D DEL1
*I *894:Z O *C 150.3 139.4 *L 0 *D CKAN2D0

*CAP
1 *609:I 0.000150686
2 *894:Z 0.00017161
3 *385:2 0.000604764
4 *385:3 0.000266116
5 *385:4 0.000512743
6 *385:5 0.00109348
7 *385:6 7.16306e-05
8 *385:7 0.000620131

*RES
1 *385:5 *385:6 0.734029
2 *385:4 *385:5 6.98393011
3 *385:6 *385:7 2.8012
4 *385:3 *385:4 2.66949
5 *894:Z *385:2 2.81175
6 *609:I *385:7 3.79845
7 *385:2 *385:3 3.96
*END

*D_NET *386 0.00439992

*CONN
*I *608:I I *C 120.5 139.6 *L 0.00105 *D DEL1
*I *895:Z O *C 147.3 139.4 *L 0 *D CKAN2D0

*CAP
1 *386:2 0.000638679
2 *386:3 9.12213e-05
3 *386:4 0.0010626
4 *386:5 0.000467927
5 *386:6 3.11313e-05
6 *386:7 0.000898285
7 *386:8 0.000396422
8 *386:9 3.47147e-05
9 *386:10 0.000778948

*RES
1 *386:9 *386:10 4.38045
2 *386:8 *386:9 2.64557
3 *386:7 *386:8 0.111481
4 *386:6 *386:7 5.01012
5 *386:4 *386:5 0.111481
6 *386:3 *386:4 6.2983098
7 *386:5 *386:6 3.11244
8 *386:2 *386:10 4.23148
9 *895:Z *386:3 0.75
10 *608:I *386:2 1.5
*END

*D_NET *387 0.00448061

*CONN
*I *607:I I *C 123.3 143.2 *L 0.00105 *D DEL1
*I *832:Z O *C 149.1 139.4 *L 0 *D CKAN2D0

*CAP
1 *607:I 0.0004547
2 *832:Z 0.000665521
3 *387:2 9.78494e-05
4 *387:3 0.00263566
5 *387:4 0.000626872

*RES
1 *387:2 *387:3 17.5529003
2 *832:Z *387:2 3.74087
3 *387:3 *387:4 3.27671
4 *607:I *387:4 4.76212
*END

*D_NET *388 0.00496464

*CONN
*I *606:I I *C 120.9 145.2 *L 0.00105 *D DEL1
*I *833:Z O *C 143.3 139.4 *L 0 *D CKAN2D0

*CAP
1 *388:2 0.000412038
2 *388:3 0.00223423
3 *388:4 0.00145652
4 *388:5 0.000745698
5 *388:6 0.000116152

*RES
1 *388:2 *388:6 3.61813
2 *388:2 *388:3 15.0752001
3 *606:I *388:5 5.36911
4 *388:4 *388:5 9.27731
5 *388:3 *388:4 0.137327
6 *833:Z *388:6 0.749896
*END

*D_NET *389 0.00343344

*CONN
*I *605:I I *C 117.5 145.2 *L 0.00105 *D DEL1
*I *835:Z O *C 137.3 139.4 *L 0 *D CKAN2D0

*CAP
1 *605:I 7.20696e-05
2 *835:Z 0.000310372
3 *389:2 0.000591625
4 *389:3 4.63668e-05
5 *389:4 0.000583752
6 *389:5 0.000241669
7 *389:6 0.00158759

*RES
1 *605:I *389:4 1.37249
2 *389:5 *389:6 11.2490997
3 *389:2 *389:3 3.11317
4 *835:Z *389:2 1.95112
5 *389:4 *389:6 3.87357
6 *389:3 *389:5 2.16173
*END

*D_NET *390 0.000867725

*CONN
*I *581:I I *C 133.7 139.6 *L 0.00104 *D DEL0
*I *836:Z O *C 130.9 139.4 *L 0 *D CKAN2D0

*CAP
1 *836:Z 0.000110563
2 *390:2 9.65308e-05
3 *390:3 0.000660625

*RES
1 *390:2 *390:3 4.13740015
2 *836:Z *390:3 1.50001
3 *581:I *390:2 1.50001
*END

*D_NET *391 0.00208133

*CONN
*I *580:I I *C 136.3 143.2 *L 0.00104 *D DEL0
*I *838:Z O *C 127.3 139.4 *L 0 *D CKAN2D0

*CAP
1 *838:Z 0.000220822
2 *391:2 0.000619912
3 *391:3 0.0012406

*RES
1 *391:2 *391:3 8.18155003
2 *580:I *391:2 4.17966
3 *838:Z *391:3 1.96686
*END

*D_NET *392 0.00897439

*CONN
*I *579:I I *C 201.9 141.6 *L 0.00104 *D DEL0
*I *839:Z O *C 133.5 139.4 *L 0 *D CKAN2D0

*CAP
1 *839:Z 0.000434684
2 *392:2 0.000171154
3 *392:3 0.00102579
4 *392:4 0.000231687
5 *392:5 0.000605102
6 *392:6 1.20121e-05
7 *392:7 0.000671943
8 *392:8 0.000387845
9 *392:9 0.000321155
10 *392:10 0.000282134
11 *392:11 0.00123775992
12 *392:2 *238:5 0.00158334
13 *392:3 *5:3 0.000517045977
14 *392:4 *135:3 0.00149274

*RES
1 *392:4 *392:11 4.88306
2 *579:I *392:9 2.25012
3 *839:Z *392:8 2.86465
4 *392:10 *392:11 17.6292
5 *392:3 *392:10 2.53447
6 *392:2 *392:3 21.2975006
7 *392:6 *392:7 3.93479
8 *392:5 *392:6 0.422791
9 *392:9 *392:2 3.74858
10 *392:7 *392:8 2.56275
11 *392:4 *392:5 3.06743
*END

*D_NET *393 0.0114467

*CONN
*I *526:I I *C 227.9 145.2 *L 0.00103 *D DEL015
*I *841:Z O *C 126.1 139.4 *L 0 *D CKAN2D0

*CAP
1 *393:2 4.59463e-05
2 *393:4 0.000409034
3 *393:5 0.000416361
4 *393:6 0.000331106
5 *393:7 0.00564932
6 *393:7 *249:3 0.000494002031
7 *393:2 *135:3 0.0027629
8 *393:2 *87:11 0.00133807

*RES
1 *393:2 *393:7 22.5465
2 *393:4 *393:6 2.57424
3 *393:3 *393:5 4.01767
4 *393:6 *393:7 58.5376015
5 *841:Z *393:4 0.750299
6 *526:I *393:3 1.4997
7 *393:5 *393:2 0.750299
*END

*D_NET *394 0.015936

*CONN
*I *843:Z O *C 124.9 139.4 *L 0 *D CKAN2D0
*I *767:D[17] I *C 243.055 134.265 *L 0.00183 *D sram00

*CAP
1 *394:2 0.00025385
2 *394:3 0.000389344
3 *394:4 4.85594e-05
4 *394:5 0.000504086
5 *394:6 4.17382e-06
6 *394:7 0.000895556
7 *394:8 5.67331e-05
8 *394:9 8.69547e-06
9 *394:10 0.000605378
10 *394:11 1.3391e-05
11 *394:13 0.000842977
12 *394:14 0.000114374
13 *394:15 0.00126635
14 *394:16 1.74682e-05
15 *394:17 0.000104056
16 *394:18 1.24249e-05
17 *394:19 0.000372417
18 *394:20 0.000655967
19 *394:21 0.000144345
20 *394:22 2.49463e-05
21 *394:23 0.000185465
22 *394:24 1.72943e-05
23 *394:25 2.14488e-05
24 *394:26 6.95637e-06
25 *394:27 0.00106363
26 *394:28 4.16416e-05
27 *394:17 *77:2 0.000736365
28 *394:20 *197:75 0.000482328008
29 *394:13 *32:2 0.00029795
30 *394:13 *46:2 0.000247670996
31 *394:6 *60:4 0.000485354023
32 *394:7 *403:2 0.000548073008
33 *394:7 *408:3 0.00177586
34 *394:2 *12:3 0.00369083

*RES
1 *394:21 *394:22 0.111477
2 *394:8 *394:9 0.11147
3 *394:3 *394:4 4.74352
4 *394:27 *394:28 0.111507
5 *394:22 *394:23 3.93461
6 *394:18 *394:19 3.24576
7 *394:12 *394:13 27.1763
8 *394:7 *394:28 9.45644
9 *394:24 *394:25 1.13347
10 *394:23 *394:24 0.111477
11 *394:4 *394:7 1.68368
12 *394:5 *394:6 2.90609
13 *394:11 *394:2 2.31278
14 *394:9 *394:10 7.51361
15 *394:10 *394:11 0.11147
16 *394:13 *394:14 0.11147
17 *394:26 *394:27 14.5177
18 *394:25 *394:26 0.111477
19 *394:19 *394:20 5.29173
20 *394:17 *394:18 0.111477
21 *394:6 *394:8 1.23891
22 *843:Z *394:3 0.905614
23 *394:16 *394:17 4.7127
24 *394:15 *394:16 0.111477
25 *394:2 *394:12 0.11147
26 *394:20 *394:21 1.75595
27 *394:14 *394:15 15.2947
28 *394:28 *767:D[17] 0.0001
*END

*D_NET *395 0.0113406

*CONN
*I *603:I I *C 214.9 143.2 *L 0.00105 *D DEL1
*I *846:Z O *C 145.3 139.4 *L 0 *D CKAN2D0

*CAP
1 *395:2 0.000257806
2 *395:3 0.000643885
3 *395:4 0.00015791
4 *395:5 0.00027131
5 *395:6 0.000935361
6 *395:7 0.000436279
7 *395:8 0.000227304
8 *395:9 0.00236000984
9 *395:10 0.000673882
10 *395:3 *396:3 0.000359290977
11 *395:2 *407:2 0.00168025
12 *395:3 *506:2 0.000469875977
13 *395:4 *410:4 0.00286739

*RES
1 *395:9 *395:11 2.61755
2 *395:2 *395:7 4.22628
3 *395:6 *395:2 3.64726
4 *395:5 *395:4 3.04122
5 *395:3 *395:10 3.45569
6 *395:3 *395:5 1.84205
7 *603:I *395:10 4.86792
8 *395:8 *395:9 40.2402
9 *395:7 *395:8 2.92456
10 *395:4 *395:6 12.4099
11 *846:Z *395:11 0.749714
*END

*D_NET *396 0.0130977

*CONN
*I *613:I I *C 217.9 139.6 *L 0.00105 *D DEL1
*I *831:Z O *C 113.7 139.2 *L 0 *D AN2XD1

*CAP
1 *831:Z 0.000622287
2 *396:2 0.000222094
3 *396:3 0.00201899
4 *396:4 0.000496283
5 *396:5 2.84664e-05
6 *396:6 0.000225359
7 *396:7 0.00170715
8 *396:8 8.97124e-05
9 *396:9 0.00105705
10 *396:3 *77:2 0.000712325
11 *396:4 *32:3 0.000202262988
12 *396:4 *46:2 0.00131537
13 *396:7 *56:3 0.00207243984
14 *831:Z *435:7 0.000469406016
15 *396:2 *292:4 0.00109647
16 *396:3 *246:4 0.000402723008
17 *396:3 *395:3 0.000359290977

*RES
1 *396:8 *396:9 14.2059
2 *396:7 *396:8 0.111445
3 *396:2 *396:7 25.4558
4 *831:Z *396:9 4.30095
5 *396:6 *396:2 0.111445
6 *396:5 *396:6 8.29178
7 *396:3 *396:5 0.111445
8 *396:4 *396:3 33.0480995
9 *613:I *396:4 4.78859
*END

*D_NET *397 0.00170628

*CONN
*I *612:I I *C 113.9 141.6 *L 0.00105 *D DEL1
*I *849:Z O *C 106.9 139.2 *L 0 *D AN2XD1

*CAP
1 *849:Z 0.000370625
2 *397:2 9.64192e-05
3 *397:3 0.00123923

*RES
1 *397:2 *397:3 7.79324007
2 *849:Z *397:3 2.89761
3 *612:I *397:2 1.5
*END

*D_NET *398 0.0121879

*CONN
*I *666:I I *C 169.7 145.2 *L 0.00105 *D DEL1
*I *850:Z O *C 86.5 142 *L 0 *D AN2XD1

*CAP
1 *850:Z 0.000186423
2 *398:2 0.00119102
3 *398:4 0.00123769
4 *398:5 0.000167027
5 *398:6 1.98302e-05
6 *398:7 0.000975855
7 *398:9 0.000630035
8 *398:11 7.57326e-06
9 *398:12 0.00100256
10 *398:13 0.000651263
11 *398:2 *377:4 0.000486595
12 *398:3 *491:2 0.0018904
13 *398:4 *241:2 0.000707517031
14 *398:5 *370:3 0.000981166016
15 *398:3 *510:7 0.00144136
16 *398:4 *140:2 0.000611607031

*RES
1 *850:Z *398:12 1.55397
2 *398:9 *398:10 0.137269
3 *398:3 *398:4 31.0207996
4 *398:3 *398:13 4.17486
5 *398:7 *398:8 0.137269
6 *398:6 *398:7 17.9277
7 *398:8 *398:9 7.84939
8 *398:11 *398:2 18.6614
9 *398:10 *398:5 4.04611
10 *398:5 *398:11 0.137269
11 *398:2 *398:12 5.81924
12 *398:4 *398:6 0.137269
13 *666:I *398:13 1.50001
*END

*D_NET *399 1.0645e-05

*CONN
*I *668:I I *C 102.1 139.6 *L 0.00105 *D DEL1
*I *845:Z O *C 101.9 139.2 *L 0 *D AN2XD1

*CAP
1 *845:Z 1.0645e-05

*RES
1 *845:Z *668:I 0.190156
*END

*D_NET *400 0.00332871

*CONN
*I *662:I I *C 91.7 139.6 *L 0.00105 *D DEL1
*I *852:Z O *C 74.1 139.2 *L 0 *D AN2XD1

*CAP
1 *400:2 0.000392562
2 *400:3 0.00293615

*RES
1 *400:2 *400:3 18.0105
2 *852:Z *400:3 2.12242
3 *662:I *400:2 3.42369
*END

*D_NET *401 0.000321685

*CONN
*I *667:I I *C 100.5 141.6 *L 0.00105 *D DEL1
*I *842:Z O *C 100.7 139.2 *L 0 *D AN2XD1

*CAP
1 *667:I 0.00032168498

*RES
1 *842:Z *667:I 3.3393
*END

*D_NET *402 0.000372758

*CONN
*I *665:I I *C 97.1 141.6 *L 0.00105 *D DEL1
*I *854:Z O *C 97.5 139.2 *L 0 *D AN2XD1

*CAP
1 *854:Z 0.000372758008

*RES
1 *854:Z *665:I 3.50553
*END

*D_NET *403 0.0130847

*CONN
*I *664:I I *C 196.5 139.6 *L 0.00105 *D DEL1
*I *856:Z O *C 91.5 139.2 *L 0 *D AN2XD1

*CAP
1 *403:2 0.000893888
2 *403:3 0.000304588
3 *403:4 0.000617852
4 *403:5 0.00024458
5 *403:6 4.43752e-05
6 *403:7 0.000276877
7 *403:8 0.00250484984
8 *403:9 0.000171653
9 *403:10 1.52886e-06
10 *403:11 0.000958406
11 *403:12 9.27255e-05
12 *403:13 0.00108943
13 *403:5 *32:2 0.000498809023
14 *403:5 *45:2 0.00139434
15 *403:6 *46:2 0.000471884023
16 *403:4 *406:3 0.000829578984
17 *403:2 *394:7 0.000548073008
18 *403:3 *292:4 0.00145555
19 *403:4 *408:5 0.000685722969

*RES
1 *403:7 *403:8 30.5100994
2 *403:11 *403:12 0.111266
3 *403:5 *403:6 7.60937
4 *403:6 *403:7 0.111266
5 *664:I *403:5 4.21646
6 *403:4 *403:13 6.01906
7 *403:8 *403:3 2.75697
8 *856:Z *403:4 1.93202
9 *403:12 *403:13 11.716
10 *403:10 *403:11 12.4939
11 *403:9 *403:2 10.938
12 *403:3 *403:9 3.11265
13 *403:2 *403:10 0.111266
*END

*D_NET *404 0.00337491

*CONN
*I *655:I I *C 48.5 141.6 *L 0.00103 *D BUFFD2
*I *857:Z O *C 66.9 139.2 *L 0 *D AN2XD1

*CAP
1 *857:Z 0.000444554
2 *404:2 0.000660143
3 *404:3 0.000288513
4 *404:4 0.00162941
5 *404:5 0.000352287

*RES
1 *404:2 *404:5 3.67778
2 *404:4 *404:5 2.26653
3 *404:3 *404:4 10.7009001
4 *857:Z *404:3 4.31997
5 *655:I *404:2 0.749958
*END

*D_NET *405 0.00230077

*CONN
*I *660:I I *C 93.5 141.6 *L 0.00105 *D DEL1
*I *859:Z O *C 78.5 139.2 *L 0 *D AN2XD1

*CAP
1 *405:2 0.00119889
2 *405:3 0.000506064
3 *405:4 0.000548963
4 *405:5 4.68689e-05

*RES
1 *405:2 *405:5 7.8639102
2 *405:4 *405:5 0.111474
3 *405:3 *405:4 4.09035
4 *660:I *405:3 4.66932
5 *859:Z *405:2 0.749961
*END

*D_NET *406 0.0189035

*CONN
*I *656:I I *C 203.3 139.6 *L 0.00105 *D DEL1
*I *860:Z O *C 76.1 139.2 *L 0 *D AN2XD1

*CAP
1 *406:2 0.000294534
2 *406:3 0.0032899
3 *406:4 0.000162716
4 *406:5 0.00408255
5 *406:7 0.000958357
6 *406:8 2.11182e-05
7 *406:9 0.000669679
8 *406:10 0.000195172
9 *406:11 0.000250304
10 *406:12 0.000219592
11 *406:13 0.00117739
12 *406:2 *489:2 0.00470135031
13 *406:2 *410:6 0.000699846016
14 *406:3 *403:4 0.000829578984
15 *406:4 *303:2 0.00135142

*RES
1 *406:2 *406:5 54.0880013
2 *406:11 *406:12 2.66247
3 *406:4 *406:3 32.8592
4 *406:7 *406:8 0.137003
5 *406:6 *406:7 10.7019
6 *406:8 *406:9 8.23502
7 *406:13 *406:4 2.03853
8 *860:Z *406:3 2.43386
9 *656:I *406:2 3.82287
10 *406:10 *406:11 3.70898
11 *406:5 *406:6 0.137003
12 *406:12 *406:13 12.8056
13 *406:9 *406:10 2.9893
*END

*D_NET *407 0.0164205

*CONN
*I *659:I I *C 196.9 141.6 *L 0.00105 *D DEL1
*I *862:Z O *C 82.5 139.2 *L 0 *D AN2XD1

*CAP
1 *862:Z 7.47564e-05
2 *407:2 0.000737901
3 *407:3 0.000407277
4 *407:4 0.00043514
5 *407:5 0.000354278
6 *407:6 0.000181941
7 *407:7 1.78443e-05
8 *407:8 0.00388514
9 *407:9 7.56457e-05
10 *407:10 0.00332811
11 *407:9 *297:4 0.00174954
12 *407:8 *56:3 0.000447265
13 *407:2 *124:2 0.000323776992
14 *407:7 *137:2 0.00241727
15 *407:2 *395:2 0.00168025
16 *407:8 *435:3 0.000304410996

*RES
1 *407:8 *407:9 3.17976
2 *407:6 *407:7 0.136998
3 *862:Z *407:10 4.32712
4 *407:9 *407:10 38.9549
5 *407:7 *407:8 51.0130997
6 *407:5 *407:6 7.27802
7 *407:3 *407:4 4.80661
8 *407:2 *407:3 3.60398
9 *407:4 *407:5 2.50956
10 *407:2 *407:11 4.64003
11 *659:I *407:11 1.49997
*END

*D_NET *408 0.013824

*CONN
*I *658:I I *C 199.9 139.6 *L 0.00105 *D DEL1
*I *879:Z O *C 85.3 139.2 *L 0 *D AN2XD1

*CAP
1 *658:I 0.000234563
2 *408:2 0.00369521
3 *408:3 0.000131265
4 *408:4 7.57818e-05
5 *408:5 0.000403662
6 *408:6 0.000598022
7 *408:7 0.000284351
8 *408:8 0.000643582
9 *408:9 0.000343443
10 *408:10 0.000275386
11 *408:11 4.18943e-05
12 *408:12 0.00135646
13 *408:13 0.000664331
14 *408:14 3.17449e-05
15 *408:15 0.000350096
16 *408:16 3.89059e-06
17 *408:15 *295:3 0.000659614063
18 *408:5 *865:A1 0.00044767
19 *408:5 *403:4 0.000685722969
20 *408:2 *290:3 0.00112156
21 *408:3 *394:7 0.00177586

*RES
1 *408:7 *408:8 3.90704
2 *408:2 *408:14 0.111285
3 *408:10 *408:13 2.30601
4 *408:6 *408:7 1.86402
5 *408:3 *408:16 15.024
6 *408:4 *408:6 4.56215
7 *408:5 *408:12 3.52909
8 *408:11 *408:12 17.0302
9 *879:Z *408:5 0.909701
10 *408:14 *408:15 9.07129
11 *658:I *408:4 2.21152
12 *408:11 *408:3 1.06455
13 *408:8 *408:9 2.33436
14 *408:9 *408:10 3.29025
15 *408:15 *408:16 0.111285
16 *408:13 *408:2 34.4016991
*END

*D_NET *409 0.00150332

*CONN
*I *657:I I *C 93.5 143.2 *L 0.00105 *D DEL1
*I *865:Z O *C 88.5 139.2 *L 0 *D AN2XD1

*CAP
1 *865:Z 0.000366252
2 *409:2 0.000675875
3 *409:3 0.000461196

*RES
1 *409:2 *409:3 3.92862
2 *657:I *409:2 4.50240993
3 *865:Z *409:3 3.02025
*END

*D_NET *410 0.0161776

*CONN
*I *663:I I *C 211.5 143.2 *L 0.00105 *D DEL1
*I *866:Z O *C 112.5 139.2 *L 0 *D AN2XD1

*CAP
1 *663:I 0.000263231
2 *866:Z 6.93128e-05
3 *410:2 0.000941831
4 *410:3 0.000160303
5 *410:4 0.000434547
6 *410:5 1.41124e-06
7 *410:6 0.000478828
8 *410:8 0.000270218
9 *410:9 0.000245834
10 *410:10 0.000190726
11 *410:11 1.4205e-05
12 *410:12 1.38348e-05
13 *410:13 0.00151616
14 *410:14 0.000758254
15 *410:15 1.05265e-05
16 *410:16 0.00142209
17 *410:18 0.000619744
18 *410:19 0.00123046
19 *410:20 0.000346865
20 *663:I *570:Z 0.000332235
21 *410:4 *395:4 0.00286739
22 *410:6 *406:2 0.000699846016
23 *663:I *500:2 0.000336361992
24 *410:2 *489:2 0.00295341

*RES
1 *410:4 *410:5 0.137252
2 *410:18 *410:19 0.0420832
3 *410:9 *410:10 3.42249
4 *410:12 *410:13 15.4434
5 *410:15 *410:16 14.8622
6 *410:3 *410:4 5.94583
7 *410:14 *410:15 12.5292
8 *410:7 *410:8 4.2361
9 *866:Z *410:19 11.2728
10 *410:5 *410:6 5.75632
11 *410:6 *410:7 0.137252
12 *663:I *410:20 2.8391
13 *410:17 *410:18 6.06355
14 *410:3 *410:20 6.10206
15 *410:16 *410:17 0.0420832
16 *410:13 *410:14 0.0420832
17 *410:2 *410:12 0.0420832
18 *410:10 *410:11 2.8523
19 *410:11 *410:2 18.0258999
20 *410:8 *410:9 0.137252
*END

*D_NET *411 0.0152012

*CONN
*I *661:I I *C 211.5 145.2 *L 0.00105 *D DEL1
*I *868:Z O *C 108.7 139.2 *L 0 *D AN2XD1

*CAP
1 *661:I 0.000334676
2 *868:Z 0.000336852
3 *411:2 0.000446598
4 *411:3 0.000224677
5 *411:4 4.98678e-05
6 *411:5 0.00237679
7 *411:6 0.000157691
8 *411:7 7.2136e-05
9 *411:8 0.000241324
10 *411:9 3.98217e-05
11 *411:10 8.78036e-05
12 *411:11 0.000432127
13 *411:12 9.57462e-06
14 *411:13 0.000248287
15 *411:14 8.26899e-06
16 *411:15 0.000251044
17 *411:16 3.44178e-05
18 *411:17 0.000634391
19 *411:6 *239:4 0.000874372031
20 *411:6 *235:3 0.00117376992
21 *411:2 *243:4 0.00262272
22 *411:3 *81:5 0.00040795
23 *411:4 *605:Z 0.00116413
24 *411:5 *121:4 0.00297188

*RES
1 *411:4 *411:17 7.98074
2 *411:16 *411:3 7.2623
3 *411:11 *411:12 0.111757
4 *411:7 *411:8 2.91271
5 *411:7 *411:17 3.96004
6 *411:2 *411:10 0.111757
7 *411:5 *411:9 0.26694
8 *411:9 *411:2 11.2485
9 *411:12 *411:13 6.93022
10 *661:I *411:6 3.0564
11 *411:3 *411:4 0.95281
12 *411:14 *411:15 5.95761
13 *411:10 *411:11 4.24613
14 *411:15 *411:16 0.95281
15 *411:13 *411:14 0.111757
16 *868:Z *411:8 2.29198
17 *411:6 *411:5 41.8521004
*END

*D_NET *412 0.00518055

*CONN
*I *789:B1 I *C 50.3 139.6 *L 0.000663 *D AOI22D0
*I *767:Q[63] O *C 9.945 134.195 *L 0 *D sram00

*CAP
1 *789:B1 0.000134482
2 *412:2 0.000600083
3 *412:3 0.000160935
4 *412:4 0.000102295
5 *412:5 0.000263917
6 *412:6 0.00250518984
7 *412:7 0.000329171
8 *412:8 3.55509e-06
9 *412:9 2.92435e-05
10 *412:10 0.000508798
11 *412:2 *290:2 0.000542918984

*RES
1 *412:9 *412:10 5.27881
2 *412:7 *412:10 4.81924
3 *412:4 *412:6 23.7192
4 *412:3 *412:2 4.69664
5 *412:7 *412:8 0.422862
6 *412:2 *412:4 0.581256
7 *789:B1 *412:3 1.06123
8 *412:5 *412:8 3.10697
9 *412:6 *412:9 0.75
10 *412:10 *767:Q[63] 0.0001
*END

*D_NET *413 0.00611055

*CONN
*I *799:B1 I *C 51.7 139.6 *L 0.000663 *D AOI22D0
*I *767:Q[62] O *C 12.535 134.195 *L 0 *D sram00

*CAP
1 *413:2 0.000426734
2 *413:3 0.000257071
3 *413:4 0.00202125
4 *413:6 1.07948e-05
5 *413:7 6.00191e-05
6 *413:8 0.000397835
7 *413:9 0.000208463
8 *413:2 *304:4 0.000782558047
9 *413:2 *314:2 0.00160028
10 *413:2 *303:3 0.000345564023

*RES
1 *413:7 *413:9 1.85768
2 *413:6 *413:8 3.18925
3 *413:4 *413:5 0.112201
4 *413:2 *413:9 3.24626
5 *413:2 *413:4 30.061
6 *413:3 *413:7 1.73821
7 *413:5 *413:6 0.41041
8 *799:B1 *413:3 0.75
9 *413:9 *767:Q[62] 0.0001
*END

*D_NET *414 0.00473444

*CONN
*I *806:B1 I *C 56.9 139.6 *L 0.000663 *D AOI22D0
*I *767:Q[61] O *C 18.345 134.195 *L 0 *D sram00

*CAP
1 *414:2 0.000437234
2 *414:3 0.000254024
3 *414:4 0.000248453
4 *414:5 0.000513067
5 *414:6 1.90462e-05
6 *414:7 0.000180399
7 *414:8 0.00164452
8 *414:9 3.30736e-05
9 *414:10 0.000741646
10 *414:11 5.77157e-07
11 *414:12 0.000649602
12 *414:13 1.27978e-05

*RES
1 *414:7 *414:8 14.6762
2 *414:2 *414:3 2.15062
3 *414:12 *414:13 0.11154
4 *414:5 *414:6 1.08338
5 *414:6 *414:7 0.267383
6 *414:3 *414:5 3.08421
7 *414:10 *414:11 0.11154
8 *414:8 *414:9 0.267201
9 *414:9 *414:10 7.51584
10 *806:B1 *414:2 2.30614
11 *414:4 *414:13 2.48433
12 *414:11 *414:12 4.55829
13 *414:13 *767:Q[61] 0.0001
*END

*D_NET *415 0.00461862

*CONN
*I *796:B1 I *C 54.3 139.6 *L 0.000663 *D AOI22D0
*I *767:Q[60] O *C 20.935 134.195 *L 0 *D sram00

*CAP
1 *415:3 3.38205e-05
2 *415:4 0.000406457
3 *415:5 0.000615282
4 *415:6 0.000523973
5 *415:7 7.24418e-05
6 *415:8 0.002004
7 *415:9 2.02128e-05
8 *415:10 0.000821843
9 *415:11 2.39128e-05
10 *415:12 7.3665e-05
11 *415:13 2.30566e-05

*RES
1 *415:11 *415:12 0.601585
2 *415:10 *415:11 0.11154
3 *415:9 *415:10 7.04886
4 *415:2 *415:4 2.57387
5 *415:12 *415:13 0.112197
6 *415:8 *415:9 0.11154
7 *415:6 *415:7 0.260653
8 *415:4 *415:5 2.9286
9 *415:3 *415:4 0.334594
10 *415:6 *415:13 4.9749
11 *415:5 *415:8 15.4952
12 *796:B1 *415:2 0.75
13 *415:13 *767:Q[60] 0.0001
*END

*D_NET *416 0.0046657

*CONN
*I *800:B1 I *C 59.1 139.6 *L 0.000663 *D AOI22D0
*I *767:Q[59] O *C 26.745 134.195 *L 0 *D sram00

*CAP
1 *416:3 0.000469771
2 *416:4 0.000509642
3 *416:5 0.000621991
4 *416:6 7.49361e-05
5 *416:7 0.0017897
6 *416:8 7.43626e-05
7 *416:9 5.03579e-05
8 *416:10 0.000234749
9 *416:11 2.34858e-06
10 *416:12 0.000837815

*RES
1 *416:10 *416:11 0.200034
2 *416:7 *416:10 2.60206
3 *416:2 *416:3 3.86228
4 *416:8 *416:12 7.28776
5 *416:8 *416:11 1.20609
6 *416:5 *416:9 6.97643
7 *416:3 *416:4 0.905614
8 *416:9 *416:12 2.31166
9 *416:5 *416:6 0.105039
10 *416:4 *416:7 13.1364
11 *800:B1 *416:2 0.75
12 *416:12 *767:Q[59] 0.0001
*END

*D_NET *417 0.00699174

*CONN
*I *778:B1 I *C 63.1 141.6 *L 0.000663 *D AOI22D0
*I *767:Q[58] O *C 29.335 134.195 *L 0 *D sram00

*CAP
1 *417:2 1.94196e-05
2 *417:3 4.05802e-05
3 *417:4 0.000279106
4 *417:5 5.49105e-05
5 *417:6 1.61309e-05
6 *417:7 0.000975218984
7 *417:8 4.83629e-06
8 *417:9 3.3229e-05
9 *417:10 6.57586e-05
10 *417:11 0.000944579
11 *417:12 1.11309e-05
12 *417:2 *16:4 0.00175578
13 *417:3 *376:9 0.00258118016
14 *417:4 *238:2 0.000209882012

*RES
1 *417:11 *417:12 0.11154
2 *417:10 *417:11 27.4359
3 *417:9 *417:10 0.111536
4 *417:4 *417:5 1.8393
5 *417:8 *417:9 3.41733
6 *417:2 *417:8 0.111536
7 *417:3 *417:2 1.70601
8 *417:6 *417:12 1.08338
9 *417:6 *417:7 6.64082
10 *778:B1 *417:4 0.75
11 *417:5 *417:3 0.75
12 *417:12 *767:Q[58] 0.0001
*END

*D_NET *418 0.00448544

*CONN
*I *785:B1 I *C 69.3 139.6 *L 0.000663 *D AOI22D0
*I *767:Q[57] O *C 35.145 134.195 *L 0 *D sram00

*CAP
1 *418:2 6.13646e-05
2 *418:3 3.91702e-05
3 *418:4 0.000615595
4 *418:5 4.91357e-05
5 *418:6 2.30432e-05
6 *418:7 0.00206021
7 *418:8 0.000498556
8 *418:9 3.93274e-05
9 *418:10 3.67496e-05
10 *418:11 0.000128325
11 *418:12 0.000933956

*RES
1 *418:10 *418:11 0.200034
2 *418:7 *418:10 1.20054
3 *418:8 *418:12 9.00003
4 *418:8 *418:11 4.47605
5 *418:5 *418:9 1.06132
6 *418:3 *418:4 1.68368
7 *418:9 *418:12 1.84316
8 *418:5 *418:6 0.105039
9 *418:4 *418:7 18.7346
10 *785:B1 *418:2 0.75
11 *418:2 *418:3 0.75
12 *418:12 *767:Q[57] 0.0001
*END

*D_NET *419 0.00506992

*CONN
*I *795:B1 I *C 69.3 141.6 *L 0.000663 *D AOI22D0
*I *767:Q[56] O *C 37.735 134.195 *L 0 *D sram00

*CAP
1 *419:2 0.000128304
2 *419:3 0.000231402
3 *419:4 0.00191404
4 *419:5 2.54095e-05
5 *419:6 0.000681239
6 *419:2 *16:4 0.00143977
7 *419:3 *376:9 0.000182519004
8 *419:4 *33:4 0.000467238008

*RES
1 *419:2 *419:4 25.4329
2 *419:3 *419:2 2.46175
3 *419:6 *419:4 8.16889
4 *795:B1 *419:5 0.75
5 *419:5 *419:3 0.75
6 *419:4 *767:Q[56] 0.0001
*END

*D_NET *420 0.00159672

*CONN
*I *789:A1 I *C 49.3 139.6 *L 0.000665 *D AOI22D0
*I *767:Q[55] O *C 43.545 134.195 *L 0 *D sram00

*CAP
1 *420:2 0.000830021953
2 *420:3 6.39852e-05
3 *420:4 0.000613559
4 *420:5 5.01547e-05
5 *420:6 3.89965e-05

*RES
1 *420:2 *420:3 1.23894
2 *420:4 *420:5 0.475993
3 *420:3 *420:4 3.71973
4 *789:A1 *420:2 4.77420998
5 *420:5 *420:6 0.238579
6 *420:6 *767:Q[55] 7.28487e-05
*END

*D_NET *421 0.00151788

*CONN
*I *799:A1 I *C 50.7 139.6 *L 0.000665 *D AOI22D0
*I *767:Q[54] O *C 46.135 134.195 *L 0 *D sram00

*CAP
1 *421:2 0.000113794
2 *421:3 0.000156118
3 *421:4 4.90294e-05
4 *421:5 0.000405626
5 *421:6 0.000670942031
6 *421:7 6.44272e-05
7 *421:8 5.79364e-05

*RES
1 *421:2 *421:3 1.56509
2 *421:7 *421:8 0.238604
3 *421:6 *421:7 0.483745
4 *421:4 *421:5 2.51549
5 *421:3 *421:4 0.111471
6 *421:5 *421:6 4.46265984
7 *799:A1 *421:2 0.749996
8 *421:8 *767:Q[54] 6.80948e-05
*END

*D_NET *422 0.00144556

*CONN
*I *806:A1 I *C 55.9 139.6 *L 0.000665 *D AOI22D0
*I *767:Q[53] O *C 51.945 134.195 *L 0 *D sram00

*CAP
1 *422:2 0.000890273984
2 *422:3 0.000506492
3 *422:4 1.1058e-05
4 *422:5 3.77247e-05

*RES
1 *422:2 *422:5 4.64224005
2 *422:2 *422:3 4.20221
3 *422:3 *422:4 0.292053
4 *806:A1 *422:5 0.750001
5 *422:5 *767:Q[53] 7.0835e-05
*END

*D_NET *423 0.00100431

*CONN
*I *796:A1 I *C 55.3 139.6 *L 0.000665 *D AOI22D0
*I *767:Q[52] O *C 54.535 134.195 *L 0 *D sram00

*CAP
1 *423:2 0.000348717
2 *423:3 0.000220458
3 *423:4 0.000435133008

*RES
1 *423:2 *423:3 0.63937
2 *423:3 *423:4 2.26156
3 *796:A1 *423:2 2.71156001
4 *423:4 *767:Q[52] 8.27502e-05
*END

*D_NET *424 0.000876581

*CONN
*I *800:A1 I *C 60.1 139.6 *L 0.000665 *D AOI22D0
*I *767:Q[51] O *C 60.345 134.195 *L 0 *D sram00

*CAP
1 *800:A1 4.88004e-05
2 *424:2 0.000250285
3 *424:4 0.000577489023

*RES
1 *424:2 *424:3 1.48384
2 *800:A1 *424:4 3.37526011
3 *424:3 *424:4 0.199778
4 *424:4 *767:Q[51] 0.000103005
*END

*D_NET *425 0.00136249

*CONN
*I *778:A1 I *C 64.1 141.6 *L 0.000665 *D AOI22D0
*I *767:Q[50] O *C 62.935 134.195 *L 0 *D sram00

*CAP
1 *425:2 0.00119996
2 *425:3 0.00011389
3 *425:4 3.44232e-05
4 *425:5 1.42453e-05

*RES
1 *425:2 *425:5 6.1301198
2 *425:2 *425:3 1.16614
3 *425:3 *425:4 0.297264
4 *778:A1 *425:5 0.749989
5 *425:5 *767:Q[50] 9.35382e-05
*END

*D_NET *426 0.00102161

*CONN
*I *785:A1 I *C 70.3 139.6 *L 0.000665 *D AOI22D0
*I *767:Q[49] O *C 68.745 134.195 *L 0 *D sram00

*CAP
1 *785:A1 3.77338e-05
2 *426:2 0.000118608
3 *426:3 4.69738e-05
4 *426:4 0.000818295

*RES
1 *426:2 *426:4 2.32818
2 *426:2 *426:3 0.292026
3 *785:A1 *426:4 5.65884018
4 *426:4 *767:Q[49] 8.6347e-05
*END

*D_NET *427 0.00131674

*CONN
*I *795:A1 I *C 70.3 141.6 *L 0.000665 *D AOI22D0
*I *767:Q[48] O *C 71.335 134.195 *L 0 *D sram00

*CAP
1 *427:2 0.000978968047
2 *427:3 0.000285377
3 *427:4 5.23879e-05

*RES
1 *427:2 *427:4 6.30152988
2 *427:3 *427:4 1.6174
3 *795:A1 *427:3 0.749999
4 *427:4 *767:Q[48] 9.61537e-05
*END

*D_NET *428 0.00569721

*CONN
*I *803:B1 I *C 119.1 139.6 *L 0.00099 *D AOI22D1
*I *767:Q[47] O *C 77.145 134.195 *L 0 *D sram00

*CAP
1 *428:2 0.00032258
2 *428:3 5.91527e-05
3 *428:5 3.52578e-05
4 *428:6 4.69672e-06
5 *428:7 0.000138629
6 *428:8 0.00141843
7 *428:9 3.29203e-05
8 *428:10 0.000350154
9 *428:11 7.77014e-06
10 *428:8 *291:4 0.000433811992
11 *428:6 *317:3 0.000177965996
12 *428:2 *77:3 0.00123672
13 *428:2 *432:3 0.00107014
14 *428:3 *431:2 0.000231013008
15 *428:2 *435:7 0.000177975

*RES
1 *428:10 *428:11 0.111536
2 *428:9 *428:10 5.3365
3 *428:3 *428:4 0.229612
4 *428:8 *428:9 0.111536
5 *428:6 *428:7 1.81679
6 *428:5 *428:2 3.36566
7 *428:6 *428:11 1.23904
8 *428:2 *428:8 27.6991
9 *803:B1 *428:4 0.75
10 *428:4 *428:5 0.75
11 *428:11 *767:Q[47] 0.0001
*END

*D_NET *429 0.0053943

*CONN
*I *801:B1 I *C 116.1 143.2 *L 0.00099 *D AOI22D1
*I *767:Q[46] O *C 79.735 134.195 *L 0 *D sram00

*CAP
1 *801:B1 2.00833e-06
2 *429:2 0.000206149
3 *429:3 0.00129034992
4 *429:5 0.000452799
5 *429:6 0.000615454
6 *429:7 1.92957e-06
7 *429:8 7.61392e-05
8 *429:9 0.000124575
9 *429:2 *302:3 0.000195869004
10 *429:2 *305:2 0.000206907012
11 *429:3 *430:2 0.000203128984
12 *429:2 *434:4 0.000159496992
13 *429:2 *435:7 0.000162511006
14 *429:2 *316:3 0.000767518984
15 *429:2 *317:4 0.000746148984
16 *429:3 *291:9 0.000183312988

*RES
1 *429:4 *429:6 3.23375
2 *429:4 *429:5 0.199758
3 *429:8 *429:9 1.4775
4 *429:3 *429:8 0.28918
5 *429:2 *429:3 29.0957
6 *429:6 *429:7 0.199758
7 *801:B1 *429:5 2.72133
8 *429:7 *429:2 1.38658
9 *429:9 *767:Q[46] 0.0001
*END

*D_NET *430 0.00585918

*CONN
*I *777:B1 I *C 119.5 143.2 *L 0.00099 *D AOI22D1
*I *767:Q[45] O *C 85.545 134.195 *L 0 *D sram00

*CAP
1 *430:2 0.000218069
2 *430:4 0.000259165
3 *430:6 0.000122807
4 *430:7 3.05681e-05
5 *430:8 0.000236912
6 *430:9 0.000254666
7 *430:10 9.13355e-05
8 *430:11 7.5443e-05
9 *430:12 0.00120825008
10 *430:6 *431:4 0.000259979004
11 *430:2 *291:9 0.00140125
12 *430:2 *130:49 0.0014976
13 *430:2 *429:3 0.000203128984

*RES
1 *430:11 *430:12 1.63311
2 *430:10 *430:2 1.38658
3 *430:4 *430:8 1.81723
4 *430:3 *430:4 1.37246
5 *430:2 *430:12 27.21
6 *430:9 *430:10 0.510986
7 *430:7 *430:8 0.355372
8 *430:5 *430:6 0.199758
9 *430:6 *430:7 1.05427
10 *430:5 *430:9 2.13445
11 *777:B1 *430:3 0.75
12 *430:12 *767:Q[45] 0.0001
*END

*D_NET *431 0.0052514

*CONN
*I *798:B1 I *C 119.5 141.6 *L 0.00099 *D AOI22D1
*I *767:Q[44] O *C 88.135 134.195 *L 0 *D sram00

*CAP
1 *431:2 0.000153621
2 *431:3 0.000224747
3 *431:4 0.000210858
4 *431:5 0.000171457
5 *431:6 7.31005e-06
6 *431:8 0.00022875
7 *431:9 2.63162e-06
8 *431:10 0.000153657
9 *431:11 6.80748e-05
10 *431:12 1.60638e-05
11 *431:13 1.08189e-05
12 *431:14 0.000106909
13 *431:15 0.000113525
14 *431:16 0.00119766
15 *431:17 1.15864e-05
16 *431:3 *434:4 0.000209723984
17 *431:2 *428:3 0.000231013008
18 *431:3 *433:12 0.000654353984
19 *431:3 *130:49 0.00121865
20 *431:4 *430:6 0.000259979004

*RES
1 *431:8 *431:9 0.199758
2 *431:5 *431:6 0.203568
3 *431:12 *431:13 0.111507
4 *431:7 *431:2 0.199758
5 *431:3 *431:12 1.23898
6 *431:10 *431:17 2.51345
7 *431:10 *431:11 0.105039
8 *431:9 *431:3 2.72467
9 *431:13 *431:14 6.26969
10 *431:7 *431:8 1.3592
11 *798:B1 *431:5 0.938603
12 *431:16 *431:17 0.111536
13 *431:15 *431:16 16.2103
14 *431:4 *431:2 1.83762
15 *431:14 *431:15 0.111507
16 *431:6 *431:4 1.49297
17 *431:17 *767:Q[44] 0.0001
*END

*D_NET *432 0.00543018

*CONN
*I *802:B1 I *C 127.3 141.6 *L 0.00099 *D AOI22D1
*I *767:Q[43] O *C 93.945 134.195 *L 0 *D sram00

*CAP
1 *432:2 0.000607036
2 *432:3 6.90765e-05
3 *432:4 5.89029e-05
4 *432:5 0.000126703
5 *432:7 6.30267e-05
6 *432:8 4.36366e-05
7 *432:9 0.00029195
8 *432:11 2.52272e-05
9 *432:12 0.000774362969
10 *432:13 2.47664e-05
11 *432:14 2.16351e-05
12 *432:15 3.15488e-06
13 *432:16 8.3752e-05
14 *432:17 5.64806e-06
15 *432:2 *77:5 0.000232865
16 *432:7 *79:2 0.000190350996
17 *432:2 *435:7 0.000272381992
18 *432:3 *428:2 0.00107014
19 *432:4 *291:9 0.00146556

*RES
1 *432:5 *432:6 0.210561
2 *432:12 *432:13 0.111536
3 *432:7 *432:2 4.79596
4 *432:8 *432:9 1.34995
5 *432:8 *432:17 1.95936
6 *432:11 *432:3 0.111507
7 *432:4 *432:10 0.111507
8 *432:10 *432:11 5.02458
9 *432:2 *432:4 1.89922
10 *432:13 *432:14 0.621251
11 *432:16 *432:17 0.111536
12 *432:15 *432:16 2.379
13 *432:3 *432:12 16.3863
14 *432:14 *432:15 0.111536
15 *802:B1 *432:6 0.75
16 *432:6 *432:7 0.75
17 *432:17 *767:Q[43] 0.0001
*END

*D_NET *433 0.0050968

*CONN
*I *780:B1 I *C 132.9 141.6 *L 0.00099 *D AOI22D1
*I *767:Q[42] O *C 96.535 134.195 *L 0 *D sram00

*CAP
1 *433:2 3.08942e-05
2 *433:3 0.000106346
3 *433:4 0.000440969
4 *433:5 6.55078e-05
5 *433:6 0.000309676
6 *433:8 4.04838e-05
7 *433:9 0.000250215
8 *433:10 3.1046e-05
9 *433:11 0.000257882
10 *433:12 0.00165819
11 *433:13 0.000281185
12 *433:14 0.000623121
13 *433:16 0.000183695
14 *433:6 *732:I 0.000163183008
15 *433:12 *431:3 0.000654353984

*RES
1 *433:2 *433:3 0.33457
2 *433:6 *433:8 0.199758
3 *433:7 *433:9 0.199758
4 *433:7 *433:13 2.12845
5 *433:10 *433:13 0.334624
6 *433:12 *433:16 2.31111
7 *433:8 *433:9 1.35863
8 *433:14 *433:16 10.7112
9 *433:11 *433:15 3.24777
10 *433:4 *433:6 2.6027
11 *433:11 *433:12 16.0342
12 *433:3 *433:4 3.32923
13 *780:B1 *433:3 0.75
14 *433:5 *433:14 0.75
15 *433:13 *433:15 0.75
16 *433:16 *767:Q[42] 0.0001
*END

*D_NET *434 0.00507446

*CONN
*I *782:B1 I *C 136.3 141.6 *L 0.00099 *D AOI22D1
*I *767:Q[41] O *C 102.345 134.195 *L 0 *D sram00

*CAP
1 *434:2 0.000303394
2 *434:3 0.000178394
3 *434:4 0.000879621016
4 *434:5 0.000316253
5 *434:6 0.000631338
6 *434:8 2.75154e-06
7 *434:9 8.38214e-05
8 *434:10 9.11364e-06
9 *434:11 0.000484486
10 *434:12 2.53813e-05
11 *434:13 9.3284e-06
12 *434:14 1.61066e-06
13 *434:15 8.26402e-05
14 *434:16 1.09256e-05
15 *434:17 2.1717e-05
16 *434:18 0.00014908
17 *434:19 1.1986e-05
18 *434:20 2.81328e-05
19 *434:2 *143:4 0.000184918008
20 *434:3 *515:13 0.000238532012
21 *434:4 *316:3 0.000291027988
22 *434:5 *299:2 0.00020862
23 *434:4 *429:2 0.000159496992
24 *434:3 *83:2 0.000380215
25 *434:4 *431:3 0.000209723984
26 *434:6 *56:3 0.000171917012

*RES
1 *434:9 *434:10 0.111485
2 *434:7 *434:6 0.199758
3 *782:B1 *434:6 4.03515
4 *434:18 *434:19 0.475996
5 *434:13 *434:4 11.0934
6 *434:8 *434:3 1.06756
7 *434:2 *434:8 0.199758
8 *434:3 *434:9 1.76927
9 *434:12 *434:5 4.86848
10 *434:10 *434:11 4.65256
11 *434:7 *434:2 1.66761
12 *434:11 *434:12 0.112164
13 *434:4 *434:14 0.111485
14 *434:19 *434:20 0.238601
15 *434:17 *434:18 2.22288
16 *434:16 *434:17 0.511011
17 *434:15 *434:16 0.111485
18 *434:5 *434:13 0.111485
19 *434:14 *434:15 2.42425
20 *434:20 *767:Q[41] 0.0001
*END

*D_NET *435 0.00522455

*CONN
*I *790:B1 I *C 139.9 141.6 *L 0.00099 *D AOI22D1
*I *767:Q[40] O *C 104.935 134.195 *L 0 *D sram00

*CAP
1 *435:2 5.15718e-05
2 *435:3 0.00071846
3 *435:4 0.000192119
4 *435:5 1.89106e-05
5 *435:6 5.54779e-05
6 *435:7 0.000944595
7 *435:8 8.41466e-05
8 *435:9 0.000231929
9 *435:10 2.93605e-05
10 *435:11 8.42042e-05
11 *435:12 0.000276957
12 *435:3 *291:3 0.00047844
13 *435:7 *428:2 0.000177975
14 *435:7 *432:2 0.000272381992
15 *435:4 *56:3 0.000264571992
16 *435:3 *137:3 0.000195363008
17 *435:7 *831:Z 0.000469406016
18 *435:7 *429:2 0.000162511006
19 *435:2 *82:8 0.000211752988
20 *435:3 *407:8 0.000304410996

*RES
1 *435:11 *435:12 2.41118
2 *435:10 *435:11 0.488942
3 *435:9 *435:10 0.111485
4 *435:3 *435:4 4.66139
5 *435:8 *435:9 2.3785
6 *435:7 *435:8 0.111485
7 *435:2 *435:7 19.2751
8 *435:5 *435:6 1.91163
9 *435:4 *435:5 0.111485
10 *790:B1 *435:3 4.64035
11 *435:6 *435:2 0.111485
12 *435:12 *767:Q[40] 0.0001
*END

*D_NET *436 0.00237544

*CONN
*I *803:A1 I *C 120.1 139.6 *L 0.000982 *D AOI22D1
*I *767:Q[39] O *C 110.745 134.195 *L 0 *D sram00

*CAP
1 *436:2 0.000399291
2 *436:3 0.00144572
3 *436:4 0.000530439

*RES
1 *436:2 *436:5 1.92377
2 *436:2 *436:3 9.49491
3 *436:3 *436:4 3.96732
4 *803:A1 *436:5 0.75
5 *436:5 *767:Q[39] 0.0001
*END

*D_NET *437 0.00210771

*CONN
*I *801:A1 I *C 117.1 143.2 *L 0.000982 *D AOI22D1
*I *767:Q[38] O *C 113.335 134.195 *L 0 *D sram00

*CAP
1 *801:A1 4.91704e-06
2 *437:2 0.00126368
3 *437:3 0.000468507
4 *437:4 4.79556e-05
5 *437:6 0.000322654

*RES
1 *437:2 *437:5 7.15651
2 *437:2 *437:3 4.06412
3 *437:3 *437:4 0.297301
4 *801:A1 *437:6 1.97284
5 *437:5 *437:6 0.199758
6 *437:6 *767:Q[38] 0.0001
*END

*D_NET *438 0.00187601

*CONN
*I *777:A1 I *C 120.5 143.2 *L 0.000982 *D AOI22D1
*I *767:Q[37] O *C 119.145 134.195 *L 0 *D sram00

*CAP
1 *777:A1 0.000147071
2 *438:2 4.3511e-05
3 *438:3 0.000645135
4 *438:5 0.000200988
5 *438:6 0.000222566
6 *438:7 5.02051e-07
7 *438:8 7.83593e-06
8 *438:9 0.000323882
9 *438:10 0.000284535

*RES
1 *438:7 *438:9 0.199751
2 *438:6 *438:8 0.199751
3 *438:8 *438:9 1.68335
4 *438:4 *438:5 0.199751
5 *438:3 *438:4 3.81769991
6 *438:2 *438:10 2.34738
7 *777:A1 *438:2 0.905609
8 *438:6 *438:10 1.67438
9 *438:5 *438:7 0.853472
10 *438:10 *767:Q[37] 0.000116507
*END

*D_NET *439 0.00147596

*CONN
*I *798:A1 I *C 120.5 141.6 *L 0.000982 *D AOI22D1
*I *767:Q[36] O *C 121.735 134.195 *L 0 *D sram00

*CAP
1 *798:A1 6.00926e-06
2 *439:2 0.000222576
3 *439:3 4.55368e-05
4 *439:4 0.00015998
5 *439:5 0.000191829
6 *439:6 3.79251e-05
7 *439:7 0.00035695
8 *439:8 1.25927e-05
9 *439:9 4.99436e-06
10 *439:10 0.000437573984

*RES
1 *439:9 *439:10 0.688249
2 *439:4 *439:6 0.422696
3 *439:2 *439:3 1.48349
4 *439:7 *439:8 1.66871
5 *439:6 *439:7 0.199763
6 *439:5 *439:9 0.896937
7 *439:3 *439:4 0.35537
8 *439:5 *439:8 0.199763
9 *798:A1 *439:10 1.93692005
10 *439:10 *767:Q[36] 8.86652e-05
*END

*D_NET *440 0.00118049

*CONN
*I *802:A1 I *C 128.3 141.6 *L 0.000982 *D AOI22D1
*I *767:Q[35] O *C 127.545 134.195 *L 0 *D sram00

*CAP
1 *440:2 0.000337182
2 *440:3 0.000154083
3 *440:4 0.000689223984

*RES
1 *440:2 *440:3 0.633681
2 *440:3 *440:4 3.81769991
3 *802:A1 *440:2 2.43966
4 *440:4 *767:Q[35] 0.000116507
*END

*D_NET *441 0.00163549

*CONN
*I *780:A1 I *C 133.9 141.6 *L 0.000982 *D AOI22D1
*I *767:Q[34] O *C 130.135 134.195 *L 0 *D sram00

*CAP
1 *780:A1 1.45501e-06
2 *441:2 0.000859046016
3 *441:3 0.000424548
4 *441:4 5.41631e-05
5 *441:6 0.000296272

*RES
1 *441:2 *441:5 5.01875019
2 *441:2 *441:3 3.81897
3 *441:3 *441:4 0.297284
4 *780:A1 *441:6 1.82751
5 *441:5 *441:6 0.199721
6 *441:6 *767:Q[34] 7.65801e-05
*END

*D_NET *442 0.00153085

*CONN
*I *782:A1 I *C 137.3 141.6 *L 0.000982 *D AOI22D1
*I *767:Q[33] O *C 135.945 134.195 *L 0 *D sram00

*CAP
1 *782:A1 5.01299e-06
2 *442:2 0.00112125
3 *442:3 0.000168457
4 *442:4 2.1472e-05
5 *442:5 6.7068e-06
6 *442:6 0.000207945

*RES
1 *442:2 *442:5 6.34063005
2 *442:2 *442:3 1.56881
3 *442:3 *442:4 0.292089
4 *782:A1 *442:6 1.13827
5 *442:5 *442:6 0.202595
6 *442:6 *767:Q[33] 9.67503e-05
*END

*D_NET *443 0.00179838

*CONN
*I *790:A1 I *C 140.9 141.6 *L 0.000982 *D AOI22D1
*I *767:Q[32] O *C 138.535 134.195 *L 0 *D sram00

*CAP
1 *443:2 0.000238097
2 *443:3 0.000254644
3 *443:5 3.88147e-05
4 *443:6 0.000633396016
5 *443:7 0.000122523
6 *443:8 0.000510911

*RES
1 *443:4 *443:6 0.199763
2 *443:2 *443:4 1.1779
3 *443:7 *443:8 3.14613
4 *443:3 *443:5 0.199763
5 *443:5 *443:6 3.37935996
6 *443:3 *443:8 1.84654
7 *790:A1 *443:7 0.750012
8 *443:8 *767:Q[32] 0.00010313
*END

*D_NET *444 0.00139167

*CONN
*I *776:B1 I *C 188.3 139.6 *L 0.000663 *D AOI22D0
*I *767:Q[31] O *C 184.925 134.265 *L 0 *D sram00

*CAP
1 *444:2 0.00094592
2 *444:3 0.000399932
3 *444:4 4.58129e-05

*RES
1 *444:2 *444:5 4.86346006
2 *444:2 *444:3 3.53146
3 *444:3 *444:4 0.292018
4 *776:B1 *444:5 0.749971
5 *444:5 *767:Q[31] 7.42105e-05
*END

*D_NET *445 0.00285225

*CONN
*I *794:B1 I *C 195.5 141.6 *L 0.000663 *D AOI22D0
*I *767:Q[30] O *C 187.515 134.265 *L 0 *D sram00

*CAP
1 *445:2 0.000392942
2 *445:3 0.000143626
3 *445:4 2.06143e-05
4 *445:5 0.000723986016
5 *445:7 0.000444489
6 *445:8 0.000339142
7 *445:10 3.02697e-06
8 *445:11 0.00035801
9 *445:12 0.000426404

*RES
1 *445:10 *445:11 1.67214
2 *445:8 *445:10 0.199762
3 *445:2 *445:3 1.43149
4 *794:B1 *445:8 1.95306
5 *445:9 *445:11 0.199762
6 *445:6 *445:7 2.16721
7 *445:4 *445:5 5.01785994
8 *445:3 *445:4 0.0421881
9 *445:7 *445:12 3.04467
10 *445:5 *445:6 0.0421881
11 *445:2 *445:9 1.9369
12 *445:12 *767:Q[30] 7.65665e-05
*END

*D_NET *446 0.00225617

*CONN
*I *779:B1 I *C 200.5 141.6 *L 0.000663 *D AOI22D0
*I *767:Q[29] O *C 193.325 134.265 *L 0 *D sram00

*CAP
1 *446:2 0.000408734
2 *446:3 0.000817719
3 *446:4 0.00102973

*RES
1 *446:2 *446:4 6.89375
2 *446:3 *446:4 5.12487
3 *779:B1 *446:2 1.99491
4 *446:4 *767:Q[29] 0.0001
*END

*D_NET *447 0.00241862

*CONN
*I *787:B1 I *C 207.1 139.6 *L 0.000663 *D AOI22D0
*I *767:Q[28] O *C 195.915 134.265 *L 0 *D sram00

*CAP
1 *447:2 0.000105754
2 *447:3 9.95651e-05
3 *447:4 0.000133189
4 *447:5 6.83408e-05
5 *447:6 0.000402652
6 *447:7 5.14782e-05
7 *447:8 0.00044806
8 *447:9 1.87448e-05
9 *447:10 0.00016883
10 *447:11 0.0003664
11 *447:12 0.000555603047

*RES
1 *447:11 *447:12 2.94638
2 *447:9 *447:10 1.26703
3 *447:4 *447:6 3.72871
4 *447:10 *447:12 4.65084982
5 *447:8 *447:9 0.111488
6 *447:7 *447:8 2.84518
7 *447:6 *447:7 0.111488
8 *447:3 *447:4 0.905601
9 *787:B1 *447:2 0.749972
10 *447:2 *447:3 0.749972
11 *447:5 *447:11 0.749972
12 *447:12 *767:Q[28] 7.09663e-05
*END

*D_NET *448 0.00186098

*CONN
*I *804:B1 I *C 209.5 139.6 *L 0.000663 *D AOI22D0
*I *767:Q[27] O *C 201.725 134.265 *L 0 *D sram00

*CAP
1 *448:2 0.00084942
2 *448:3 0.000967998984
3 *448:4 1.79317e-05
4 *448:5 2.56272e-05

*RES
1 *448:2 *448:5 4.64035
2 *448:2 *448:3 7.97918
3 *448:3 *448:4 0.291948
4 *804:B1 *448:5 0.75
5 *448:5 *767:Q[27] 0.0001
*END

*D_NET *449 0.00209029

*CONN
*I *791:B1 I *C 212.7 139.6 *L 0.000663 *D AOI22D0
*I *767:Q[26] O *C 204.315 134.265 *L 0 *D sram00

*CAP
1 *791:B1 4.23416e-05
2 *449:2 4.35332e-05
3 *449:3 0.000698261
4 *449:4 0.00125958
5 *449:5 4.65892e-05

*RES
1 *449:2 *449:3 4.64035
2 *449:4 *449:5 0.238581
3 *449:3 *449:4 8.33328
4 *791:B1 *449:2 0.769941
5 *449:5 *767:Q[26] 0.0001
*END

*D_NET *450 0.00154576

*CONN
*I *784:B1 I *C 215.1 139.6 *L 0.000663 *D AOI22D0
*I *767:Q[25] O *C 210.125 134.265 *L 0 *D sram00

*CAP
1 *784:B1 1.79251e-05
2 *450:2 3.92922e-05
3 *450:3 0.000555787
4 *450:4 4.81873e-05
5 *450:5 0.000884581016

*RES
1 *450:2 *450:5 5.02348
2 *450:3 *450:5 5.32389021
3 *450:3 *450:4 0.291963
4 *784:B1 *450:2 0.387984
5 *450:5 *767:Q[25] 8.12361e-05
*END

*D_NET *451 0.00140506

*CONN
*I *793:B1 I *C 216.5 139.6 *L 0.000663 *D AOI22D0
*I *767:Q[24] O *C 212.715 134.265 *L 0 *D sram00

*CAP
1 *793:B1 8.56322e-06
2 *451:2 0.000734543047
3 *451:4 7.78088e-05
4 *451:5 0.000539539
5 *451:6 4.46095e-05

*RES
1 *451:2 *451:5 4.28887987
2 *451:2 *451:3 3.97475
3 *793:B1 *451:4 1.70218
4 *451:3 *451:4 0.199732
5 *451:5 *451:6 0.238606
6 *451:6 *767:Q[24] 0.000130886
*END

*D_NET *452 0.00423344

*CONN
*I *776:A1 I *C 189.3 139.6 *L 0.000665 *D AOI22D0
*I *767:Q[23] O *C 218.525 134.265 *L 0 *D sram00

*CAP
1 *452:2 0.000140653
2 *452:4 5.63859e-05
3 *452:5 0.000302647
4 *452:6 9.07317e-05
5 *452:7 0.00240733
6 *452:8 0.000715936
7 *452:9 0.000519742

*RES
1 *452:7 *452:9 18.0455
2 *452:6 *452:8 6.48539
3 *452:2 *452:3 0.564601
4 *452:8 *452:9 0.11147
5 *452:5 *452:6 1.34995
6 *452:4 *452:7 3.55105
7 *776:A1 *452:3 1.5
8 *452:3 *452:4 0.75
9 *452:9 *767:Q[23] 0.0001
*END

*D_NET *453 0.00381025

*CONN
*I *794:A1 I *C 196.5 141.6 *L 0.000665 *D AOI22D0
*I *767:Q[22] O *C 221.115 134.265 *L 0 *D sram00

*CAP
1 *453:3 0.000283223
2 *453:4 0.000545107
3 *453:5 0.000115548
4 *453:6 0.00033135
5 *453:7 0.00118616
6 *453:8 3.69776e-05
7 *453:9 0.000586211
8 *453:10 1.33575e-05
9 *453:11 0.000404364
10 *453:12 3.44617e-05
11 *453:13 0.000269305
12 *453:14 4.18102e-06

*RES
1 *453:7 *453:8 0.267084
2 *453:2 *453:3 1.37246
3 *453:6 *453:14 1.70578
4 *453:12 *453:13 1.91156
5 *453:3 *453:6 1.8393
6 *453:4 *453:5 3.83977
7 *453:10 *453:11 2.31145
8 *453:8 *453:9 3.62326
9 *453:9 *453:10 0.267084
10 *453:13 *453:14 0.111477
11 *453:5 *453:7 11.3538
12 *453:11 *453:12 0.11147
13 *794:A1 *453:2 0.75
14 *453:14 *767:Q[22] 0.0001
*END

*D_NET *454 0.0051402

*CONN
*I *779:A1 I *C 201.5 141.6 *L 0.000665 *D AOI22D0
*I *767:Q[21] O *C 226.925 134.265 *L 0 *D sram00

*CAP
1 *454:2 0.000517743
2 *454:3 7.12695e-05
3 *454:4 0.000994177969
4 *454:5 0.000544883
5 *454:6 0.000396063
6 *454:8 2.4955e-05
7 *454:10 0.000110758
8 *454:11 8.85939e-06
9 *454:12 2.09652e-05
10 *454:13 2.91116e-05
11 *454:14 9.90613e-05
12 *454:16 5.07443e-05
13 *454:17 4.03072e-05
14 *454:18 3.06893e-05
15 *454:19 3.44363e-05
16 *454:20 0.000237838
17 *454:13 *5:2 0.000270168984
18 *454:5 *54:2 0.000466683008
19 *454:4 *504:4 0.000544812969
20 *454:2 *768:ZN 0.000299234004
21 *454:3 *134:3 0.000347445

*RES
1 *454:8 *454:9 0.11147
2 *454:4 *454:3 6.01837
3 *454:18 *454:19 0.621109
4 *454:13 *454:14 0.621109
5 *454:6 *454:7 0.111679
6 *454:7 *454:8 0.513394
7 *454:3 *454:6 5.18042
8 *454:11 *454:12 0.584878
9 *454:9 *454:10 2.53397
10 *454:10 *454:11 0.11147
11 *454:14 *454:15 0.267084
12 *454:5 *454:20 5.01145
13 *454:19 *454:20 2.30303
14 *454:17 *454:18 0.267084
15 *454:16 *454:17 0.510986
16 *454:2 *454:16 0.267084
17 *454:12 *454:13 0.268796
18 *454:15 *454:2 6.57993
19 *779:A1 *454:5 0.75
20 *454:20 *767:Q[21] 0.0001
*END

*D_NET *455 0.00386146

*CONN
*I *787:A1 I *C 208.1 139.6 *L 0.000665 *D AOI22D0
*I *767:Q[20] O *C 229.515 134.265 *L 0 *D sram00

*CAP
1 *455:2 0.000343974
2 *455:3 8.2993e-05
3 *455:4 6.85939e-05
4 *455:5 2.87981e-05
5 *455:6 3.27687e-05
6 *455:7 0.000121965
7 *455:8 0.000981936016
8 *455:9 9.99542e-05
9 *455:10 7.34485e-05
10 *455:11 1.30505e-05
11 *455:12 8.75179e-05
12 *455:13 4.91305e-05
13 *455:14 0.000686599
14 *455:15 0.000102636
15 *455:16 3.91066e-05
16 *455:17 0.000871568
17 *455:18 6.10123e-05
18 *455:19 0.000116391

*RES
1 *455:7 *455:8 7.10125
2 *455:18 *455:19 0.851644
3 *455:12 *455:13 0.105039
4 *455:5 *455:6 0.510986
5 *455:4 *455:5 0.11147
6 *455:6 *455:7 0.11147
7 *455:10 *455:11 0.11147
8 *455:8 *455:9 0.11147
9 *455:9 *455:10 0.510986
10 *455:3 *455:14 4.17351
11 *455:17 *455:18 0.11147
12 *455:14 *455:19 0.905614
13 *787:A1 *455:2 1.34899
14 *455:16 *455:17 6.57993
15 *455:15 *455:16 0.11147
16 *455:13 *455:15 1.7205
17 *455:2 *455:11 1.23891
18 *455:3 *455:4 0.488914
19 *455:19 *767:Q[20] 0.0001
*END

*D_NET *456 0.00359528

*CONN
*I *804:A1 I *C 210.5 139.6 *L 0.000665 *D AOI22D0
*I *767:Q[19] O *C 235.325 134.265 *L 0 *D sram00

*CAP
1 *456:2 0.000231295
2 *456:3 4.36845e-08
3 *456:4 1.57847e-05
4 *456:5 0.000270407
5 *456:6 0.000259413
6 *456:7 0.000137898
7 *456:8 0.000652152
8 *456:9 6.90216e-05
9 *456:10 3.5035e-05
10 *456:11 6.65607e-05
11 *456:12 3.25159e-05
12 *456:13 0.000382589
13 *456:14 2.32984e-06
14 *456:15 8.7471e-05
15 *456:16 9.82902e-06
16 *456:17 0.000954288984
17 *456:18 3.66368e-05
18 *456:19 0.000338992
19 *456:20 1.30471e-05

*RES
1 *456:6 *456:8 1.06123
2 *456:7 *456:9 1.23891
3 *456:18 *456:19 3.00081
4 *456:12 *456:13 2.53397
5 *456:3 *456:6 1.97284
6 *456:4 *456:5 1.5131
7 *456:3 *456:5 0.199758
8 *456:10 *456:11 0.510986
9 *456:2 *456:4 0.199758
10 *456:9 *456:10 0.11147
11 *456:13 *456:14 0.11147
12 *456:8 *456:20 4.15152
13 *456:19 *456:20 0.425266
14 *456:17 *456:18 0.267084
15 *804:A1 *456:2 2.3757
16 *456:16 *456:17 8.91414
17 *456:15 *456:16 0.11147
18 *456:11 *456:12 0.11147
19 *456:14 *456:15 0.822214
20 *456:20 *767:Q[19] 0.0001
*END

*D_NET *457 0.00418867

*CONN
*I *791:A1 I *C 213.7 139.6 *L 0.000665 *D AOI22D0
*I *767:Q[18] O *C 237.915 134.265 *L 0 *D sram00

*CAP
1 *457:2 4.23955e-05
2 *457:3 0.00280929
3 *457:4 3.17216e-06
4 *457:5 0.000340707
5 *457:6 3.56654e-05
6 *457:7 0.000480839
7 *457:8 0.000393991
8 *457:9 8.26476e-05

*RES
1 *457:7 *457:10 2.35266
2 *457:2 *457:3 19.6061
3 *457:8 *457:9 2.46132
4 *457:6 *457:7 0.621127
5 *457:4 *457:5 2.90433
6 *457:3 *457:4 0.137175
7 *457:5 *457:6 0.137175
8 *457:2 *457:9 0.927686
9 *791:A1 *457:10 0.75
10 *457:10 *767:Q[18] 0.0001
*END

*D_NET *458 0.0041264

*CONN
*I *784:A1 I *C 216.1 139.6 *L 0.000665 *D AOI22D0
*I *767:Q[17] O *C 243.725 134.265 *L 0 *D sram00

*CAP
1 *458:2 0.00012016
2 *458:4 6.66674e-05
3 *458:5 0.000376036
4 *458:6 9.60858e-05
5 *458:8 0.0034675

*RES
1 *458:6 *458:8 22.5419
2 *458:2 *458:3 0.303013
3 *458:7 *458:8 2.77298
4 *458:5 *458:6 2.28363
5 *784:A1 *458:3 1.5
6 *458:3 *458:4 0.75
7 *458:4 *458:7 0.75
8 *458:8 *767:Q[17] 0.0001
*END

*D_NET *459 0.0042782

*CONN
*I *793:A1 I *C 217.5 139.6 *L 0.000665 *D AOI22D0
*I *767:Q[16] O *C 246.315 134.265 *L 0 *D sram00

*CAP
1 *459:2 0.00032033
2 *459:4 3.48107e-05
3 *459:5 8.42611e-05
4 *459:6 0.00153495
5 *459:7 0.00197005
6 *459:8 1.71949e-05
7 *459:9 0.000261531
8 *459:10 5.50418e-05

*RES
1 *459:9 *459:10 0.11147
2 *459:2 *459:3 1.79472
3 *459:8 *459:9 2.06713
4 *459:7 *459:8 0.11147
5 *459:4 *459:5 0.289684
6 *459:3 *459:4 0.199758
7 *793:A1 *459:6 3.01784
8 *459:6 *459:10 7.48438
9 *459:5 *459:7 14.4661
10 *459:10 *767:Q[16] 0.0001
*END

*D_NET *460 0.000895732

*CONN
*I *805:B1 I *C 252.3 139.6 *L 0.000663 *D AOI22D0
*I *767:Q[15] O *C 252.125 134.265 *L 0 *D sram00

*CAP
1 *805:B1 2.79918e-06
2 *460:3 0.000244149
3 *460:4 0.000287981992
4 *460:5 3.85822e-06
5 *460:6 0.000133012
6 *460:7 3.44339e-05
7 *460:8 0.000189492

*RES
1 *460:2 *460:4 1.35691
2 *460:2 *460:3 0.199761
3 *460:7 *460:8 1.0187
4 *460:6 *460:7 0.180299
5 *460:4 *460:5 0.199761
6 *805:B1 *460:3 1.66728997
7 *460:5 *460:6 0.733917
8 *460:8 *767:Q[15] 0.000101763
*END

*D_NET *461 0.000965494

*CONN
*I *786:B1 I *C 255.3 139.6 *L 0.00099 *D AOI22D1
*I *767:Q[14] O *C 254.715 134.265 *L 0 *D sram00

*CAP
1 *786:B1 4.23933e-05
2 *461:2 3.52294e-05
3 *461:3 0.000252655
4 *461:4 0.000278146
5 *461:6 3.50673e-05
6 *461:7 0.000322003008

*RES
1 *461:4 *461:6 0.199751
2 *461:2 *461:4 1.92117
3 *461:6 *461:7 1.82323
4 *461:3 *461:5 1.32878
5 *786:B1 *461:2 0.571725
6 *461:5 *461:7 0.199751
7 *461:7 *767:Q[14] 8.79442e-05
*END

*D_NET *462 0.000839073

*CONN
*I *783:B1 I *C 260.3 139.6 *L 0.000663 *D AOI22D0
*I *767:Q[13] O *C 260.525 134.265 *L 0 *D sram00

*CAP
1 *783:B1 2.06166e-05
2 *462:2 0.000307448
3 *462:4 0.000511008984

*RES
1 *462:2 *462:3 1.7947
2 *783:B1 *462:4 3.15726995
3 *462:3 *462:4 0.199738
4 *462:4 *767:Q[13] 9.63522e-05
*END

*D_NET *463 0.000880326

*CONN
*I *807:B1 I *C 262.7 139.6 *L 0.000663 *D AOI22D0
*I *767:Q[12] O *C 263.115 134.265 *L 0 *D sram00

*CAP
1 *807:B1 2.15836e-05
2 *463:2 0.000132309
3 *463:3 0.000100555
4 *463:4 0.000625876016

*RES
1 *463:2 *463:3 1.32789
2 *807:B1 *463:4 3.53730989
3 *463:3 *463:4 0.355372
4 *463:4 *767:Q[12] 0.00010795
*END

*D_NET *464 0.000813179

*CONN
*I *792:B1 I *C 269.1 139.6 *L 0.00099 *D AOI22D1
*I *767:Q[11] O *C 268.925 134.265 *L 0 *D sram00

*CAP
1 *464:2 0.000441933008
2 *464:3 4.14588e-05
3 *464:4 0.000329789

*RES
1 *464:2 *464:3 0.180303
2 *464:3 *464:4 2.10596
3 *792:B1 *464:2 2.84183002
4 *464:4 *767:Q[11] 8.67258e-05
*END

*D_NET *465 0.000892865

*CONN
*I *781:B1 I *C 271.9 139.6 *L 0.00099 *D AOI22D1
*I *767:Q[10] O *C 271.515 134.265 *L 0 *D sram00

*CAP
1 *465:2 0.000466746016
2 *465:3 7.85353e-05
3 *465:4 0.000347586

*RES
1 *465:2 *465:3 0.343715
2 *465:3 *465:4 2.26154
3 *781:B1 *465:2 2.8203001
4 *465:4 *767:Q[10] 8.60687e-05
*END

*D_NET *466 0.00110466

*CONN
*I *788:B1 I *C 274.5 139.6 *L 0.000663 *D AOI22D0
*I *767:Q[9] O *C 277.325 134.265 *L 0 *D sram00

*CAP
1 *466:2 6.25893e-05
2 *466:3 5.72178e-07
3 *466:4 6.6758e-05
4 *466:5 1.82163e-06
5 *466:6 0.00018277
6 *466:7 2.48722e-05
7 *466:8 0.000765259063

*RES
1 *466:2 *466:3 0.292004
2 *466:8 *466:9 4.64034986
3 *466:7 *466:8 0.596825
4 *466:6 *466:7 0.137222
5 *466:4 *466:5 0.137222
6 *466:3 *466:4 0.433192
7 *466:5 *466:6 1.76406
8 *788:B1 *466:9 0.749978
9 *466:9 *767:Q[9] 7.08061e-05
*END

*D_NET *467 0.00118287

*CONN
*I *797:B1 I *C 276.7 139.6 *L 0.000663 *D AOI22D0
*I *767:Q[8] O *C 279.915 134.265 *L 0 *D sram00

*CAP
1 *797:B1 2.11554e-05
2 *467:2 0.00110648
3 *467:3 5.52269e-05

*RES
1 *467:2 *467:4 3.51871
2 *467:3 *467:4 0.238546
3 *797:B1 *467:2 4.64034986
4 *467:4 *767:Q[8] 7.08061e-05
*END

*D_NET *468 0.00150796

*CONN
*I *724:I I *C 176.5 145.2 *L 0.00105 *D DEL1
*I *820:Q O *C 183.1 142 *L 0 *D DFCNQD1

*CAP
1 *820:Q 0.000501383
2 *468:2 6.62332e-05
3 *468:3 0.000940336016

*RES
1 *820:Q *468:2 2.68463
2 *468:2 *468:3 5.66343021
3 *724:I *468:3 3.18369
*END

*D_NET *469 0.00140326

*CONN
*I *725:I I *C 189.7 139.6 *L 0.00105 *D DEL1
*I *821:Q O *C 184.9 139.2 *L 0 *D DFCNQD1

*CAP
1 *469:2 0.000328212
2 *469:3 0.00107504

*RES
1 *469:2 *469:3 5.05017996
2 *821:Q *469:3 2.12554
3 *725:I *469:2 3.18364
*END

*D_NET *470 0.00199482

*CONN
*I *726:I I *C 188.9 143.2 *L 0.00105 *D DEL1
*I *897:Q O *C 184.1 145.6 *L 0 *D DFCND1

*CAP
1 *897:Q 0.000235005
2 *470:2 7.44794e-05
3 *470:3 0.000894940938
4 *470:4 0.000790405

*RES
1 *470:2 *470:4 4.72159
2 *470:2 *470:3 5.90364981
3 *897:Q *470:3 2.43367
4 *726:I *470:4 1.49996
*END

*D_NET *471 0.00619734

*CONN
*I *896:ZN O *C 148.5 143 *L 0 *D CKND0
*I *830:A1 I *C 167.7 139.8 *L 0.00073 *D AO22D0
*I *829:A1 I *C 172.1 139.8 *L 0.00073 *D AO22D0
*I *828:A1 I *C 161.9 139.8 *L 0.00073 *D AO22D0
*I *827:A1 I *C 166.1 139.8 *L 0.00073 *D AO22D0
*I *826:A1 I *C 158.1 139.8 *L 0.00073 *D AO22D0
*I *825:A1 I *C 164.1 139.8 *L 0.00073 *D AO22D0
*I *824:A1 I *C 175.9 139.8 *L 0.00073 *D AO22D0
*I *823:A1 I *C 174.3 139.8 *L 0.00073 *D AO22D0
*I *822:A1 I *C 170.5 139.8 *L 0.00073 *D AO22D0
*I *767:WEN I *C 148.34 134.195 *L 0.00612 *D sram00

*CAP
1 *471:11 6.44816e-05
2 *471:12 7.30895e-05
3 *471:13 5.5427e-05
4 *471:14 0.00112598
5 *471:15 0.000787817
6 *471:16 8.12678e-05
7 *471:17 8.22471e-05
8 *471:18 0.000136351
9 *471:19 0.000126987
10 *471:20 0.000133018
11 *471:21 0.000162776
12 *471:22 0.000155337
13 *471:23 0.00012929
14 *471:24 0.000125493
15 *471:25 5.09771e-05
16 *471:26 6.58046e-06
17 *471:27 0.000288904
18 *471:28 1.22331e-05
19 *471:29 0.000145956
20 *471:30 9.79337e-07
21 *471:31 0.000238563
22 *471:32 0.000144409
23 *471:33 0.000168188
24 *471:34 0.000231639
25 *471:35 0.000143499
26 *471:36 0.000135183
27 *471:37 0.000319865
28 *471:38 0.000232825
29 *471:39 0.000251294
30 *471:40 6.02378e-05
31 *471:37 *249:4 0.000223570996
32 *471:33 *823:B2 0.000302868984

*RES
1 *471:30 *471:31 2.68964
2 *471:36 *471:37 2.33428
3 *471:33 *471:36 1.0893
4 *471:24 *471:40 1.06126
5 *471:19 *471:36 1.06126
6 *471:31 *471:32 0.111458
7 *471:27 *471:28 0.111458
8 *896:ZN *471:12 0.93858
9 *471:16 *471:35 2.31556
10 *471:20 *471:37 1.06126
11 *471:22 *471:34 1.06126
12 *471:14 *471:15 4.77419996
13 *471:13 *471:14 2.73961
14 *471:29 *471:40 1.11487
15 *471:28 *471:40 0.488959
16 *471:34 *471:39 1.73766
17 *471:25 *471:39 0.488959
18 *471:14 *471:32 4.6626
19 *471:26 *471:27 2.06722
20 *471:23 *471:39 1.06126
21 *471:21 *471:38 1.14933
22 *471:37 *471:38 1.40816
23 *471:34 *471:38 1.61556
24 *471:25 *471:26 0.111458
25 *471:18 *471:33 1.06126
26 *471:29 *471:30 0.111458
27 *471:11 *471:17 0.311209
28 *471:11 *471:33 2.51422
29 *471:12 *471:13 0.199751
30 *826:A1 *471:24 1.50002
31 *828:A1 *471:23 1.50002
32 *825:A1 *471:22 1.50002
33 *827:A1 *471:21 1.50002
34 *830:A1 *471:20 1.50002
35 *822:A1 *471:19 1.50002
36 *829:A1 *471:18 1.50002
37 *823:A1 *471:17 1.50002
38 *824:A1 *471:16 1.50002
39 *471:17 *471:35 0.749975
40 *471:40 *767:WEN 7.28485e-05
*END

*D_NET *472 0.00465924

*CONN
*I *897:QN O *C 184.5 145.6 *L 0 *D DFCND1
*I *814:A2 I *C 160.7 145.2 *L 0.000996 *D NR2D1
*I *812:A2 I *C 188.1 145.2 *L 0.000996 *D NR2D1
*I *808:A2 I *C 159.7 143.2 *L 0.00217 *D NR2D2

*CAP
1 *897:QN 0.000106066
2 *812:A2 0.000248368
3 *808:A2 0.000487784
4 *472:4 0.000116009
5 *472:5 0.000275516
6 *472:6 0.000295556
7 *472:7 5.08194e-05
8 *472:8 0.000486813
9 *472:9 0.000915836
10 *472:10 0.00127262
11 *472:11 0.000403817

*RES
1 *472:9 *472:10 4.01986
2 *472:7 *472:8 3.46774
3 *808:A2 *472:5 2.9733
4 *812:A2 *472:11 4.64677
5 *897:QN *472:11 1.49997
6 *472:8 *472:9 2.50301
7 *472:6 *472:11 0.75599
8 *472:4 *472:5 2.69804
9 *472:6 *472:7 2.64557
10 *472:4 *472:10 7.42685986
11 *814:A2 *472:4 0.749984
*END

*D_NET *473 0.00403901

*CONN
*I *819:ZN O *C 178.1 142.8 *L 0 *D CKND2D0
*I *811:A1 I *C 156.7 143.2 *L 0.00132 *D NR2XD1
*I *808:A1 I *C 159.3 143.2 *L 0.00172 *D NR2D2

*CAP
1 *819:ZN 0.000302017
2 *811:A1 0.000785547
3 *473:3 4.41832e-05
4 *473:4 0.00066334
5 *473:5 0.000518593
6 *473:6 0.000274314
7 *473:7 0.000198088
8 *473:8 0.00125294008

*RES
1 *473:7 *473:8 6.15648
2 *808:A1 *473:8 3.41665
3 *811:A1 *473:8 6.37203979
4 *473:5 *473:6 3.91019
5 *473:4 *473:5 0.111522
6 *473:3 *473:4 4.82638
7 *473:6 *473:7 1.86739
8 *819:ZN *473:3 2.44542
*END

*D_NET *474 0.000804966

*CONN
*I *818:ZN O *C 187.3 142.8 *L 0 *D IND2D0
*I *815:A1 I *C 190.3 145.2 *L 0.00093 *D NR2D1
*I *812:A1 I *C 188.5 145.2 *L 0.00093 *D NR2D1

*CAP
1 *818:ZN 0.000352283008
2 *815:A1 9.16146e-05
3 *474:3 6.61293e-05
4 *474:4 0.000294937

*RES
1 *815:A1 *474:4 2.90056992
2 *818:ZN *474:3 2.70189
3 *812:A1 *474:3 0.750016
4 *474:3 *474:4 0.750016
*END

*D_NET *475 0.00316624

*CONN
*I *817:ZN O *C 176.7 142.8 *L 0 *D IND2D0
*I *814:A1 I *C 160.3 145.2 *L 0.00093 *D NR2D1
*I *813:A1 I *C 158.3 143.2 *L 0.00093 *D NR2D1

*CAP
1 *817:ZN 3.75072e-05
2 *475:3 0.000525823
3 *475:4 0.000248736
4 *475:5 0.00021463
5 *475:6 0.000612812
6 *475:7 0.00152673

*RES
1 *475:6 *475:7 3.21772
2 *813:A1 *475:7 3.28583
3 *814:A1 *475:7 3.03035
4 *475:5 *475:6 3.15809
5 *475:4 *475:5 3.77898
6 *475:3 *475:4 3.99591994
7 *817:ZN *475:3 1.32043
*END

*D_NET *476 0.00746378

*CONN
*I *816:ZN O *C 188.5 143 *L 0 *D NR2D0
*I *810:A1 I *C 242.1 143.2 *L 0.000556 *D CKAN2D0
*I *809:A1 I *C 242.1 141.6 *L 0.00069 *D INR2D0

*CAP
1 *809:A1 0.000376463
2 *476:3 0.000469195
3 *476:4 0.00241829984
4 *476:6 0.00121603
5 *476:7 0.000267421
6 *476:8 0.000150777
7 *476:9 0.000172216
8 *476:10 9.42818e-05
9 *476:11 0.000352034
10 *476:12 6.12555e-05
11 *476:3 *659:Z 0.00147088
12 *476:4 *48:2 0.000414945

*RES
1 *476:10 *476:11 2.80105
2 *476:9 *476:3 4.20176
3 *476:7 *476:8 2.02296
4 *476:6 *476:11 6.51932
5 *809:A1 *476:5 2.28923
6 *476:8 *476:9 1.55618
7 *476:3 *476:10 0.733773
8 *476:4 *476:12 23.8062
9 *476:4 *476:7 2.53478
10 *816:ZN *476:6 1.28047
11 *810:A1 *476:5 1.49987
12 *476:5 *476:12 0.750119
*END

*D_NET *477 0.00660727

*CONN
*I *815:ZN O *C 190.3 145.4 *L 0 *D NR2D1
*I *804:A2 I *C 210.1 139.6 *L 0.000728 *D AOI22D0
*I *794:A2 I *C 196.1 141.6 *L 0.000728 *D AOI22D0
*I *793:A2 I *C 217.1 139.6 *L 0.000728 *D AOI22D0
*I *791:A2 I *C 213.3 139.6 *L 0.000728 *D AOI22D0
*I *787:A2 I *C 207.7 139.6 *L 0.000728 *D AOI22D0
*I *784:A2 I *C 215.7 139.6 *L 0.000728 *D AOI22D0
*I *779:A2 I *C 201.1 141.6 *L 0.000728 *D AOI22D0
*I *776:A2 I *C 188.9 139.6 *L 0.000728 *D AOI22D0

*CAP
1 *794:A2 0.000114985
2 *793:A2 6.10127e-05
3 *791:A2 6.02918e-05
4 *784:A2 4.08754e-05
5 *779:A2 0.000113399
6 *776:A2 0.00047539
7 *477:9 4.12959e-05
8 *477:10 0.000251777
9 *477:11 0.000410748
10 *477:13 8.32286e-05
11 *477:14 0.000346948
12 *477:15 0.000344413
13 *477:16 0.000196711
14 *477:17 0.000125318
15 *477:18 0.00078741
16 *477:19 0.000545125
17 *477:20 0.000428158
18 *477:9 *334:3 0.000300264004
19 *477:10 *585:Z 0.000620494023
20 *791:A2 *131:3 0.000496995977
21 *791:A2 *139:4 0.000270015
22 *776:A2 *776:B2 0.000492396016

*RES
1 *477:9 *477:11 2.75832
2 *779:A2 *477:18 2.56121
3 *477:16 *477:17 1.86733
4 *804:A2 *477:15 2.24999
5 *477:13 *477:19 0.601009
6 *776:A2 *477:10 4.39428
7 *477:9 *477:18 6.41388988
8 *791:A2 *477:17 2.24999
9 *477:15 *477:17 2.48986
10 *794:A2 *477:19 2.78699
11 *793:A2 *477:16 3.62817
12 *477:18 *477:19 4.205
13 *477:14 *477:20 0.60874
14 *477:13 *477:14 4.58287
15 *477:12 *477:20 2.5157
16 *784:A2 *477:16 2.24999
17 *477:11 *477:15 3.783
18 *477:10 *477:20 2.1348
19 *815:ZN *477:12 0.749964
20 *787:A2 *477:11 1.50003
*END

*D_NET *478 0.00909788

*CONN
*I *814:ZN O *C 160.3 145.4 *L 0 *D NR2D1
*I *803:B2 I *C 119.5 139.6 *L 0.00105 *D AOI22D1
*I *802:B2 I *C 127.7 141.6 *L 0.00105 *D AOI22D1
*I *801:B2 I *C 116.5 143.2 *L 0.00105 *D AOI22D1
*I *798:B2 I *C 119.9 141.6 *L 0.00105 *D AOI22D1
*I *790:B2 I *C 140.3 141.6 *L 0.00105 *D AOI22D1
*I *782:B2 I *C 136.7 141.6 *L 0.00105 *D AOI22D1
*I *780:B2 I *C 133.3 141.6 *L 0.00105 *D AOI22D1
*I *777:B2 I *C 119.9 143.2 *L 0.00105 *D AOI22D1

*CAP
1 *814:ZN 0.000170879
2 *803:B2 0.000379304
3 *802:B2 0.000288324
4 *801:B2 0.000684611
5 *798:B2 4.24572e-05
6 *790:B2 5.00314e-05
7 *777:B2 1.49414e-06
8 *478:9 5.61263e-05
9 *478:10 0.000107622
10 *478:11 0.000621354
11 *478:12 0.000301653
12 *478:13 6.19697e-05
13 *478:14 0.000620067
14 *478:15 0.000409468
15 *478:16 0.000249758
16 *478:17 0.000403964
17 *478:18 0.000461185
18 *478:19 0.000464277
19 *478:20 0.00061594
20 *478:21 0.000245379
21 *478:22 0.000108318
22 *478:23 0.000169666
23 *478:24 0.000969488047
24 *801:B2 *479:9 0.00131797
25 *478:14 *502:2 0.000296577012

*RES
1 *478:15 *478:21 4.95743
2 *478:13 *478:14 5.76383018
3 *801:B2 *478:23 5.60772
4 *782:B2 *478:20 2.25
5 *478:9 *478:10 1.18696
6 *478:14 *478:15 0.111519
7 *478:18 *478:19 3.07312
8 *798:B2 *478:10 2.28087
9 *803:B2 *478:10 4.32322
10 *478:19 *478:23 0.809747
11 *802:B2 *478:22 3.88348
12 *478:16 *478:17 2.75712
13 *478:17 *478:22 0.500694
14 *777:B2 *478:9 1.68634
15 *478:12 *478:24 3.93968
16 *478:11 *478:20 3.39563
17 *814:ZN *478:24 5.09524
18 *478:11 *478:16 4.184
19 *478:20 *478:21 3.33661
20 *478:18 *478:22 3.15913
21 *478:12 *478:13 2.80118
22 *790:B2 *478:21 2.25
23 *780:B2 *478:11 1.49997
24 *478:9 *478:23 0.75003
*END

*D_NET *479 0.00800488

*CONN
*I *813:ZN O *C 158.3 143 *L 0 *D NR2D1
*I *803:A2 I *C 119.7 139.6 *L 0.00105 *D AOI22D1
*I *802:A2 I *C 127.9 141.6 *L 0.00105 *D AOI22D1
*I *801:A2 I *C 116.7 143.2 *L 0.00105 *D AOI22D1
*I *798:A2 I *C 120.1 141.6 *L 0.00105 *D AOI22D1
*I *790:A2 I *C 140.5 141.6 *L 0.00105 *D AOI22D1
*I *782:A2 I *C 136.9 141.6 *L 0.00105 *D AOI22D1
*I *780:A2 I *C 133.5 141.6 *L 0.00105 *D AOI22D1
*I *777:A2 I *C 120.1 143.2 *L 0.00105 *D AOI22D1

*CAP
1 *803:A2 0.000376038
2 *802:A2 5.91106e-05
3 *790:A2 8.98066e-05
4 *782:A2 0.000211315
5 *780:A2 0.000101169
6 *777:A2 2.7619e-06
7 *479:9 0.000601388
8 *479:10 0.0009837
9 *479:11 0.000418637
10 *479:12 0.000193963
11 *479:13 5.9786e-05
12 *479:14 0.000460426
13 *479:15 0.000288153
14 *479:16 1.51904e-05
15 *479:17 0.000345252
16 *479:18 0.000327255
17 *479:19 0.000213491
18 *479:20 9.08874e-05
19 *479:21 0.000339053
20 *479:22 0.000267634
21 *479:23 0.000228532
22 *479:24 0.000137239
23 *802:A2 *494:5 0.000423116016
24 *479:9 *801:B2 0.00131797
25 *479:10 *790:ZN 0.00045301

*RES
1 *479:21 *479:22 2.64558
2 *782:A2 *479:21 3.21946
3 *479:9 *479:24 3.5071
4 *801:A2 *479:9 2.33662
5 *479:10 *479:20 0.177971
6 *813:ZN *479:11 2.18277
7 *479:12 *479:13 0.795608
8 *479:18 *479:23 3.0241
9 *802:A2 *479:23 2.85468
10 *790:A2 *479:20 3.12746
11 *803:A2 *479:13 3.92265
12 *479:14 *479:15 0.111495
13 *479:20 *479:21 2.64558
14 *479:19 *479:24 1.22293
15 *479:17 *479:22 2.71275
16 *479:11 *479:14 4.90744
17 *479:18 *479:19 2.33437
18 *479:15 *479:16 2.95678
19 *479:16 *479:10 9.19108009
20 *479:17 *479:23 2.04519
21 *777:A2 *479:12 2.57924
22 *780:A2 *479:22 3.04864
23 *798:A2 *479:13 1.50006
24 *479:12 *479:24 0.750029
*END

*D_NET *480 0.00768647

*CONN
*I *812:ZN O *C 188.5 145.4 *L 0 *D NR2D1
*I *804:B2 I *C 209.9 139.6 *L 0.000718 *D AOI22D0
*I *794:B2 I *C 195.9 141.6 *L 0.000718 *D AOI22D0
*I *793:B2 I *C 216.9 139.6 *L 0.000718 *D AOI22D0
*I *791:B2 I *C 213.1 139.6 *L 0.000718 *D AOI22D0
*I *787:B2 I *C 207.5 139.6 *L 0.000718 *D AOI22D0
*I *784:B2 I *C 215.5 139.6 *L 0.000718 *D AOI22D0
*I *779:B2 I *C 200.9 141.6 *L 0.000718 *D AOI22D0
*I *776:B2 I *C 188.7 139.6 *L 0.000718 *D AOI22D0

*CAP
1 *812:ZN 2.2878e-05
2 *804:B2 7.14345e-05
3 *793:B2 0.000138403
4 *791:B2 0.000198951
5 *784:B2 0.000120637
6 *776:B2 0.00042427
7 *480:9 0.000347507
8 *480:10 0.000941186016
9 *480:11 0.000509218
10 *480:12 0.000194513
11 *480:13 0.000513599
12 *480:14 0.000279692
13 *480:15 0.000759541
14 *480:16 0.000405485
15 *480:17 0.000282693
16 *480:18 6.05915e-05
17 *480:10 *585:Z 0.000336721992
18 *776:B2 *776:A2 0.000492396016
19 *804:B2 *139:3 0.00100986
20 *812:ZN *140:3 0.00033176
21 *480:10 *506:2 0.000245145

*RES
1 *812:ZN *480:10 4.68101
2 *804:B2 *480:16 2.73781
3 *791:B2 *480:14 2.84903
4 *480:14 *480:17 2.25435
5 *779:B2 *480:15 3.65056
6 *480:10 *480:18 5.97465992
7 *480:13 *480:15 3.33823
8 *480:9 *480:12 1.96126
9 *793:B2 *480:17 4.82424
10 *776:B2 *480:10 4.47562
11 *480:11 *480:13 4.29383
12 *784:B2 *480:17 2.84903
13 *480:14 *480:16 2.84219
14 *480:9 *480:16 3.71711
15 *480:12 *480:15 4.62367
16 *794:B2 *480:11 1.49996
17 *787:B2 *480:9 1.49996
18 *480:11 *480:18 0.750023
*END

*D_NET *481 0.0159599

*CONN
*I *811:ZN O *C 157.1 142.8 *L 0 *D NR2XD1
*I *806:A2 I *C 56.3 139.6 *L 0.000728 *D AOI22D0
*I *800:A2 I *C 59.7 139.6 *L 0.000728 *D AOI22D0
*I *799:A2 I *C 51.1 139.6 *L 0.000728 *D AOI22D0
*I *796:A2 I *C 54.9 139.6 *L 0.000728 *D AOI22D0
*I *795:A2 I *C 69.9 141.6 *L 0.000728 *D AOI22D0
*I *789:A2 I *C 49.7 139.6 *L 0.000728 *D AOI22D0
*I *785:A2 I *C 69.9 139.6 *L 0.000728 *D AOI22D0
*I *778:A2 I *C 63.7 141.6 *L 0.000728 *D AOI22D0

*CAP
1 *811:ZN 6.44375e-05
2 *806:A2 5.82409e-05
3 *800:A2 7.08372e-05
4 *796:A2 5.02497e-05
5 *789:A2 0.000379006
6 *481:9 0.00052752
7 *481:10 0.00037115
8 *481:11 0.000293507
9 *481:12 0.000209125
10 *481:13 0.000815914
11 *481:14 0.000491628
12 *481:15 0.000821061
13 *481:16 0.000177872
14 *481:17 0.000737662
15 *481:18 0.000635435
16 *481:19 0.000547092
17 *481:20 0.000760924
18 *481:21 0.000270245
19 *481:22 0.000602963
20 *481:23 0.00221908
21 *481:24 0.000271328
22 *481:14 *234:2 0.0018651
23 *811:ZN *484:10 0.000814013984
24 *481:9 *238:10 0.00250068
25 *481:10 *343:3 0.000404898984

*RES
1 *481:22 *481:24 7.15422
2 *481:16 *481:17 3.8163
3 *811:ZN *481:9 1.4997
4 *481:18 *481:20 5.11661
5 *481:19 *481:21 1.39785
6 *481:13 *481:21 4.54356
7 *481:17 *481:18 1.8583
8 *481:14 *481:22 1.91783
9 *481:11 *481:12 1.65892
10 *778:A2 *481:18 3.69222
11 *481:12 *481:16 2.06199
12 *796:A2 *481:21 2.2499
13 *481:23 *481:24 2.27787
14 *481:10 *481:23 47.0033989
15 *481:19 *481:20 3.39458
16 *800:A2 *481:20 2.2499
17 *481:9 *481:10 5.63731
18 *789:A2 *481:13 3.97194
19 *806:A2 *481:19 2.2499
20 *481:11 *481:15 8.46601
21 *481:14 *481:15 2.69888
22 *799:A2 *481:13 1.4997
23 *785:A2 *481:12 1.4997
24 *795:A2 *481:11 1.4997
*END

*D_NET *482 0.00584671

*CONN
*I *810:Z O *C 242.9 143 *L 0 *D CKAN2D0
*I *807:B2 I *C 263.1 139.6 *L 0.000718 *D AOI22D0
*I *805:B2 I *C 252.7 139.6 *L 0.000718 *D AOI22D0
*I *797:B2 I *C 277.1 139.6 *L 0.000718 *D AOI22D0
*I *792:B2 I *C 269.5 139.6 *L 0.00105 *D AOI22D1
*I *788:B2 I *C 274.9 139.6 *L 0.000718 *D AOI22D0
*I *786:B2 I *C 255.7 139.6 *L 0.00105 *D AOI22D1
*I *783:B2 I *C 260.7 139.6 *L 0.000718 *D AOI22D0
*I *781:B2 I *C 272.3 139.6 *L 0.00105 *D AOI22D1

*CAP
1 *810:Z 0.000556081
2 *797:B2 0.000146524
3 *788:B2 0.000112872
4 *781:B2 9.889e-05
5 *482:9 4.81732e-05
6 *482:10 0.00101025
7 *482:11 0.000386696
8 *482:12 0.00043823
9 *482:13 9.02265e-05
10 *482:14 0.000112579
11 *482:15 0.000477801
12 *482:16 0.000548342
13 *482:17 0.000481331
14 *482:18 0.00055662
15 *482:19 0.000194003
16 *781:B2 *483:9 0.000588063008

*RES
1 *805:B2 *482:15 2.71687
2 *482:11 *482:12 3.95542
3 *482:16 *482:17 2.54623
4 *482:15 *482:18 2.42343
5 *482:12 *482:17 2.62339
6 *783:B2 *482:16 2.63005
7 *810:Z *482:9 5.32262993
8 *482:13 *482:16 0.772048
9 *482:9 *482:10 3.86227
10 *786:B2 *482:18 2.71687
11 *482:14 *482:19 2.02295
12 *482:11 *482:19 3.46049
13 *781:B2 *482:19 2.78184
14 *482:13 *482:18 3.28993
15 *788:B2 *482:14 2.78184
16 *482:10 *482:15 4.01788
17 *797:B2 *482:14 4.49365
18 *807:B2 *482:17 2.76332
19 *792:B2 *482:11 1.49999
*END

*D_NET *483 0.00531934

*CONN
*I *809:ZN O *C 242.7 141 *L 0 *D INR2D0
*I *807:A2 I *C 263.3 139.6 *L 0.000728 *D AOI22D0
*I *805:A2 I *C 252.9 139.6 *L 0.000728 *D AOI22D0
*I *797:A2 I *C 277.3 139.6 *L 0.000728 *D AOI22D0
*I *792:A2 I *C 269.7 139.6 *L 0.00105 *D AOI22D1
*I *788:A2 I *C 275.1 139.6 *L 0.000728 *D AOI22D0
*I *786:A2 I *C 255.9 139.6 *L 0.00105 *D AOI22D1
*I *783:A2 I *C 260.9 139.6 *L 0.000728 *D AOI22D0
*I *781:A2 I *C 272.5 139.6 *L 0.00105 *D AOI22D1

*CAP
1 *807:A2 4.72027e-06
2 *805:A2 0.000177039
3 *797:A2 0.000105178
4 *786:A2 0.000169307
5 *483:9 0.000360072
6 *483:10 1.85915e-05
7 *483:11 0.000948903984
8 *483:12 0.000661692
9 *483:13 0.000219333
10 *483:14 0.000313941
11 *483:15 0.000291426
12 *483:16 0.000345984
13 *483:17 0.000136236
14 *483:18 0.000327595
15 *483:19 0.000340134
16 *797:A2 *228:3 0.000311145
17 *483:9 *781:B2 0.000588063008

*RES
1 *483:15 *483:9 2.02294
2 *483:10 *483:12 0.622464
3 *483:13 *483:14 2.95664
4 *483:9 *483:16 2.18643
5 *483:14 *483:18 1.209
6 *805:A2 *483:17 2.87242
7 *781:A2 *483:9 2.44963
8 *786:A2 *483:19 2.87242
9 *792:A2 *483:16 2.44963
10 *483:13 *483:16 1.71431
11 *483:12 *483:18 3.78672
12 *483:10 *483:19 4.64036
13 *788:A2 *483:15 2.44963
14 *483:17 *483:19 2.33418
15 *483:11 *483:17 8.53069973
16 *797:A2 *483:15 4.16148
17 *807:A2 *483:18 2.42607
18 *809:ZN *483:11 1.08144
19 *783:A2 *483:12 1.50006
*END

*D_NET *484 0.0178523

*CONN
*I *808:ZN O *C 159.015 142.855 *L 0 *D NR2D2
*I *806:B2 I *C 56.5 139.6 *L 0.000718 *D AOI22D0
*I *800:B2 I *C 59.5 139.6 *L 0.000718 *D AOI22D0
*I *799:B2 I *C 51.3 139.6 *L 0.000718 *D AOI22D0
*I *796:B2 I *C 54.7 139.6 *L 0.000718 *D AOI22D0
*I *795:B2 I *C 69.7 141.6 *L 0.000718 *D AOI22D0
*I *789:B2 I *C 49.9 139.6 *L 0.000718 *D AOI22D0
*I *785:B2 I *C 69.7 139.6 *L 0.000718 *D AOI22D0
*I *778:B2 I *C 63.5 141.6 *L 0.000718 *D AOI22D0

*CAP
1 *808:ZN 0.000214534
2 *806:B2 0.000163046
3 *800:B2 0.000180479
4 *796:B2 9.47327e-05
5 *789:B2 0.000389134
6 *785:B2 9.85166e-05
7 *484:9 0.00442818031
8 *484:10 0.00107787
9 *484:11 0.000458528
10 *484:12 0.000142775
11 *484:13 0.000287239
12 *484:14 0.000108517
13 *484:15 2.01358e-05
14 *484:16 0.000301226
15 *484:17 0.000255346
16 *484:18 0.000444338
17 *484:19 0.000128585
18 *484:20 0.000575829
19 *484:21 0.0007832
20 *484:22 0.00013791
21 *484:23 0.000503665
22 *484:24 0.000427513
23 *484:9 *236:4 0.0018992
24 *484:10 *811:ZN 0.000814013984
25 *484:11 *491:5 0.000392646992
26 *484:12 *241:2 0.00352529

*RES
1 *484:9 *484:19 1.64143
2 *808:ZN *484:10 4.73693
3 *800:B2 *484:22 2.80371
4 *806:B2 *484:23 2.80371
5 *484:12 *484:10 3.60686
6 *484:20 *484:21 3.31605
7 *484:12 *484:11 3.24578
8 *484:23 *484:24 1.81904
9 *484:18 *484:24 5.13607
10 *484:13 *484:19 3.62345
11 *484:11 *484:9 63.9553986
12 *484:15 *484:16 2.07277
13 *484:22 *484:23 2.99498
14 *789:B2 *484:18 3.27213
15 *484:20 *484:22 0.809982
16 *484:14 *484:21 5.57424
17 *484:14 *484:17 0.998327
18 *796:B2 *484:24 2.80371
19 *484:15 *484:17 3.58441
20 *785:B2 *484:14 2.47776
21 *484:13 *484:16 1.27743
22 *778:B2 *484:21 3.23017
23 *799:B2 *484:18 1.49993
24 *795:B2 *484:17 1.49993
*END

*D_NET *485 0.000717828

*CONN
*I *718:I I *C 262.7 141.6 *L 0.00104 *D DEL0
*I *807:ZN O *C 262.7 139.2 *L 0 *D AOI22D0

*CAP
1 *718:I 0.00035425
2 *807:ZN 0.00011624
3 *485:2 0.00024734

*RES
1 *807:ZN *485:2 2.0809
2 *718:I *485:2 6.11871004
*END

*D_NET *486 0.000888589

*CONN
*I *766:I I *C 56.9 143.2 *L 0.00103 *D BUFFD2
*I *806:ZN O *C 56.9 139.2 *L 0 *D AOI22D0

*CAP
1 *766:I 0.000676925
2 *806:ZN 0.000211666

*RES
1 *766:I *806:ZN 6.3121
*END

*D_NET *487 1.0597e-05

*CONN
*I *574:I I *C 253.7 139.6 *L 0.000643 *D CKBD0
*I *805:ZN O *C 252.3 139.2 *L 0 *D AOI22D0

*CAP
1 *805:ZN 1.05969995e-05

*RES
1 *805:ZN *574:I 0.198994
*END

*D_NET *488 0.000529046

*CONN
*I *804:ZN O *C 209.5 139.2 *L 0 *D AOI22D0
*I *775:A3 I *C 210.5 141.8 *L 0.00103 *D ND4D1

*CAP
1 *804:ZN 0.000529046016

*RES
1 *804:ZN *775:A3 4.21251
*END

*D_NET *489 0.0132387

*CONN
*I *803:ZN O *C 119.9 140 *L 0 *D AOI22D1
*I *770:A2 I *C 187.3 141.8 *L 0.00103 *D ND4D1

*CAP
1 *770:A2 0.000111687
2 *489:2 0.000725897
3 *489:3 1.4357e-05
4 *489:4 0.000761491
5 *489:6 0.00177526
6 *489:7 0.000128319
7 *489:9 0.000538822
8 *489:10 1.70659e-06
9 *489:11 0.000462025
10 *489:12 6.72342e-05
11 *489:13 0.000158171
12 *489:15 0.00078495
13 *489:16 5.40149e-05
14 *489:2 *406:2 0.00470135031
15 *489:2 *410:2 0.00295341

*RES
1 *489:6 *489:7 0.0420506
2 *489:7 *489:8 2.36909
3 *803:ZN *489:15 3.53261
4 *489:14 *489:15 8.43044
5 *489:10 *489:11 8.99813
6 *489:4 *489:5 0.0420506
7 *489:3 *489:4 16.9236
8 *489:5 *489:6 23.3544998
9 *489:8 *489:9 10.4321
10 *489:2 *489:3 1.25546
11 *489:11 *489:12 0.0420506
12 *489:12 *489:13 1.99669
13 *770:A2 *489:16 1.60078
14 *489:9 *489:10 0.0420506
15 *489:13 *489:14 3.41252
16 *489:2 *489:16 4.41282
*END

*D_NET *490 0.0113161

*CONN
*I *802:ZN O *C 128.1 141.2 *L 0 *D AOI22D1
*I *775:A2 I *C 210.3 141.8 *L 0.00103 *D ND4D1

*CAP
1 *802:ZN 0.00041741
2 *775:A2 0.00108025
3 *490:2 0.000149211
4 *490:3 0.0037872
5 *490:4 6.70352e-06
6 *490:5 0.000116445
7 *490:6 0.000859958
8 *490:3 *494:2 0.00230260984
9 *490:2 *29:2 0.00259629016

*RES
1 *490:5 *490:6 5.71319
2 *490:2 *490:3 77.343399
3 *802:ZN *490:6 2.95514
4 *490:2 *490:4 3.26434
5 *775:A2 *490:4 6.80366
6 *490:3 *490:5 1.70534
*END

*D_NET *491 0.0110569

*CONN
*I *801:ZN O *C 116.9 143.6 *L 0 *D AOI22D1
*I *769:A4 I *C 196.1 143.2 *L 0.00102 *D ND4D1

*CAP
1 *801:ZN 0.00011423
2 *769:A4 0.000892637
3 *491:2 3.03339e-05
4 *491:3 7.22002e-05
5 *491:4 0.000498023
6 *491:5 0.000422434
7 *491:6 0.00358186
8 *491:7 7.37305e-05
9 *769:A4 *141:2 0.000951322031
10 *491:3 *241:3 0.000434966016
11 *491:2 *398:3 0.0018904
12 *491:5 *484:11 0.000392646992
13 *491:2 *142:2 0.00170213

*RES
1 *491:2 *491:6 65.4274979
2 *491:5 *491:6 5.47292
3 *491:3 *491:4 7.08825
4 *491:4 *491:2 1.5095
5 *491:3 *491:7 2.09652
6 *769:A4 *491:7 5.58574
7 *801:ZN *491:5 1.33179
*END

*D_NET *492 0.000663729

*CONN
*I *765:I I *C 59.5 141.6 *L 0.000968 *D CKBD1
*I *800:ZN O *C 59.1 139.2 *L 0 *D AOI22D0

*CAP
1 *765:I 0.000144336
2 *800:ZN 6.14781e-06
3 *492:2 0.000513243984

*RES
1 *800:ZN *492:2 0.408029
2 *765:I *492:2 4.62080002
*END

*D_NET *493 0.000979378

*CONN
*I *764:I I *C 52.7 143.2 *L 0.000968 *D CKBD1
*I *799:ZN O *C 51.7 139.2 *L 0 *D AOI22D0

*CAP
1 *799:ZN 0.000194912
2 *493:2 0.000784470938

*RES
1 *799:ZN *493:2 2.35638
2 *764:I *493:2 5.13389015
*END

*D_NET *494 0.0115069

*CONN
*I *798:ZN O *C 120.3 141.2 *L 0 *D AOI22D1
*I *774:A4 I *C 205.1 141.6 *L 0.00102 *D ND4D1

*CAP
1 *774:A4 0.000391371
2 *494:2 0.000503116
3 *494:4 0.00382414
4 *494:5 0.000286803
5 *494:6 6.48298e-05
6 *494:7 0.000868229
7 *494:8 0.000551141
8 *494:9 0.00039744
9 *494:2 *240:3 0.00189412
10 *494:5 *802:A2 0.000423116016
11 *494:2 *490:3 0.00230260984

*RES
1 *494:8 *494:9 3.59478
2 *494:6 *494:7 5.40559
3 *494:5 *494:9 4.25356
4 *494:4 *494:6 1.55021
5 *494:2 *494:3 0.353438
6 *494:5 *494:7 1.85108
7 *494:3 *494:4 73.3003998
8 *774:A4 *494:2 9.46677
9 *798:ZN *494:8 0.750497
*END

*D_NET *495 0.00850692

*CONN
*I *797:ZN O *C 276.7 139.2 *L 0 *D AOI22D0
*I *773:A4 I *C 215.7 141.6 *L 0.00102 *D ND4D1

*CAP
1 *797:ZN 2.74951e-05
2 *773:A4 8.66794e-06
3 *495:2 0.0061081
4 *495:3 0.000186873
5 *495:4 0.000456791
6 *495:2 *338:3 0.000491635
7 *495:3 *500:6 0.000281688984
8 *495:3 *69:2 0.000945726953

*RES
1 *797:ZN *495:3 2.84956
2 *495:2 *495:4 3.62135
3 *495:3 *495:2 56.013401
4 *773:A4 *495:4 2.64529
*END

*D_NET *496 0.00152451

*CONN
*I *763:I I *C 58.3 143.2 *L 0.000968 *D CKBD1
*I *796:ZN O *C 54.3 139.2 *L 0 *D AOI22D0

*CAP
1 *763:I 8.34275e-05
2 *496:2 0.000462145
3 *496:3 0.000978947969

*RES
1 *496:2 *496:3 3.54548001
2 *796:ZN *496:3 2.89764
3 *763:I *496:2 2.96748
*END

*D_NET *497 0.00464012

*CONN
*I *762:I I *C 103.9 141.6 *L 0.000968 *D CKBD1
*I *795:ZN O *C 69.3 142 *L 0 *D AOI22D0

*CAP
1 *762:I 0.000164948
2 *497:2 0.00109885
3 *497:3 0.00033214
4 *497:4 0.00114336
5 *497:5 1.96462e-05
6 *497:6 0.000596935
7 *497:7 3.78469e-05
8 *497:8 0.00124638

*RES
1 *497:7 *497:8 7.41658
2 *795:ZN *497:2 1.63471
3 *497:6 *497:7 0.111508
4 *497:5 *497:6 4.24603
5 *497:4 *497:5 0.111508
6 *497:3 *497:4 8.53713036
7 *497:2 *497:8 6.10845
8 *762:I *497:3 4.56232
*END

*D_NET *498 0.000305943

*CONN
*I *794:ZN O *C 195.5 142 *L 0 *D AOI22D0
*I *769:A2 I *C 195.5 143 *L 0.00103 *D ND4D1

*CAP
1 *769:A2 0.000305943008

*RES
1 *794:ZN *769:A2 4.18408
*END

*D_NET *499 0.000782957

*CONN
*I *793:ZN O *C 216.5 139.2 *L 0 *D AOI22D0
*I *773:A3 I *C 215.3 141.8 *L 0.00103 *D ND4D1

*CAP
1 *773:A3 0.000782957031

*RES
1 *773:A3 *793:ZN 6.4029
*END

*D_NET *500 0.00963094

*CONN
*I *792:ZN O *C 269.9 140 *L 0 *D AOI22D1
*I *775:A4 I *C 210.9 141.6 *L 0.00102 *D ND4D1

*CAP
1 *500:2 0.000889493
2 *500:3 0.000398205
3 *500:4 0.000943434
4 *500:6 0.000837448
5 *500:7 2.55405e-05
6 *500:8 0.00217942
7 *500:9 0.000328667
8 *500:3 *69:3 0.00126045
9 *500:6 *495:3 0.000281688984
10 *500:3 *511:2 0.00215024
11 *500:2 *663:I 0.000336361992

*RES
1 *500:9 *500:2 2.21926
2 *500:8 *500:9 2.54427
3 *500:3 *500:4 20.1234
4 *500:7 *500:8 21.9137001
5 *500:5 *500:6 11.4601
6 *500:4 *500:5 0.137094
7 *500:2 *500:11 4.61707
8 *500:6 *500:7 0.137094
9 *500:3 *500:10 2.88801
10 *775:A4 *500:11 0.750007
11 *792:ZN *500:10 0.750007
*END

*D_NET *501 0.000710446

*CONN
*I *791:ZN O *C 212.7 139.2 *L 0 *D AOI22D0
*I *768:A2 I *C 212.9 141.8 *L 0.00103 *D ND4D1

*CAP
1 *791:ZN 0.000710446016

*RES
1 *768:A2 *791:ZN 4.21684
*END

*D_NET *502 0.0130901

*CONN
*I *790:ZN O *C 140.7 141.2 *L 0 *D AOI22D1
*I *773:A1 I *C 214.7 141.8 *L 0.000996 *D ND4D1

*CAP
1 *790:ZN 0.000290109
2 *773:A1 0.000389709
3 *502:2 0.0011475
4 *502:3 0.00331167
5 *502:4 0.000698364
6 *502:5 1.12183e-05
7 *502:6 0.000556973
8 *502:7 1.41492e-06
9 *502:8 0.00010238
10 *502:7 *239:5 0.00220879
11 *790:ZN *479:10 0.00045301
12 *502:4 *512:3 0.00160224
13 *502:2 *478:14 0.000296577012
14 *502:3 *44:2 0.00202015

*RES
1 *502:2 *502:8 4.50766
2 *502:3 *502:2 5.93355
3 *502:4 *502:5 1.11381
4 *502:7 *502:3 51.2603989
5 *502:5 *502:6 16.9723
6 *773:A1 *502:4 6.71494
7 *790:ZN *502:8 3.65274
8 *502:6 *502:7 0.13688
*END

*D_NET *503 0.00237353

*CONN
*I *761:I I *C 61.3 143.2 *L 0.000643 *D CKBD0
*I *789:ZN O *C 50.3 139.2 *L 0 *D AOI22D0

*CAP
1 *503:2 0.00067682
2 *503:3 0.00169671

*RES
1 *503:2 *503:3 10.5790997
2 *761:I *503:2 4.61221
3 *789:ZN *503:3 1.69964
*END

*D_NET *504 0.00705791

*CONN
*I *788:ZN O *C 274.5 139.2 *L 0 *D AOI22D0
*I *771:A4 I *C 219.5 141.6 *L 0.00102 *D ND4D1

*CAP
1 *788:ZN 0.00047382
2 *771:A4 0.000275928
3 *504:2 2.01421e-05
4 *504:3 0.00121102
5 *504:4 0.000142824
6 *504:5 0.000594894
7 *504:6 0.000239654
8 *504:7 8.69067e-05
9 *504:8 3.14143e-07
10 *504:9 0.000398703
11 *504:10 1.13461e-05
12 *504:11 0.000511923
13 *504:12 4.45898e-05
14 *504:2 *228:3 0.0018138
15 *504:3 *134:2 0.000370093984
16 *504:4 *454:4 0.000544812969
17 *504:5 *135:2 0.000317142012

*RES
1 *504:6 *504:7 2.80113
2 *504:10 *504:11 4.27435
3 *504:5 *504:6 0.111503
4 *504:2 *504:5 7.04192
5 *504:8 *504:9 8.44731
6 *504:7 *504:3 15.0669003
7 *504:3 *504:8 0.111503
8 *504:11 *504:12 0.111503
9 *788:ZN *504:2 3.47153
10 *504:9 *504:10 0.111503
11 *504:12 *504:4 5.65928
12 *771:A4 *504:4 4.66748
*END

*D_NET *505 0.000740917

*CONN
*I *787:ZN O *C 207.1 139.2 *L 0 *D AOI22D0
*I *774:A1 I *C 206.1 141.8 *L 0.000996 *D ND4D1

*CAP
1 *787:ZN 0.000740917031

*RES
1 *787:ZN *774:A1 4.57673
*END

*D_NET *506 0.00956275

*CONN
*I *786:ZN O *C 256.1 140 *L 0 *D AOI22D1
*I *769:A3 I *C 195.7 143 *L 0.00103 *D ND4D1

*CAP
1 *506:2 0.00474667969
2 *506:3 0.000419875
3 *506:4 0.000533155
4 *506:6 0.000375476
5 *506:2 *334:3 0.000364153008
6 *506:2 *124:3 0.00064296
7 *506:2 *395:3 0.000469875977
8 *506:3 *511:2 0.00176548
9 *506:2 *480:10 0.000245145

*RES
1 *506:4 *506:6 3.30965
2 *506:2 *506:5 7.58216
3 *506:3 *506:4 4.03118
4 *506:3 *506:2 53.7949982
5 *786:ZN *506:6 2.74491
6 *769:A3 *506:5 0.750254
*END

*D_NET *507 0.000955823

*CONN
*I *760:I I *C 74.3 141.6 *L 0.000968 *D CKBD1
*I *785:ZN O *C 69.3 139.2 *L 0 *D AOI22D0

*CAP
1 *760:I 0.000117562
2 *507:2 0.000838258984

*RES
1 *760:I *507:2 2.72688
2 *785:ZN *507:2 5.27242994
*END

*D_NET *508 0.00125847

*CONN
*I *784:ZN O *C 215.1 139.2 *L 0 *D AOI22D0
*I *771:A3 I *C 219.1 141.8 *L 0.00103 *D ND4D1

*CAP
1 *784:ZN 0.000282266
2 *771:A3 0.000240897
3 *508:2 0.000735313984

*RES
1 *771:A3 *508:2 6.16800022
2 *784:ZN *508:2 2.64015
*END

*D_NET *509 0.000443772

*CONN
*I *717:I I *C 260.1 141.6 *L 0.00104 *D DEL0
*I *783:ZN O *C 260.3 139.2 *L 0 *D AOI22D0

*CAP
1 *717:I 5.90447e-05
2 *783:ZN 3.48951e-05
3 *509:2 0.000349831992

*RES
1 *783:ZN *509:2 0.610466
2 *717:I *509:2 3.77856994
*END

*D_NET *510 0.0127383

*CONN
*I *782:ZN O *C 137.1 141.2 *L 0 *D AOI22D1
*I *771:A1 I *C 218.5 141.8 *L 0.000996 *D ND4D1

*CAP
1 *782:ZN 0.000502079
2 *771:A1 0.000694301
3 *510:2 0.00123644
4 *510:3 0.000166426
5 *510:4 4.24506e-05
6 *510:5 0.000133301
7 *510:6 0.00112414
8 *510:7 7.49546e-05
9 *510:8 0.00150541
10 *510:9 0.000378586
11 *510:10 0.000503159
12 *510:11 3.98548e-05
13 *510:6 *140:4 0.00223625
14 *510:2 *591:I 0.00162593
15 *510:7 *398:3 0.00144136
16 *510:4 *512:4 0.000620446016
17 *510:2 *237:2 0.0004132

*RES
1 *510:10 *510:11 3.12328
2 *510:5 *510:6 21.1681
3 *510:8 *510:11 1.23867
4 *510:3 *510:4 1.90075
5 *510:7 *510:8 31.1264
6 *510:6 *510:7 2.22895
7 *510:2 *510:5 2.82026
8 *510:4 *510:2 19.0631
9 *510:3 *510:9 3.67422
10 *771:A1 *510:9 4.06321
11 *782:ZN *510:10 3.06628
*END

*D_NET *511 0.00893311

*CONN
*I *781:ZN O *C 272.7 140 *L 0 *D AOI22D1
*I *768:A4 I *C 213.5 141.6 *L 0.00102 *D ND4D1

*CAP
1 *781:ZN 0.000146108
2 *768:A4 2.33052e-05
3 *511:2 0.00380874
4 *511:3 3.83576e-06
5 *511:4 0.000242525
6 *511:5 0.000391887
7 *511:2 *68:10 0.000400936016
8 *511:2 *506:3 0.00176548
9 *511:2 *500:3 0.00215024

*RES
1 *511:3 *511:5 4.32878
2 *781:ZN *511:4 3.74981
3 *768:A4 *511:3 0.575596
4 *511:2 *511:4 55.3111992
5 *511:2 *511:5 0.7503
*END

*D_NET *512 0.0128773

*CONN
*I *780:ZN O *C 133.7 141.2 *L 0 *D AOI22D1
*I *768:A3 I *C 213.1 141.8 *L 0.00103 *D ND4D1

*CAP
1 *512:2 0.0019326
2 *512:3 0.000879438
3 *512:4 0.001094
4 *512:5 1.92272e-05
5 *512:8 8.80854e-05
6 *512:9 4.42344e-06
7 *512:10 0.00065405
8 *512:11 7.98283e-05
9 *512:12 0.000817363
10 *512:2 *44:2 0.00231128
11 *512:3 *502:4 0.00160224
12 *512:4 *510:4 0.000620446016
13 *512:5 *140:4 0.00214818
14 *512:4 *235:3 0.000626088984

*RES
1 *512:6 *512:4 16.1856
2 *512:9 *512:10 11.1878
3 *512:2 *512:9 0.147263
4 *512:5 *512:2 45.9572983
5 *512:7 *512:8 6.13736
6 *512:4 *512:7 0.137446
7 *512:11 *512:12 5.2629
8 *512:10 *512:11 1.14094
9 *512:8 *512:5 0.137446
10 *512:6 *512:3 5.84494
11 *780:ZN *512:12 0.75034
12 *768:A3 *512:3 1.49998
*END

*D_NET *513 0.000810848

*CONN
*I *779:ZN O *C 200.5 142 *L 0 *D AOI22D0
*I *772:A3 I *C 200.5 143 *L 0.00103 *D ND4D1

*CAP
1 *779:ZN 6.01252e-05
2 *772:A3 0.000308931
3 *513:2 0.000441787969

*RES
1 *779:ZN *513:2 2.64733
2 *772:A3 *513:2 5.35661983
*END

*D_NET *514 0.000304046

*CONN
*I *759:I I *C 63.9 143.2 *L 0.000968 *D CKBD1
*I *778:ZN O *C 63.1 142 *L 0 *D AOI22D0

*CAP
1 *759:I 2.22531e-07
2 *778:ZN 0.000303824004

*RES
1 *778:ZN *759:I 3.49808
*END

*D_NET *515 0.0126261

*CONN
*I *777:ZN O *C 120.3 143.6 *L 0 *D AOI22D1
*I *772:A2 I *C 200.3 143 *L 0.00103 *D ND4D1

*CAP
1 *777:ZN 0.000223591
2 *515:2 0.000809151
3 *515:3 0.00132464
4 *515:4 0.000255984
5 *515:5 0.000226555
6 *515:6 0.000384581
7 *515:7 3.41889e-05
8 *515:8 0.00141808
9 *515:9 8.45633e-05
10 *515:10 0.000939047
11 *515:11 2.88009e-05
12 *515:12 0.000462415
13 *515:13 0.000318194
14 *515:14 0.000337106
15 *515:15 3.3821e-05
16 *515:16 0.000492103
17 *515:17 0.00116584
18 *515:19 0.000590364
19 *515:3 *49:3 0.000533326016
20 *515:12 *55:3 0.000714672031
21 *515:13 *434:3 0.000238532012
22 *515:2 *143:2 0.00201046984

*RES
1 *515:14 *515:15 0.137308
2 *515:3 *515:2 12.0504
3 *515:4 *515:5 3.61287
4 *515:17 *515:18 5.16475
5 *515:16 *515:17 3.52819
6 *515:15 *515:16 6.53986
7 *515:9 *515:10 8.99016
8 *515:2 *515:4 2.98941
9 *515:7 *515:8 22.1096992
10 *515:5 *515:6 4.42626
11 *515:6 *515:7 0.137308
12 *515:18 *515:19 2.86728
13 *515:12 *515:13 3.82777
14 *777:ZN *515:19 1.67975
15 *515:10 *515:11 0.137308
16 *772:A2 *515:3 8.63559
17 *515:8 *515:9 0.137308
18 *515:13 *515:14 4.23632
19 *515:11 *515:12 5.6455
*END

*D_NET *516 0.000830552

*CONN
*I *776:ZN O *C 188.3 139.2 *L 0 *D AOI22D0
*I *770:A3 I *C 187.5 141.8 *L 0.00103 *D ND4D1

*CAP
1 *770:A3 0.000537926016
2 *516:2 0.000292623

*RES
1 *770:A3 *516:2 6.26661015
2 *776:ZN *516:2 0.749955
*END

*D_NET *517 0.00422475

*CONN
*I *805:A1 I *C 253.3 139.6 *L 0.000665 *D AOI22D0
*I *767:Q[7] O *C 285.725 134.265 *L 0 *D sram00

*CAP
1 *517:2 0.000122151
2 *517:3 2.97308e-05
3 *517:4 8.34798e-05
4 *517:5 0.000904857
5 *517:6 0.00106001
6 *517:7 3.75882e-06
7 *517:8 0.00139172
8 *517:9 2.85416e-05
9 *517:10 0.000218075
10 *517:11 2.08116e-05
11 *517:12 0.000344092
12 *517:13 1.75199e-05

*RES
1 *517:11 *517:12 2.53397
2 *517:10 *517:11 0.11147
3 *517:9 *517:10 1.46754
4 *517:5 *517:13 2.72868
5 *517:4 *517:6 9.12033
6 *517:12 *517:13 0.269431
7 *517:8 *517:9 0.11147
8 *517:7 *517:8 11.8708
9 *517:6 *517:7 0.11147
10 *517:3 *517:5 4.48473
11 *805:A1 *517:2 0.75
12 *517:2 *517:3 0.75
13 *517:13 *767:Q[7] 0.0001
*END

*D_NET *518 0.00455757

*CONN
*I *786:A1 I *C 256.3 139.6 *L 0.000982 *D AOI22D1
*I *767:Q[6] O *C 288.315 134.265 *L 0 *D sram00

*CAP
1 *518:2 0.00184016
2 *518:3 4.45489e-05
3 *518:4 0.000169923
4 *518:5 4.01271e-05
5 *518:6 0.00197131
6 *518:7 0.000151003
7 *518:8 0.000340509

*RES
1 *518:6 *518:7 0.11147
2 *518:4 *518:5 0.11147
3 *518:3 *518:4 1.20904
4 *518:2 *518:7 10.887
5 *786:A1 *518:2 2.72892
6 *518:5 *518:6 13.8938
7 *518:3 *518:8 3.03363
8 *518:8 *767:Q[6] 0.0001
*END

*D_NET *519 0.00460441

*CONN
*I *783:A1 I *C 261.3 139.6 *L 0.000665 *D AOI22D0
*I *767:Q[5] O *C 294.125 134.265 *L 0 *D sram00

*CAP
1 *783:A1 6.03407e-06
2 *519:2 0.000967763
3 *519:3 7.59498e-05
4 *519:4 0.00236792
5 *519:5 0.000320167
6 *519:6 0.0001007
7 *519:7 1.35134e-05
8 *519:8 0.000271461
9 *519:9 4.48039e-06
10 *519:10 0.000476511

*RES
1 *519:9 *519:10 1.02102
2 *519:8 *519:9 1.79472
3 *519:6 *519:7 0.11147
4 *519:4 *519:5 1.8195
5 *519:3 *519:4 18.0907
6 *519:2 *519:7 6.23741
7 *783:A1 *519:2 0.905614
8 *519:5 *519:6 0.822214
9 *519:3 *519:10 2.75627
10 *519:10 *767:Q[5] 0.0001
*END

*D_NET *520 0.00430165

*CONN
*I *807:A1 I *C 263.7 139.6 *L 0.000665 *D AOI22D0
*I *767:Q[4] O *C 296.715 134.265 *L 0 *D sram00

*CAP
1 *520:2 0.000465929
2 *520:3 4.32096e-05
3 *520:4 2.18516e-05
4 *520:5 0.00100435
5 *520:6 0.00179679
6 *520:7 1.13233e-05
7 *520:8 0.000914366
8 *520:9 4.38128e-05

*RES
1 *520:4 *520:6 15.6392
2 *520:2 *520:3 3.08378
3 *520:8 *520:9 0.11147
4 *520:7 *520:8 6.04888
5 *520:6 *520:7 0.11147
6 *520:5 *520:9 5.75172
7 *520:3 *520:4 0.177686
8 *807:A1 *520:5 1.7302
9 *520:9 *767:Q[4] 0.0001
*END

*D_NET *521 0.00457755

*CONN
*I *792:A1 I *C 270.1 139.6 *L 0.000982 *D AOI22D1
*I *767:Q[3] O *C 302.525 134.265 *L 0 *D sram00

*CAP
1 *521:2 0.000372226
2 *521:4 4.74965e-06
3 *521:5 0.000344678
4 *521:6 0.000602438
5 *521:7 0.00239437016
6 *521:8 0.000316436
7 *521:9 0.000305256
8 *521:10 0.000237373

*RES
1 *521:9 *521:10 1.33917
2 *521:2 *521:3 2.41718
3 *521:8 *521:9 1.91151
4 *521:7 *521:8 1.677
5 *521:4 *521:5 0.291975
6 *521:3 *521:4 0.199758
7 *792:A1 *521:6 2.52276
8 *521:6 *521:10 2.18794
9 *521:5 *521:7 19.9126
10 *521:10 *767:Q[3] 0.0001
*END

*D_NET *522 0.00446775

*CONN
*I *781:A1 I *C 272.9 139.6 *L 0.000982 *D AOI22D1
*I *767:Q[2] O *C 305.115 134.265 *L 0 *D sram00

*CAP
1 *522:2 0.00249992984
2 *522:3 2.45663e-05
3 *522:4 0.000111884
4 *522:5 5.58465e-05
5 *522:6 0.000421481
6 *522:7 6.5612e-06
7 *522:8 0.000641319
8 *522:9 3.31111e-05
9 *522:10 0.000383639
10 *522:11 1.14439e-05
11 *522:12 0.000251042
12 *522:13 2.68933e-05

*RES
1 *522:7 *522:8 4.17882
2 *522:12 *522:13 2.30571
3 *522:3 *522:13 0.927686
4 *522:5 *522:6 3.77888
5 *522:4 *522:5 0.11147
6 *522:6 *522:7 0.11147
7 *522:10 *522:11 0.11147
8 *522:8 *522:9 0.11147
9 *522:9 *522:10 3.00081
10 *781:A1 *522:2 2.46175
11 *522:2 *522:11 13.628
12 *522:3 *522:4 1.88944
13 *522:13 *767:Q[2] 0.0001
*END

*D_NET *523 0.00406939

*CONN
*I *788:A1 I *C 275.5 139.6 *L 0.000665 *D AOI22D0
*I *767:Q[1] O *C 310.925 134.265 *L 0 *D sram00

*CAP
1 *523:2 0.00082142
2 *523:3 4.62291e-05
3 *523:5 2.59158e-05
4 *523:6 1.76235e-06
5 *523:7 5.48739e-05
6 *523:9 0.000197958
7 *523:10 1.73452e-05
8 *523:11 4.95312e-06
9 *523:12 4.72494e-05
10 *523:13 0.00121574
11 *523:14 1.73452e-05
12 *523:15 0.000316369
13 *523:16 3.58034e-06
14 *523:17 0.000859765
15 *523:18 3.70093e-05
16 *523:19 0.000106742
17 *523:20 1.30785e-05
18 *523:21 0.000247322
19 *523:22 3.46904e-05

*RES
1 *523:21 *523:22 0.11147
2 *523:7 *523:8 0.11147
3 *523:18 *523:19 0.621109
4 *523:12 *523:13 10.7815
5 *523:5 *523:6 0.11147
6 *523:4 *523:5 0.355372
7 *523:6 *523:7 0.510986
8 *523:10 *523:11 0.510986
9 *523:8 *523:9 2.06713
10 *523:9 *523:10 0.11147
11 *523:13 *523:14 0.11147
12 *523:19 *523:20 0.11147
13 *523:17 *523:18 0.11147
14 *788:A1 *523:2 4.48473
15 *523:16 *523:17 8.29168
16 *523:15 *523:16 0.11147
17 *523:11 *523:12 0.11147
18 *523:20 *523:21 1.7559
19 *523:14 *523:15 2.30652
20 *523:2 *523:22 1.70576
21 *523:3 *523:4 0.238581
22 *523:22 *767:Q[1] 0.0001
*END

*D_NET *524 0.00396626

*CONN
*I *797:A1 I *C 277.7 139.6 *L 0.000665 *D AOI22D0
*I *767:Q[0] O *C 313.515 134.265 *L 0 *D sram00

*CAP
1 *524:2 0.00363865
2 *524:3 3.54232e-05
3 *524:4 0.000244909
4 *524:5 4.72494e-05

*RES
1 *524:2 *524:4 28.8197
2 *524:3 *524:5 1.63311
3 *524:3 *524:4 0.289156
4 *797:A1 *524:2 3.70666
5 *524:5 *767:Q[0] 0.0001
*END

*D_NET *525 0.00117676

*CONN
*I *650:I I *C 157.3 141.6 *L 0.00104 *D DEL0
*I *873:ZN O *C 163.3 139.4 *L 0 *D NR2D0

*CAP
1 *650:I 0.000374208
2 *873:ZN 0.000356349
3 *525:2 0.000446201992

*RES
1 *873:ZN *525:2 3.36994
2 *650:I *525:2 6.57143021
*END

