*SPEF "IEEE 1481-1998"
*DESIGN "sram_wrapper"
*DATE "Mon Apr  6 21:25:12 2026"
*VENDOR "Cadence Design Systems, Inc."
*PROGRAM "Innovus"
*VERSION "21.16-s078_1"
*DESIGN_FLOW "COUPLING C" "PIN_CAP NONE" "NAME_SCOPE LOCAL"
*DIVIDER /
*DELIMITER :
*BUS_DELIMITER []
*T_UNIT 1 NS
*C_UNIT 1 PF
*R_UNIT 1 OHM
*L_UNIT 1 HENRY

// MMMC spef file for corner 'RC_TYP'

*NAME_MAP

*1 FE_PDN3_n_32
*2 FE_PDN692_n_77
*3 FE_PDN691_bus_wbuf_2
*4 FE_PDN690_n_34
*5 FE_PDN2_n_29
*6 FE_PHN689_bus_din_4
*7 FE_PHN688_n_6
*8 FE_PHN687_bus_din_4
*9 FE_PHN686_n_6
*10 FE_PHN685_bus_din_4
*11 FE_PHN684_bus_din_4
*12 FE_PHN683_bus_din_4
*13 FE_PHN682_bus_din_4
*14 FE_PHN681_n_6
*15 FE_PHN680_bus_din_3
*16 FE_PHN679_bus_din_4
*17 FE_PHN678_bus_din_4
*18 FE_PHN677_n_6
*19 FE_PHN676_bus_din_3
*20 FE_PHN675_bus_din_4
*21 FE_PHN674_n_6
*22 FE_PHN673_bus_din_4
*23 FE_PHN672_bus_din_3
*24 FE_PHN671_n_6
*25 FE_PHN670_bus_din_4
*26 FE_PHN669_bus_din_3
*27 FE_PHN668_n_6
*28 FE_PHN667_bus_din_4
*29 FE_PHN666_bus_din_3
*30 FE_PHN665_bus_din_4
*31 FE_PHN664_bus_din_3
*32 FE_PHN663_n_6
*33 FE_PHN662_bus_din_3
*34 FE_PHN661_bus_din_4
*35 FE_PHN660_bus_din_3
*36 FE_PHN659_n_6
*37 FE_PHN658_bus_din_3
*38 FE_PHN657_bus_din_3
*39 FE_PHN656_n_6
*40 FE_PHN655_bus_din_4
*41 FE_PHN654_n_6
*42 FE_PHN653_bus_din_3
*43 FE_PHN652_bus_din_4
*44 FE_PHN651_n_4
*45 FE_PHN650_n_4
*46 FE_PHN649_bus_din_6
*47 FE_PHN648_bus_din_3
*48 FE_PHN647_bus_din_4
*49 FE_PHN646_bus_we
*50 FE_PHN645_n_3
*51 FE_PHN644_bus_din_4
*52 FE_PHN643_bus_din_3
*53 FE_PHN642_n_3
*54 FE_PHN641_bus_din_6
*55 FE_PHN640_bus_we
*56 FE_PHN639_bus_din_2
*57 FE_PHN638_n_3
*58 FE_PHN637_bus_din_4
*59 FE_PHN636_bus_we
*60 FE_PHN635_bus_din_3
*61 FE_PHN634_bus_din_6
*62 FE_PHN633_bus_din_2
*63 FE_PHN632_bus_din_3
*64 FE_PHN631_bus_din_6
*65 FE_PHN630_bus_we
*66 FE_PHN629_bus_din_4
*67 FE_PHN628_bus_din_2
*68 FE_PHN627_n_4
*69 FE_PHN626_bus_din_4
*70 FE_PHN625_bus_din_6
*71 FE_PHN624_bus_we
*72 FE_PHN623_bus_din_2
*73 FE_PHN622_bus_din_0
*74 FE_PHN621_n_90
*75 FE_PHN620_bus_we
*76 FE_PHN619_bus_din_4
*77 FE_PHN618_bus_din_6
*78 FE_PHN617_bus_din_0
*79 FE_PHN616_bus_din_1
*80 FE_PHN615_bus_addr_10
*81 FE_PHN614_bus_addr_0
*82 FE_PHN613_n_29
*83 FE_PHN612_n_77
*84 FE_PHN611_bus_we
*85 FE_PHN610_rstn
*86 FE_PHN609_bus_addr_9
*87 FE_PHN608_sram_addr_1
*88 FE_PHN607_sram_wen
*89 FE_PHN606_bus_din_3
*90 FE_PHN605_bus_din_2
*91 FE_PHN604_bus_din_5
*92 FE_PHN603_bus_we
*93 FE_PHN602_bus_we
*94 FE_PHN601_bus_we
*95 FE_PHN600_bus_we
*96 FE_PHN599_bus_we
*97 FE_PHN598_bus_we
*98 FE_PHN597_bus_we
*99 FE_PHN596_bus_we
*100 FE_PHN595_bus_we
*101 FE_PHN594_bus_we
*102 FE_PHN593_bus_we
*103 FE_PHN592_bus_addr_0
*104 FE_PHN591_sram_addr_0
*105 FE_PHN590_n_76
*106 FE_PHN589_bus_we
*107 FE_PHN588_bus_wbuf_15
*108 FE_PHN587_bus_addr_7
*109 FE_PHN586_bus_addr_0
*110 FE_PHN585_bus_addr_4
*111 FE_PHN584_bus_addr_3
*112 FE_PHN583_bus_addr_5
*113 FE_PHN582_bus_addr_9
*114 FE_PHN581_bus_addr_6
*115 FE_PHN580_bus_wbuf_8
*116 FE_PHN579_bus_addr_11
*117 FE_PHN578_bus_wbuf_9
*118 FE_PHN577_bus_wbuf_51
*119 FE_PHN576_bus_we
*120 FE_PHN575_bus_wbuf_16
*121 FE_PHN574_n_1
*122 FE_PHN573_bus_addr_0
*123 FE_PHN572_bus_wbuf_15
*124 FE_PHN571_bus_wbuf_9
*125 FE_PHN570_bus_addr_8
*126 FE_PHN569_bus_addr_3
*127 FE_PHN568_bus_addr_11
*128 FE_PHN567_bus_addr_6
*129 FE_PHN566_bus_addr_9
*130 FE_PHN565_bus_addr_5
*131 FE_PHN564_bus_wbuf_8
*132 FE_PHN563_bus_wbuf_10
*133 FE_PHN562_bus_addr_4
*134 FE_PHN561_bus_addr_7
*135 FE_PHN560_bus_wbuf_1
*136 FE_PHN559_bus_din_4
*137 FE_PHN558_bus_addr_1
*138 FE_PHN557_bus_din_3
*139 FE_PHN556_bus_din_1
*140 FE_PHN555_sram_addr_0
*141 FE_PHN554_bus_wbuf_60
*142 FE_PHN553_bus_wbuf_63
*143 FE_PHN552_bus_wbuf_59
*144 FE_PHN551_bus_wbuf_58
*145 FE_PHN550_sram_addr_3
*146 FE_PHN549_bus_wbuf_61
*147 FE_PHN548_bus_wbuf_1
*148 FE_PHN547_sram_addr_2
*149 FE_PHN546_sram_addr_4
*150 FE_PHN545_sram_addr_1
*151 FE_PHN544_bus_wbuf_62
*152 FE_PHN543_n_89
*153 FE_PHN542_n_73
*154 FE_PHN541_n_72
*155 FE_PHN540_n_71
*156 FE_PHN539_n_87
*157 FE_PHN538_n_90
*158 FE_PHN537_n_93
*159 FE_PHN536_n_88
*160 FE_PHN535_n_92
*161 FE_PHN534_n_91
*162 FE_PHN533_n_81
*163 FE_PHN532_n_82
*164 FE_PHN531_n_80
*165 FE_PHN530_sram_addr_6
*166 FE_PHN529_n_28
*167 FE_PHN528_n_32
*168 FE_PHN527_n_30
*169 FE_PHN526_n_34
*170 FE_PHN525_n_31
*171 FE_PHN524_n_54
*172 FE_PHN523_n_61
*173 FE_PHN522_n_57
*174 FE_PHN521_n_62
*175 FE_PHN520_n_56
*176 FE_PHN519_n_60
*177 FE_PHN518_n_53
*178 FE_PHN517_n_96
*179 FE_PHN516_n_18
*180 FE_PHN515_n_17
*181 FE_PHN514_n_45
*182 FE_PHN513_n_46
*183 FE_PHN512_bus_addr_8
*184 FE_PHN511_n_97
*185 FE_PHN510_rstn
*186 FE_PHN509_bus_addr_2
*187 FE_PHN508_sram_addr_5
*188 FE_PHN507_n_12
*189 FE_PHN506_tpu_dout_44
*190 FE_PHN505_tpu_dout_43
*191 FE_PHN504_tpu_dout_15
*192 FE_PHN503_tpu_dout_42
*193 FE_PHN502_tpu_dout_53
*194 FE_PHN501_tpu_dout_45
*195 FE_PHN500_tpu_dout_19
*196 FE_PHN499_tpu_dout_3
*197 FE_PHN498_tpu_dout_18
*198 FE_PHN497_bus_wbuf_16
*199 FE_PHN496_tpu_dout_27
*200 FE_PHN495_tpu_dout_16
*201 FE_PHN494_tpu_dout_41
*202 FE_PHN493_tpu_dout_25
*203 FE_PHN492_tpu_dout_33
*204 FE_PHN491_tpu_dout_49
*205 FE_PHN490_tpu_dout_6
*206 FE_PHN489_tpu_dout_17
*207 FE_PHN488_tpu_dout_0
*208 FE_PHN487_tpu_dout_46
*209 FE_PHN486_tpu_dout_28
*210 FE_PHN485_tpu_dout_24
*211 FE_PHN484_tpu_dout_23
*212 FE_PHN483_tpu_dout_2
*213 FE_PHN482_tpu_dout_1
*214 FE_PHN481_tpu_dout_35
*215 FE_PHN480_tpu_dout_32
*216 FE_PHN479_bus_wbuf_14
*217 FE_PHN478_tpu_dout_34
*218 FE_PHN477_tpu_dout_30
*219 FE_PHN476_tpu_dout_8
*220 FE_PHN475_tpu_dout_10
*221 FE_PHN474_tpu_dout_7
*222 FE_PHN473_tpu_dout_9
*223 FE_PHN472_tpu_dout_20
*224 FE_PHN471_tpu_dout_29
*225 FE_PHN470_bus_wbuf_10
*226 FE_PHN469_tpu_dout_5
*227 FE_PHN468_tpu_dout_26
*228 FE_PHN467_bus_wbuf_6
*229 FE_PHN466_tpu_dout_52
*230 FE_PHN465_bus_wbuf_2
*231 FE_PHN464_tpu_dout_48
*232 FE_PHN463_bus_wbuf_26
*233 FE_PHN462_bus_wbuf_4
*234 FE_PHN461_tpu_dout_4
*235 FE_PHN460_bus_wbuf_0
*236 FE_PHN459_bus_wbuf_50
*237 FE_PHN458_tpu_dout_54
*238 FE_PHN457_tpu_dout_57
*239 FE_PHN456_tpu_dout_55
*240 FE_PHN455_bus_wbuf_44
*241 FE_PHN454_bus_wbuf_52
*242 FE_PHN453_bus_wbuf_40
*243 FE_PHN452_tpu_dout_51
*244 FE_PHN451_tpu_dout_58
*245 FE_PHN450_tpu_dout_62
*246 FE_PHN449_bus_wbuf_46
*247 FE_PHN448_bus_wbuf_24
*248 FE_PHN447_sram_addr_8
*249 FE_PHN446_bus_wbuf_21
*250 FE_PHN445_bus_wbuf_22
*251 FE_PHN444_bus_wbuf_12
*252 FE_PHN443_tpu_dout_61
*253 FE_PHN442_bus_wbuf_53
*254 FE_PHN441_bus_wbuf_49
*255 FE_PHN440_tpu_dout_63
*256 FE_PHN439_bus_wbuf_13
*257 FE_PHN438_bus_wbuf_11
*258 FE_PHN437_tpu_dout_59
*259 FE_PHN436_tpu_dout_50
*260 FE_PHN435_tpu_dout_60
*261 FE_PHN434_bus_wbuf_54
*262 FE_PHN433_tpu_dout_47
*263 FE_PHN432_bus_wbuf_20
*264 FE_PHN431_bus_wbuf_23
*265 FE_PHN430_bus_wbuf_55
*266 FE_PHN429_bus_wbuf_27
*267 FE_PHN428_bus_wbuf_43
*268 FE_PHN427_bus_wbuf_42
*269 FE_PHN426_bus_wbuf_41
*270 FE_PHN425_bus_wbuf_45
*271 FE_PHN424_bus_wbuf_31
*272 FE_PHN423_bus_wbuf_38
*273 FE_PHN422_bus_wbuf_28
*274 FE_PHN421_bus_wbuf_39
*275 FE_PHN420_bus_wbuf_33
*276 FE_PHN419_bus_wbuf_37
*277 FE_PHN418_bus_wbuf_47
*278 FE_PHN417_bus_wbuf_29
*279 FE_PHN416_bus_wbuf_19
*280 FE_PHN415_bus_wbuf_30
*281 FE_PHN414_bus_wbuf_32
*282 FE_PHN413_bus_wbuf_17
*283 FE_PHN412_bus_wbuf_18
*284 FE_PHN411_bus_wbuf_34
*285 FE_PHN410_bus_wbuf_36
*286 FE_PHN409_bus_wbuf_35
*287 FE_PHN408_bus_wbuf_25
*288 FE_PHN407_sram_addr_7
*289 FE_PHN406_bus_wbuf_48
*290 FE_PHN405_bus_din_0
*291 FE_PHN404_bus_wbuf_7
*292 FE_PHN403_bus_we
*293 FE_PHN402_bus_wbuf_5
*294 FE_PHN401_bus_wbuf_3
*295 FE_PHN400_bus_wbuf_57
*296 FE_PHN399_bus_wbuf_56
*297 FE_PHN398_sram_wen
*298 FE_PDN396_tpu_dout_56
*299 FE_PHN395_bus_addr_10
*300 FE_PHN394_tpu_dout_31
*301 FE_PHN393_tpu_dout_11
*302 FE_PHN392_tpu_dout_12
*303 FE_PHN391_tpu_dout_13
*304 FE_PHN390_tpu_dout_14
*305 FE_PHN389_bus_wbuf_8
*306 FE_PHN388_bus_wbuf_19
*307 FE_PHN387_bus_wbuf_9
*308 FE_PHN385_tpu_dout_14
*309 FE_PHN383_tpu_dout_13
*310 FE_PHN381_tpu_dout_12
*311 FE_PHN379_tpu_dout_11
*312 FE_PHN377_tpu_dout_31
*313 FE_PHN376_sram_addr_8
*314 FE_PHN375_bus_wbuf_15
*315 FE_PHN374_bus_wbuf_48
*316 FE_PHN373_bus_addr_10
*317 FE_PHN372_rstn
*318 FE_PHN371_bus_wbuf_62
*319 FE_PHN370_bus_wbuf_61
*320 FE_PHN369_bus_wbuf_60
*321 FE_PHN368_sram_addr_5
*322 FE_PHN367_bus_wbuf_1
*323 FE_PHN366_bus_wbuf_48
*324 FE_PHN365_bus_wbuf_8
*325 FE_PHN364_bus_wbuf_9
*326 FE_PHN363_bus_wbuf_11
*327 FE_PHN362_bus_wbuf_19
*328 FE_PHN361_bus_wbuf_13
*329 FE_PHN360_bus_wbuf_54
*330 FE_PHN359_bus_wbuf_12
*331 FE_PHN358_bus_wbuf_18
*332 FE_PHN357_sram_addr_6
*333 FE_PHN356_bus_wbuf_10
*334 FE_PHN355_bus_wbuf_17
*335 FE_PHN354_sram_addr_0
*336 FE_PHN353_bus_wbuf_25
*337 FE_PHN352_sram_addr_1
*338 FE_PHN351_sram_addr_2
*339 FE_PHN350_bus_wbuf_24
*340 FE_PHN349_bus_wbuf_50
*341 FE_PHN348_bus_wbuf_55
*342 FE_PHN347_bus_wbuf_49
*343 FE_PHN346_bus_wbuf_26
*344 FE_PHN345_sram_addr_3
*345 FE_PHN344_bus_wbuf_32
*346 FE_PHN343_bus_wbuf_20
*347 FE_PHN342_bus_wbuf_38
*348 FE_PHN341_bus_wbuf_51
*349 FE_PHN340_bus_wbuf_33
*350 FE_PHN339_bus_wbuf_37
*351 FE_PHN338_bus_wbuf_53
*352 FE_PHN337_bus_wbuf_23
*353 FE_PHN336_bus_wbuf_21
*354 FE_PHN335_bus_wbuf_52
*355 FE_PHN334_bus_wbuf_46
*356 FE_PHN333_bus_wbuf_22
*357 FE_PHN332_bus_wbuf_41
*358 FE_PHN331_bus_wbuf_40
*359 FE_PHN330_bus_wbuf_39
*360 FE_PHN329_bus_wbuf_29
*361 FE_PHN328_bus_wbuf_28
*362 FE_PHN327_bus_wbuf_45
*363 FE_PHN326_bus_wbuf_42
*364 FE_PHN325_bus_wbuf_44
*365 FE_PHN324_bus_wbuf_47
*366 FE_PHN323_bus_wbuf_43
*367 FE_PHN322_bus_wbuf_30
*368 FE_PHN321_bus_wbuf_31
*369 FE_PHN320_sram_addr_4
*370 FE_PHN319_bus_wbuf_35
*371 FE_PHN318_bus_wbuf_34
*372 FE_PHN317_bus_wbuf_27
*373 FE_PHN316_bus_wbuf_36
*374 FE_PHN315_sram_addr_8
*375 FE_PHN314_sram_addr_7
*376 FE_PHN312_tpu_dout_31
*377 FE_PHN311_rstn
*378 FE_PHN310_sram_wen
*379 FE_PHN309_bus_wbuf_15
*380 FE_PHN308_bus_wbuf_14
*381 FE_PHN307_bus_wbuf_16
*382 FE_PHN306_bus_addr_7
*383 FE_PHN305_bus_addr_8
*384 FE_PHN304_bus_addr_4
*385 FE_PHN303_bus_addr_3
*386 FE_PHN302_bus_addr_5
*387 FE_PHN301_bus_addr_6
*388 FE_PHN300_bus_addr_9
*389 FE_PHN299_bus_addr_11
*390 FE_PHN298_tpu_re
*391 FE_PHN297_tpu_dout_56
*392 FE_PHN296_tpu_dout_54
*393 FE_PHN295_tpu_dout_58
*394 FE_PHN294_tpu_dout_57
*395 FE_PHN293_tpu_dout_60
*396 FE_PHN292_tpu_dout_61
*397 FE_PHN291_tpu_dout_62
*398 FE_PHN290_tpu_dout_63
*399 FE_PHN289_tpu_dout_50
*400 FE_PHN288_tpu_dout_55
*401 FE_PHN287_tpu_dout_59
*402 FE_PHN286_tpu_dout_5
*403 FE_PHN285_tpu_dout_4
*404 FE_PHN284_tpu_dout_52
*405 FE_PHN283_tpu_dout_48
*406 FE_PHN282_tpu_dout_51
*407 FE_PHN281_tpu_dout_49
*408 FE_PHN280_tpu_dout_7
*409 FE_PHN279_tpu_dout_47
*410 FE_PHN278_tpu_dout_53
*411 FE_PHN277_tpu_dout_45
*412 FE_PHN276_tpu_dout_39
*413 FE_PHN275_tpu_dout_44
*414 FE_PHN274_tpu_dout_46
*415 FE_PHN273_tpu_dout_6
*416 FE_PHN272_tpu_dout_2
*417 FE_PHN271_tpu_dout_38
*418 FE_PHN270_tpu_dout_40
*419 FE_PHN269_tpu_dout_41
*420 FE_PHN268_tpu_dout_42
*421 FE_PHN267_tpu_dout_43
*422 FE_PHN266_tpu_dout_1
*423 FE_PHN265_tpu_dout_36
*424 FE_PHN264_tpu_dout_37
*425 FE_PHN263_tpu_dout_0
*426 FE_PHN262_tpu_dout_19
*427 FE_PHN261_tpu_dout_32
*428 FE_PHN260_tpu_dout_34
*429 FE_PHN259_tpu_dout_35
*430 FE_PHN258_tpu_dout_3
*431 FE_PHN257_tpu_dout_9
*432 FE_PHN256_tpu_dout_10
*433 FE_PHN255_tpu_dout_8
*434 FE_PHN254_tpu_dout_15
*435 FE_PHN253_tpu_dout_16
*436 FE_PHN252_tpu_dout_33
*437 FE_PHN251_tpu_dout_21
*438 FE_PHN250_tpu_dout_18
*439 FE_PHN249_tpu_dout_17
*440 FE_PHN248_tpu_dout_22
*441 FE_PHN247_tpu_dout_25
*442 FE_PHN246_tpu_dout_28
*443 FE_PHN245_tpu_dout_20
*444 FE_PHN244_tpu_dout_27
*445 FE_PHN243_tpu_dout_26
*446 FE_PHN242_tpu_dout_23
*447 FE_PHN241_tpu_dout_24
*448 FE_PHN240_tpu_dout_29
*449 FE_PHN239_tpu_dout_30
*450 FE_PHN238_bus_addr_10
*451 FE_PHN237_sram_addr_5
*452 FE_PHN236_sram_addr_6
*453 FE_PHN235_sram_addr_8
*454 FE_PHN234_sram_addr_7
*455 FE_PHN233_sram_addr_0
*456 FE_PHN232_sram_addr_2
*457 FE_PHN231_sram_addr_3
*458 FE_PHN230_sram_addr_1
*459 FE_PHN229_sram_addr_4
*460 FE_PHN228_bus_wbuf_56
*461 FE_PHN227_bus_wbuf_57
*462 FE_PHN226_bus_wbuf_58
*463 FE_PHN225_bus_wbuf_63
*464 FE_PHN224_bus_wbuf_59
*465 FE_PHN223_bus_wbuf_61
*466 FE_PHN222_bus_wbuf_62
*467 FE_PHN221_bus_wbuf_60
*468 FE_PHN220_bus_wbuf_7
*469 FE_PHN219_bus_wbuf_6
*470 FE_PHN218_rstn
*471 FE_PHN217_sram_cen
*472 FE_PHN216_bus_wbuf_4
*473 FE_PHN215_bus_wbuf_3
*474 FE_PHN214_bus_wbuf_5
*475 FE_PHN213_bus_wbuf_2
*476 FE_PHN212_bus_wbuf_0
*477 FE_PHN211_bus_wbuf_1
*478 FE_PHN210_bus_wbuf_48
*479 FE_PHN209_bus_wbuf_8
*480 FE_PHN208_bus_wbuf_15
*481 FE_PHN207_bus_wbuf_19
*482 FE_PHN206_bus_wbuf_11
*483 FE_PHN205_bus_wbuf_9
*484 FE_PHN204_bus_wbuf_12
*485 FE_PHN203_bus_wbuf_13
*486 FE_PHN202_bus_wbuf_14
*487 FE_PHN201_bus_wbuf_18
*488 FE_PHN200_bus_wbuf_54
*489 FE_PHN199_bus_wbuf_10
*490 FE_PHN198_bus_wbuf_17
*491 FE_PHN197_bus_wbuf_16
*492 FE_PHN196_bus_wbuf_55
*493 FE_PHN195_bus_wbuf_32
*494 FE_PHN194_bus_wbuf_50
*495 FE_PHN193_bus_wbuf_49
*496 FE_PHN192_bus_wbuf_20
*497 FE_PHN191_bus_wbuf_37
*498 FE_PHN190_bus_wbuf_51
*499 FE_PHN189_bus_wbuf_38
*500 FE_PHN188_bus_wbuf_33
*501 FE_PHN187_bus_wbuf_21
*502 FE_PHN186_bus_wbuf_24
*503 FE_PHN185_bus_wbuf_23
*504 FE_PHN184_bus_wbuf_22
*505 FE_PHN183_bus_wbuf_53
*506 FE_PHN182_bus_wbuf_26
*507 FE_PHN181_bus_wbuf_39
*508 FE_PHN180_bus_wbuf_52
*509 FE_PHN179_bus_wbuf_25
*510 FE_PHN178_bus_wbuf_46
*511 FE_PHN177_bus_wbuf_40
*512 FE_PHN176_bus_wbuf_41
*513 FE_PHN175_bus_wbuf_29
*514 FE_PHN174_bus_wbuf_42
*515 FE_PHN173_bus_wbuf_34
*516 FE_PHN172_bus_wbuf_30
*517 FE_PHN171_bus_wbuf_45
*518 FE_PHN170_bus_wbuf_31
*519 FE_PHN169_bus_wbuf_47
*520 FE_PHN168_bus_wbuf_35
*521 FE_PHN167_bus_wbuf_44
*522 FE_PHN166_bus_wbuf_43
*523 FE_PHN165_bus_wbuf_28
*524 FE_PHN164_bus_wbuf_27
*525 FE_PHN163_bus_addr_10
*526 FE_PHN162_n_97
*527 FE_PHN161_bus_wbuf_36
*528 FE_PHN160_bus_addr_8
*529 FE_PHN159_bus_addr_7
*530 FE_PHN158_bus_addr_4
*531 FE_PHN157_bus_addr_5
*532 FE_PHN156_bus_addr_3
*533 FE_PHN155_bus_addr_6
*534 FE_PHN154_bus_addr_9
*535 FE_PHN153_bus_addr_11
*536 FE_PHN152_bus_addr_1
*537 FE_PHN151_bus_addr_2
*538 FE_PHN150_bus_addr_0
*539 FE_PHN148_tpu_dout_29
*540 FE_PHN146_tpu_dout_20
*541 FE_PHN144_tpu_dout_30
*542 FE_PHN142_tpu_dout_26
*543 FE_PHN140_tpu_dout_24
*544 FE_PHN138_tpu_dout_5
*545 FE_PHN136_tpu_dout_28
*546 FE_PHN134_tpu_dout_21
*547 FE_PHN132_tpu_dout_25
*548 FE_PHN130_tpu_dout_27
*549 FE_PHN128_tpu_dout_13
*550 FE_PHN126_tpu_dout_15
*551 FE_PHN124_tpu_dout_33
*552 FE_PHN122_tpu_dout_3
*553 FE_PHN120_tpu_dout_6
*554 FE_PHN118_tpu_dout_17
*555 FE_PHN116_tpu_dout_18
*556 FE_PHN114_tpu_dout_23
*557 FE_PHN112_tpu_dout_31
*558 FE_PHN110_tpu_dout_46
*559 FE_PHN108_tpu_dout_44
*560 FE_PHN106_tpu_dout_42
*561 FE_PHN104_tpu_dout_4
*562 FE_PHN102_tpu_dout_0
*563 FE_PHN100_tpu_dout_9
*564 FE_PHN98_tpu_dout_11
*565 FE_PHN96_tpu_dout_12
*566 FE_PHN94_tpu_dout_19
*567 FE_PHN92_tpu_dout_40
*568 FE_PHN90_tpu_dout_34
*569 FE_PHN88_tpu_dout_1
*570 FE_PHN86_tpu_dout_8
*571 FE_PHN84_tpu_dout_10
*572 FE_PHN82_tpu_dout_22
*573 FE_PHN80_tpu_dout_41
*574 FE_PHN78_tpu_dout_38
*575 FE_PHN76_tpu_dout_36
*576 FE_PHN74_tpu_dout_37
*577 FE_PHN72_tpu_dout_32
*578 FE_PHN70_tpu_dout_35
*579 FE_PHN68_tpu_dout_58
*580 FE_PHN66_tpu_dout_55
*581 FE_PHN64_tpu_dout_51
*582 FE_PHN62_tpu_dout_45
*583 FE_PHN60_tpu_dout_43
*584 FE_PHN58_tpu_dout_7
*585 FE_PHN56_tpu_dout_2
*586 FE_PHN54_tpu_dout_14
*587 FE_PHN52_tpu_dout_16
*588 FE_PHN50_tpu_dout_60
*589 FE_PHN48_tpu_dout_61
*590 FE_PHN46_tpu_dout_54
*591 FE_PHN44_tpu_dout_50
*592 FE_PHN42_tpu_dout_48
*593 FE_PHN40_tpu_dout_49
*594 FE_PHN38_tpu_dout_52
*595 FE_PHN36_tpu_dout_47
*596 FE_PHN34_tpu_dout_53
*597 FE_PHN32_tpu_dout_39
*598 FE_PHN30_tpu_dout_57
*599 FE_PHN28_tpu_dout_62
*600 FE_PHN26_tpu_dout_63
*601 FE_PHN24_tpu_dout_59
*602 FE_PHN22_tpu_dout_56
*603 FE_PHN21_last_word_addr_3
*604 FE_PHN20_last_word_addr_6
*605 FE_PHN19_last_word_addr_4
*606 FE_PHN18_last_word_addr_2
*607 FE_PHN17_last_word_addr_7
*608 FE_PHN16_last_word_addr_8
*609 FE_PHN15_last_word_addr_5
*610 FE_PHN14_last_word_addr_1
*611 FE_PHN13_last_word_addr_0
*612 FE_PHN12_bus_din_0
*613 FE_PHN11_bus_we_d1
*614 FE_PHN10_bus_din_6
*615 FE_PHN9_bus_din_3
*616 FE_PHN8_bus_din_5
*617 FE_PHN7_bus_din_4
*618 FE_PHN6_bus_din_7
*619 FE_PHN5_bus_din_1
*620 FE_PHN4_bus_din_2
*621 FE_PHN3_bus_we
*622 FE_PHN2_flush_d1
*623 CTS_8
*624 CTS_7
*625 CTS_4
*626 CTS_3
*627 CTS_2
*628 CTS_1
*629 CTS_6
*630 CTS_5
*631 LTIELO_NET
*632 LTIEHI_NET
*633 FE_OFN0_rstn
*634 clk
*635 rstn
*636 bus_we
*637 bus_addr[11]
*638 bus_addr[10]
*639 bus_addr[9]
*640 bus_addr[8]
*641 bus_addr[7]
*642 bus_addr[6]
*643 bus_addr[5]
*644 bus_addr[4]
*645 bus_addr[3]
*646 bus_addr[2]
*647 bus_addr[1]
*648 bus_addr[0]
*649 bus_din[7]
*650 bus_din[6]
*651 bus_din[5]
*652 bus_din[4]
*653 bus_din[3]
*654 bus_din[2]
*655 bus_din[1]
*656 bus_din[0]
*657 tpu_re
*658 tpu_addr[8]
*659 tpu_addr[7]
*660 tpu_addr[6]
*661 tpu_addr[5]
*662 tpu_addr[4]
*663 tpu_addr[3]
*664 tpu_addr[2]
*665 tpu_addr[1]
*666 tpu_addr[0]
*667 tpu_dout[63]
*668 tpu_dout[62]
*669 tpu_dout[61]
*670 tpu_dout[60]
*671 tpu_dout[59]
*672 tpu_dout[58]
*673 tpu_dout[57]
*674 tpu_dout[56]
*675 tpu_dout[55]
*676 tpu_dout[54]
*677 tpu_dout[53]
*678 tpu_dout[52]
*679 tpu_dout[51]
*680 tpu_dout[50]
*681 tpu_dout[49]
*682 tpu_dout[48]
*683 tpu_dout[47]
*684 tpu_dout[46]
*685 tpu_dout[45]
*686 tpu_dout[44]
*687 tpu_dout[43]
*688 tpu_dout[42]
*689 tpu_dout[41]
*690 tpu_dout[40]
*691 tpu_dout[39]
*692 tpu_dout[38]
*693 tpu_dout[37]
*694 tpu_dout[36]
*695 tpu_dout[35]
*696 tpu_dout[34]
*697 tpu_dout[33]
*698 tpu_dout[32]
*699 tpu_dout[31]
*700 tpu_dout[30]
*701 tpu_dout[29]
*702 tpu_dout[28]
*703 tpu_dout[27]
*704 tpu_dout[26]
*705 tpu_dout[25]
*706 tpu_dout[24]
*707 tpu_dout[23]
*708 tpu_dout[22]
*709 tpu_dout[21]
*710 tpu_dout[20]
*711 tpu_dout[19]
*712 tpu_dout[18]
*713 tpu_dout[17]
*714 tpu_dout[16]
*715 tpu_dout[15]
*716 tpu_dout[14]
*717 tpu_dout[13]
*718 tpu_dout[12]
*719 tpu_dout[11]
*720 tpu_dout[10]
*721 tpu_dout[9]
*722 tpu_dout[8]
*723 tpu_dout[7]
*724 tpu_dout[6]
*725 tpu_dout[5]
*726 tpu_dout[4]
*727 tpu_dout[3]
*728 tpu_dout[2]
*729 tpu_dout[1]
*730 tpu_dout[0]
*731 sram_addr[8]
*732 sram_addr[7]
*733 sram_addr[6]
*734 sram_addr[5]
*735 sram_addr[4]
*736 sram_addr[3]
*737 sram_addr[2]
*738 sram_addr[1]
*739 sram_addr[0]
*740 bus_wbuf[63]
*741 bus_wbuf[62]
*742 bus_wbuf[61]
*743 bus_wbuf[60]
*744 bus_wbuf[59]
*745 bus_wbuf[58]
*746 bus_wbuf[57]
*747 bus_wbuf[56]
*748 bus_wbuf[55]
*749 bus_wbuf[54]
*750 bus_wbuf[53]
*751 bus_wbuf[52]
*752 bus_wbuf[51]
*753 bus_wbuf[50]
*754 bus_wbuf[49]
*755 bus_wbuf[48]
*756 bus_wbuf[47]
*757 bus_wbuf[46]
*758 bus_wbuf[45]
*759 bus_wbuf[44]
*760 bus_wbuf[43]
*761 bus_wbuf[42]
*762 bus_wbuf[41]
*763 bus_wbuf[40]
*764 bus_wbuf[39]
*765 bus_wbuf[38]
*766 bus_wbuf[37]
*767 bus_wbuf[36]
*768 bus_wbuf[35]
*769 bus_wbuf[34]
*770 bus_wbuf[33]
*771 bus_wbuf[32]
*772 bus_wbuf[31]
*773 bus_wbuf[30]
*774 bus_wbuf[29]
*775 bus_wbuf[28]
*776 bus_wbuf[27]
*777 bus_wbuf[26]
*778 bus_wbuf[25]
*779 bus_wbuf[24]
*780 bus_wbuf[23]
*781 bus_wbuf[22]
*782 bus_wbuf[21]
*783 bus_wbuf[20]
*784 bus_wbuf[19]
*785 bus_wbuf[18]
*786 bus_wbuf[17]
*787 bus_wbuf[16]
*788 bus_wbuf[15]
*789 bus_wbuf[14]
*790 bus_wbuf[13]
*791 bus_wbuf[12]
*792 bus_wbuf[11]
*793 bus_wbuf[10]
*794 bus_wbuf[9]
*795 bus_wbuf[8]
*796 bus_wbuf[7]
*797 bus_wbuf[6]
*798 bus_wbuf[5]
*799 bus_wbuf[4]
*800 bus_wbuf[3]
*801 bus_wbuf[2]
*802 bus_wbuf[1]
*803 bus_wbuf[0]
*804 flush_addr[8]
*805 flush_addr[7]
*806 flush_addr[6]
*807 flush_addr[5]
*808 flush_addr[4]
*809 flush_addr[3]
*810 flush_addr[2]
*811 flush_addr[1]
*812 flush_addr[0]
*813 bus_waddr_d1[8]
*814 bus_waddr_d1[7]
*815 bus_waddr_d1[6]
*816 bus_waddr_d1[5]
*817 bus_waddr_d1[4]
*818 bus_waddr_d1[3]
*819 bus_waddr_d1[2]
*820 bus_waddr_d1[1]
*821 bus_waddr_d1[0]
*822 last_byte_sel[2]
*823 last_byte_sel[1]
*824 last_byte_sel[0]
*825 last_word_addr[8]
*826 last_word_addr[7]
*827 last_word_addr[6]
*828 last_word_addr[5]
*829 last_word_addr[4]
*830 last_word_addr[3]
*831 last_word_addr[2]
*832 last_word_addr[1]
*833 last_word_addr[0]
*834 bus_we_d1
*835 bus_we_prev
*836 flush_d1
*837 n_0
*838 n_1
*839 n_2
*840 n_3
*841 n_4
*842 n_5
*843 n_6
*844 n_7
*845 n_8
*846 n_9
*847 n_10
*848 n_11
*849 n_12
*850 n_13
*851 n_14
*852 n_15
*853 n_16
*854 n_17
*855 n_18
*856 n_19
*857 n_20
*858 n_21
*859 n_22
*860 n_23
*861 n_24
*862 n_25
*863 n_26
*864 n_27
*865 n_28
*866 n_29
*867 n_30
*868 n_31
*869 n_32
*870 n_33
*871 n_34
*872 n_35
*873 n_36
*874 n_37
*875 n_38
*876 n_39
*877 n_40
*878 n_41
*879 n_42
*880 n_43
*881 n_44
*882 n_45
*883 n_46
*884 n_47
*885 n_48
*886 n_49
*887 n_50
*888 n_51
*889 n_52
*890 n_53
*891 n_54
*892 n_55
*893 n_56
*894 n_57
*895 n_58
*896 n_59
*897 n_60
*898 n_61
*899 n_62
*900 n_63
*901 n_64
*902 n_65
*903 n_66
*904 n_67
*905 n_68
*906 n_69
*907 n_70
*908 n_71
*909 n_72
*910 n_73
*911 n_74
*912 n_75
*913 n_76
*914 n_77
*915 n_78
*916 n_79
*917 n_80
*918 n_81
*919 n_82
*920 n_83
*921 n_84
*922 n_85
*923 n_86
*924 n_87
*925 n_88
*926 n_89
*927 n_90
*928 n_91
*929 n_92
*930 n_93
*931 n_94
*932 n_95
*933 n_96
*934 n_97
*935 n_98
*936 n_101
*937 n_102
*938 n_103
*939 sram_cen
*940 sram_wen
*941 FE_PDC3_n_32
*942 FE_PDC692_n_77
*943 FE_PDC691_bus_wbuf_2
*944 FE_PDC690_n_34
*945 FE_PDC2_n_29
*946 FE_PHC689_bus_din_4
*947 FE_PHC688_n_6
*948 FE_PHC687_bus_din_4
*949 FE_PHC686_n_6
*950 FE_PHC685_bus_din_4
*951 FE_PHC684_bus_din_4
*952 FE_PHC683_bus_din_4
*953 FE_PHC682_bus_din_4
*954 FE_PHC681_n_6
*955 FE_PHC680_bus_din_3
*956 FE_PHC679_bus_din_4
*957 FE_PHC678_bus_din_4
*958 FE_PHC677_n_6
*959 FE_PHC676_bus_din_3
*960 FE_PHC675_bus_din_4
*961 FE_PHC674_n_6
*962 FE_PHC673_bus_din_4
*963 FE_PHC672_bus_din_3
*964 FE_PHC671_n_6
*965 FE_PHC670_bus_din_4
*966 FE_PHC669_bus_din_3
*967 FE_PHC668_n_6
*968 FE_PHC667_bus_din_4
*969 FE_PHC666_bus_din_3
*970 FE_PHC665_bus_din_4
*971 FE_PHC664_bus_din_3
*972 FE_PHC663_n_6
*973 FE_PHC662_bus_din_3
*974 FE_PHC661_bus_din_4
*975 FE_PHC660_bus_din_3
*976 FE_PHC659_n_6
*977 FE_PHC658_bus_din_3
*978 FE_PHC657_bus_din_3
*979 FE_PHC656_n_6
*980 FE_PHC655_bus_din_4
*981 FE_PHC654_n_6
*982 FE_PHC653_bus_din_3
*983 FE_PHC652_bus_din_4
*984 FE_PHC651_n_4
*985 FE_PHC650_n_4
*986 FE_PHC649_bus_din_6
*987 FE_PHC648_bus_din_3
*988 FE_PHC647_bus_din_4
*989 FE_PHC646_bus_we
*990 FE_PHC645_n_3
*991 FE_PHC644_bus_din_4
*992 FE_PHC643_bus_din_3
*993 FE_PHC642_n_3
*994 FE_PHC641_bus_din_6
*995 FE_PHC640_bus_we
*996 FE_PHC639_bus_din_2
*997 FE_PHC638_n_3
*998 FE_PHC637_bus_din_4
*999 FE_PHC636_bus_we
*1000 FE_PHC635_bus_din_3
*1001 FE_PHC634_bus_din_6
*1002 FE_PHC633_bus_din_2
*1003 FE_PHC632_bus_din_3
*1004 FE_PHC631_bus_din_6
*1005 FE_PHC630_bus_we
*1006 FE_PHC629_bus_din_4
*1007 FE_PHC628_bus_din_2
*1008 FE_PHC627_n_4
*1009 FE_PHC626_bus_din_4
*1010 FE_PHC625_bus_din_6
*1011 FE_PHC624_bus_we
*1012 FE_PHC623_bus_din_2
*1013 FE_PHC622_bus_din_0
*1014 FE_PHC621_n_90
*1015 FE_PHC620_bus_we
*1016 FE_PHC619_bus_din_4
*1017 FE_PHC618_bus_din_6
*1018 FE_PHC617_bus_din_0
*1019 FE_PHC616_bus_din_1
*1020 FE_PHC615_bus_addr_10
*1021 FE_PHC614_bus_addr_0
*1022 FE_PHC613_n_29
*1023 FE_PHC612_n_77
*1024 FE_PHC611_bus_we
*1025 FE_PHC610_rstn
*1026 FE_PHC609_bus_addr_9
*1027 FE_PHC608_sram_addr_1
*1028 FE_PHC607_sram_wen
*1029 FE_PHC606_bus_din_3
*1030 FE_PHC605_bus_din_2
*1031 FE_PHC604_bus_din_5
*1032 FE_PHC603_bus_we
*1033 FE_PHC602_bus_we
*1034 FE_PHC601_bus_we
*1035 FE_PHC600_bus_we
*1036 FE_PHC599_bus_we
*1037 FE_PHC598_bus_we
*1038 FE_PHC597_bus_we
*1039 FE_PHC596_bus_we
*1040 FE_PHC595_bus_we
*1041 FE_PHC594_bus_we
*1042 FE_PHC593_bus_we
*1043 FE_PHC592_bus_addr_0
*1044 FE_PHC591_sram_addr_0
*1045 FE_PHC590_n_76
*1046 FE_PHC589_bus_we
*1047 FE_PHC588_bus_wbuf_15
*1048 FE_PHC587_bus_addr_7
*1049 FE_PHC586_bus_addr_0
*1050 FE_PHC585_bus_addr_4
*1051 FE_PHC584_bus_addr_3
*1052 FE_PHC583_bus_addr_5
*1053 FE_PHC582_bus_addr_9
*1054 FE_PHC581_bus_addr_6
*1055 FE_PHC580_bus_wbuf_8
*1056 FE_PHC579_bus_addr_11
*1057 FE_PHC578_bus_wbuf_9
*1058 FE_PHC577_bus_wbuf_51
*1059 FE_PHC576_bus_we
*1060 FE_PHC575_bus_wbuf_16
*1061 FE_PHC574_n_1
*1062 FE_PHC573_bus_addr_0
*1063 FE_PHC572_bus_wbuf_15
*1064 FE_PHC571_bus_wbuf_9
*1065 FE_PHC570_bus_addr_8
*1066 FE_PHC569_bus_addr_3
*1067 FE_PHC568_bus_addr_11
*1068 FE_PHC567_bus_addr_6
*1069 FE_PHC566_bus_addr_9
*1070 FE_PHC565_bus_addr_5
*1071 FE_PHC564_bus_wbuf_8
*1072 FE_PHC563_bus_wbuf_10
*1073 FE_PHC562_bus_addr_4
*1074 FE_PHC561_bus_addr_7
*1075 FE_PHC560_bus_wbuf_1
*1076 FE_PHC559_bus_din_4
*1077 FE_PHC558_bus_addr_1
*1078 FE_PHC557_bus_din_3
*1079 FE_PHC556_bus_din_1
*1080 FE_PHC555_sram_addr_0
*1081 FE_PHC554_bus_wbuf_60
*1082 FE_PHC553_bus_wbuf_63
*1083 FE_PHC552_bus_wbuf_59
*1084 FE_PHC551_bus_wbuf_58
*1085 FE_PHC550_sram_addr_3
*1086 FE_PHC549_bus_wbuf_61
*1087 FE_PHC548_bus_wbuf_1
*1088 FE_PHC547_sram_addr_2
*1089 FE_PHC546_sram_addr_4
*1090 FE_PHC545_sram_addr_1
*1091 FE_PHC544_bus_wbuf_62
*1092 FE_PHC543_n_89
*1093 FE_PHC542_n_73
*1094 FE_PHC541_n_72
*1095 FE_PHC540_n_71
*1096 FE_PHC539_n_87
*1097 FE_PHC538_n_90
*1098 FE_PHC537_n_93
*1099 FE_PHC536_n_88
*1100 FE_PHC535_n_92
*1101 FE_PHC534_n_91
*1102 FE_PHC533_n_81
*1103 FE_PHC532_n_82
*1104 FE_PHC531_n_80
*1105 FE_PHC530_sram_addr_6
*1106 FE_PHC529_n_28
*1107 FE_PHC528_n_32
*1108 FE_PHC527_n_30
*1109 FE_PHC526_n_34
*1110 FE_PHC525_n_31
*1111 FE_PHC524_n_54
*1112 FE_PHC523_n_61
*1113 FE_PHC522_n_57
*1114 FE_PHC521_n_62
*1115 FE_PHC520_n_56
*1116 FE_PHC519_n_60
*1117 FE_PHC518_n_53
*1118 FE_PHC517_n_96
*1119 FE_PHC516_n_18
*1120 FE_PHC515_n_17
*1121 FE_PHC514_n_45
*1122 FE_PHC513_n_46
*1123 FE_PHC512_bus_addr_8
*1124 FE_PHC511_n_97
*1125 FE_PHC510_rstn
*1126 FE_PHC509_bus_addr_2
*1127 FE_PHC508_sram_addr_5
*1128 FE_PHC507_n_12
*1129 FE_PHC506_tpu_dout_44
*1130 FE_PHC505_tpu_dout_43
*1131 FE_PHC504_tpu_dout_15
*1132 FE_PHC503_tpu_dout_42
*1133 FE_PHC502_tpu_dout_53
*1134 FE_PHC501_tpu_dout_45
*1135 FE_PHC500_tpu_dout_19
*1136 FE_PHC499_tpu_dout_3
*1137 FE_PHC498_tpu_dout_18
*1138 FE_PHC497_bus_wbuf_16
*1139 FE_PHC496_tpu_dout_27
*1140 FE_PHC495_tpu_dout_16
*1141 FE_PHC494_tpu_dout_41
*1142 FE_PHC493_tpu_dout_25
*1143 FE_PHC492_tpu_dout_33
*1144 FE_PHC491_tpu_dout_49
*1145 FE_PHC490_tpu_dout_6
*1146 FE_PHC489_tpu_dout_17
*1147 FE_PHC488_tpu_dout_0
*1148 FE_PHC487_tpu_dout_46
*1149 FE_PHC486_tpu_dout_28
*1150 FE_PHC485_tpu_dout_24
*1151 FE_PHC484_tpu_dout_23
*1152 FE_PHC483_tpu_dout_2
*1153 FE_PHC482_tpu_dout_1
*1154 FE_PHC481_tpu_dout_35
*1155 FE_PHC480_tpu_dout_32
*1156 FE_PHC479_bus_wbuf_14
*1157 FE_PHC478_tpu_dout_34
*1158 FE_PHC477_tpu_dout_30
*1159 FE_PHC476_tpu_dout_8
*1160 FE_PHC475_tpu_dout_10
*1161 FE_PHC474_tpu_dout_7
*1162 FE_PHC473_tpu_dout_9
*1163 FE_PHC472_tpu_dout_20
*1164 FE_PHC471_tpu_dout_29
*1165 FE_PHC470_bus_wbuf_10
*1166 FE_PHC469_tpu_dout_5
*1167 FE_PHC468_tpu_dout_26
*1168 FE_PHC467_bus_wbuf_6
*1169 FE_PHC466_tpu_dout_52
*1170 FE_PHC465_bus_wbuf_2
*1171 FE_PHC464_tpu_dout_48
*1172 FE_PHC463_bus_wbuf_26
*1173 FE_PHC462_bus_wbuf_4
*1174 FE_PHC461_tpu_dout_4
*1175 FE_PHC460_bus_wbuf_0
*1176 FE_PHC459_bus_wbuf_50
*1177 FE_PHC458_tpu_dout_54
*1178 FE_PHC457_tpu_dout_57
*1179 FE_PHC456_tpu_dout_55
*1180 FE_PHC455_bus_wbuf_44
*1181 FE_PHC454_bus_wbuf_52
*1182 FE_PHC453_bus_wbuf_40
*1183 FE_PHC452_tpu_dout_51
*1184 FE_PHC451_tpu_dout_58
*1185 FE_PHC450_tpu_dout_62
*1186 FE_PHC449_bus_wbuf_46
*1187 FE_PHC448_bus_wbuf_24
*1188 FE_PHC447_sram_addr_8
*1189 FE_PHC446_bus_wbuf_21
*1190 FE_PHC445_bus_wbuf_22
*1191 FE_PHC444_bus_wbuf_12
*1192 FE_PHC443_tpu_dout_61
*1193 FE_PHC442_bus_wbuf_53
*1194 FE_PHC441_bus_wbuf_49
*1195 FE_PHC440_tpu_dout_63
*1196 FE_PHC439_bus_wbuf_13
*1197 FE_PHC438_bus_wbuf_11
*1198 FE_PHC437_tpu_dout_59
*1199 FE_PHC436_tpu_dout_50
*1200 FE_PHC435_tpu_dout_60
*1201 FE_PHC434_bus_wbuf_54
*1202 FE_PHC433_tpu_dout_47
*1203 FE_PHC432_bus_wbuf_20
*1204 FE_PHC431_bus_wbuf_23
*1205 FE_PHC430_bus_wbuf_55
*1206 FE_PHC429_bus_wbuf_27
*1207 FE_PHC428_bus_wbuf_43
*1208 FE_PHC427_bus_wbuf_42
*1209 FE_PHC426_bus_wbuf_41
*1210 FE_PHC425_bus_wbuf_45
*1211 FE_PHC424_bus_wbuf_31
*1212 FE_PHC423_bus_wbuf_38
*1213 FE_PHC422_bus_wbuf_28
*1214 FE_PHC421_bus_wbuf_39
*1215 FE_PHC420_bus_wbuf_33
*1216 FE_PHC419_bus_wbuf_37
*1217 FE_PHC418_bus_wbuf_47
*1218 FE_PHC417_bus_wbuf_29
*1219 FE_PHC416_bus_wbuf_19
*1220 FE_PHC415_bus_wbuf_30
*1221 FE_PHC414_bus_wbuf_32
*1222 FE_PHC413_bus_wbuf_17
*1223 FE_PHC412_bus_wbuf_18
*1224 FE_PHC411_bus_wbuf_34
*1225 FE_PHC410_bus_wbuf_36
*1226 FE_PHC409_bus_wbuf_35
*1227 FE_PHC408_bus_wbuf_25
*1228 FE_PHC407_sram_addr_7
*1229 FE_PHC406_bus_wbuf_48
*1230 FE_PHC405_bus_din_0
*1231 FE_PHC404_bus_wbuf_7
*1232 FE_PHC403_bus_we
*1233 FE_PHC402_bus_wbuf_5
*1234 FE_PHC401_bus_wbuf_3
*1235 FE_PHC400_bus_wbuf_57
*1236 FE_PHC399_bus_wbuf_56
*1237 FE_PHC398_sram_wen
*1238 FE_PDC397_tpu_dout_56
*1239 FE_PHC395_bus_addr_10
*1240 FE_PHC394_tpu_dout_31
*1241 FE_PHC393_tpu_dout_11
*1242 FE_PHC392_tpu_dout_12
*1243 FE_PHC391_tpu_dout_13
*1244 FE_PHC390_tpu_dout_14
*1245 FE_PHC389_bus_wbuf_8
*1246 FE_PHC388_bus_wbuf_19
*1247 FE_PHC387_bus_wbuf_9
*1248 FE_PHC386_tpu_dout_14
*1249 FE_PHC384_tpu_dout_13
*1250 FE_PHC382_tpu_dout_12
*1251 FE_PHC380_tpu_dout_11
*1252 FE_PHC378_tpu_dout_31
*1253 FE_PHC376_sram_addr_8
*1254 FE_PHC375_bus_wbuf_15
*1255 FE_PHC374_bus_wbuf_48
*1256 FE_PHC373_bus_addr_10
*1257 FE_PHC372_rstn
*1258 FE_PHC371_bus_wbuf_62
*1259 FE_PHC370_bus_wbuf_61
*1260 FE_PHC369_bus_wbuf_60
*1261 FE_PHC368_sram_addr_5
*1262 FE_PHC367_bus_wbuf_1
*1263 FE_PHC366_bus_wbuf_48
*1264 FE_PHC365_bus_wbuf_8
*1265 FE_PHC364_bus_wbuf_9
*1266 FE_PHC363_bus_wbuf_11
*1267 FE_PHC362_bus_wbuf_19
*1268 FE_PHC361_bus_wbuf_13
*1269 FE_PHC360_bus_wbuf_54
*1270 FE_PHC359_bus_wbuf_12
*1271 FE_PHC358_bus_wbuf_18
*1272 FE_PHC357_sram_addr_6
*1273 FE_PHC356_bus_wbuf_10
*1274 FE_PHC355_bus_wbuf_17
*1275 FE_PHC354_sram_addr_0
*1276 FE_PHC353_bus_wbuf_25
*1277 FE_PHC352_sram_addr_1
*1278 FE_PHC351_sram_addr_2
*1279 FE_PHC350_bus_wbuf_24
*1280 FE_PHC349_bus_wbuf_50
*1281 FE_PHC348_bus_wbuf_55
*1282 FE_PHC347_bus_wbuf_49
*1283 FE_PHC346_bus_wbuf_26
*1284 FE_PHC345_sram_addr_3
*1285 FE_PHC344_bus_wbuf_32
*1286 FE_PHC343_bus_wbuf_20
*1287 FE_PHC342_bus_wbuf_38
*1288 FE_PHC341_bus_wbuf_51
*1289 FE_PHC340_bus_wbuf_33
*1290 FE_PHC339_bus_wbuf_37
*1291 FE_PHC338_bus_wbuf_53
*1292 FE_PHC337_bus_wbuf_23
*1293 FE_PHC336_bus_wbuf_21
*1294 FE_PHC335_bus_wbuf_52
*1295 FE_PHC334_bus_wbuf_46
*1296 FE_PHC333_bus_wbuf_22
*1297 FE_PHC332_bus_wbuf_41
*1298 FE_PHC331_bus_wbuf_40
*1299 FE_PHC330_bus_wbuf_39
*1300 FE_PHC329_bus_wbuf_29
*1301 FE_PHC328_bus_wbuf_28
*1302 FE_PHC327_bus_wbuf_45
*1303 FE_PHC326_bus_wbuf_42
*1304 FE_PHC325_bus_wbuf_44
*1305 FE_PHC324_bus_wbuf_47
*1306 FE_PHC323_bus_wbuf_43
*1307 FE_PHC322_bus_wbuf_30
*1308 FE_PHC321_bus_wbuf_31
*1309 FE_PHC320_sram_addr_4
*1310 FE_PHC319_bus_wbuf_35
*1311 FE_PHC318_bus_wbuf_34
*1312 FE_PHC317_bus_wbuf_27
*1313 FE_PHC316_bus_wbuf_36
*1314 FE_PHC315_sram_addr_8
*1315 FE_PHC314_sram_addr_7
*1316 FE_PHC313_tpu_dout_31
*1317 FE_PHC311_rstn
*1318 FE_PHC310_sram_wen
*1319 FE_PHC309_bus_wbuf_15
*1320 FE_PHC308_bus_wbuf_14
*1321 FE_PHC307_bus_wbuf_16
*1322 FE_PHC306_bus_addr_7
*1323 FE_PHC305_bus_addr_8
*1324 FE_PHC304_bus_addr_4
*1325 FE_PHC303_bus_addr_3
*1326 FE_PHC302_bus_addr_5
*1327 FE_PHC301_bus_addr_6
*1328 FE_PHC300_bus_addr_9
*1329 FE_PHC299_bus_addr_11
*1330 FE_PHC298_tpu_re
*1331 FE_PHC297_tpu_dout_56
*1332 FE_PHC296_tpu_dout_54
*1333 FE_PHC295_tpu_dout_58
*1334 FE_PHC294_tpu_dout_57
*1335 FE_PHC293_tpu_dout_60
*1336 FE_PHC292_tpu_dout_61
*1337 FE_PHC291_tpu_dout_62
*1338 FE_PHC290_tpu_dout_63
*1339 FE_PHC289_tpu_dout_50
*1340 FE_PHC288_tpu_dout_55
*1341 FE_PHC287_tpu_dout_59
*1342 FE_PHC286_tpu_dout_5
*1343 FE_PHC285_tpu_dout_4
*1344 FE_PHC284_tpu_dout_52
*1345 FE_PHC283_tpu_dout_48
*1346 FE_PHC282_tpu_dout_51
*1347 FE_PHC281_tpu_dout_49
*1348 FE_PHC280_tpu_dout_7
*1349 FE_PHC279_tpu_dout_47
*1350 FE_PHC278_tpu_dout_53
*1351 FE_PHC277_tpu_dout_45
*1352 FE_PHC276_tpu_dout_39
*1353 FE_PHC275_tpu_dout_44
*1354 FE_PHC274_tpu_dout_46
*1355 FE_PHC273_tpu_dout_6
*1356 FE_PHC272_tpu_dout_2
*1357 FE_PHC271_tpu_dout_38
*1358 FE_PHC270_tpu_dout_40
*1359 FE_PHC269_tpu_dout_41
*1360 FE_PHC268_tpu_dout_42
*1361 FE_PHC267_tpu_dout_43
*1362 FE_PHC266_tpu_dout_1
*1363 FE_PHC265_tpu_dout_36
*1364 FE_PHC264_tpu_dout_37
*1365 FE_PHC263_tpu_dout_0
*1366 FE_PHC262_tpu_dout_19
*1367 FE_PHC261_tpu_dout_32
*1368 FE_PHC260_tpu_dout_34
*1369 FE_PHC259_tpu_dout_35
*1370 FE_PHC258_tpu_dout_3
*1371 FE_PHC257_tpu_dout_9
*1372 FE_PHC256_tpu_dout_10
*1373 FE_PHC255_tpu_dout_8
*1374 FE_PHC254_tpu_dout_15
*1375 FE_PHC253_tpu_dout_16
*1376 FE_PHC252_tpu_dout_33
*1377 FE_PHC251_tpu_dout_21
*1378 FE_PHC250_tpu_dout_18
*1379 FE_PHC249_tpu_dout_17
*1380 FE_PHC248_tpu_dout_22
*1381 FE_PHC247_tpu_dout_25
*1382 FE_PHC246_tpu_dout_28
*1383 FE_PHC245_tpu_dout_20
*1384 FE_PHC244_tpu_dout_27
*1385 FE_PHC243_tpu_dout_26
*1386 FE_PHC242_tpu_dout_23
*1387 FE_PHC241_tpu_dout_24
*1388 FE_PHC240_tpu_dout_29
*1389 FE_PHC239_tpu_dout_30
*1390 FE_PHC238_bus_addr_10
*1391 FE_PHC237_sram_addr_5
*1392 FE_PHC236_sram_addr_6
*1393 FE_PHC235_sram_addr_8
*1394 FE_PHC234_sram_addr_7
*1395 FE_PHC233_sram_addr_0
*1396 FE_PHC232_sram_addr_2
*1397 FE_PHC231_sram_addr_3
*1398 FE_PHC230_sram_addr_1
*1399 FE_PHC229_sram_addr_4
*1400 FE_PHC228_bus_wbuf_56
*1401 FE_PHC227_bus_wbuf_57
*1402 FE_PHC226_bus_wbuf_58
*1403 FE_PHC225_bus_wbuf_63
*1404 FE_PHC224_bus_wbuf_59
*1405 FE_PHC223_bus_wbuf_61
*1406 FE_PHC222_bus_wbuf_62
*1407 FE_PHC221_bus_wbuf_60
*1408 FE_PHC220_bus_wbuf_7
*1409 FE_PHC219_bus_wbuf_6
*1410 FE_PHC218_rstn
*1411 FE_PHC217_sram_cen
*1412 FE_PHC216_bus_wbuf_4
*1413 FE_PHC215_bus_wbuf_3
*1414 FE_PHC214_bus_wbuf_5
*1415 FE_PHC213_bus_wbuf_2
*1416 FE_PHC212_bus_wbuf_0
*1417 FE_PHC211_bus_wbuf_1
*1418 FE_PHC210_bus_wbuf_48
*1419 FE_PHC209_bus_wbuf_8
*1420 FE_PHC208_bus_wbuf_15
*1421 FE_PHC207_bus_wbuf_19
*1422 FE_PHC206_bus_wbuf_11
*1423 FE_PHC205_bus_wbuf_9
*1424 FE_PHC204_bus_wbuf_12
*1425 FE_PHC203_bus_wbuf_13
*1426 FE_PHC202_bus_wbuf_14
*1427 FE_PHC201_bus_wbuf_18
*1428 FE_PHC200_bus_wbuf_54
*1429 FE_PHC199_bus_wbuf_10
*1430 FE_PHC198_bus_wbuf_17
*1431 FE_PHC197_bus_wbuf_16
*1432 FE_PHC196_bus_wbuf_55
*1433 FE_PHC195_bus_wbuf_32
*1434 FE_PHC194_bus_wbuf_50
*1435 FE_PHC193_bus_wbuf_49
*1436 FE_PHC192_bus_wbuf_20
*1437 FE_PHC191_bus_wbuf_37
*1438 FE_PHC190_bus_wbuf_51
*1439 FE_PHC189_bus_wbuf_38
*1440 FE_PHC188_bus_wbuf_33
*1441 FE_PHC187_bus_wbuf_21
*1442 FE_PHC186_bus_wbuf_24
*1443 FE_PHC185_bus_wbuf_23
*1444 FE_PHC184_bus_wbuf_22
*1445 FE_PHC183_bus_wbuf_53
*1446 FE_PHC182_bus_wbuf_26
*1447 FE_PHC181_bus_wbuf_39
*1448 FE_PHC180_bus_wbuf_52
*1449 FE_PHC179_bus_wbuf_25
*1450 FE_PHC178_bus_wbuf_46
*1451 FE_PHC177_bus_wbuf_40
*1452 FE_PHC176_bus_wbuf_41
*1453 FE_PHC175_bus_wbuf_29
*1454 FE_PHC174_bus_wbuf_42
*1455 FE_PHC173_bus_wbuf_34
*1456 FE_PHC172_bus_wbuf_30
*1457 FE_PHC171_bus_wbuf_45
*1458 FE_PHC170_bus_wbuf_31
*1459 FE_PHC169_bus_wbuf_47
*1460 FE_PHC168_bus_wbuf_35
*1461 FE_PHC167_bus_wbuf_44
*1462 FE_PHC166_bus_wbuf_43
*1463 FE_PHC165_bus_wbuf_28
*1464 FE_PHC164_bus_wbuf_27
*1465 FE_PHC163_bus_addr_10
*1466 FE_PHC162_n_97
*1467 FE_PHC161_bus_wbuf_36
*1468 FE_PHC160_bus_addr_8
*1469 FE_PHC159_bus_addr_7
*1470 FE_PHC158_bus_addr_4
*1471 FE_PHC157_bus_addr_5
*1472 FE_PHC156_bus_addr_3
*1473 FE_PHC155_bus_addr_6
*1474 FE_PHC154_bus_addr_9
*1475 FE_PHC153_bus_addr_11
*1476 FE_PHC152_bus_addr_1
*1477 FE_PHC151_bus_addr_2
*1478 FE_PHC150_bus_addr_0
*1479 FE_PHC149_tpu_dout_29
*1480 FE_PHC147_tpu_dout_20
*1481 FE_PHC145_tpu_dout_30
*1482 FE_PHC143_tpu_dout_26
*1483 FE_PHC141_tpu_dout_24
*1484 FE_PHC139_tpu_dout_5
*1485 FE_PHC137_tpu_dout_28
*1486 FE_PHC135_tpu_dout_21
*1487 FE_PHC133_tpu_dout_25
*1488 FE_PHC131_tpu_dout_27
*1489 FE_PHC129_tpu_dout_13
*1490 FE_PHC127_tpu_dout_15
*1491 FE_PHC125_tpu_dout_33
*1492 FE_PHC123_tpu_dout_3
*1493 FE_PHC121_tpu_dout_6
*1494 FE_PHC119_tpu_dout_17
*1495 FE_PHC117_tpu_dout_18
*1496 FE_PHC115_tpu_dout_23
*1497 FE_PHC113_tpu_dout_31
*1498 FE_PHC111_tpu_dout_46
*1499 FE_PHC109_tpu_dout_44
*1500 FE_PHC107_tpu_dout_42
*1501 FE_PHC105_tpu_dout_4
*1502 FE_PHC103_tpu_dout_0
*1503 FE_PHC101_tpu_dout_9
*1504 FE_PHC99_tpu_dout_11
*1505 FE_PHC97_tpu_dout_12
*1506 FE_PHC95_tpu_dout_19
*1507 FE_PHC93_tpu_dout_40
*1508 FE_PHC91_tpu_dout_34
*1509 FE_PHC89_tpu_dout_1
*1510 FE_PHC87_tpu_dout_8
*1511 FE_PHC85_tpu_dout_10
*1512 FE_PHC83_tpu_dout_22
*1513 FE_PHC81_tpu_dout_41
*1514 FE_PHC79_tpu_dout_38
*1515 FE_PHC77_tpu_dout_36
*1516 FE_PHC75_tpu_dout_37
*1517 FE_PHC73_tpu_dout_32
*1518 FE_PHC71_tpu_dout_35
*1519 FE_PHC69_tpu_dout_58
*1520 FE_PHC67_tpu_dout_55
*1521 FE_PHC65_tpu_dout_51
*1522 FE_PHC63_tpu_dout_45
*1523 FE_PHC61_tpu_dout_43
*1524 FE_PHC59_tpu_dout_7
*1525 FE_PHC57_tpu_dout_2
*1526 FE_PHC55_tpu_dout_14
*1527 FE_PHC53_tpu_dout_16
*1528 FE_PHC51_tpu_dout_60
*1529 FE_PHC49_tpu_dout_61
*1530 FE_PHC47_tpu_dout_54
*1531 FE_PHC45_tpu_dout_50
*1532 FE_PHC43_tpu_dout_48
*1533 FE_PHC41_tpu_dout_49
*1534 FE_PHC39_tpu_dout_52
*1535 FE_PHC37_tpu_dout_47
*1536 FE_PHC35_tpu_dout_53
*1537 FE_PHC33_tpu_dout_39
*1538 FE_PHC31_tpu_dout_57
*1539 FE_PHC29_tpu_dout_62
*1540 FE_PHC27_tpu_dout_63
*1541 FE_PHC25_tpu_dout_59
*1542 FE_PHC23_tpu_dout_56
*1543 FE_PHC21_last_word_addr_3
*1544 FE_PHC20_last_word_addr_6
*1545 FE_PHC19_last_word_addr_4
*1546 FE_PHC18_last_word_addr_2
*1547 FE_PHC17_last_word_addr_7
*1548 FE_PHC16_last_word_addr_8
*1549 FE_PHC15_last_word_addr_5
*1550 FE_PHC14_last_word_addr_1
*1551 FE_PHC13_last_word_addr_0
*1552 FE_PHC12_bus_din_0
*1553 FE_PHC11_bus_we_d1
*1554 FE_PHC10_bus_din_6
*1555 FE_PHC9_bus_din_3
*1556 FE_PHC8_bus_din_5
*1557 FE_PHC7_bus_din_4
*1558 FE_PHC6_bus_din_7
*1559 FE_PHC5_bus_din_1
*1560 FE_PHC4_bus_din_2
*1561 FE_PHC3_bus_we
*1562 FE_PHC2_flush_d1
*1563 CTS_ccl_a_inv_00005
*1564 CTS_ccl_a_inv_00004
*1565 CTS_ccl_a_inv_00003
*1566 CTS_ccl_a_inv_00002
*1567 CTS_ccl_a_inv_00001
*1568 CTS_ccl_a_inv_00006
*1569 CTS_ccl_a_inv_00007
*1570 CTS_cmf_inv_00053
*1571 LTIELO
*1572 LTIEHI
*1573 FE_OFC0_rstn
*1574 u_sram
*1575 p96110A__2398
*1576 p96116A__5107
*1577 p96116A2176__6260
*1578 p96116A2177__4319
*1579 p96116A2178__8428
*1580 p96116A2179__5526
*1581 p96116A2180__6783
*1582 p96116A2181__3680
*1583 p96110A2182__1617
*1584 p96014A__2802
*1585 p96110A2183__1705
*1586 flush_d1_reg
*1587 p96217A__5122
*1588 bus_we_d1_reg
*1589 Fp96510A
*1590 p96479A__8246
*1591 p96214A__7098
*1592 bus_waddr_d1_reg\[1\]
*1593 bus_waddr_d1_reg\[7\]
*1594 bus_waddr_d1_reg\[5\]
*1595 flush_addr_reg\[5\]
*1596 bus_we_prev_reg
*1597 bus_waddr_d1_reg\[0\]
*1598 flush_addr_reg\[0\]
*1599 bus_waddr_d1_reg\[8\]
*1600 flush_addr_reg\[4\]
*1601 flush_addr_reg\[7\]
*1602 bus_waddr_d1_reg\[6\]
*1603 bus_waddr_d1_reg\[4\]
*1604 flush_addr_reg\[8\]
*1605 bus_waddr_d1_reg\[3\]
*1606 flush_addr_reg\[3\]
*1607 flush_addr_reg\[6\]
*1608 bus_waddr_d1_reg\[2\]
*1609 flush_addr_reg\[2\]
*1610 flush_addr_reg\[1\]
*1611 p96361A__6131
*1612 p96404A__1881
*1613 g2__5115
*1614 bus_wbuf_reg\[0\]
*1615 bus_wbuf_reg\[1\]
*1616 bus_wbuf_reg\[2\]
*1617 bus_wbuf_reg\[3\]
*1618 bus_wbuf_reg\[4\]
*1619 bus_wbuf_reg\[5\]
*1620 bus_wbuf_reg\[6\]
*1621 bus_wbuf_reg\[7\]
*1622 bus_wbuf_reg\[8\]
*1623 bus_wbuf_reg\[9\]
*1624 bus_wbuf_reg\[10\]
*1625 bus_wbuf_reg\[11\]
*1626 bus_wbuf_reg\[12\]
*1627 bus_wbuf_reg\[13\]
*1628 bus_wbuf_reg\[14\]
*1629 bus_wbuf_reg\[15\]
*1630 bus_wbuf_reg\[16\]
*1631 bus_wbuf_reg\[17\]
*1632 bus_wbuf_reg\[18\]
*1633 bus_wbuf_reg\[19\]
*1634 bus_wbuf_reg\[20\]
*1635 bus_wbuf_reg\[21\]
*1636 bus_wbuf_reg\[22\]
*1637 bus_wbuf_reg\[23\]
*1638 bus_wbuf_reg\[24\]
*1639 bus_wbuf_reg\[25\]
*1640 bus_wbuf_reg\[26\]
*1641 bus_wbuf_reg\[27\]
*1642 bus_wbuf_reg\[28\]
*1643 bus_wbuf_reg\[29\]
*1644 bus_wbuf_reg\[30\]
*1645 bus_wbuf_reg\[31\]
*1646 bus_wbuf_reg\[32\]
*1647 bus_wbuf_reg\[33\]
*1648 bus_wbuf_reg\[34\]
*1649 bus_wbuf_reg\[35\]
*1650 bus_wbuf_reg\[36\]
*1651 bus_wbuf_reg\[37\]
*1652 bus_wbuf_reg\[38\]
*1653 bus_wbuf_reg\[39\]
*1654 bus_wbuf_reg\[40\]
*1655 bus_wbuf_reg\[41\]
*1656 bus_wbuf_reg\[42\]
*1657 bus_wbuf_reg\[43\]
*1658 bus_wbuf_reg\[44\]
*1659 bus_wbuf_reg\[45\]
*1660 bus_wbuf_reg\[46\]
*1661 bus_wbuf_reg\[47\]
*1662 bus_wbuf_reg\[48\]
*1663 bus_wbuf_reg\[49\]
*1664 bus_wbuf_reg\[50\]
*1665 bus_wbuf_reg\[51\]
*1666 bus_wbuf_reg\[52\]
*1667 bus_wbuf_reg\[53\]
*1668 bus_wbuf_reg\[54\]
*1669 bus_wbuf_reg\[55\]
*1670 bus_wbuf_reg\[56\]
*1671 bus_wbuf_reg\[57\]
*1672 bus_wbuf_reg\[58\]
*1673 bus_wbuf_reg\[59\]
*1674 bus_wbuf_reg\[60\]
*1675 bus_wbuf_reg\[61\]
*1676 bus_wbuf_reg\[62\]
*1677 bus_wbuf_reg\[63\]
*1678 last_byte_sel_reg\[0\]
*1679 last_byte_sel_reg\[1\]
*1680 last_byte_sel_reg\[2\]
*1681 last_word_addr_reg\[0\]
*1682 last_word_addr_reg\[1\]
*1683 last_word_addr_reg\[2\]
*1684 last_word_addr_reg\[3\]
*1685 last_word_addr_reg\[4\]
*1686 last_word_addr_reg\[5\]
*1687 last_word_addr_reg\[6\]
*1688 last_word_addr_reg\[7\]
*1689 last_word_addr_reg\[8\]
*1690 p96178A__7482
*1691 p96178A3140__4733
*1692 p96178A3141__6161
*1693 p96178A3142__9315
*1694 p96178A3143__9945
*1695 p96178A3144__2883
*1696 p96178A3145__2346
*1697 p96178A3146__1666
*1698 p96186A__7410
*1699 p96186A3147__6417
*1700 p96186A3148__5477
*1701 p96186A3149__2398
*1702 p96186A3150__5107
*1703 p96186A3151__6260
*1704 p96186A3152__4319
*1705 p96186A3153__8428
*1706 p96178A3154__5526
*1707 p96178A3155__6783
*1708 p96178A3156__3680
*1709 p96178A3157__1617
*1710 p96178A3158__2802
*1711 p96178A3159__1705
*1712 p96178A3160__5122
*1713 p96178A3161__8246
*1714 p96186A3162__7098
*1715 p96186A3163__6131
*1716 p96186A3164__1881
*1717 p96186A3165__5115
*1718 p96186A3182__7482
*1719 p96186A3183__4733
*1720 p96186A3184__6161
*1721 p96178A3185__9315
*1722 p96178A3186__9945
*1723 p96178A3187__2883
*1724 p96178A3188__2346
*1725 p96186A3189__1666
*1726 p96186A3190__7410
*1727 p96178A3191__6417
*1728 p96178A3192__5477
*1729 p96186A3193__2398
*1730 p96178A3194__5107
*1731 p96178A3195__6260
*1732 p96186A3196__4319
*1733 p96186A3197__8428
*1734 p96186A3198__5526
*1735 p96186A3199__6783
*1736 p96186A3200__3680
*1737 p96186A3201__1617
*1738 p96184A__2802
*1739 p96184A3202__1705
*1740 p96184A3203__5122
*1741 p96184A3204__8246
*1742 p96184A3205__7098
*1743 p96184A3206__6131
*1744 p96414A__1881
*1745 p96435A__5115
*1746 p96414A3207__7482
*1747 p96184A3208__4733
*1748 p96184A3209__6161
*1749 p96186A3210__9315
*1750 p96186A3211__9945
*1751 p96186A3212__2883
*1752 p96186A3213__2346
*1753 p96186A3214__1666
*1754 p96186A3215__7410
*1755 p96186A3216__6417
*1756 p96186A3217__5477
*1757 p96329A__2398
*1758 p96435A3230__5107
*1759 p96449A__6260
*1760 p96397A__4319
*1761 p96454A__8428
*1762 p96416A__5526
*1763 p96480A__6783
*1764 p96407A__3680
*1765 Fp96438A
*1766 p96389A__1617
*1767 p96369A__2802
*1768 p96380A__1705
*1769 p96372A__5122
*1770 p96418A__8246
*1771 p96346A__7098
*1772 Fp96342A
*1773 p96329A3232__6131
*1774 Fp96541A
*1775 Fp96541A3233
*1776 Fp96333A
*1777 Fp96314A
*1778 Fp96541A3234
*1779 Fp96541A3235
*1780 Fp96541A3236
*1781 Fp96541A3237
*1782 Fp96541A3238
*1783 Fp96541A3239
*1784 g2205__1881


*PORTS

*634 I *C 10 324
*635 I *C 15 324
*636 I *C 0 5
*637 I *C 0 48.2
*638 I *C 0 44.6
*639 I *C 0 41
*640 I *C 0 37.4
*641 I *C 0 33.8
*642 I *C 0 30.2
*643 I *C 0 26.6
*644 I *C 0 23
*645 I *C 0 19.4
*646 I *C 0 15.8
*647 I *C 0 12.2
*648 I *C 0 8.6
*649 I *C 0 77
*650 I *C 0 73.4
*651 I *C 0 69.8
*652 I *C 0 66.2
*653 I *C 0 62.6
*654 I *C 0 59
*655 I *C 0 55.4
*656 I *C 0 51.8
*657 I *C 155 5
*658 I *C 155 37.4
*659 I *C 155 33.8
*660 I *C 155 30.2
*661 I *C 155 26.6
*662 I *C 155 23
*663 I *C 155 19.4
*664 I *C 155 15.8
*665 I *C 155 12.2
*666 I *C 155 8.6
*667 O *C 155 267.8
*668 O *C 155 264.2
*669 O *C 155 260.6
*670 O *C 155 257
*671 O *C 155 253.4
*672 O *C 155 249.8
*673 O *C 155 246.2
*674 O *C 155 242.6
*675 O *C 155 239
*676 O *C 155 235.4
*677 O *C 155 231.8
*678 O *C 155 228.2
*679 O *C 155 224.6
*680 O *C 155 221
*681 O *C 155 217.4
*682 O *C 155 213.8
*683 O *C 155 210.2
*684 O *C 155 206.6
*685 O *C 155 203
*686 O *C 155 199.4
*687 O *C 155 195.8
*688 O *C 155 192.2
*689 O *C 155 188.6
*690 O *C 155 185
*691 O *C 155 181.4
*692 O *C 155 177.8
*693 O *C 155 174.2
*694 O *C 155 170.6
*695 O *C 155 167
*696 O *C 155 163.4
*697 O *C 155 159.8
*698 O *C 155 156.2
*699 O *C 155 152.6
*700 O *C 155 149
*701 O *C 155 145.4
*702 O *C 155 141.8
*703 O *C 155 138.2
*704 O *C 155 134.6
*705 O *C 155 131
*706 O *C 155 127.4
*707 O *C 155 123.8
*708 O *C 155 120.2
*709 O *C 155 116.6
*710 O *C 155 113
*711 O *C 155 109.4
*712 O *C 155 105.8
*713 O *C 155 102.2
*714 O *C 155 98.6
*715 O *C 155 95
*716 O *C 155 91.4
*717 O *C 155 87.8
*718 O *C 155 84.2
*719 O *C 155 80.6
*720 O *C 155 77
*721 O *C 155 73.4
*722 O *C 155 69.8
*723 O *C 155 66.2
*724 O *C 155 62.6
*725 O *C 155 59
*726 O *C 155 55.4
*727 O *C 155 51.8
*728 O *C 155 48.2
*729 O *C 155 44.6
*730 O *C 155 41


*D_NET *1 0.00335581

*CONN
*I *1107:I I *C 147.7 164.8 *L 0.00105 *D DEL1
*I *941:Z O *C 145.7 152.8 *L 0 *D CKBD0

*CAP
1 *941:Z 3.22022e-05
2 *1107:I 9.81787e-05
3 *1:2 0.000957121
4 *1:3 9.81346e-06
5 *1:4 0.000962762031
6 *1:5 0.000613929
7 *1:6 0.0006818

*RES
1 *1:2 *1:3 0.199784
2 *941:Z *1:6 4.72196
3 *1:4 *1:6 1.59455
4 *1:3 *1:4 4.40521
5 *1:2 *1:5 5.93788004
6 *1107:I *1:5 3.79054
*END

*D_NET *2 0.00820156

*CONN
*I *942:Z O *C 138.1 132 *L 0 *D BUFFD1
*I *1023:I I *C 137.7 177.6 *L 0.00103 *D DEL2

*CAP
1 *1023:I 9.96928e-05
2 *942:Z 0.00024684
3 *2:2 0.00254911
4 *2:3 0.000133689
5 *2:3 *155:2 0.00238474984
6 *942:Z *783:3 0.000337226992
7 *2:2 *3:2 0.00146091
8 *2:2 *617:8 0.000989350938

*RES
1 *942:Z *2:2 3.36288
2 *1023:I *2:3 1.92268
3 *2:3 *2:2 47.6208992
*END

*D_NET *3 0.015488

*CONN
*I *943:Z O *C 138.1 92.4 *L 0 *D BUFFD1
*I *1170:I I *C 145.1 156 *L 0.00103 *D DEL015

*CAP
1 *943:Z 9.79564e-05
2 *3:2 0.0031254
3 *3:3 0.000469227
4 *3:4 0.00157059
5 *3:5 0.000208503
6 *3:6 0.000556739
7 *943:Z *614:3 0.00412287
8 *3:2 *617:4 0.00251077016
9 *3:2 *2:2 0.00146091
10 *943:Z *1634:Q 0.000727067969
11 *3:3 *867:2 0.000637895

*RES
1 *3:4 *3:6 7.44375
2 *3:3 *3:6 8.2081
3 *943:Z *3:5 3.5432
4 *3:2 *3:4 70.7518005
5 *1170:I *3:3 3.84873
6 *3:2 *3:5 0.750313
*END

*D_NET *4 0.0145192

*CONN
*I *944:Z O *C 151.3 106 *L 0 *D CKBD1
*I *1109:I I *C 141.7 163.2 *L 0.00105 *D DEL1

*CAP
1 *1109:I 0.000253947
2 *4:2 0.000989949
3 *4:3 0.00374661
4 *4:4 0.000119084
5 *4:5 0.000704901
6 *4:6 4.72221e-05
7 *4:2 *338:2 0.00191235
8 *4:2 *840:22 0.00094473
9 *4:3 *53:7 0.00265618
10 *4:3 *154:4 0.000230801992
11 *4:3 *264:3 0.000408593008
12 *4:3 *616:6 0.00231741
13 *4:3 *776:2 0.00018734

*RES
1 *4:5 *4:6 0.113459
2 *1109:I *4:2 6.60312
3 *4:6 *4:3 4.64204
4 *4:4 *4:5 7.4658
5 *4:2 *4:3 64.1004028
6 *944:Z *4:4 0.750198
*END

*D_NET *5 0.00371568

*CONN
*I *1022:I I *C 138.7 174 *L 0.00104 *D DEL0
*I *945:Z O *C 138.1 156.4 *L 0 *D CKBD0

*CAP
1 *945:Z 0.000419186
2 *1022:I 5.51917e-05
3 *5:2 9.30515e-05
4 *5:3 0.00153531
5 *5:4 1.79465e-06
6 *5:5 0.00161113

*RES
1 *5:2 *5:3 9.34799957
2 *1022:I *5:2 0.595804
3 *5:3 *5:4 0.199837
4 *945:Z *5:5 2.61101
5 *5:4 *5:5 7.92489
*END

*D_NET *6 0.00333613

*CONN
*I *946:Z O *C 142.7 160 *L 0 *D CKBD1
*I *950:I I *C 151.1 164.8 *L 0.000643 *D CKBD0

*CAP
1 *946:Z 0.000646598
2 *6:2 0.00028268
3 *6:3 0.00240684016

*RES
1 *6:2 *6:3 7.51154
2 *946:Z *6:3 11.8740997
3 *950:I *6:2 2.52861
*END

*D_NET *7 0.00179518

*CONN
*I *947:Z O *C 151.7 80.8 *L 0 *D BUFFD1
*I *1742:A2 I *C 141.7 80.4 *L 0.000697 *D MOAI22D0

*CAP
1 *1742:A2 0.000192324
2 *947:Z 0.000107234
3 *7:2 0.000254209
4 *7:3 0.0012414

*RES
1 *7:2 *7:3 8.71127033
2 *947:Z *7:2 0.905873
3 *1742:A2 *7:3 3.06056
*END

*D_NET *8 0.0056735

*CONN
*I *948:Z O *C 151.5 51.8 *L 0 *D DEL005
*I *1557:I I *C 137.5 66 *L 0.00103 *D BUFFD2

*CAP
1 *1557:I 5.61442e-05
2 *8:2 0.000171118
3 *8:3 4.47526e-07
4 *8:4 0.00266624
5 *1557:I *617:3 0.000319700977
6 *8:4 *71:2 0.000408715
7 *1557:I *484:3 0.000515200977
8 *8:3 *619:3 0.000702728984
9 *8:2 *726:3 0.000833225

*RES
1 *8:2 *8:4 15.9208002
2 *1557:I *8:3 1.91358
3 *8:3 *8:4 15.793
4 *948:Z *8:2 0.905894
*END

*D_NET *9 0.000743121

*CONN
*I *949:Z O *C 151.9 163.6 *L 0 *D CKBD0
*I *958:I I *C 151.3 159.6 *L 0.000643 *D CKBD0

*CAP
1 *958:I 0.000316171
2 *949:Z 8.00604e-05
3 *9:2 0.000346893008

*RES
1 *949:Z *9:2 2.83211
2 *958:I *9:2 4.0619998
*END

*D_NET *10 0.00457434

*CONN
*I *946:I I *C 142.1 159.6 *L 0.000968 *D CKBD1
*I *957:Z O *C 148.7 171.8 *L 0 *D DEL005

*CAP
1 *946:I 0.000743171
2 *10:2 0.000162306
3 *10:3 0.00250276
4 *10:4 0.00116612

*RES
1 *946:I *10:3 8.76964
2 *10:2 *10:4 6.61974
3 *957:Z *10:2 0.905681
4 *10:3 *10:4 13.0967999
*END

*D_NET *11 0.00572627

*CONN
*I *951:Z O *C 139.3 181.4 *L 0 *D DEL005
*I *956:I I *C 141.7 150.4 *L 0.000643 *D CKBD0

*CAP
1 *11:2 0.00126615
2 *11:4 0.000142349
3 *11:5 0.001694
4 *11:2 *83:3 0.00025937
5 *11:2 *909:3 0.000526224961
6 *11:2 *910:2 0.000999772031
7 *11:2 *838:9 0.000838392031

*RES
1 *11:3 *11:5 11.4933
2 *11:4 *11:2 3.20014
3 *11:2 *11:6 20.4370003
4 *956:I *11:4 1.49997
5 *951:Z *11:3 0.749985
6 *11:5 *11:6 0.749985
*END

*D_NET *12 0.0107124

*CONN
*I *951:I I *C 138.7 181.2 *L 0.00182 *D DEL005
*I *952:Z O *C 149.3 145.6 *L 0 *D CKBD0

*CAP
1 *952:Z 6.19672e-05
2 *12:2 0.000991538
3 *12:3 0.000768843
4 *12:4 0.000519288
5 *12:5 5.2264e-05
6 *12:6 0.000386337
7 *12:7 0.00136459
8 *12:8 3.53146e-05
9 *12:3 *16:2 0.000294391992
10 *12:2 *169:2 0.00154078
11 *12:2 *536:7 0.00113363
12 *12:2 *618:30 0.0018641
13 *12:3 *620:34 0.0016994

*RES
1 *12:2 *12:8 17.7356
2 *12:2 *12:7 4.60871
3 *12:5 *12:6 24.6762009
4 *12:3 *12:5 5.32035
5 *952:Z *12:4 3.61054
6 *12:4 *12:7 8.09161
7 *951:I *12:3 0.750046
8 *12:6 *12:8 0.750046
*END

*D_NET *13 0.00264106

*CONN
*I *950:Z O *C 151.7 164.4 *L 0 *D CKBD0
*I *953:I I *C 144.7 177.6 *L 0.000643 *D CKBD0

*CAP
1 *953:I 0.000676096
2 *13:2 5.4683e-05
3 *13:3 8.37525e-05
4 *13:4 0.00182653

*RES
1 *13:2 *13:4 10.8297997
2 *13:3 *13:4 3.46793
3 *950:Z *13:3 1.49997
4 *953:I *13:2 5.44217
*END

*D_NET *14 0.000575928

*CONN
*I *949:I I *C 151.3 163.2 *L 0.000643 *D CKBD0
*I *954:Z O *C 151.9 160.8 *L 0 *D CKBD0

*CAP
1 *949:I 0.000119536
2 *954:Z 2.4034e-05
3 *14:2 0.000432353984

*RES
1 *954:Z *14:2 0.576942
2 *949:I *14:2 5.06163979
*END

*D_NET *15 0.00314343

*CONN
*I *955:I I *C 142.5 96.4 *L 0.00072 *D BUFFD1
*I *966:Z O *C 139.1 105.8 *L 0 *D DEL005

*CAP
1 *955:I 6.72456e-05
2 *15:2 0.00097962
3 *15:4 0.00131629
4 *15:5 0.000780274

*RES
1 *15:2 *15:3 5.08499
2 *955:I *15:2 0.950652
3 *15:3 *15:4 1.8994
4 *966:Z *15:5 5.04053
5 *15:4 *15:5 5.42558002
*END

*D_NET *16 0.00594167

*CONN
*I *956:Z O *C 142.3 150 *L 0 *D CKBD0
*I *1009:I I *C 145.9 184.8 *L 0.00103 *D DEL015

*CAP
1 *956:Z 2.62282e-06
2 *16:2 0.000735785
3 *16:3 0.000425262
4 *16:4 0.000192966
5 *16:5 0.000381052
6 *16:6 0.000603835
7 *16:7 4.006e-06
8 *16:8 3.90291e-05
9 *16:9 0.000855156016
10 *16:9 *82:4 0.000283791992
11 *16:9 *233:4 0.00021933
12 *16:9 *536:10 0.000600467031
13 *16:2 *52:8 0.000318240996
14 *16:3 *618:30 0.000386527969
15 *16:2 *620:34 0.000219408008
16 *16:3 *91:11 0.000379783984
17 *16:2 *12:3 0.000294391992

*RES
1 *16:5 *16:3 2.25001
2 *16:8 *16:9 1.37309
3 *16:7 *16:9 22.5813999
4 *16:6 *16:2 4.40113
5 *1009:I *16:4 2.55357
6 *956:Z *16:5 0.974429
7 *16:3 *16:8 5.26185
8 *16:4 *16:6 3.68615
9 *16:2 *16:7 0.750118
*END

*D_NET *17 0.00165437

*CONN
*I *957:I I *C 148.1 172 *L 0.00182 *D DEL005
*I *960:Z O *C 151.7 167 *L 0 *D DEL005

*CAP
1 *960:Z 0.000200326
2 *957:I 8.73301e-05
3 *17:2 0.00119208
4 *17:3 4.18006e-05
5 *17:4 0.000132841

*RES
1 *17:2 *17:3 4.77386
2 *957:I *17:4 1.70067
3 *960:Z *17:2 5.14115
4 *17:3 *17:4 1.12776
*END

*D_NET *18 0.00132196

*CONN
*I *954:I I *C 151.3 161.2 *L 0.000643 *D CKBD0
*I *961:Z O *C 148.5 157.2 *L 0 *D CKBD0

*CAP
1 *954:I 0.000239909
2 *961:Z 0.00051836
3 *18:2 0.000563688984

*RES
1 *954:I *18:2 6.51368999
2 *961:Z *18:2 3.14732
*END

*D_NET *19 0.00179849

*CONN
*I *955:Z O *C 143.1 96 *L 0 *D BUFFD1
*I *959:I I *C 137.7 100 *L 0.000643 *D CKBD0

*CAP
1 *955:Z 0.000195336
2 *19:2 8.80387e-05
3 *19:4 0.00151513

*RES
1 *19:2 *19:4 4.95233011
2 *19:3 *19:4 3.93452
3 *955:Z *19:2 1.34939
4 *959:I *19:3 1.5
*END

*D_NET *20 0.00265707

*CONN
*I *953:Z O *C 145.3 178 *L 0 *D CKBD0
*I *988:I I *C 146.3 164.8 *L 0.000643 *D CKBD0

*CAP
1 *953:Z 8.46109e-06
2 *988:I 0.000496904
3 *20:2 0.00047648
4 *20:3 0.00167522

*RES
1 *988:I *20:3 5.27259
2 *20:2 *20:3 9.19882011
3 *953:Z *20:2 2.886
*END

*D_NET *21 0.00215184

*CONN
*I *958:Z O *C 151.9 160 *L 0 *D CKBD0
*I *967:I I *C 148.7 154 *L 0.000643 *D CKBD0

*CAP
1 *21:2 9.37561e-05
2 *21:3 0.000227599
3 *21:4 0.000595955
4 *21:5 0.00123454

*RES
1 *21:2 *21:4 3.67993
2 *21:4 *21:5 7.38509989
3 *21:3 *21:5 1.49999
4 *967:I *21:3 1.49999
5 *958:Z *21:2 0.750049
*END

*D_NET *22 0.00251981

*CONN
*I *952:I I *C 148.7 145.2 *L 0.000643 *D CKBD0
*I *962:Z O *C 145.5 142 *L 0 *D CKBD0

*CAP
1 *952:I 0.00031904
2 *962:Z 0.00052072
3 *22:2 0.000596545
4 *22:3 0.000527173
5 *22:4 0.000556329

*RES
1 *962:Z *22:3 3.36892
2 *22:2 *22:4 3.50744
3 *22:2 *22:3 2.48569
4 *952:I *22:4 6.49350023
*END

*D_NET *23 0.00073658

*CONN
*I *959:Z O *C 138.3 99.6 *L 0 *D CKBD0
*I *963:I I *C 137.9 103.6 *L 0.000643 *D CKBD0

*CAP
1 *959:Z 0.00073658

*RES
1 *963:I *959:Z 5.71516
*END

*D_NET *24 0.00301115

*CONN
*I *961:I I *C 147.9 157.6 *L 0.000643 *D CKBD0
*I *964:Z O *C 151.1 145.4 *L 0 *D DEL005

*CAP
1 *961:I 0.000274044
2 *24:2 9.97966e-05
3 *24:3 0.000572656
4 *24:4 0.000103597
5 *24:5 0.00196107

*RES
1 *24:4 *24:5 3.77882
2 *24:3 *24:5 10.3823004
3 *964:Z *24:2 1.49993
4 *24:2 *24:4 1.49993
5 *961:I *24:3 4.6606
*END

*D_NET *25 0.000653431

*CONN
*I *965:Z O *C 138.5 146.6 *L 0 *D DEL005
*I *968:I I *C 138.7 150.4 *L 0.00182 *D DEL005

*CAP
1 *968:I 3.51878e-05
2 *965:Z 0.00061824

*RES
1 *965:Z *968:I 4.21421
*END

*D_NET *26 0.00120101

*CONN
*I *966:I I *C 138.5 105.6 *L 0.00182 *D DEL005
*I *973:Z O *C 138.5 110.6 *L 0 *D DEL005

*CAP
1 *966:I 0.00060326
2 *26:2 0.000597755

*RES
1 *966:I *26:2 3.30036
2 *973:Z *26:2 3.73348999
*END

*D_NET *27 0.00267552

*CONN
*I *964:I I *C 150.5 145.2 *L 0.00182 *D DEL005
*I *972:Z O *C 148.5 153.8 *L 0 *D DEL005

*CAP
1 *972:Z 0.000182863
2 *27:2 0.000138091
3 *27:3 0.000407493
4 *27:4 7.22354e-05
5 *27:5 0.00187483

*RES
1 *27:3 *27:5 8.64638042
2 *27:4 *27:5 2.74725
3 *972:Z *27:3 1.49995
4 *27:2 *27:4 2.46478
5 *964:I *27:2 0.750041
*END

*D_NET *28 0.0012647

*CONN
*I *968:Z O *C 139.3 150.2 *L 0 *D DEL005
*I *970:I I *C 140.7 154 *L 0.00182 *D DEL005

*CAP
1 *28:3 0.00126470008

*RES
1 *968:Z *28:3 2.89776
2 *28:2 *28:3 4.04842997
3 *970:I *28:2 0.75
*END

*D_NET *29 0.00126072

*CONN
*I *963:Z O *C 138.5 103.2 *L 0 *D CKBD0
*I *969:I I *C 137.9 109.2 *L 0.000643 *D CKBD0

*CAP
1 *963:Z 8.30357e-05
2 *969:I 0.000375185
3 *29:2 0.000802498984

*RES
1 *29:2 *29:3 3.93305993
2 *969:I *29:3 3.4859
3 *963:Z *29:2 0.949837
*END

*D_NET *30 0.00223922

*CONN
*I *970:Z O *C 141.3 153.8 *L 0 *D DEL005
*I *974:I I *C 137.9 157.6 *L 0.00182 *D DEL005

*CAP
1 *970:Z 3.27043e-05
2 *30:2 0.000306333
3 *30:3 6.36151e-05
4 *30:4 0.00183657

*RES
1 *970:Z *30:2 1.73115
2 *30:2 *30:4 5.09426
3 *30:3 *30:4 5.36445999
4 *974:I *30:3 1.6998
*END

*D_NET *31 0.00117804

*CONN
*I *971:Z O *C 138.1 124.8 *L 0 *D CKBD0
*I *1709:B1 I *C 141.5 123.8 *L 0.000863 *D AO22D0

*CAP
1 *1709:B1 0.000306632
2 *31:2 0.000107568
3 *31:3 0.000763840938

*RES
1 *31:2 *31:3 3.59325004
2 *971:Z *31:3 1.5
3 *1709:B1 *31:2 2.69899
*END

*D_NET *32 0.00215856

*CONN
*I *972:I I *C 147.9 154 *L 0.00182 *D DEL005
*I *1778:ZN O *C 144.9 160 *L 0 *D INVD1

*CAP
1 *972:I 0.000222466
2 *32:2 0.000733585
3 *32:3 7.53021e-05
4 *32:4 0.00112721

*RES
1 *32:2 *32:3 3.58659
2 *972:I *32:4 2.96087
3 *32:3 *32:4 6.30686998
4 *1778:ZN *32:2 0.749961
*END

*D_NET *33 0.00420353

*CONN
*I *969:Z O *C 138.5 109.6 *L 0 *D CKBD0
*I *971:I I *C 137.5 125.2 *L 0.000643 *D CKBD0

*CAP
1 *969:Z 0.00020441
2 *971:I 0.00106431
3 *33:2 0.000786299
4 *33:3 0.00214852

*RES
1 *33:2 *33:3 10.0754
2 *969:Z *33:3 3.52355
3 *971:I *33:2 12.8696003
*END

*D_NET *34 0.00239689

*CONN
*I *974:Z O *C 138.5 157.4 *L 0 *D DEL005
*I *980:I I *C 138.5 166.8 *L 0.00182 *D DEL005

*CAP
1 *980:I 0.0001179
2 *34:2 0.000169286
3 *34:3 0.000271682
4 *34:4 7.94073e-05
5 *34:5 0.000950495
6 *34:6 0.000808127

*RES
1 *34:4 *34:5 5.54560995
2 *34:4 *34:6 1.29933
3 *34:3 *34:6 4.52552
4 *980:I *34:3 2.98232
5 *34:2 *34:5 1.49996
6 *974:Z *34:2 0.749981
*END

*D_NET *35 0.0035279

*CONN
*I *975:Z O *C 138.9 139.4 *L 0 *D DEL005
*I *978:I I *C 138.1 145.2 *L 0.000643 *D CKBD0

*CAP
1 *978:I 8.12174e-05
2 *35:2 0.00115518
3 *35:3 0.00010577
4 *35:4 0.000918737
5 *35:5 0.00126698008

*RES
1 *35:4 *35:5 4.37024
2 *35:2 *35:3 5.30593
3 *975:Z *35:4 1.49997
4 *35:3 *35:5 7.50112009
5 *978:I *35:2 1.53957
*END

*D_NET *36 0.00830768

*CONN
*I *976:Z O *C 140.1 242.8 *L 0 *D DEL0
*I *1718:A2 I *C 144.9 202.8 *L 0.000697 *D MOAI22D0

*CAP
1 *1718:A2 0.000132853
2 *36:2 0.00187076
3 *36:3 0.000240899
4 *36:4 4.83569e-05
5 *1718:A2 *842:26 0.000379709023
6 *36:2 *852:14 0.000268690996
7 *36:2 *319:2 0.000864911016
8 *36:2 *52:7 0.0030642
9 *36:2 *79:4 0.00101029
10 *36:2 *620:33 0.000426996992

*RES
1 *36:2 *36:4 38.8471985
2 *1718:A2 *36:2 6.20087
3 *36:3 *36:4 2.43388
4 *976:Z *36:3 0.749843
*END

*D_NET *37 0.00360636

*CONN
*I *973:I I *C 137.9 110.8 *L 0.00182 *D DEL005
*I *977:Z O *C 138.3 121.2 *L 0 *D CKBD0

*CAP
1 *973:I 9.88671e-05
2 *37:2 0.00152993
3 *37:3 0.000131504
4 *37:4 0.000504444
5 *37:5 5.75927e-05
6 *37:6 6.55301e-05
7 *37:7 0.00121853

*RES
1 *973:I *37:5 2.45081
2 *37:4 *37:7 7.65387011
3 *37:3 *37:4 2.96772
4 *37:2 *37:6 6.75086
5 *37:2 *37:5 3.02915
6 *977:Z *37:3 0.750018
7 *37:6 *37:7 0.750018
*END

*D_NET *38 0.000321133

*CONN
*I *978:Z O *C 138.7 145.6 *L 0 *D CKBD0
*I *987:I I *C 138.7 146.8 *L 0.000643 *D CKBD0

*CAP
1 *978:Z 0.000321132988

*RES
1 *987:I *978:Z 3.28911
*END

*D_NET *39 0.0121654

*CONN
*I *947:I I *C 151.1 80.4 *L 0.00072 *D BUFFD1
*I *979:Z O *C 148.3 114 *L 0 *D CKBD0
*I *1755:A2 I *C 142.3 102 *L 0.001 *D MOAI22D1
*I *1734:A2 I *C 145.9 78.4 *L 0.000697 *D MOAI22D0

*CAP
1 *979:Z 0.000192085
2 *39:4 0.000392113
3 *39:5 0.00148324
4 *39:7 0.000571501
5 *39:9 0.000947658
6 *39:10 0.000441634
7 *39:11 0.00103199
8 *39:12 0.0005378
9 *39:13 0.00116955
10 *39:14 0.000796267
11 *39:15 0.000256113
12 *39:16 0.000447722
13 *39:17 0.000353886
14 *39:18 0.000309458
15 *39:19 0.000677037
16 *39:5 *737:2 0.000513984023
17 *39:17 *779:2 0.000459208984
18 *39:5 *1621:Q 0.000561848984
19 *39:9 *858:10 0.000345901992
20 *39:9 *860:9 0.000676388047

*RES
1 *39:16 *39:19 4.4893
2 *39:10 *39:13 1.68224
3 *39:8 *39:14 4.59013
4 *39:10 *39:12 4.33294
5 *947:I *39:15 2.59002
6 *39:4 *39:15 3.06295
7 *39:5 *39:6 6.164
8 *39:17 *39:19 6.69096
9 *39:17 *39:18 3.33068
10 *39:11 *39:18 5.08233
11 *39:4 *39:13 6.37083
12 *979:Z *39:16 3.27494
13 *39:7 *39:14 2.48037
14 *39:6 *39:7 2.89261
15 *39:8 *39:9 4.2064
16 *39:5 *39:12 2.28247
17 *39:9 *39:11 7.05219984
18 *1755:A2 *39:11 1.49995
19 *1734:A2 *39:10 1.49995
*END

*D_NET *40 0.00137473

*CONN
*I *980:Z O *C 139.1 167 *L 0 *D DEL005
*I *983:I I *C 138.5 163.2 *L 0.00182 *D DEL005

*CAP
1 *980:Z 2.24961e-05
2 *40:2 0.000149602
3 *40:3 0.000362578
4 *40:4 0.000840047031

*RES
1 *40:2 *40:4 1.5
2 *40:3 *40:4 4.67913008
3 *980:Z *40:3 2.25003
4 *983:I *40:2 0.750035
*END

*D_NET *41 0.00170884

*CONN
*I *967:Z O *C 149.3 153.6 *L 0 *D CKBD0
*I *981:I I *C 144.7 157.6 *L 0.000968 *D CKBD1

*CAP
1 *41:2 0.000717475
2 *41:3 0.000918317969
3 *41:4 7.30479e-05

*RES
1 *41:2 *41:4 3.80771
2 *41:3 *41:4 4.4415102
3 *981:I *41:3 1.5
4 *967:Z *41:2 0.750033
*END

*D_NET *42 0.00347037

*CONN
*I *977:I I *C 137.7 121.6 *L 0.000643 *D CKBD0
*I *982:Z O *C 151.9 116.6 *L 0 *D DEL005

*CAP
1 *977:I 8.58742e-05
2 *982:Z 0.000423567
3 *42:2 7.12596e-05
4 *42:3 0.00169818
5 *42:4 0.00119151

*RES
1 *42:2 *42:4 7.42291
2 *982:Z *42:2 3.78917
3 *977:I *42:3 2.48578
4 *42:3 *42:4 7.89016008
*END

*D_NET *43 0.000645327

*CONN
*I *983:Z O *C 139.1 163.4 *L 0 *D DEL005
*I *1006:I I *C 140.3 164.8 *L 0.00103 *D DEL01

*CAP
1 *1006:I 5.15159e-05
2 *983:Z 0.000241989
3 *43:2 0.000351823008

*RES
1 *983:Z *43:2 3.6122601
2 *1006:I *43:2 1.5
*END

*D_NET *44 0.00888274

*CONN
*I *984:Z O *C 140.1 240 *L 0 *D DEL015
*I *1715:A2 I *C 144.1 193.6 *L 0.000697 *D MOAI22D0
*I *1701:A2 I *C 147.1 193.6 *L 0.000697 *D MOAI22D0

*CAP
1 *1715:A2 5.75363e-05
2 *44:3 0.00146027
3 *44:4 0.000238403
4 *44:5 0.00443605
5 *44:6 0.000121842
6 *44:7 0.000580643
7 *44:3 *470:43 0.000645703008
8 *44:3 *73:13 0.00093951
9 *44:3 *462:11 0.000402821016

*RES
1 *44:3 *44:5 13.293
2 *44:6 *44:7 3.17376
3 *44:4 *44:5 28.6653004
4 *984:Z *44:4 1.60525
5 *1715:A2 *44:7 2.24997
6 *44:3 *44:7 3.95145
7 *1701:A2 *44:6 1.49984
*END

*D_NET *45 0.00671056

*CONN
*I *985:Z O *C 143.5 91.6 *L 0 *D CKBD0
*I *1729:A2 I *C 147.5 69.6 *L 0.000697 *D MOAI22D0
*I *1738:A2 I *C 142.7 64 *L 0.000697 *D MOAI22D0

*CAP
1 *1738:A2 0.00071546
2 *1729:A2 0.000122523
3 *45:3 0.000412904
4 *45:4 0.000102709
5 *45:5 4.56053e-05
6 *45:6 0.00110982
7 *45:7 0.000447992
8 *45:8 0.000185571
9 *45:9 0.00043436
10 *45:6 *537:11 0.00113617
11 *45:6 *472:7 0.00115234008
12 *45:5 *858:11 0.000229181016
13 *1729:A2 *1262:I 0.000235018008
14 *45:3 *857:23 0.000380919023

*RES
1 *45:9 *45:3 5.12658
2 *45:8 *45:9 6.76939
3 *45:7 *45:8 2.32797
4 *1729:A2 *45:4 1.76535
5 *45:6 *45:3 3.93679
6 *45:5 *45:7 5.67238
7 *45:4 *45:6 5.17715
8 *1738:A2 *45:6 7.70728016
9 *985:Z *45:5 0.749959
*END

*D_NET *46 0.00151468

*CONN
*I *986:Z O *C 143.9 134.6 *L 0 *D DEL005
*I *1712:B1 I *C 141.5 138.2 *L 0.000863 *D AO22D0

*CAP
1 *1712:B1 2.84272e-06
2 *986:Z 0.000347606
3 *46:2 0.000684917969
4 *46:3 0.000479312

*RES
1 *46:2 *46:3 7.55749989
2 *986:Z *46:2 3.02895
3 *1712:B1 *46:3 0.90571
*END

*D_NET *47 0.00085385

*CONN
*I *987:Z O *C 139.3 146.4 *L 0 *D CKBD0
*I *992:I I *C 140.7 148.8 *L 0.000968 *D CKBD1

*CAP
1 *47:2 0.00085385

*RES
1 *992:I *47:2 3.3395
2 *987:Z *47:2 3.35800004
*END

*D_NET *48 0.00234942

*CONN
*I *960:I I *C 151.1 166.8 *L 0.00182 *D DEL005
*I *1006:Z O *C 142.1 164.4 *L 0 *D DEL01

*CAP
1 *960:I 0.000217439
2 *1006:Z 7.56566e-05
3 *48:2 0.000116504
4 *48:3 0.00193981

*RES
1 *48:2 *48:3 8.5121603
2 *1006:Z *48:3 5.06656
3 *960:I *48:2 1.68487
*END

*D_NET *49 0.00436194

*CONN
*I *989:Z O *C 151.9 41.2 *L 0 *D BUFFD0
*I *995:I I *C 137.5 51.6 *L 0.000643 *D CKBD0

*CAP
1 *995:I 2.86533e-05
2 *989:Z 0.000107399
3 *49:2 0.000504735
4 *49:3 0.000391696
5 *49:5 0.00332942

*RES
1 *49:4 *49:5 6.56119
2 *49:2 *49:4 3.9354
3 *995:I *49:2 0.409167
4 *49:3 *49:5 14.4245005
5 *989:Z *49:3 0.905713
*END

*D_NET *50 0.00639634

*CONN
*I *990:Z O *C 140.1 239.2 *L 0 *D DEL0
*I *1714:A2 I *C 142.1 200.8 *L 0.000697 *D MOAI22D0

*CAP
1 *1714:A2 0.000506157
2 *50:2 0.00201329
3 *50:3 0.000944082
4 *50:4 3.03522e-05
5 *50:4 *181:10 0.00085747
6 *50:2 *69:5 0.00180072
7 *50:2 *841:14 0.000244261992

*RES
1 *50:4 *50:2 29.2138004
2 *50:3 *50:4 4.67654
3 *990:Z *50:3 2.88813
4 *1714:A2 *50:2 5.05634
*END

*D_NET *51 0.000586773

*CONN
*I *991:Z O *C 138.1 127.6 *L 0 *D CKBD0
*I *1076:I I *C 138.7 127.2 *L 0.00182 *D DEL005

*CAP
1 *1076:I 0.000241088008
2 *991:Z 0.000171155
3 *51:2 0.000174532

*RES
1 *1076:I *51:2 2.25038004
2 *991:Z *51:2 1.49999
*END

*D_NET *52 0.019825

*CONN
*I *992:Z O *C 141.3 149.2 *L 0 *D CKBD1
*I *1000:I I *C 142.7 152.4 *L 0.00182 *D DEL005
*I *1724:B1 I *C 143.3 231.8 *L 0.000863 *D AO22D0
*I *1693:B1 I *C 143.3 253.4 *L 0.000863 *D AO22D0

*CAP
1 *1693:B1 6.03253e-06
2 *992:Z 0.000673221
3 *52:4 0.00311293
4 *52:5 8.7828e-05
5 *52:6 9.67105e-05
6 *52:7 0.000156418
7 *52:8 0.00299223
8 *52:9 0.000144828
9 *52:10 0.000970525
10 *52:8 *16:2 0.000318240996
11 *52:7 *79:5 0.000964883984
12 *992:Z *153:3 0.000407918008
13 *992:Z *470:44 0.000682665
14 *992:Z *536:7 0.000840587969
15 *992:Z *620:5 0.00157658
16 *992:Z *841:6 0.00270302
17 *52:7 *36:2 0.0030642
18 *52:4 *859:9 0.00102619008

*RES
1 *52:9 *52:10 5.94987
2 *52:6 *52:7 2.15083
3 *52:7 *52:8 71.2983017
4 *52:5 *52:10 2.27159
5 *52:4 *52:6 0.787658
6 *1693:B1 *52:4 22.3362
7 *992:Z *52:10 6.49709
8 *52:8 *52:9 3.31491
9 *1724:B1 *52:6 1.50025
10 *1000:I *52:5 0.749581
*END

*D_NET *53 0.0139134

*CONN
*I *993:Z O *C 138.3 134.8 *L 0 *D CKBD1
*I *1753:A2 I *C 141.7 94.8 *L 0.001 *D MOAI22D1
*I *1747:A2 I *C 142.7 71.2 *L 0.000697 *D MOAI22D0
*I *1732:A2 I *C 148.3 71.2 *L 0.000697 *D MOAI22D0

*CAP
1 *1747:A2 9.48959e-05
2 *993:Z 0.000120653
3 *53:4 0.0003997
4 *53:5 0.000310022
5 *53:6 0.0015056
6 *53:7 0.00308024
7 *53:8 0.000170192
8 *53:9 0.000321396
9 *53:10 0.000126716
10 *53:11 0.000195573
11 *53:12 0.00030753
12 *53:13 0.000196842
13 *53:7 *264:2 0.000273775996
14 *53:6 *733:2 0.00120551
15 *53:7 *4:3 0.00265618
16 *53:6 *468:3 0.000690327969
17 *53:7 *469:3 0.000836521953
18 *53:6 *871:2 0.000985786953
19 *1747:A2 *484:15 0.000435906992

*RES
1 *1753:A2 *53:9 3.00012
2 *53:7 *53:13 39.0187988
3 *53:11 *53:12 2.17373
4 *53:7 *53:9 2.87985
5 *53:5 *53:8 1.48547
6 *1747:A2 *53:8 2.24994
7 *53:4 *53:5 2.45356
8 *53:10 *53:13 3.7497
9 *53:6 *53:12 16.4581
10 *1732:A2 *53:4 3.45916
11 *53:6 *53:8 0.7216
12 *53:9 *53:11 2.36604
13 *993:Z *53:10 1.49976
*END

*D_NET *54 0.00147916

*CONN
*I *994:Z O *C 145.9 138.2 *L 0 *D DEL005
*I *1001:I I *C 144.3 143.2 *L 0.000643 *D CKBD0

*CAP
1 *1001:I 0.000381122
2 *994:Z 0.000112924
3 *54:2 0.000911728984
4 *54:3 1.29661e-05
5 *54:4 6.04341e-05

*RES
1 *1001:I *54:3 3.20103002
2 *54:2 *54:3 3.18887
3 *994:Z *54:4 2.99999
4 *54:2 *54:4 1.54879
*END

*D_NET *55 0.00266721

*CONN
*I *995:Z O *C 138.1 52 *L 0 *D CKBD0
*I *999:I I *C 139.9 62.4 *L 0.00182 *D DEL005

*CAP
1 *999:I 7.40346e-05
2 *55:2 0.00259319

*RES
1 *999:I *55:2 13.9382
2 *995:Z *55:2 2.69827
*END

*D_NET *56 0.00259401

*CONN
*I *996:Z O *C 146.1 163.4 *L 0 *D DEL005
*I *1782:I I *C 144.1 157.6 *L 0.00104 *D INVD1

*CAP
1 *996:Z 0.000676957
2 *56:2 5.91309e-05
3 *56:3 0.00105705
4 *56:4 0.00080088

*RES
1 *996:Z *56:2 5.09385
2 *56:3 *56:4 4.31962
3 *1782:I *56:3 2.29109
4 *56:2 *56:4 5.53809023
*END

*D_NET *57 1.1745e-05

*CONN
*I *997:I I *C 142.1 148.8 *L 0.000968 *D CKBD1
*I *1781:ZN O *C 141.9 149.2 *L 0 *D INVD1

*CAP
1 *1781:ZN 1.1745e-05

*RES
1 *1781:ZN *997:I 0.206358
*END

*D_NET *58 0.0170621

*CONN
*I *962:I I *C 144.9 141.6 *L 0.000643 *D CKBD0
*I *998:Z O *C 140.7 70 *L 0 *D DEL01

*CAP
1 *962:I 0.000276365
2 *58:2 0.000597541
3 *58:3 0.000923153
4 *58:4 0.00145772
5 *58:5 0.00125064
6 *58:7 3.3645e-05
7 *58:8 0.000564789
8 *58:9 0.000170577
9 *58:10 0.000135503
10 *58:11 0.000138391
11 *58:12 9.23897e-05
12 *58:13 0.000156017
13 *58:15 0.00018332
14 *58:16 0.00195126
15 *58:8 *619:8 0.000662281953
16 *58:5 *1637:Q 0.000561723008
17 *58:2 *838:10 0.000589191992
18 *58:2 *839:20 0.00169525
19 *58:3 *620:10 0.000570407969
20 *58:4 *474:3 0.000874876953
21 *58:5 *633:88 0.000821186016
22 *58:2 *469:11 0.0016001
23 *58:2 *846:8 0.00175584

*RES
1 *998:Z *58:2 2.90067
2 *58:7 *58:4 13.3295
3 *58:6 *58:11 7.65115
4 *58:5 *58:7 0.38816
5 *58:5 *58:10 10.323
6 *58:9 *58:13 7.93116
7 *58:10 *58:3 1.1494
8 *58:6 *58:16 2.831
9 *58:8 *58:16 11.6326
10 *58:14 *58:15 3.72821
11 *962:I *58:8 5.78029
12 *58:12 *58:15 2.67656
13 *58:12 *58:13 0.19993
14 *58:11 *58:3 17.0384998
15 *58:4 *58:9 1.8966
16 *58:2 *58:14 9.39489
*END

*D_NET *59 0.00147464

*CONN
*I *999:Z O *C 140.5 62.6 *L 0 *D DEL005
*I *1005:I I *C 138.9 56.8 *L 0.00103 *D DEL01

*CAP
1 *59:3 0.00147464

*RES
1 *1005:I *59:3 2.74516
2 *59:2 *59:3 5.82600021
3 *999:Z *59:2 0.75003
*END

*D_NET *60 1.4421e-05

*CONN
*I *1000:Z O *C 143.3 152.6 *L 0 *D DEL005
*I *1780:I I *C 143.5 152.4 *L 0.00197 *D INVD2

*CAP
1 *1000:Z 1.44209998e-05

*RES
1 *1000:Z *1780:I 0.197909
*END

*D_NET *61 0.00838881

*CONN
*I *1001:Z O *C 144.9 142.8 *L 0 *D CKBD0
*I *1004:I I *C 146.3 179.2 *L 0.00103 *D DEL01

*CAP
1 *1001:Z 0.00146751
2 *61:2 0.000919559
3 *61:3 0.00104035
4 *61:4 0.000185434
5 *61:5 4.95776e-05
6 *61:7 0.000668558
7 *61:8 0.00141074
8 *61:9 0.000659534
9 *61:2 *1779:ZN 0.000479796992
10 *61:3 *1646:CDN 0.000615751016
11 *61:2 *840:12 0.000536234961
12 *61:4 *846:7 0.000355800977

*RES
1 *61:2 *61:7 9.53312969
2 *61:6 *61:2 0.199868
3 *61:4 *61:9 4.30821
4 *1001:Z *61:5 7.82611
5 *61:3 *61:9 8.37887
6 *61:5 *61:8 3.89
7 *1004:I *61:4 1.2171
8 *61:6 *61:8 6.65876
9 *61:3 *61:7 4.55186
*END

*D_NET *62 0.00121219

*CONN
*I *996:I I *C 145.5 163.2 *L 0.00182 *D DEL005
*I *1002:Z O *C 146.1 159.8 *L 0 *D DEL005

*CAP
1 *1002:Z 0.00121219

*RES
1 *1002:Z *62:2 7.11227989
2 *996:I *62:2 0.750015
*END

*D_NET *63 0.00198487

*CONN
*I *1003:Z O *C 148.3 127.4 *L 0 *D DEL005
*I *1078:I I *C 138.7 125.2 *L 0.00182 *D DEL005

*CAP
1 *1078:I 0.000161644
2 *63:2 0.000394967
3 *63:3 0.00142825

*RES
1 *63:2 *63:3 8.31019974
2 *1003:Z *63:2 1.54929
3 *1078:I *63:3 1.96723
*END

*D_NET *64 0.00703933

*CONN
*I *1004:Z O *C 148.1 178.8 *L 0 *D DEL01
*I *1010:I I *C 142.9 148.8 *L 0.000968 *D CKBD1

*CAP
1 *1010:I 0.000179032
2 *64:2 0.000498398
3 *64:3 0.000521289
4 *64:4 0.00035304
5 *64:5 0.000683189
6 *64:7 7.90279e-07
7 *64:8 6.83122e-07
8 *64:9 0.000877812031
9 *64:10 0.00066516
10 *64:2 *841:8 0.00162588
11 *1010:I *1010:Z 0.000308122988
12 *64:3 *846:15 0.000832623984
13 *1010:I *847:12 0.000493322031

*RES
1 *64:8 *64:9 5.45448
2 *64:7 *64:9 0.380639
3 *64:2 *64:8 0.199879
4 *64:3 *64:10 7.45302
5 *1010:I *64:5 2.76384
6 *1004:Z *64:4 2.30698
7 *64:6 *64:2 8.24372959
8 *64:6 *64:3 0.199753
9 *64:5 *64:7 7.97026
10 *64:4 *64:10 4.76037
*END

*D_NET *65 0.000865569

*CONN
*I *1005:Z O *C 140.7 56.4 *L 0 *D DEL01
*I *1011:I I *C 138.7 55.2 *L 0.00103 *D DEL015

*CAP
1 *1011:I 0.000102115
2 *1005:Z 0.000112025
3 *65:2 0.000651426016

*RES
1 *1011:I *65:2 4.92614985
2 *1005:Z *65:2 1.50003
*END

*D_NET *66 0.00637667

*CONN
*I *988:Z O *C 146.9 164.4 *L 0 *D CKBD0
*I *991:I I *C 137.5 127.2 *L 0.000643 *D CKBD0

*CAP
1 *988:Z 0.000150092
2 *991:I 0.000187604
3 *66:2 0.000206008
4 *66:3 0.000135766
5 *66:4 0.00134376
6 *66:5 0.000734901
7 *66:6 0.00144439
8 *66:7 0.000217909
9 *66:6 *264:3 0.000751463984
10 *66:3 *105:2 0.000663096016
11 *66:4 *338:2 0.000541683008

*RES
1 *66:6 *66:7 24.1117001
2 *66:4 *66:5 8.69789
3 *988:Z *66:2 1.88189
4 *66:5 *66:7 0.949957
5 *991:I *66:3 2.25017
6 *66:3 *66:6 1.49999
7 *66:2 *66:4 8.33144
*END

*D_NET *67 0.00240731

*CONN
*I *1002:I I *C 145.5 159.6 *L 0.00182 *D DEL005
*I *1007:Z O *C 146.1 168 *L 0 *D DEL01

*CAP
1 *1002:I 0.000802632
2 *1007:Z 0.000143281
3 *67:2 0.000455535
4 *67:3 0.00100588

*RES
1 *67:2 *67:3 6.82362986
2 *1007:Z *67:2 3.09737
3 *1002:I *67:3 5.35699
*END

*D_NET *68 4.6779e-05

*CONN
*I *1008:I I *C 144.3 152.4 *L 0.000968 *D CKBD1
*I *1780:ZN O *C 143.9 152.4 *L 0 *D INVD2

*CAP
1 *1780:ZN 4.6778999e-05

*RES
1 *1780:ZN *1008:I 0.413183
*END

*D_NET *69 0.0188368

*CONN
*I *1009:Z O *C 148.1 185.2 *L 0 *D DEL015
*I *1781:I I *C 141.5 148.8 *L 0.00104 *D INVD1
*I *1727:B1 I *C 143.1 235.4 *L 0.000863 *D AO22D0
*I *1694:B1 I *C 143.1 260.6 *L 0.000863 *D AO22D0

*CAP
1 *1694:B1 0.000336879
2 *69:4 0.00146448
3 *69:5 8.22928e-05
4 *69:6 0.000211537
5 *69:7 8.30604e-05
6 *69:9 0.00209602
7 *69:10 0.000114724
8 *69:11 5.08533e-06
9 *69:12 0.000328244
10 *69:13 0.000496859
11 *69:14 0.00038495
12 *69:15 0.000588971
13 *69:16 0.0018232
14 *69:17 0.00123877
15 *69:5 *50:2 0.00180072
16 *1694:B1 *91:6 0.00120027992
17 *69:4 *779:3 0.000510110977
18 *69:4 *840:6 0.00253966
19 *69:4 *838:8 0.00239476984
20 *69:4 *842:15 0.00113610008

*RES
1 *1694:B1 *69:6 3.80052
2 *69:13 *69:17 3.53722
3 *1009:Z *69:7 1.67785
4 *69:6 *69:16 20.0059
5 *69:9 *69:16 22.2364998
6 *69:4 *69:15 15.6866
7 *69:10 *69:11 0.199849
8 *69:14 *69:17 3.39913
9 *69:8 *69:10 4.78416
10 *69:7 *69:17 4.48489
11 *69:5 *69:16 1.81119
12 *69:14 *69:15 16.6458
13 *1781:I *69:4 3.00825
14 *69:12 *69:13 7.10906
15 *69:8 *69:9 0.199849
16 *69:11 *69:12 4.93854
17 *1727:B1 *69:5 0.749858
*END

*D_NET *70 0.0179153

*CONN
*I *1010:Z O *C 143.5 149.2 *L 0 *D CKBD1
*I *1778:I I *C 144.5 159.6 *L 0.00104 *D INVD1
*I *1696:B1 I *C 145.1 258.2 *L 0.000863 *D AO22D0
*I *1730:B1 I *C 145.1 243.8 *L 0.000863 *D AO22D0

*CAP
1 *1696:B1 5.72177e-06
2 *1778:I 7.5029e-05
3 *1010:Z 4.53435e-05
4 *70:4 0.000711345
5 *70:5 0.0016646
6 *70:6 5.08499e-05
7 *70:7 0.000193894
8 *70:8 0.000805539
9 *70:9 0.00125796
10 *70:10 0.000429717
11 *70:11 0.000121141
12 *70:12 0.002016
13 *70:13 0.000415413
14 *70:14 0.000160702
15 *70:15 0.00037333
16 *70:16 0.000364593
17 *70:17 0.000142675
18 *70:19 0.00121763
19 *70:20 0.00037213
20 *70:12 *882:2 0.00150619
21 *1010:Z *1010:I 0.000308122988
22 *70:5 *181:11 0.00260784
23 *70:8 *843:4 0.00160877
24 *70:4 *1564:I 0.00146082

*RES
1 *70:7 *70:8 3.99491
2 *70:5 *70:16 4.71803
3 *70:11 *70:20 2.46931
4 *70:16 *70:17 1.86937
5 *70:4 *70:15 4.34908
6 *70:18 *70:19 0.1998
7 *70:17 *70:20 1.53436
8 *70:13 *70:18 6.1648
9 *70:6 *70:8 0.31147
10 *70:6 *70:9 6.92404
11 *70:7 *70:12 1.54859
12 *70:19 *70:20 11.8074
13 *70:14 *70:4 10.1614
14 *1696:B1 *70:5 7.963
15 *70:12 *70:15 35.8742981
16 *70:13 *70:14 2.74849
17 *70:9 *70:10 3.62049
18 *1010:Z *70:10 1.70077
19 *1778:I *70:6 0.949736
20 *1730:B1 *70:11 0.749936
*END

*D_NET *71 0.00513559

*CONN
*I *1011:Z O *C 140.9 55.6 *L 0 *D DEL015
*I *1032:I I *C 137.5 17.2 *L 0.000643 *D CKBD0

*CAP
1 *1032:I 0.000126423
2 *71:2 0.00253833
3 *71:3 0.000129521
4 *71:4 0.000848705
5 *71:2 *326:3 0.000239730996
6 *71:2 *328:2 0.000372326992
7 *71:2 *484:4 0.00047186
8 *71:2 *8:4 0.000408715

*RES
1 *71:3 *71:4 5.54344
2 *1032:I *71:2 2.11337
3 *71:2 *71:4 30.6215992
4 *1011:Z *71:3 0.749934
*END

*D_NET *72 0.0024203

*CONN
*I *1007:I I *C 144.3 168.4 *L 0.00103 *D DEL01
*I *1012:Z O *C 151.9 174.4 *L 0 *D DEL015

*CAP
1 *1012:Z 3.52084e-06
2 *72:2 3.26897e-05
3 *72:3 0.000609187
4 *72:4 0.00177491

*RES
1 *72:2 *72:3 4.5024
2 *1012:Z *72:2 0.396596
3 *72:3 *72:4 9.82287025
4 *1007:I *72:4 1.50005
*END

*D_NET *73 0.0255701

*CONN
*I *1013:Z O *C 139.1 99.6 *L 0 *D CKBD1
*I *1706:B1 I *C 140.5 113 *L 0.000863 *D AO22D0
*I *1774:I I *C 141.1 157.6 *L 0.00104 *D INVD1
*I *1721:B1 I *C 146.7 215 *L 0.000863 *D AO22D0
*I *1690:B1 I *C 145.5 221 *L 0.000863 *D AO22D0

*CAP
1 *1690:B1 0.000679692
2 *1013:Z 0.000278911
3 *73:5 0.000110969
4 *73:6 0.000591829
5 *73:7 0.000402819
6 *73:8 0.000524791
7 *73:9 0.000947457
8 *73:12 0.000447565
9 *73:13 0.00120145
10 *73:14 0.000412762
11 *73:15 2.54704e-06
12 *73:16 0.00133536
13 *73:17 0.000609495
14 *73:18 2.7508e-06
15 *73:19 0.000879481
16 *73:20 0.000629872
17 *73:21 0.000704184
18 *73:23 4.57244e-05
19 *73:24 0.000805047
20 *73:25 5.87652e-05
21 *73:26 0.000530823
22 *73:27 0.00015217
23 *73:28 0.00107493
24 *73:29 0.000901202
25 *73:31 0.000208449
26 *73:32 0.000518373
27 *73:33 0.000986314
28 *73:34 0.00102238
29 *73:35 7.13781e-05
30 *73:36 0.000243517
31 *73:13 *44:3 0.00093951
32 *73:16 *1022:Z 0.000516143008
33 *73:17 *153:2 0.000268885996
34 *73:20 *166:2 0.000459206992
35 *73:8 *618:5 0.00112776008
36 *73:9 *1463:I 0.000342058008
37 *73:20 *839:6 0.000825327969
38 *73:7 *841:4 0.00206172984
39 *73:7 *881:9 0.000702536016
40 *73:6 *464:3 0.0010868
41 *73:7 *509:3 0.0003302
42 *73:7 *1706:B2 0.000528938008

*RES
1 *73:9 *73:10 3.19259
2 *73:5 *73:26 0.446179
3 *73:7 *73:25 0.556214
4 *73:13 *73:15 1.20986
5 *73:18 *73:19 4.45759
6 *73:31 *73:35 6.06058
7 *73:7 *73:10 6.93298
8 *73:20 *73:34 5.06895
9 *73:8 *73:25 3.67553
10 *73:29 *73:30 17.2105999
11 *73:13 *73:22 10.2876
12 *73:23 *73:24 8.94617
13 *73:8 *73:32 3.66686
14 *73:17 *73:19 0.199848
15 *73:6 *73:28 4.32366
16 *73:14 *73:18 2.19439
17 *73:11 *73:12 2.57938
18 *73:17 *73:20 3.19442
19 *73:27 *73:34 1.89948
20 *73:34 *73:36 12.0022
21 *73:11 *73:21 3.95836
22 *73:30 *73:31 0.199848
23 *73:22 *73:24 0.199848
24 *73:6 *73:12 2.07806
25 *73:15 *73:16 8.01127
26 *73:32 *73:33 6.68008
27 *1690:B1 *73:26 7.28646
28 *1013:Z *73:33 2.84909
29 *73:14 *73:16 0.199848
30 *73:9 *73:29 7.11917
31 *73:21 *73:23 0.355315
32 *73:5 *73:28 3.80211
33 *1774:I *73:27 0.750022
34 *1721:B1 *73:26 0.750022
35 *1706:B1 *73:25 0.750022
36 *73:35 *73:36 0.750022
*END

*D_NET *74 1.1465e-05

*CONN
*I *1014:Z O *C 143.1 276 *L 0 *D DEL01
*I *1097:I I *C 143.3 276.4 *L 0.00105 *D DEL1

*CAP
1 *1014:Z 1.1465e-05

*RES
1 *1014:Z *1097:I 0.202501
*END

*D_NET *75 0.0279766

*CONN
*I *1015:Z O *C 138.1 34.8 *L 0 *D CKBD1
*I *1684:E I *C 139.7 26.4 *L 0.00159 *D EDFCNQD1
*I *1683:E I *C 144.5 24.4 *L 0.00159 *D EDFCNQD1
*I *1686:E I *C 145.1 33.6 *L 0.00159 *D EDFCNQD1
*I *1688:E I *C 144.1 44.4 *L 0.00159 *D EDFCNQD1
*I *1687:E I *C 139.5 37.2 *L 0.00159 *D EDFCNQD1
*I *1689:E I *C 144.7 51.6 *L 0.00159 *D EDFCNQD1
*I *1685:E I *C 138.5 35.2 *L 0.00159 *D EDFCNQD1
*I *1587:B1 I *C 148.5 102 *L 0.000894 *D INR3D0
*I *1033:I I *C 151.3 109.2 *L 0.00182 *D DEL005
*I *1035:I I *C 146.1 102 *L 0.000697 *D BUFFD0
*I *1037:I I *C 147.1 102 *L 0.000697 *D BUFFD0
*I *1679:E I *C 145.1 112.8 *L 0.00152 *D EDFCNQD4
*I *1763:A2 I *C 146.1 114.4 *L 0.000606 *D CKND2D0
*I *1611:A1 I *C 146.9 121.4 *L 0.000617 *D CKND2D0
*I *1745:A2 I *C 146.5 134.4 *L 0.00102 *D ND2D1
*I *1746:B1 I *C 146.5 138 *L 0.000698 *D IND3D0
*I *1773:A2 I *C 148.9 139.6 *L 0.000606 *D CKND2D0
*I *1744:A3 I *C 149.3 143.2 *L 0.00103 *D ND3D1

*CAP
1 *1033:I 0.000133248
2 *1587:B1 7.50406e-05
3 *1685:E 0.000148293
4 *1689:E 4.51354e-05
5 *1683:E 0.000104268
6 *1015:Z 8.32209e-05
7 *75:19 0.000524565
8 *75:20 0.00104736
9 *75:21 0.000512911
10 *75:22 0.000471332
11 *75:23 0.000624599
12 *75:24 0.00127283
13 *75:25 0.000458465
14 *75:26 0.000151006
15 *75:27 0.000261892
16 *75:28 0.000592433
17 *75:29 0.000494125
18 *75:30 0.000873336
19 *75:31 0.00079809
20 *75:32 0.000230897
21 *75:33 0.000146998
22 *75:34 0.000394421
23 *75:35 0.000266989
24 *75:36 0.000486356
25 *75:37 0.000551552
26 *75:39 0.00035504
27 *75:40 0.000234803
28 *75:41 0.00034277
29 *75:42 0.000297408
30 *75:43 0.000509171
31 *75:44 9.26138e-05
32 *75:45 0.000148149
33 *75:46 0.000143771
34 *75:47 0.000589925
35 *75:48 0.000288755
36 *75:49 0.000186502
37 *75:50 0.000698529
38 *75:51 0.000686465
39 *75:52 8.58517e-05
40 *75:53 7.6541e-05
41 *75:54 0.000249519
42 *75:55 0.000394236
43 *75:56 0.000412713
44 *75:57 0.000256733
45 *75:58 0.000196244
46 *75:59 0.000481855
47 *75:60 0.000371915
48 *75:61 0.000354958
49 *75:62 0.000588877
50 *75:63 0.00134697
51 *75:64 0.00097411
52 *75:22 *288:2 0.000622181992
53 *75:43 *309:3 0.0013031
54 *75:42 *310:2 0.0010961
55 *75:23 *934:3 0.00118148992
56 *75:19 *652:2 0.000498101992
57 *75:19 *485:11 0.000304759004
58 *1683:E *613:15 0.000719265
59 *75:20 *1761:ZN 0.000504473984
60 *75:21 *719 0.000633373008

*RES
1 *1587:B1 *75:46 1.49999
2 *75:49 *75:64 6.97971
3 *75:31 *75:50 4.68604
4 *75:20 *75:34 0.552152
5 *75:26 *75:28 2.87333
6 *75:23 *75:33 1.64826
7 *75:27 *75:50 5.86449
8 *1033:I *75:42 3.26503
9 *75:53 *75:54 3.72351
10 *75:48 *75:63 1.14946
11 *1611:A1 *75:48 2.09918
12 *75:52 *75:64 1.21688
13 *75:20 *75:48 6.56071
14 *75:21 *75:62 7.03453
15 *75:56 *75:57 4.22147
16 *75:43 *75:61 4.99184
17 *75:28 *75:29 2.98716
18 *75:37 *75:49 1.57182
19 *75:30 *75:44 4.19606
20 *75:57 *75:58 1.45609
21 *75:42 *75:62 6.29461
22 *1685:E *75:32 1.23914
23 *75:24 *75:39 5.02187
24 *1684:E *75:30 2.78554
25 *75:46 *75:62 1.4185
26 *75:55 *75:56 3.78294
27 *75:22 *75:23 1.42984
28 *75:41 *75:63 13.7641001
29 *75:29 *75:40 1.22192
30 *75:54 *75:55 5.68702
31 *75:21 *75:53 1.47436
32 *75:31 *75:35 1.19839
33 *1037:I *75:51 2.24998
34 *75:59 *75:60 3.13775
35 *75:19 *75:43 5.54273
36 *75:23 *75:45 2.79121
37 *75:19 *75:26 0.588276
38 *75:60 *75:61 3.1157
39 *75:58 *75:59 2.94537
40 *75:38 *75:47 2.9544
41 *1035:I *75:51 3.02812
42 *75:25 *75:50 3.52167
43 *75:34 *75:39 4.2954
44 *75:32 *75:35 1.58988
45 *75:44 *75:52 0.600457
46 *75:25 *75:37 2.5417
47 *75:22 *75:47 2.92899
48 *75:24 *75:42 3.64076
49 *1773:A2 *75:45 2.24998
50 *1015:Z *75:32 2.00866
51 *1689:E *75:26 1.69741
52 *75:36 *75:41 2.31278
53 *1683:E *75:52 2.41443
54 *75:33 *75:36 3.47358
55 *75:27 *75:40 1.56468
56 *75:46 *75:51 1.28912
57 *1688:E *75:40 1.49999
58 *1679:E *75:39 1.49999
59 *1744:A3 *75:38 1.49999
60 *1686:E *75:37 0.749994
61 *1745:A2 *75:36 0.749994
62 *1687:E *75:35 0.749994
63 *1763:A2 *75:34 0.749994
64 *1746:B1 *75:33 0.749994
*END

*D_NET *76 0.0013271

*CONN
*I *1016:I I *C 138.7 62.4 *L 0.000968 *D CKBD1
*I *1557:Z O *C 138.1 66.4 *L 0 *D BUFFD2

*CAP
1 *1557:Z 6.49789e-05
2 *76:3 0.00126212

*RES
1 *1016:I *76:3 2.5613
2 *76:2 *76:3 5.86421013
3 *1557:Z *76:2 0.949838
*END

*D_NET *77 0.000895766

*CONN
*I *1017:I I *C 137.7 73.2 *L 0.000968 *D CKBD1
*I *1554:Z O *C 138.1 70.8 *L 0 *D BUFFD2

*CAP
1 *1554:Z 0.000847949063
2 *77:2 4.78221e-05

*RES
1 *1554:Z *77:2 5.06083012
2 *1017:I *77:2 0.749981
*END

*D_NET *78 0.00124717

*CONN
*I *1018:I I *C 137.7 91.2 *L 0.000968 *D CKBD1
*I *1230:Z O *C 139.1 88 *L 0 *D CKBD1

*CAP
1 *1018:I 0.000165583
2 *78:2 0.00108158008

*RES
1 *1230:Z *78:2 2.74513
2 *1018:I *78:2 5.67219019
*END

*D_NET *79 0.0156356

*CONN
*I *1019:Z O *C 141.5 178.8 *L 0 *D DEL1
*I *1775:I I *C 142.1 154 *L 0.00104 *D INVD1
*I *1722:B1 I *C 146.7 222.2 *L 0.000863 *D AO22D0
*I *1691:B1 I *C 145.3 247.4 *L 0.000863 *D AO22D0

*CAP
1 *1691:B1 0.000385829
2 *79:4 0.000948454
3 *79:5 5.28224e-05
4 *79:6 0.000630579
5 *79:7 0.000388884
6 *79:8 0.000441189
7 *79:9 0.000769591
8 *79:10 0.000439122
9 *79:12 3.51523e-05
10 *79:13 0.00082152
11 *79:14 0.000629546
12 *79:15 2.16177e-06
13 *79:16 0.000635561
14 *79:17 0.000112036
15 *79:18 0.000830825
16 *79:19 0.00100156
17 *79:20 0.00307982
18 *79:18 *153:2 0.00157782
19 *79:4 *36:2 0.00101029
20 *79:4 *319:5 0.000243494004
21 *79:4 *464:14 0.000634436016
22 *79:5 *52:7 0.000964883984

*RES
1 *79:19 *79:20 17.3195
2 *79:6 *79:9 1.94736
3 *1691:B1 *79:10 2.49173
4 *79:7 *79:8 2.0839
5 *79:5 *79:20 29.3384991
6 *79:4 *79:5 5.043
7 *79:8 *79:4 5.67466
8 *1722:B1 *79:7 1.18722
9 *79:18 *79:19 7.64083
10 *79:9 *79:15 3.09206
11 *1775:I *79:18 2.1224
12 *79:17 *79:20 2.09912
13 *79:11 *79:14 3.22457
14 *79:12 *79:13 4.38806
15 *79:6 *79:7 3.58046
16 *79:14 *79:16 0.199661
17 *79:10 *79:12 2.39101
18 *79:15 *79:16 3.40766
19 *79:11 *79:13 0.199661
20 *1019:Z *79:17 0.749847
*END

*D_NET *80 0.00229483

*CONN
*I *1020:Z O *C 151.1 41.2 *L 0 *D BUFFD1
*I *1688:D I *C 144.3 44.6 *L 0.000758 *D EDFCNQD1

*CAP
1 *80:2 0.000796893
2 *80:3 0.000283833
3 *80:4 9.95882e-05
4 *80:5 0.00111450008

*RES
1 *80:4 *80:5 2.45045
2 *80:2 *80:4 3.39577
3 *80:3 *80:5 6.4093399
4 *1688:D *80:2 1.81123
5 *1020:Z *80:3 0.750019
*END

*D_NET *81 0.00136574

*CONN
*I *1021:Z O *C 151.5 103.2 *L 0 *D CKBD1
*I *1678:D I *C 145.3 103.4 *L 0.000758 *D EDFCNQD1

*CAP
1 *1678:D 0.000224614
2 *81:2 9.11178e-05
3 *81:3 0.00105001

*RES
1 *81:2 *81:3 5.88691998
2 *1678:D *81:3 3.02457
3 *1021:Z *81:2 0.749968
*END

*D_NET *82 0.00878969

*CONN
*I *1022:Z O *C 141.1 174.4 *L 0 *D DEL0
*I *1636:D I *C 141.9 103.6 *L 0.000971 *D DFCNQD1

*CAP
1 *1022:Z 8.37436e-05
2 *82:2 0.000523048
3 *82:3 2.73253e-05
4 *82:4 0.00017894
5 *82:5 0.000101052
6 *82:6 0.00241343
7 *82:4 *166:4 0.00238221
8 *82:4 *233:5 0.000897326016
9 *1022:Z *73:16 0.000516143008
10 *82:2 *841:20 0.000391586016
11 *82:3 *738:14 0.000991095
12 *82:4 *16:9 0.000283791992

*RES
1 *1636:D *82:2 1.50038
2 *1022:Z *82:5 2.99393
3 *82:4 *82:6 55.9961014
4 *82:5 *82:4 1.50038
5 *82:2 *82:3 2.43428
6 *82:3 *82:6 0.750192
*END

*D_NET *83 0.00831059

*CONN
*I *1023:Z O *C 142.9 178 *L 0 *D DEL2
*I *1639:D I *C 141.9 114.4 *L 0.000971 *D DFCNQD1

*CAP
1 *1023:Z 0.000132076
2 *83:2 0.000208072
3 *83:3 0.00118649
4 *83:4 0.000213489
5 *83:5 8.12533e-05
6 *83:6 0.000404227
7 *83:7 0.00208821016
8 *83:3 *166:2 0.00201013
9 *83:2 *293:3 0.00139394
10 *83:2 *839:27 0.000333298008
11 *83:3 *11:2 0.00025937

*RES
1 *83:3 *83:7 34.1012001
2 *83:6 *83:3 15.8564
3 *83:2 *83:7 3.05806
4 *1023:Z *83:5 1.50015
5 *83:5 *83:6 3.09916
6 *83:4 *83:2 1.50015
7 *1639:D *83:4 0.749814
*END

*D_NET *84 0.00718627

*CONN
*I *1015:I I *C 137.5 35.2 *L 0.000968 *D CKBD1
*I *1024:Z O *C 140.3 6.2 *L 0 *D CKBD2
*I *1682:E I *C 143.9 6.4 *L 0.00159 *D EDFCNQD1
*I *1681:E I *C 145.5 10 *L 0.00159 *D EDFCNQD1

*CAP
1 *1682:E 0.000133182
2 *84:4 0.000855184
3 *84:5 0.000524232
4 *84:6 0.000412219
5 *84:7 0.000629794
6 *84:8 0.000464702
7 *84:9 0.00186219
8 *84:10 0.000457712
9 *84:11 0.000113263
10 *84:12 0.000519657
11 *84:9 *734:2 0.000511361016
12 *84:6 *529:4 0.000456955
13 *84:4 *629:26 0.000245829004

*RES
1 *1015:I *84:9 13.2632999
2 *1024:Z *84:10 1.65569
3 *84:5 *84:11 2.10659
4 *84:6 *84:4 2.33023
5 *1681:E *84:5 4.34048
6 *84:9 *84:12 2.30634
7 *84:7 *84:8 5.6501
8 *1682:E *84:11 2.44983
9 *84:10 *84:11 2.73499
10 *84:8 *84:10 1.52819
11 *84:4 *84:7 5.89478
12 *84:6 *84:12 4.21986
*END

*D_NET *85 0.00532198

*CONN
*I *1025:Z O *C 142.1 315.6 *L 0 *D BUFFD1
*I *1125:I I *C 140.7 274.8 *L 0.000643 *D CKBD0
*I *1257:I I *C 145.1 274.8 *L 0.00105 *D DEL1

*CAP
1 *85:3 0.000139894
2 *85:4 6.45435e-05
3 *85:5 0.00491844
4 *85:5 *1086:I 0.000199053008

*RES
1 *85:4 *85:5 3.5511
2 *85:3 *85:5 33.0810013
3 *1025:Z *85:3 1.3947
4 *1125:I *85:5 2.7167
5 *1257:I *85:4 1.50019
*END

*D_NET *86 0.000498628

*CONN
*I *1026:I I *C 142.3 49.6 *L 0.00072 *D BUFFD1
*I *1053:Z O *C 141.5 48.4 *L 0 *D BUFFD1

*CAP
1 *1053:Z 0.000432225
2 *1026:I 6.64018e-05

*RES
1 *1053:Z *1026:I 3.19874
*END

*D_NET *87 0.00182967

*CONN
*I *1027:Z O *C 144.1 160 *L 0 *D CKBD1
*I *1090:I I *C 137.7 159.6 *L 0.00103 *D DEL01

*CAP
1 *1027:Z 0.000139435
2 *87:2 0.00131122
3 *87:3 0.00037901

*RES
1 *1027:Z *87:3 2.81392
2 *87:2 *87:3 5.6085
3 *1090:I *87:2 1.81136
*END

*D_NET *88 0.00134208

*CONN
*I *1028:I I *C 144.7 136 *L 0.000697 *D BUFFD0
*I *1237:Z O *C 140.7 135.6 *L 0 *D DEL1

*CAP
1 *1028:I 0.000220649
2 *88:2 0.0010483
3 *88:3 7.31339e-05

*RES
1 *1028:I *88:3 2.85809
2 *88:2 *88:3 4.95300007
3 *1237:Z *88:2 0.750024
*END

*D_NET *89 0.00254805

*CONN
*I *1029:I I *C 138.7 71.2 *L 0.00104 *D DEL0
*I *1555:Z O *C 138.1 62.8 *L 0 *D BUFFD2

*CAP
1 *1555:Z 0.000296479
2 *1029:I 0.000131096
3 *89:2 0.00122315
4 *89:3 0.000897313

*RES
1 *1029:I *89:2 2.28179
2 *89:2 *89:3 12.1873999
3 *1555:Z *89:3 2.66692
*END

*D_NET *90 0.00203747

*CONN
*I *1030:I I *C 138.7 66 *L 0.00103 *D BUFFD2
*I *1560:Z O *C 138.1 56.4 *L 0 *D BUFFD2

*CAP
1 *1560:Z 0.00114567992
2 *90:2 0.00089179

*RES
1 *1560:Z *90:2 7.1106801
2 *1030:I *90:2 4.80244
*END

*D_NET *91 0.0220499

*CONN
*I *1031:Z O *C 140.1 171.6 *L 0 *D DEL0
*I *1711:B1 I *C 141.3 135.8 *L 0.000863 *D AO22D0
*I *1783:I I *C 142.9 159.6 *L 0.00104 *D INVD1
*I *1728:B1 I *C 143.1 242.6 *L 0.000863 *D AO22D0
*I *1695:B1 I *C 142.5 264.2 *L 0.000863 *D AO22D0

*CAP
1 *1695:B1 0.000640309
2 *1711:B1 0.000446602
3 *91:5 0.00314846
4 *91:6 0.00273847
5 *91:7 0.00062287
6 *91:8 0.00119972
7 *91:11 0.000934713
8 *91:12 0.000455586
9 *91:13 0.000230027
10 *91:14 0.00075907
11 *91:15 0.000520684
12 *91:11 *16:3 0.000379783984
13 *91:8 *779:2 0.00161428
14 *91:5 *838:7 0.0028122
15 *91:6 *1694:B1 0.00120027992
16 *91:6 *1731:B1 0.00434688

*RES
1 *1728:B1 *91:14 3.42453
2 *91:6 *91:14 17.893
3 *1711:B1 *91:8 3.04198
4 *91:8 *91:10 12.2726
5 *1783:I *91:15 3.61396
6 *91:11 *91:15 10.7914
7 *91:12 *91:15 3.38822
8 *1695:B1 *91:6 4.76161
9 *91:5 *91:14 34.485199
10 *91:12 *91:13 8.73654
11 *91:7 *91:9 2.81203
12 *91:5 *91:13 21.0649
13 *91:10 *91:11 0.199957
14 *1031:Z *91:7 0.749838
15 *91:9 *91:13 0.749838
*END

*D_NET *92 0.00208678

*CONN
*I *1032:Z O *C 138.1 16.8 *L 0 *D CKBD0
*I *1034:I I *C 137.5 26.4 *L 0.000643 *D CKBD0

*CAP
1 *1034:I 0.000584707
2 *1032:Z 0.00019746
3 *92:2 1.96784e-06
4 *92:3 0.00130265

*RES
1 *92:2 *92:3 7.85653019
2 *1032:Z *92:3 2.47794
3 *1034:I *92:2 4.39017
*END

*D_NET *93 0.00136535

*CONN
*I *1033:Z O *C 151.9 109.4 *L 0 *D DEL005
*I *1680:E I *C 145.1 109.2 *L 0.00159 *D EDFCNQD1

*CAP
1 *1680:E 0.000141275
2 *93:2 0.000120821
3 *93:3 0.00110325

*RES
1 *93:2 *93:3 6.44438982
2 *1680:E *93:3 2.43297
3 *1033:Z *93:2 0.74999
*END

*D_NET *94 0.000989054

*CONN
*I *1034:Z O *C 138.1 26.8 *L 0 *D CKBD0
*I *1036:I I *C 143.1 28 *L 0.000643 *D CKBD0

*CAP
1 *94:2 0.000627439023
2 *94:3 0.000361614

*RES
1 *94:2 *94:3 5.71268988
2 *1036:I *94:2 2.27842
3 *1034:Z *94:3 0.75
*END

*D_NET *95 0.00115221

*CONN
*I *1035:Z O *C 146.7 102.4 *L 0 *D BUFFD0
*I *1678:E I *C 145.1 103.6 *L 0.00159 *D EDFCNQD1

*CAP
1 *1035:Z 0.00023924
2 *95:2 0.000912977969

*RES
1 *1035:Z *95:2 3.59793997
2 *1678:E *95:2 2.65064
*END

*D_NET *96 0.00246732

*CONN
*I *1036:Z O *C 143.7 27.6 *L 0 *D CKBD0
*I *1038:I I *C 151.3 35.2 *L 0.000643 *D CKBD0

*CAP
1 *1038:I 0.000133228
2 *96:3 0.000835309
3 *96:4 0.00110898992
4 *96:5 0.000389784

*RES
1 *96:3 *96:4 4.88565
2 *96:2 *96:4 6.65611982
3 *1038:I *96:5 4.53251
4 *1036:Z *96:3 0.749951
5 *96:2 *96:5 0.749951
*END

*D_NET *97 0.000370687

*CONN
*I *1037:Z O *C 147.7 102.4 *L 0 *D BUFFD0
*I *1596:D I *C 147.5 100 *L 0.000971 *D DFCNQD1

*CAP
1 *1596:D 0.000370686992

*RES
1 *1596:D *1037:Z 2.63259
*END

*D_NET *98 0.000638205

*CONN
*I *1038:Z O *C 151.9 34.8 *L 0 *D CKBD0
*I *1039:I I *C 151.3 31.6 *L 0.000643 *D CKBD0

*CAP
1 *1039:I 5.04348e-05
2 *1038:Z 2.99204e-05
3 *98:2 0.000557847031

*RES
1 *1038:Z *98:2 0.609631
2 *1039:I *98:2 5.73374987
*END

*D_NET *99 0.000445525

*CONN
*I *1039:Z O *C 151.9 31.2 *L 0 *D CKBD0
*I *1040:I I *C 151.3 33.6 *L 0.00182 *D DEL005

*CAP
1 *1040:I 9.41632e-06
2 *1039:Z 0.000436111992

*RES
1 *1039:Z *1040:I 3.6677
*END

*D_NET *100 0.00184656

*CONN
*I *1040:Z O *C 151.9 33.8 *L 0 *D DEL005
*I *1041:I I *C 142.9 33.6 *L 0.000643 *D CKBD0

*CAP
1 *1041:I 0.000185542
2 *1040:Z 0.000170585
3 *100:2 0.000287728
4 *100:3 0.00120272008

*RES
1 *100:2 *100:3 8.57991982
2 *1040:Z *100:2 1.21729
3 *1041:I *100:3 3.04898
*END

*D_NET *101 0.000894064

*CONN
*I *1041:Z O *C 143.5 34 *L 0 *D CKBD0
*I *1042:I I *C 144.7 35.2 *L 0.00182 *D DEL005

*CAP
1 *1042:I 0.000178541
2 *1041:Z 0.000220897
3 *101:2 0.000494619023

*RES
1 *1042:I *101:2 4.79762983
2 *1041:Z *101:2 1.41822
*END

*D_NET *102 0.00272057

*CONN
*I *1042:Z O *C 145.3 35 *L 0 *D DEL005
*I *1046:I I *C 137.7 30 *L 0.000643 *D CKBD0

*CAP
1 *1046:I 6.25749e-05
2 *1042:Z 1.09464e-05
3 *102:2 0.000942959
4 *102:3 0.000189125
5 *102:4 0.000409604
6 *102:5 0.00110535

*RES
1 *102:3 *102:5 6.51039982
2 *1042:Z *102:3 1.23977
3 *1046:I *102:2 0.599423
4 *102:2 *102:4 5.74369
5 *102:4 *102:5 2.7887
*END

*D_NET *103 0.00155272

*CONN
*I *1021:I I *C 150.9 103.6 *L 0.000968 *D CKBD1
*I *1043:Z O *C 143.9 103.2 *L 0 *D CKBD1

*CAP
1 *1043:Z 0.000423174
2 *103:2 0.00112955

*RES
1 *1021:I *103:2 1.81176
2 *1043:Z *103:2 8.93083
*END

*D_NET *104 0.00481959

*CONN
*I *1044:Z O *C 148.5 175.2 *L 0 *D DEL015
*I *1574:A[0] I *C 134.195 162.705 *L 0.00555 *D sram00

*CAP
1 *104:2 0.00137769
2 *104:3 0.000355333
3 *104:5 0.000138252
4 *104:6 0.000169011
5 *104:7 0.00045448
6 *104:8 0.00029588
7 *104:9 0.00193267
8 *104:10 9.63165e-05

*RES
1 *104:8 *104:10 1.06125
2 *104:7 *104:10 3.1478
3 *104:3 *104:9 2.34819
4 *104:3 *104:6 2.15063
5 *104:2 *104:7 8.28671
6 *104:5 *104:7 0.561897
7 *104:4 *104:8 1.74887
8 *104:2 *104:9 10.912
9 *1044:Z *104:4 0.75
10 *1044:Z *1574:A[0] 0.0001
*END

*D_NET *105 0.00974271

*CONN
*I *1045:Z O *C 148.7 170.8 *L 0 *D DEL0
*I *1640:D I *C 141.3 120 *L 0.000971 *D DFCNQD1

*CAP
1 *105:2 0.000758795
2 *105:3 0.00135385
3 *105:4 0.000160528
4 *105:5 0.000387756
5 *105:6 0.00368872
6 *105:2 *783:5 0.000340908008
7 *105:2 *336:7 0.00115204
8 *105:2 *66:3 0.000663096016
9 *105:3 *616:6 0.000701676016
10 *105:2 *1464:I 0.000535361992

*RES
1 *1045:Z *105:5 1.81133
2 *105:3 *105:6 31.9363995
3 *105:5 *105:3 8.89293
4 *105:4 *105:2 4.10852
5 *105:2 *105:6 14.0272
6 *1640:D *105:4 0.749971
*END

*D_NET *106 0.000987713

*CONN
*I *1046:Z O *C 138.3 30.4 *L 0 *D CKBD0
*I *1059:I I *C 137.9 31.6 *L 0.00182 *D DEL005

*CAP
1 *1046:Z 0.000123114
2 *106:2 0.000715653984
3 *106:3 0.000148951

*RES
1 *106:2 *106:3 4.88330984
2 *1046:Z *106:3 1.50003
3 *1059:I *106:2 0.749977
*END

*D_NET *107 0.00208714

*CONN
*I *1047:Z O *C 150.9 80.8 *L 0 *D BUFFD1
*I *1420:I I *C 142.3 78.4 *L 0.00105 *D DEL1

*CAP
1 *1420:I 0.000156815
2 *107:2 0.00153386
3 *107:3 0.000396461

*RES
1 *107:2 *107:3 8.96191025
2 *1420:I *107:2 1.96712
3 *1047:Z *107:3 2.91711
*END

*D_NET *108 0.000514813

*CONN
*I *1048:Z O *C 138.3 34 *L 0 *D CKBD1
*I *1603:D I *C 139.5 33.6 *L 0.000971 *D DFCNQD1

*CAP
1 *1603:D 0.00015398
2 *1048:Z 0.000145977
3 *108:2 0.000214855

*RES
1 *1048:Z *108:2 1.49999
2 *1603:D *108:2 3.56803989
*END

*D_NET *109 0.000918599

*CONN
*I *1043:I I *C 143.3 103.6 *L 0.000968 *D CKBD1
*I *1049:Z O *C 144.7 103.2 *L 0 *D CKBD0

*CAP
1 *1043:I 6.21773e-06
2 *1049:Z 7.0489e-05
3 *109:2 0.000841898047

*RES
1 *1049:Z *109:2 4.67208004
2 *1043:I *109:2 0.960922
*END

*D_NET *110 0.00122439

*CONN
*I *1050:Z O *C 146.5 9.6 *L 0 *D CKBD1
*I *1592:D I *C 149.1 13.6 *L 0.000971 *D DFCNQD1

*CAP
1 *1592:D 0.000309406
2 *110:2 0.000583643008
3 *110:3 0.000331341

*RES
1 *110:2 *110:3 3.43771
2 *1592:D *110:3 4.23500013
3 *1050:Z *110:2 0.749991
*END

*D_NET *111 0.00090922

*CONN
*I *1051:Z O *C 138.3 12.4 *L 0 *D CKBD1
*I *1597:D I *C 139.7 13.6 *L 0.000971 *D DFCNQD1

*CAP
1 *1597:D 4.65156e-06
2 *111:2 0.00090457

*RES
1 *1597:D *111:2 5.39234018
2 *1051:Z *111:2 0.749987
*END

*D_NET *112 0.000435959

*CONN
*I *1052:Z O *C 151.3 23.2 *L 0 *D BUFFD1
*I *1608:D I *C 149.5 22.8 *L 0.000971 *D DFCNQD1

*CAP
1 *112:2 0.000435959023

*RES
1 *1052:Z *112:2 1.49998
2 *1608:D *112:2 2.90116
*END

*D_NET *113 0.00257418

*CONN
*I *1026:Z O *C 142.9 49.2 *L 0 *D BUFFD1
*I *1602:D I *C 140.1 40.8 *L 0.000971 *D DFCNQD1

*CAP
1 *113:2 0.000478886
2 *113:3 0.000161666
3 *113:4 0.000547984
4 *113:5 0.00138566

*RES
1 *113:2 *113:4 3.25219
2 *1026:Z *113:2 2.54769
3 *113:4 *113:5 7.54407978
4 *113:3 *113:5 1.67766
5 *1602:D *113:3 0.749965
*END

*D_NET *114 0.00119124

*CONN
*I *1054:Z O *C 138.1 19.6 *L 0 *D CKBD0
*I *1605:D I *C 140.1 22.8 *L 0.000971 *D DFCNQD1

*CAP
1 *1054:Z 0.000570639
2 *114:2 0.000620601016

*RES
1 *1054:Z *114:2 4.34122992
2 *1605:D *114:2 3.23227
*END

*D_NET *115 0.00263055

*CONN
*I *1055:Z O *C 141.9 69.8 *L 0 *D DEL005
*I *1419:I I *C 138.1 64 *L 0.00105 *D DEL1

*CAP
1 *1055:Z 0.000284759
2 *115:2 0.000692583
3 *115:3 0.000575552
4 *115:4 0.00107764992

*RES
1 *115:2 *115:4 6.09192991
2 *115:3 *115:4 1.06127
3 *1419:I *115:3 3.71524
4 *1055:Z *115:2 5.47285
*END

*D_NET *116 0.00187926

*CONN
*I *1056:Z O *C 138.1 49.2 *L 0 *D CKBD0
*I *1067:I I *C 138.3 58.8 *L 0.00182 *D DEL005

*CAP
1 *1067:I 0.000187548
2 *116:2 5.44604e-05
3 *116:3 0.000333724
4 *116:4 0.00130353

*RES
1 *116:3 *116:4 8.71963024
2 *116:2 *116:4 1.81122
3 *1067:I *116:3 1.96689
4 *1056:Z *116:2 0.750008
*END

*D_NET *117 0.00225493

*CONN
*I *1057:I I *C 151.1 53.2 *L 0.000643 *D CKBD0
*I *1623:Q O *C 146.3 59.2 *L 0 *D DFCNQD1

*CAP
1 *1057:I 0.000480406
2 *117:2 0.000797613
3 *117:3 0.000929867031
4 *117:4 4.70503e-05

*RES
1 *1623:Q *117:2 4.80062008
2 *117:2 *117:3 1.18778
3 *117:3 *117:4 4.24515
4 *1057:I *117:4 4.18977
*END

*D_NET *118 0.00132406

*CONN
*I *1058:Z O *C 138.3 258 *L 0 *D BUFFD1
*I *1574:D[51] I *C 134.195 263.785 *L 0.00183 *D sram00

*CAP
1 *118:2 9.78193e-05
2 *118:3 0.000534571992
3 *118:4 4.32405e-05
4 *118:5 0.000293637
5 *118:7 9.52661e-05
6 *118:8 0.000181233
7 *118:10 2.35739e-06
8 *118:11 7.59339e-05

*RES
1 *118:10 *118:11 0.199778
2 *118:7 *118:10 0.428176
3 *118:6 *118:8 1.2017
4 *118:2 *118:3 1.21684
5 *118:8 *118:9 0.199778
6 *118:6 *118:7 0.199778
7 *118:4 *118:11 0.949317
8 *118:4 *118:5 2.48983
9 *118:3 *118:9 3.3735199
10 *1058:Z *118:2 0.750003
11 *1058:Z *1574:D[51] 0.000102952
*END

*D_NET *119 0.00425903

*CONN
*I *1059:Z O *C 138.5 31.4 *L 0 *D DEL005
*I *1561:I I *C 137.5 6.4 *L 0.00072 *D BUFFD1

*CAP
1 *1561:I 0.000172222
2 *119:2 0.000578445
3 *119:3 0.00350841

*RES
1 *119:2 *119:3 18.9330997
2 *1059:Z *119:2 3.47918
3 *1561:I *119:3 1.39479
*END

*D_NET *120 0.00207258

*CONN
*I *1060:Z O *C 138.1 77.2 *L 0 *D CKBD1
*I *1138:I I *C 137.9 84 *L 0.000643 *D CKBD0

*CAP
1 *1138:I 3.51537e-05
2 *1060:Z 8.94417e-05
3 *120:2 0.000856133
4 *120:3 5.03626e-05
5 *120:4 0.0010415

*RES
1 *120:3 *120:4 6.05747986
2 *120:2 *120:4 1.06128
3 *1060:Z *120:2 4.77751
4 *1138:I *120:3 1.15815
*END

*D_NET *121 0.00263444

*CONN
*I *1061:I I *C 139.3 166.8 *L 0.00104 *D DEL0
*I *1783:ZN O *C 143.3 160 *L 0 *D INVD1

*CAP
1 *1783:ZN 0.000464188
2 *121:2 0.00110748992
3 *121:3 0.000506233
4 *121:4 0.000556542

*RES
1 *121:2 *121:3 6.62560987
2 *1783:ZN *121:4 5.45994
3 *1061:I *121:3 3.64775
4 *121:2 *121:4 0.749951
*END

*D_NET *122 0.00395348

*CONN
*I *1062:Z O *C 138.1 23.2 *L 0 *D CKBD0
*I *1478:I I *C 141.9 48 *L 0.00105 *D DEL1

*CAP
1 *1062:Z 0.000139517
2 *122:2 0.000116191
3 *122:3 0.000582409
4 *122:4 0.00129452
5 *122:5 0.00151353
6 *122:6 2.65361e-05
7 *122:7 0.000280766

*RES
1 *122:6 *122:7 2.18331
2 *122:5 *122:7 0.199865
3 *122:4 *122:6 7.90244
4 *122:3 *122:5 12.0058002
5 *1062:Z *122:4 2.63744
6 *122:2 *122:3 3.23905
7 *1478:I *122:2 1.49999
*END

*D_NET *123 0.00443308

*CONN
*I *1047:I I *C 150.3 80.4 *L 0.00072 *D BUFFD1
*I *1063:Z O *C 138.9 74.6 *L 0 *D DEL005

*CAP
1 *1063:Z 8.32545e-05
2 *123:2 0.000551972
3 *123:3 0.00207298
4 *123:4 0.00172487

*RES
1 *123:3 *123:4 9.71463013
2 *1063:Z *123:3 4.05433
3 *123:2 *123:4 8.9112
4 *1047:I *123:2 4.11259
*END

*D_NET *124 0.00225993

*CONN
*I *1057:Z O *C 151.7 52.8 *L 0 *D CKBD0
*I *1064:I I *C 141.1 55.2 *L 0.000643 *D CKBD0

*CAP
1 *124:2 0.000185869
2 *124:3 0.00207406

*RES
1 *124:2 *124:3 9.56760979
2 *1064:I *124:3 4.6384
3 *1057:Z *124:2 0.749951
*END

*D_NET *125 0.000544138

*CONN
*I *1065:Z O *C 151.1 34.8 *L 0 *D CKBD1
*I *1594:D I *C 149.3 35.2 *L 0.000971 *D DFCNQD1

*CAP
1 *125:2 0.000544138008

*RES
1 *1065:Z *125:2 1.50002
2 *1594:D *125:2 3.17247009
*END

*D_NET *126 0.00247266

*CONN
*I *1066:Z O *C 151.5 8.6 *L 0 *D DEL005
*I *1325:I I *C 137.5 10 *L 0.00103 *D DEL015

*CAP
1 *1325:I 2.64161e-05
2 *1066:Z 6.38916e-05
3 *126:2 0.000288871
4 *126:3 2.26875e-05
5 *126:4 0.00207079

*RES
1 *126:3 *126:4 3.86351
2 *126:2 *126:4 12.6681995
3 *1066:Z *126:2 3.39089
4 *1325:I *126:3 1.16039
*END

*D_NET *127 0.00204733

*CONN
*I *1067:Z O *C 138.9 59 *L 0 *D DEL005
*I *1329:I I *C 138.3 49.6 *L 0.00103 *D DEL015

*CAP
1 *1329:I 4.97838e-05
2 *127:2 0.000375976
3 *127:3 0.00162156

*RES
1 *127:2 *127:3 9.68498039
2 *1329:I *127:3 1.83574
3 *1067:Z *127:2 2.40558
*END

*D_NET *128 0.00163855

*CONN
*I *1068:Z O *C 139.3 26.6 *L 0 *D DEL005
*I *1327:I I *C 140.9 20.8 *L 0.00103 *D DEL015

*CAP
1 *128:2 0.00108426
2 *128:3 0.000554299

*RES
1 *1068:Z *128:3 3.09747
2 *128:2 *128:3 5.84782982
3 *1327:I *128:2 1.49997
*END

*D_NET *129 0.00140483

*CONN
*I *1069:Z O *C 151.3 24.2 *L 0 *D DEL005
*I *1328:I I *C 146.3 28 *L 0.00103 *D DEL015

*CAP
1 *1328:I 0.000358392
2 *1069:Z 0.00013221
3 *129:2 7.22078e-05
4 *129:3 0.000842018047

*RES
1 *129:2 *129:3 4.22658
2 *1328:I *129:3 5.15355015
3 *1069:Z *129:2 1.06152
*END

*D_NET *130 0.00182332

*CONN
*I *1070:Z O *C 138.9 8.6 *L 0 *D DEL005
*I *1326:I I *C 140.9 15.6 *L 0.00103 *D DEL015

*CAP
1 *1070:Z 0.000334312
2 *130:2 0.001489

*RES
1 *1326:I *130:2 7.7952199
2 *1070:Z *130:2 4.36209
*END

*D_NET *131 0.000964772

*CONN
*I *1055:I I *C 141.3 69.6 *L 0.00182 *D DEL005
*I *1071:Z O *C 138.9 67.4 *L 0 *D DEL005

*CAP
1 *1055:I 7.90199e-05
2 *1071:Z 0.000501070977
3 *131:2 0.000384686

*RES
1 *1055:I *131:2 3.40212
2 *1071:Z *131:2 3.65605998
*END

*D_NET *132 0.00114164

*CONN
*I *1072:I I *C 151.1 62.4 *L 0.000968 *D CKBD1
*I *1624:Q O *C 146.7 62.8 *L 0 *D DFCNQD1

*CAP
1 *1072:I 3.43725e-06
2 *132:2 0.000975152031
3 *132:3 0.000163039

*RES
1 *132:2 *132:3 5.51851988
2 *1072:I *132:3 2.40585
3 *1624:Q *132:2 0.750022
*END

*D_NET *133 0.00115106

*CONN
*I *1073:Z O *C 151.5 19.4 *L 0 *D DEL005
*I *1324:I I *C 149.3 15.6 *L 0.00103 *D DEL015

*CAP
1 *1324:I 0.00014791
2 *1073:Z 3.76855e-05
3 *133:2 0.000500246992
4 *133:3 0.000465218

*RES
1 *1073:Z *133:2 0.765112
2 *133:2 *133:3 7.1631999
3 *1324:I *133:3 2.24998
*END

*D_NET *134 0.001647

*CONN
*I *1074:Z O *C 151.3 13.4 *L 0 *D DEL005
*I *1322:I I *C 143.5 13.6 *L 0.00103 *D DEL015

*CAP
1 *1322:I 0.000307504
2 *1074:Z 0.00016731
3 *134:2 0.00117218992

*RES
1 *1322:I *134:2 2.82661
2 *1074:Z *134:2 9.31814957
*END

*D_NET *135 0.000325632

*CONN
*I *1075:Z O *C 142.7 70 *L 0 *D CKBD0
*I *1417:I I *C 143.1 71.2 *L 0.00105 *D DEL1

*CAP
1 *1075:Z 0.000325632012

*RES
1 *1075:Z *1417:I 4.24573
*END

*D_NET *136 0.00117481

*CONN
*I *1076:Z O *C 139.3 127.4 *L 0 *D DEL005
*I *1710:B1 I *C 141.5 128.6 *L 0.000863 *D AO22D0

*CAP
1 *1076:Z 0.000444033
2 *136:2 0.000123887
3 *136:3 0.000606889023

*RES
1 *136:2 *136:3 3.23617
2 *1076:Z *136:3 3.57944012
3 *1710:B1 *136:2 0.750013
*END

*D_NET *137 0.00713121

*CONN
*I *1077:Z O *C 144.1 167.2 *L 0 *D DEL015
*I *1679:D I *C 145.3 113 *L 0.00077 *D EDFCNQD4

*CAP
1 *137:2 0.000227298
2 *137:3 0.000393145
3 *137:4 0.000154413
4 *137:5 0.00035299
5 *137:6 0.00257493
6 *137:5 *311:2 0.00149411
7 *137:5 *230:3 0.00193431

*RES
1 *137:5 *137:6 42.3591995
2 *137:4 *137:6 2.59057
3 *137:3 *137:5 2.53886
4 *137:2 *137:4 2.04828
5 *1077:Z *137:3 1.50018
6 *1679:D *137:2 0.749766
*END

*D_NET *138 0.00442566

*CONN
*I *982:I I *C 151.3 116.4 *L 0.00182 *D DEL005
*I *1078:Z O *C 139.3 125 *L 0 *D DEL005

*CAP
1 *982:I 0.000188019
2 *138:2 0.00102907
3 *138:3 0.00179592
4 *138:4 0.00130446
5 *138:5 0.000108191

*RES
1 *138:2 *138:4 4.31497
2 *1078:Z *138:2 2.2786
3 *138:4 *138:5 6.9881
4 *138:3 *138:5 8.02980995
5 *982:I *138:3 3.63128
*END

*D_NET *139 0.00217319

*CONN
*I *1079:Z O *C 144.1 109.4 *L 0 *D DEL005
*I *1707:B1 I *C 140.9 116.6 *L 0.000863 *D AO22D0

*CAP
1 *1079:Z 7.57604e-06
2 *139:2 0.000981456
3 *139:3 9.29605e-05
4 *139:5 0.0010912

*RES
1 *139:2 *139:3 5.26850986
2 *1079:Z *139:2 0.381938
3 *139:4 *139:5 2.7747
4 *139:3 *139:5 3.69735
5 *1707:B1 *139:4 0.749968
*END

*D_NET *140 0.000763721

*CONN
*I *1080:I I *C 148.1 139.6 *L 0.000643 *D CKBD0
*I *1275:Z O *C 151.9 139.2 *L 0 *D DEL01

*CAP
1 *1275:Z 0.000249295
2 *1080:I 0.000121007
3 *140:2 0.00039342

*RES
1 *1080:I *140:2 2.42908
2 *1275:Z *140:2 4.43815994
*END

*D_NET *141 0.00485829

*CONN
*I *1081:I I *C 145.3 240.4 *L 0.00103 *D DEL015
*I *1260:Z O *C 151.1 214 *L 0 *D BUFFD0

*CAP
1 *141:2 0.000482744
2 *141:3 0.00016295
3 *141:4 0.00421260031

*RES
1 *141:2 *141:4 24.1641998
2 *141:3 *141:4 4.1488
3 *1260:Z *141:3 1.65554
4 *1081:I *141:2 3.84719
*END

*D_NET *142 0.00208044

*CONN
*I *1082:I I *C 138.1 220.8 *L 0.00104 *D DEL0
*I *1403:Z O *C 145.5 214.8 *L 0 *D DEL1

*CAP
1 *1403:Z 0.000687532
2 *1082:I 6.82218e-05
3 *142:2 0.00121756992
4 *142:3 0.000107108

*RES
1 *142:2 *142:3 6.06295013
2 *1403:Z *142:3 4.3558
3 *1082:I *142:2 2.92962
*END

*D_NET *143 0.00275338

*CONN
*I *1083:I I *C 138.1 182.8 *L 0.00104 *D DEL0
*I *1404:Z O *C 149.3 192.4 *L 0 *D DEL1

*CAP
1 *143:2 0.000239695
2 *143:3 0.00098875
3 *143:4 0.00152494

*RES
1 *143:2 *143:4 9.46502972
2 *1404:Z *143:2 1.34936
3 *143:3 *143:4 6.97803
4 *1083:I *143:3 0.749998
*END

*D_NET *144 0.00212828

*CONN
*I *1084:I I *C 140.7 182.8 *L 0.00104 *D DEL0
*I *1402:Z O *C 148.7 186 *L 0 *D DEL1

*CAP
1 *144:2 0.000253197
2 *144:3 0.00061736
3 *144:4 0.00125773

*RES
1 *144:2 *144:4 7.09694004
2 *144:3 *144:4 3.82775
3 *1402:Z *144:2 1.14951
4 *1084:I *144:3 1.50004
*END

*D_NET *145 0.00474038

*CONN
*I *1085:I I *C 149.7 168.4 *L 0.00103 *D DEL015
*I *1284:Z O *C 148.7 142 *L 0 *D DEL01

*CAP
1 *1284:Z 0.000927527
2 *145:2 0.000962582
3 *145:3 0.0028503

*RES
1 *145:2 *145:3 1.21695
2 *1284:Z *145:3 22.1047993
3 *1085:I *145:2 6.61262
*END

*D_NET *146 0.00259441

*CONN
*I *1086:Z O *C 143.1 286 *L 0 *D DEL015
*I *1574:D[61] I *C 134.195 305.785 *L 0.00183 *D sram00

*CAP
1 *146:2 5.51251e-06
2 *146:3 0.000196961
3 *146:4 0.000439183
4 *146:6 0.00195277

*RES
1 *146:3 *146:6 16.779
2 *146:3 *146:4 5.13526
3 *146:5 *146:6 2.46175
4 *1086:Z *146:2 0.75
5 *146:2 *146:5 0.75
6 *1086:Z *1574:D[61] 0.0001
*END

*D_NET *147 0.00113772

*CONN
*I *1087:I I *C 145.7 67.6 *L 0.000643 *D CKBD0
*I *1262:Z O *C 148.5 70 *L 0 *D BUFFD1

*CAP
1 *147:2 0.000683645
2 *147:3 0.000454084

*RES
1 *147:2 *147:3 3.03381991
2 *1262:Z *147:3 2.89855
3 *1087:I *147:2 1.50001
*END

*D_NET *148 0.0021885

*CONN
*I *1088:Z O *C 139.9 164.4 *L 0 *D DEL01
*I *1574:A[2] I *C 134.265 156.66 *L 0.00555 *D sram00

*CAP
1 *148:2 0.0013746
2 *148:3 0.000813895

*RES
1 *148:2 *148:3 5.21908
2 *1088:Z *148:2 7.49415
3 *1088:Z *1574:A[2] 0.0001
*END

*D_NET *149 0.00481313

*CONN
*I *1089:I I *C 144.3 166.8 *L 0.00103 *D DEL015
*I *1309:Z O *C 147.7 135.6 *L 0 *D DEL01

*CAP
1 *1089:I 0.000584112
2 *149:2 0.000421978
3 *149:3 0.00380704

*RES
1 *149:2 *149:3 27.9438
2 *1309:Z *149:2 1.50003
3 *1089:I *149:3 6.1272
*END

*D_NET *150 0.00119304

*CONN
*I *1090:Z O *C 139.5 160 *L 0 *D DEL01
*I *1574:A[1] I *C 134.265 162.125 *L 0.00555 *D sram00

*CAP
1 *150:2 0.000117096
2 *150:3 0.000124878
3 *150:4 0.00021202
4 *150:6 5.07404e-05
5 *150:7 0.000190424
6 *150:9 4.60216e-06
7 *150:10 1.53016e-05
8 *150:11 0.000477975

*RES
1 *150:9 *150:10 0.333518
2 *150:2 *150:3 1.10805
3 *150:8 *150:11 1.3509
4 *150:7 *150:8 0.199831
5 *150:4 *150:11 4.17605019
6 *150:3 *150:4 1.0154
7 *150:6 *150:9 0.369903
8 *150:5 *150:7 1.20236
9 *150:5 *150:6 0.199831
10 *1090:Z *150:2 0.750002
11 *1090:Z *1574:A[1] 0.000127443
*END

*D_NET *151 0.00219404

*CONN
*I *1091:I I *C 138.1 218.8 *L 0.00103 *D DEL015
*I *1258:Z O *C 143.1 210.4 *L 0 *D BUFFD0

*CAP
1 *1258:Z 0.000266163
2 *151:2 7.51984e-05
3 *151:4 0.00185268

*RES
1 *151:2 *151:4 5.19807
2 *151:3 *151:4 6.44117022
3 *1258:Z *151:2 1.90239
4 *1091:I *151:3 1.50002
*END

*D_NET *152 0.00253097

*CONN
*I *1092:Z O *C 147.5 279.6 *L 0 *D DEL1
*I *1667:D I *C 145.7 267.6 *L 0.000971 *D DFCNQD1

*CAP
1 *1667:D 0.000427784
2 *1092:Z 0.000164678
3 *152:2 0.00169795
4 *152:3 0.00024054

*RES
1 *152:2 *152:3 9.80097008
2 *1092:Z *152:3 3.32482
3 *1667:D *152:2 3.91195
*END

*D_NET *153 0.00863508

*CONN
*I *1093:Z O *C 141.7 170.8 *L 0 *D DEL1
*I *1643:D I *C 141.7 134.4 *L 0.000971 *D DFCNQD1

*CAP
1 *1643:D 2.41807e-05
2 *1093:Z 0.000173425
3 *153:2 0.000805071
4 *153:3 0.000662293
5 *153:4 0.00155819
6 *153:5 0.00122791
7 *153:6 7.51812e-05
8 *153:7 0.000357027
9 *153:8 2.73429e-06
10 *153:4 *375:3 0.000596501992
11 *153:3 *619:6 0.000415833008
12 *153:4 *908:2 0.000482098008
13 *153:2 *73:17 0.000268885996
14 *153:3 *992:Z 0.000407918008
15 *153:2 *79:18 0.00157782

*RES
1 *153:5 *153:8 11.6218
2 *1643:D *153:7 3.09243
3 *153:2 *153:8 13.1625
4 *153:3 *153:6 2.16382
5 *153:3 *153:5 3.37438
6 *153:4 *153:6 14.4245996
7 *1093:Z *153:2 2.92361
8 *153:4 *153:7 0.750107
*END

*D_NET *154 0.00656355

*CONN
*I *1094:Z O *C 141.7 168 *L 0 *D DEL1
*I *1644:D I *C 143.1 139.6 *L 0.000971 *D DFCNQD1

*CAP
1 *1644:D 7.66672e-05
2 *154:2 0.00256084984
3 *154:3 0.000113477
4 *154:4 0.000927275
5 *154:5 4.86106e-05
6 *154:4 *250:3 0.000266456016
7 *154:2 *273:3 0.000478785
8 *154:4 *846:6 0.000337506992
9 *154:4 *910:3 0.00125993
10 *154:4 *4:3 0.000230801992
11 *154:2 *840:22 0.000263208984

*RES
1 *154:5 *154:2 4.53136
2 *154:3 *154:4 3.23603
3 *1644:D *154:5 1.50009
4 *154:4 *154:2 29.9542999
5 *1094:Z *154:3 0.750046
*END

*D_NET *155 0.00792573

*CONN
*I *1095:Z O *C 150.5 167.2 *L 0 *D DEL1
*I *1645:D I *C 142.9 143.2 *L 0.000971 *D DFCNQD1

*CAP
1 *155:2 0.00178441
2 *155:3 0.000284261
3 *155:4 9.35495e-05
4 *155:5 0.00182084
5 *155:6 0.00119497
6 *155:2 *1206:I 0.000362928984
7 *155:2 *2:3 0.00238474984

*RES
1 *155:4 *155:6 6.6331
2 *155:2 *155:5 24.5237007
3 *155:3 *155:5 13.4054
4 *1645:D *155:4 0.749901
5 *1095:Z *155:3 0.749901
6 *155:2 *155:6 0.749901
*END

*D_NET *156 0.00201701

*CONN
*I *1096:Z O *C 147.1 278.8 *L 0 *D DEL1
*I *1669:D I *C 143.9 271.2 *L 0.000971 *D DFCNQD1

*CAP
1 *156:2 0.000109223
2 *156:3 0.000504533
3 *156:4 0.00140324

*RES
1 *156:3 *156:4 3.08421
2 *156:2 *156:4 7.58194017
3 *1096:Z *156:2 1.08599
4 *1669:D *156:3 0.750026
*END

*D_NET *157 0.00346655

*CONN
*I *1097:Z O *C 146.5 276 *L 0 *D DEL1
*I *1666:D I *C 143.3 262 *L 0.000971 *D DFCNQD1

*CAP
1 *1666:D 0.000635161
2 *157:2 0.000223301
3 *157:3 0.0026081

*RES
1 *157:2 *157:3 13.5565004
2 *1097:Z *157:2 1.6898
3 *1666:D *157:3 4.87311
*END

*D_NET *158 0.00363978

*CONN
*I *1098:Z O *C 151.7 275.2 *L 0 *D DEL1
*I *1663:D I *C 145.7 249.6 *L 0.000971 *D DFCNQD1

*CAP
1 *158:2 0.00273563
2 *158:3 8.9998e-05
3 *158:4 0.000814156

*RES
1 *158:2 *158:4 20.6259995
2 *158:3 *158:4 4.95161
3 *1098:Z *158:3 1.49999
4 *1663:D *158:2 2.05612
*END

*D_NET *159 0.0021387

*CONN
*I *1099:Z O *C 141.5 268 *L 0 *D DEL1
*I *1668:D I *C 146.3 260.4 *L 0.000971 *D DFCNQD1

*CAP
1 *1668:D 0.000197774
2 *159:2 0.00181859
3 *159:3 0.000122349

*RES
1 *159:2 *159:3 4.57399
2 *1099:Z *159:2 7.07233
3 *1668:D *159:3 2.09895
*END

*D_NET *160 0.00232401

*CONN
*I *1100:Z O *C 142.3 265.2 *L 0 *D DEL1
*I *1664:D I *C 146.7 254.8 *L 0.000971 *D DFCNQD1

*CAP
1 *1664:D 6.36094e-05
2 *1100:Z 6.00685e-05
3 *160:2 0.000805803
4 *160:3 0.000118267
5 *160:4 8.62531e-05
6 *160:5 0.00119002

*RES
1 *1100:Z *160:3 2.25001
2 *160:4 *160:5 4.35836
3 *160:2 *160:4 4.86809
4 *1664:D *160:2 0.971806
5 *160:3 *160:5 6.1238699
*END

*D_NET *161 0.000644152

*CONN
*I *1101:Z O *C 141.7 258 *L 0 *D DEL1
*I *1665:D I *C 141.7 254.8 *L 0.000971 *D DFCNQD1

*CAP
1 *161:2 0.000644151992

*RES
1 *1101:Z *161:2 3.39155006
2 *1665:D *161:2 0.749975
*END

*D_NET *162 0.00246503

*CONN
*I *1102:I I *C 138.7 217.2 *L 0.00105 *D DEL1
*I *1703:ZN O *C 142.3 205.8 *L 0 *D MOAI22D0

*CAP
1 *1703:ZN 0.000151575
2 *162:2 8.52399e-05
3 *162:3 0.00222824

*RES
1 *162:2 *162:3 9.8338604
2 *1703:ZN *162:3 4.80919
3 *1102:I *162:2 0.749964
*END

*D_NET *163 0.00302094

*CONN
*I *1103:I I *C 140.5 218.8 *L 0.00105 *D DEL1
*I *1702:ZN O *C 146.5 205.8 *L 0 *D MOAI22D0

*CAP
1 *1103:I 0.000210953
2 *163:2 2.3563e-06
3 *163:3 0.00280764

*RES
1 *1702:ZN *163:3 7.87295
2 *1103:I *163:2 2.62086
3 *163:2 *163:3 9.18653011
*END

*D_NET *164 0.000604382

*CONN
*I *1104:I I *C 143.3 210 *L 0.00105 *D DEL1
*I *1704:ZN O *C 142.3 208.6 *L 0 *D MOAI22D0

*CAP
1 *1704:ZN 0.000234282
2 *1104:I 0.000370101992

*RES
1 *1104:I *1704:ZN 4.58126
*END

*D_NET *165 0.00603514

*CONN
*I *1105:I I *C 139.3 163.2 *L 0.00103 *D DEL015
*I *1272:Z O *C 146.5 142 *L 0 *D CKBD0

*CAP
1 *1272:Z 0.000194427
2 *1105:I 8.27263e-05
3 *165:2 0.00292578
4 *165:3 7.00919e-06
5 *165:4 6.23238e-05
6 *165:5 3.48227e-05
7 *165:6 0.000660382
8 *165:3 *781:2 0.000611225
9 *1272:Z *855:11 0.000218831992
10 *165:2 *378:7 0.000220089004
11 *165:3 *782:9 0.00101756

*RES
1 *165:4 *165:2 11.0081
2 *1105:I *165:5 1.81154
3 *165:3 *165:2 19.3988991
4 *165:5 *165:6 4.6662
5 *1272:Z *165:4 0.949876
6 *165:3 *165:6 0.750073
*END

*D_NET *166 0.00790442

*CONN
*I *1106:Z O *C 140.9 160.8 *L 0 *D DEL1
*I *1637:D I *C 142.5 105.6 *L 0.000971 *D DFCNQD1

*CAP
1 *1637:D 8.87449e-05
2 *166:2 0.000217343
3 *166:3 0.000529826
4 *166:4 0.0016499
5 *166:5 2.99089e-05
6 *166:6 5.6696e-05
7 *166:3 *293:3 0.00020829
8 *166:2 *73:20 0.000459206992
9 *166:3 *618:5 0.000272172012
10 *166:4 *82:4 0.00238221
11 *166:2 *83:3 0.00201013

*RES
1 *166:6 *166:4 44.656601
2 *166:3 *166:4 1.49977
3 *166:2 *166:6 2.05444
4 *166:5 *166:3 2.70791
5 *1106:Z *166:2 1.49977
6 *1637:D *166:5 1.49977
*END

*D_NET *167 0.0101422

*CONN
*I *1107:Z O *C 150.9 164.4 *L 0 *D DEL1
*I *1633:D I *C 147.7 96.4 *L 0.000971 *D DFCNQD1

*CAP
1 *167:2 0.000124779
2 *167:3 0.000213704
3 *167:4 0.000127669
4 *167:5 5.07787e-05
5 *167:6 0.000159909
6 *167:7 0.00205926984
7 *167:2 *309:4 0.00393967
8 *167:2 *940:14 0.00314269
9 *167:2 *719:2 0.000323775

*RES
1 *167:5 *167:6 2.46354
2 *1107:Z *167:4 1.4999
3 *167:6 *167:7 58.9664993
4 *167:2 *167:7 1.4999
5 *167:3 *167:2 2.27819
6 *1633:D *167:3 0.750398
7 *167:4 *167:5 0.750398
*END

*D_NET *168 0.00779839

*CONN
*I *1108:I I *C 142.9 164.8 *L 0.00105 *D DEL1
*I *1754:ZN O *C 141.9 98 *L 0 *D MOAI22D1

*CAP
1 *1754:ZN 2.47776e-05
2 *168:2 0.000418883
3 *168:3 0.00319018
4 *168:2 *169:2 0.00137492
5 *168:3 *235:2 0.0016239
6 *168:3 *775:4 0.000546876016
7 *168:3 *846:6 0.00035009
8 *168:3 *779:2 0.00026875002

*RES
1 *168:2 *168:3 55.6016006
2 *1108:I *168:3 4.8402
3 *1754:ZN *168:2 1.49999
*END

*D_NET *169 0.0104764

*CONN
*I *1109:Z O *C 144.9 163.6 *L 0 *D DEL1
*I *1631:D I *C 141.7 91.2 *L 0.000971 *D DFCNQD1

*CAP
1 *169:2 0.00253732984
2 *169:3 0.000362664
3 *169:4 0.000219526
4 *169:5 0.000169504
5 *169:6 0.000339821
6 *169:2 *775:5 0.00139022
7 *169:2 *846:10 0.000595125977
8 *169:2 *279:2 0.00129657992
9 *169:2 *800:2 0.000314049004
10 *169:3 *716:2 0.000335873984
11 *169:2 *12:2 0.00154078
12 *169:2 *168:2 0.00137492

*RES
1 *169:2 *169:6 64.8563004
2 *169:5 *169:6 2.93029
3 *169:4 *169:5 1.50028
4 *169:3 *169:2 3.59928
5 *1109:Z *169:4 1.70018
6 *1631:D *169:3 0.750138
*END

*D_NET *170 0.00861803

*CONN
*I *1110:Z O *C 144.3 160.8 *L 0 *D DEL1
*I *1634:D I *C 141.5 92.8 *L 0.000971 *D DFCNQD1

*CAP
1 *1634:D 0.000125702
2 *1110:Z 0.000133441
3 *170:2 0.000279817
4 *170:3 0.000152764
5 *170:4 0.000914299
6 *170:5 0.000298568
7 *170:6 0.00340408
8 *170:4 *247:2 0.00196184
9 *170:4 *184:3 0.000648083984
10 *170:4 *230:3 0.000410111992
11 *170:4 *934:3 0.000289292988

*RES
1 *170:5 *170:6 4.02294
2 *170:3 *170:4 2.59784
3 *170:4 *170:6 54.0483017
4 *1110:Z *170:3 1.50015
5 *1634:D *170:2 1.50015
6 *170:2 *170:5 1.50015
*END

*D_NET *171 0.00292406

*CONN
*I *1111:Z O *C 140.7 236.4 *L 0 *D DEL1
*I *1660:D I *C 149.3 246 *L 0.000971 *D DFCNQD1

*CAP
1 *171:2 0.000509884
2 *171:3 0.00138091
3 *171:4 0.00103328

*RES
1 *171:3 *171:4 8.06847954
2 *171:2 *171:4 6.00901
3 *1660:D *171:2 3.16431
4 *1111:Z *171:3 0.750018
*END

*D_NET *172 0.00145557

*CONN
*I *1112:Z O *C 140.7 224.8 *L 0 *D DEL1
*I *1656:D I *C 145.9 228 *L 0.000971 *D DFCNQD1

*CAP
1 *1112:Z 0.000246109
2 *172:2 0.000346042
3 *172:3 0.000863425

*RES
1 *172:2 *172:3 5.26449013
2 *1656:D *172:2 2.01748
3 *1112:Z *172:3 2.43383
*END

*D_NET *173 0.000644491

*CONN
*I *1113:I I *C 145.1 236.8 *L 0.00105 *D DEL1
*I *1727:Z O *C 144.1 234.6 *L 0 *D AO22D0

*CAP
1 *1727:Z 0.000395553008
2 *1113:I 0.000248939

*RES
1 *1113:I *1727:Z 5.89546
*END

*D_NET *174 0.00224177

*CONN
*I *1114:Z O *C 151.9 232.8 *L 0 *D DEL1
*I *1655:D I *C 148.7 224.4 *L 0.000971 *D DFCNQD1

*CAP
1 *1655:D 0.000437598
2 *174:2 0.00149575
3 *174:3 0.000308439

*RES
1 *1655:D *174:2 3.58593
2 *174:2 *174:3 8.5184803
3 *1114:Z *174:3 3.06185
*END

*D_NET *175 0.000842108

*CONN
*I *1115:I I *C 145.9 238.8 *L 0.00105 *D DEL1
*I *1728:Z O *C 144.1 241.8 *L 0 *D AO22D0

*CAP
1 *1728:Z 0.000383332
2 *1115:I 0.000458776016

*RES
1 *1728:Z *1115:I 6.60215
*END

*D_NET *176 0.00115255

*CONN
*I *1116:I I *C 148.1 229.6 *L 0.00105 *D DEL1
*I *1724:Z O *C 144.3 231 *L 0 *D AO22D0

*CAP
1 *1116:I 0.000294044
2 *176:2 0.000768531016
3 *176:3 8.99815e-05

*RES
1 *176:2 *176:3 4.29775
2 *1724:Z *176:2 0.949707
3 *1116:I *176:3 3.696
*END

*D_NET *177 0.000540679

*CONN
*I *1117:Z O *C 141.5 243.6 *L 0 *D DEL1
*I *1661:D I *C 142.1 246 *L 0.000971 *D DFCNQD1

*CAP
1 *1117:Z 0.000540678984

*RES
1 *1117:Z *1661:D 4.46426
*END

*D_NET *178 0.0105133

*CONN
*I *1118:Z O *C 150.9 163.6 *L 0 *D DEL1
*I *1588:D I *C 147.5 116.4 *L 0.000971 *D DFCNQD1
*I *1589:I I *C 146.7 159.8 *L 0.00062 *D CKND0

*CAP
1 *1588:D 0.00221093016
2 *178:3 0.00109499
3 *178:4 0.000388713
4 *178:5 0.000307779
5 *178:6 0.000637319
6 *178:7 0.000831034
7 *178:8 0.000276236
8 *178:9 0.00129174
9 *178:10 0.000478622
10 *178:11 0.000307071
11 *178:12 0.000260076
12 *178:13 0.000247931
13 *178:14 0.000129178
14 *178:7 *855:12 0.000840418984
15 *178:3 *288:2 0.000304205
16 *178:3 *1757:A2 0.000907156016

*RES
1 *178:13 *178:14 0.583043
2 *1588:D *178:6 12.4911003
3 *178:10 *178:11 3.48205
4 *178:7 *178:12 2.41317
5 *178:9 *178:11 3.29622
6 *178:7 *178:14 5.37032
7 *178:8 *178:12 1.80288
8 *178:4 *178:5 1.8713
9 *178:4 *178:10 3.60347
10 *178:3 *178:5 8.26075
11 *178:3 *178:6 2.79304
12 *1118:Z *178:13 2.66305
13 *178:8 *178:9 8.46546
14 *1589:I *178:12 0.750007
*END

*D_NET *179 0.00746946

*CONN
*I *1119:I I *C 147.9 161.2 *L 0.00105 *D DEL1
*I *1767:ZN O *C 146.9 124.8 *L 0 *D INR3D0

*CAP
1 *179:2 0.00324403
2 *179:3 0.00110872
3 *179:3 *937:5 0.000188659004
4 *179:2 *717:3 0.00138024
5 *179:2 *719:3 0.0015478

*RES
1 *1119:I *179:3 2.71662
2 *1767:ZN *179:2 3.57546
3 *179:3 *179:2 37.6239014
*END

*D_NET *180 0.01514

*CONN
*I *1120:Z O *C 149.5 168 *L 0 *D DEL1
*I *1690:B2 I *C 145.9 221 *L 0.000698 *D AO22D0
*I *1691:B2 I *C 144.9 247.4 *L 0.000698 *D AO22D0
*I *1693:B2 I *C 143.7 253.4 *L 0.000698 *D AO22D0
*I *1692:B2 I *C 144.9 253.4 *L 0.000698 *D AO22D0
*I *1696:B2 I *C 144.7 258.2 *L 0.000698 *D AO22D0
*I *1694:B2 I *C 143.5 260.6 *L 0.000698 *D AO22D0
*I *1695:B2 I *C 142.1 264.2 *L 0.000698 *D AO22D0
*I *1697:B2 I *C 142.5 265.4 *L 0.000698 *D AO22D0

*CAP
1 *1697:B2 0.000357288
2 *1696:B2 2.97019e-05
3 *1692:B2 0.000164961
4 *1691:B2 1.31546e-05
5 *180:9 0.000811362
6 *180:10 0.000414291
7 *180:11 0.00067988
8 *180:12 9.36828e-05
9 *180:13 0.000702221
10 *180:14 0.000217099
11 *180:15 0.000510726
12 *180:16 0.000125753
13 *180:17 5.02821e-05
14 *180:18 0.000376683
15 *180:19 0.000785885
16 *180:20 0.000306045
17 *180:21 0.000164577
18 *180:22 0.000114839
19 *180:24 0.00169317
20 *180:25 0.000263989
21 *180:26 0.000643201
22 *180:27 1.12022e-06
23 *180:28 0.00209753984
24 *180:13 *625:6 0.000873041953
25 *1692:B2 *627:21 0.000460451992
26 *180:9 *863:9 0.00105482992
27 *180:19 *840:7 0.00117771008
28 *180:9 *839:15 0.000956520938

*RES
1 *180:23 *180:26 10.9715
2 *180:22 *180:25 2.18259
3 *180:18 *180:21 1.83935
4 *180:17 *180:20 2.09158
5 *180:10 *180:20 3.31181
6 *180:12 *180:9 3.94469
7 *180:10 *180:13 1.47211
8 *180:19 *180:28 20.8294
9 *180:9 *180:27 5.53074
10 *180:11 *180:14 3.97573
11 *1696:B2 *180:14 1.331
12 *180:13 *180:19 3.24055
13 *180:11 *180:17 0.645571
14 *180:24 *180:25 23.1191998
15 *180:23 *180:24 0.199668
16 *180:26 *180:27 0.199668
17 *180:15 *180:21 4.28793
18 *180:14 *180:15 1.93918
19 *1697:B2 *180:18 4.18175
20 *1692:B2 *180:11 2.15543
21 *180:22 *180:28 0.444844
22 *180:16 *180:28 1.95647
23 *1691:B2 *180:13 1.14016
24 *1695:B2 *180:18 1.49998
25 *1693:B2 *180:17 1.49998
26 *1690:B2 *180:16 1.49998
27 *1694:B2 *180:15 0.749991
28 *1120:Z *180:12 0.749991
*END

*D_NET *181 0.0145465

*CONN
*I *1121:Z O *C 148.1 182.4 *L 0 *D DEL1
*I *1690:A2 I *C 145.3 220.8 *L 0.000745 *D AO22D0
*I *1691:A2 I *C 145.5 247.6 *L 0.000745 *D AO22D0
*I *1693:A2 I *C 143.1 253.2 *L 0.000745 *D AO22D0
*I *1692:A2 I *C 145.5 253.2 *L 0.000745 *D AO22D0
*I *1696:A2 I *C 145.3 258.4 *L 0.000745 *D AO22D0
*I *1694:A2 I *C 142.9 260.4 *L 0.000745 *D AO22D0
*I *1695:A2 I *C 142.7 264 *L 0.000745 *D AO22D0
*I *1697:A2 I *C 143.1 265.6 *L 0.000745 *D AO22D0

*CAP
1 *1697:A2 0.000320251
2 *1695:A2 0.000143266
3 *1121:Z 0.000173063
4 *181:9 0.000523955
5 *181:10 0.0014941
6 *181:11 0.000747814
7 *181:12 3.17127e-05
8 *181:14 0.000427381
9 *181:15 4.24508e-05
10 *181:16 0.000126782
11 *181:17 0.00102297
12 *181:18 4.91536e-05
13 *181:19 0.000548669
14 *181:20 0.000338056
15 *181:21 0.000411832
16 *181:22 0.000351872
17 *181:23 0.000352738
18 *181:24 0.000432374
19 *181:25 0.000195178
20 *181:26 0.000101636
21 *181:27 0.000502547
22 *181:28 0.000281242
23 *181:29 0.00102124
24 *181:30 0.000166361
25 *181:31 0.00058159
26 *181:9 *626:29 0.000692933047
27 *181:10 *50:4 0.00085747
28 *181:11 *70:5 0.00260784

*RES
1 *181:18 *181:22 2.84811
2 *181:13 *181:14 0.800074
3 *181:26 *181:27 0.355519
4 *181:9 *181:29 1.02766
5 *1691:A2 *181:20 2.39689
6 *181:11 *181:20 1.52817
7 *181:10 *181:30 13.6332998
8 *1697:A2 *181:15 3.04615
9 *181:15 *181:19 3.04615
10 *1121:Z *181:9 4.7241
11 *181:12 *181:17 1.81941
12 *181:23 *181:26 3.67855
13 *181:27 *181:28 10.6959
14 *181:23 *181:29 13.1284
15 *181:16 *181:21 2.73619
16 *181:28 *181:31 1.45391
17 *1695:A2 *181:15 1.20074
18 *181:24 *181:31 1.29393
19 *181:24 *181:25 5.09252
20 *1690:A2 *181:31 3.64776
21 *181:13 *181:17 3.52274
22 *181:25 *181:10 2.78341
23 *181:20 *181:30 2.01724
24 *181:11 *181:12 3.1175
25 *181:14 *181:19 1.76782
26 *1694:A2 *181:19 1.50009
27 *1696:A2 *181:18 1.50009
28 *1693:A2 *181:17 0.74994
29 *1692:A2 *181:16 0.74994
30 *181:14 *181:22 0.74994
31 *181:17 *181:21 0.74994
*END

*D_NET *182 0.011136

*CONN
*I *1122:Z O *C 147.7 160.8 *L 0 *D DEL1
*I *1698:B2 I *C 144.1 174.2 *L 0.000739 *D MOAI22D0
*I *1699:B2 I *C 143.7 182.6 *L 0.000739 *D MOAI22D0
*I *1700:B2 I *C 146.3 188.6 *L 0.000739 *D MOAI22D0
*I *1701:B2 I *C 146.3 193.4 *L 0.000739 *D MOAI22D0
*I *1702:B2 I *C 146.1 206.6 *L 0.000739 *D MOAI22D0
*I *1705:B2 I *C 146.1 207.8 *L 0.000739 *D MOAI22D0
*I *1703:B2 I *C 141.9 206.6 *L 0.000739 *D MOAI22D0
*I *1704:B2 I *C 141.9 207.8 *L 0.000739 *D MOAI22D0

*CAP
1 *1703:B2 0.000187314
2 *1122:Z 0.000105588
3 *182:9 0.000482719
4 *182:10 0.00034953
5 *182:11 0.000751838
6 *182:12 0.00102215
7 *182:13 0.000455165
8 *182:14 6.83374e-05
9 *182:15 0.00103837
10 *182:17 0.000242215
11 *182:18 0.000346488
12 *182:19 0.000215042
13 *182:20 0.000204885
14 *182:21 0.000262845
15 *182:22 0.000757162
16 *182:23 0.000185698
17 *182:24 0.000437895
18 *182:25 0.000169283
19 *182:9 *841:5 0.000905952969
20 *182:9 *846:7 0.000342397969
21 *182:12 *864:10 0.000810605
22 *1703:B2 *1703:A1 0.000741131016
23 *182:9 *626:29 0.000377308008
24 *182:10 *852:9 0.000676032031

*RES
1 *182:21 *182:25 1.86509
2 *182:9 *182:24 5.80711
3 *182:13 *182:14 1.54982
4 *182:12 *182:14 6.43657
5 *182:17 *182:24 4.79455
6 *182:10 *182:20 4.76613
7 *182:13 *182:23 1.75195
8 *182:16 *182:10 0.199777
9 *182:19 *182:23 0.985852
10 *182:18 *182:22 3.7368
11 *182:9 *182:20 4.12673
12 *182:11 *182:15 5.70294
13 *1703:B2 *182:21 1.6839
14 *182:19 *182:25 3.44429
15 *182:12 *182:18 2.30096
16 *182:17 *182:22 4.30162
17 *1122:Z *182:11 1.6887
18 *182:15 *182:16 7.00138998
19 *1699:B2 *182:24 0.749966
20 *1702:B2 *182:23 0.749966
21 *1700:B2 *182:22 0.749966
22 *1704:B2 *182:21 0.749966
23 *1698:B2 *182:20 0.749966
24 *1705:B2 *182:19 0.749966
25 *1701:B2 *182:18 0.749966
*END

*D_NET *183 0.00384867

*CONN
*I *1065:I I *C 150.5 35.2 *L 0.000968 *D CKBD1
*I *1123:Z O *C 142.9 45.6 *L 0 *D CKBD0
*I *1686:D I *C 145.3 33.8 *L 0.000758 *D EDFCNQD1

*CAP
1 *1065:I 0.000164833
2 *1686:D 0.000527314
3 *1123:Z 7.42026e-05
4 *183:3 0.000849706016
5 *183:4 0.000761488
6 *183:5 0.000476619
7 *183:6 0.000534627
8 *183:7 0.00045988

*RES
1 *183:4 *183:5 3.48923
2 *183:3 *183:7 6.47553015
3 *1065:I *183:3 2.06826
4 *183:5 *183:6 3.8572
5 *1123:Z *183:4 4.80527
6 *183:6 *183:7 1.33866
7 *1686:D *183:7 5.15604
*END

*D_NET *184 0.00727906

*CONN
*I *1124:I I *C 149.3 159.6 *L 0.00103 *D DEL01
*I *1587:ZN O *C 148.5 102.4 *L 0 *D INR3D0

*CAP
1 *184:2 0.000832705
2 *184:3 0.00331016
3 *184:4 0.00019022
4 *184:5 0.000229668
5 *184:6 0.000176229
6 *184:7 0.00023881
7 *184:7 *308:2 0.000243269004
8 *184:7 *784:4 0.000261402012
9 *184:2 *657:4 0.00114855
10 *184:3 *170:4 0.000648083984

*RES
1 *184:2 *184:3 43.7638016
2 *184:7 *184:3 4.47815
3 *184:6 *184:2 2.93023
4 *1124:I *184:5 1.49984
5 *184:4 *184:7 1.89917
6 *1587:ZN *184:4 0.74992
7 *184:5 *184:6 0.74992
*END

*D_NET *185 1.3301e-05

*CONN
*I *1125:Z O *C 141.3 275.2 *L 0 *D CKBD0
*I *1317:I I *C 141.5 274.8 *L 0.00105 *D DEL1

*CAP
1 *1125:Z 1.33009998e-05

*RES
1 *1125:Z *1317:I 0.190812
*END

*D_NET *186 0.0108606

*CONN
*I *1126:Z O *C 148.9 160 *L 0 *D DEL01
*I *1680:D I *C 145.3 109.4 *L 0.000758 *D EDFCNQD1

*CAP
1 *1680:D 0.000216559
2 *1126:Z 8.25451e-06
3 *186:2 0.00397764
4 *186:3 0.000326053
5 *186:4 0.000509169
6 *186:5 0.000558575
7 *186:3 *1168:Z 0.00314596
8 *186:3 *248:4 0.000837953984
9 *186:3 *908:3 0.000286747012
10 *186:2 *310:4 0.000993762031

*RES
1 *186:4 *186:2 51.9760017
2 *186:3 *186:4 1.37284
3 *1680:D *186:5 2.13341
4 *1126:Z *186:3 4.81882
5 *186:5 *186:2 4.385
*END

*D_NET *187 0.00251246

*CONN
*I *1127:Z O *C 141.9 160 *L 0 *D DEL015
*I *1574:A[5] I *C 134.265 151.75 *L 0.00555 *D sram00

*CAP
1 *1127:Z 1.96837e-05
2 *187:2 4.23623e-05
3 *187:3 0.000143156
4 *187:4 0.00135359
5 *187:5 0.000204975
6 *187:6 7.78673e-05
7 *187:7 0.000670795

*RES
1 *187:2 *187:3 2.11039
2 *187:6 *187:7 3.91273
3 *187:4 *187:5 2.10636
4 *187:3 *187:4 6.45418978
5 *1127:Z *187:2 0.337305
6 *187:5 *187:6 0.150384
7 *1127:Z *1574:A[5] 9.84831e-05
*END

*D_NET *188 0.00547264

*CONN
*I *1128:I I *C 148.7 157.6 *L 0.00105 *D DEL1
*I *1773:ZN O *C 149.5 139.2 *L 0 *D CKND2D0

*CAP
1 *1773:ZN 0.000871848
2 *1128:I 5.71181e-05
3 *188:2 0.000258492
4 *188:3 0.00100329
5 *188:4 0.0017242
6 *188:5 0.000759269
7 *1773:ZN *248:3 0.000152721006
8 *188:4 *279:4 0.00045886
9 *1128:I *908:4 0.000186842988

*RES
1 *188:3 *188:5 4.91624
2 *1128:I *188:4 15.9800997
3 *1773:ZN *188:5 5.14423
4 *188:2 *188:3 4.17644
5 *188:2 *188:4 1.6815
*END

*D_NET *189 1.3282e-05

*CONN
*I *1129:Z O *C 139.9 235.6 *L 0 *D CKBD1
*I *1353:I I *C 140.1 235.2 *L 0.00104 *D DEL0

*CAP
1 *1129:Z 1.32819995e-05

*RES
1 *1129:Z *1353:I 0.191314
*END

*D_NET *190 0.000905908

*CONN
*I *1130:Z O *C 138.1 232.8 *L 0 *D CKBD1
*I *1361:I I *C 140.3 231.6 *L 0.00104 *D DEL0

*CAP
1 *1361:I 0.000165373
2 *190:2 0.000740535938

*RES
1 *1361:I *190:2 2.09907
2 *1130:Z *190:2 5.02756977
*END

*D_NET *191 0.000953475

*CONN
*I *1131:Z O *C 145.9 88 *L 0 *D BUFFD1
*I *1490:I I *C 145.9 85.6 *L 0.00287 *D BUFFD8

*CAP
1 *1131:Z 0.000112264
2 *191:2 0.000841211953

*RES
1 *1131:Z *191:2 5.31036997
2 *1490:I *191:2 1.50002
*END

*D_NET *192 0.000802039

*CONN
*I *1132:Z O *C 141.5 224.8 *L 0 *D CKBD1
*I *1360:I I *C 140.9 226 *L 0.00104 *D DEL0

*CAP
1 *1132:Z 2.17876e-05
2 *192:2 0.000780246953

*RES
1 *1132:Z *192:2 1.35535
2 *1360:I *192:2 4.79715014
*END

*D_NET *193 0.00116971

*CONN
*I *1133:Z O *C 151.3 261.6 *L 0 *D BUFFD1
*I *1350:I I *C 149.1 265.6 *L 0.00104 *D DEL0

*CAP
1 *193:3 0.00116971008

*RES
1 *1133:Z *193:3 3.50908
2 *193:2 *193:3 3.56838012
3 *1350:I *193:2 1.50002
*END

*D_NET *194 1.1294e-05

*CONN
*I *1134:Z O *C 141.5 236.4 *L 0 *D CKBD1
*I *1351:I I *C 141.7 236.8 *L 0.00104 *D DEL0

*CAP
1 *1134:Z 1.12940002e-05

*RES
1 *1134:Z *1351:I 0.206549
*END

*D_NET *195 0.000615345

*CONN
*I *1135:Z O *C 138.3 88 *L 0 *D CKBD1
*I *1366:I I *C 137.7 85.6 *L 0.00104 *D DEL0

*CAP
1 *195:2 0.000615345

*RES
1 *1366:I *195:2 4.11548996
2 *1135:Z *195:2 0.749989
*END

*D_NET *196 0.000745274

*CONN
*I *1136:Z O *C 144.3 34 *L 0 *D CKBD1
*I *1370:I I *C 143.7 31.6 *L 0.00104 *D DEL0

*CAP
1 *1370:I 0.000563268008
2 *1136:Z 0.000182006

*RES
1 *1370:I *1136:Z 6.57037
*END

*D_NET *197 0.00135635

*CONN
*I *1137:Z O *C 147.5 84.4 *L 0 *D CKBD1
*I *1378:I I *C 143.5 82 *L 0.00104 *D DEL0

*CAP
1 *1378:I 0.00027778
2 *1137:Z 6.9171e-06
3 *197:2 0.00107166008

*RES
1 *1137:Z *197:2 1.30555
2 *1378:I *197:2 8.25953007
*END

*D_NET *198 0.00287337

*CONN
*I *1138:Z O *C 138.5 84.4 *L 0 *D CKBD0
*I *1321:I I *C 138.7 73.2 *L 0.00103 *D DEL01

*CAP
1 *198:2 0.000116155
2 *198:3 0.000230767
3 *198:4 0.00252644984

*RES
1 *198:3 *198:4 14.2234001
2 *1138:Z *198:3 1.81135
3 *198:2 *198:4 2.05616
4 *1321:I *198:2 0.750062
*END

*D_NET *199 0.00151167

*CONN
*I *1139:Z O *C 146.1 116.8 *L 0 *D CKBD1
*I *1384:I I *C 142.5 120 *L 0.00104 *D DEL0

*CAP
1 *1139:Z 0.000264272
2 *199:3 0.00124741008

*RES
1 *1139:Z *199:3 4.41137981
2 *199:2 *199:3 3.68057
3 *1384:I *199:2 1.49999
*END

*D_NET *200 0.000567808

*CONN
*I *1140:Z O *C 138.5 81.6 *L 0 *D CKBD1
*I *1375:I I *C 137.9 80.4 *L 0.00104 *D DEL0

*CAP
1 *1375:I 0.000381247031
2 *1140:Z 6.79712e-05
3 *200:2 0.000118595

*RES
1 *1375:I *200:2 3.93776011
2 *1140:Z *200:2 1.49997
*END

*D_NET *201 0.000495305

*CONN
*I *1141:Z O *C 150.7 217.6 *L 0 *D CKBD1
*I *1359:I I *C 149.1 218.8 *L 0.00104 *D DEL0

*CAP
1 *201:2 0.000495305

*RES
1 *1141:Z *201:2 2.58945
2 *1359:I *201:2 3.18385005
*END

*D_NET *202 0.000361367

*CONN
*I *1142:Z O *C 138.1 116.8 *L 0 *D CKBD1
*I *1381:I I *C 137.9 118 *L 0.00104 *D DEL0

*CAP
1 *1142:Z 0.000361366992

*RES
1 *1381:I *1142:Z 3.44901
*END

*D_NET *203 1.3282e-05

*CONN
*I *1143:Z O *C 148.9 178.8 *L 0 *D CKBD1
*I *1376:I I *C 149.1 179.2 *L 0.00104 *D DEL0

*CAP
1 *1143:Z 1.32819995e-05

*RES
1 *1143:Z *1376:I 0.19095
*END

*D_NET *204 0.000895979

*CONN
*I *1144:Z O *C 151.7 247.2 *L 0 *D CKBD1
*I *1347:I I *C 149.1 249.6 *L 0.00104 *D DEL0

*CAP
1 *204:2 9.04092e-05
2 *204:3 0.00080557

*RES
1 *204:2 *204:3 5.06472015
2 *1347:I *204:3 1.50003
3 *1144:Z *204:2 0.750017
*END

*D_NET *205 0.00115634

*CONN
*I *1145:Z O *C 145.9 37.6 *L 0 *D BUFFD1
*I *1355:I I *C 143.5 40.8 *L 0.00104 *D DEL0

*CAP
1 *1145:Z 0.000466871
2 *205:2 6.8855e-05
3 *205:3 0.000620603984

*RES
1 *205:2 *205:3 4.6644001
2 *1145:Z *205:2 2.59568
3 *1355:I *205:3 1.49997
*END

*D_NET *206 0.00054819

*CONN
*I *1146:Z O *C 147.9 78 *L 0 *D CKBD1
*I *1379:I I *C 149.3 78.4 *L 0.00104 *D DEL0

*CAP
1 *1146:Z 0.000123583
2 *206:2 0.000424609023

*RES
1 *1379:I *206:2 3.59540009
2 *1146:Z *206:2 1.50002
*END

*D_NET *207 0.00114245

*CONN
*I *1147:Z O *C 138.9 19.6 *L 0 *D CKBD1
*I *1365:I I *C 143.5 19.2 *L 0.00104 *D DEL0

*CAP
1 *1365:I 0.000376511
2 *207:2 0.000756566016
3 *207:3 9.3741e-06

*RES
1 *1365:I *207:3 3.49055
2 *207:2 *207:3 4.19321012
3 *1147:Z *207:2 0.750012
*END

*D_NET *208 0.00186575

*CONN
*I *1148:Z O *C 144.9 236.4 *L 0 *D BUFFD1
*I *1354:I I *C 149.1 231.6 *L 0.00104 *D DEL0

*CAP
1 *1354:I 0.000599317
2 *208:2 7.55233e-05
3 *208:4 0.00119091

*RES
1 *1354:I *208:2 3.3738
2 *208:3 *208:4 2.79802
3 *208:2 *208:4 4.33081007
4 *1148:Z *208:3 0.749975
*END

*D_NET *209 0.000881942

*CONN
*I *1149:Z O *C 142.5 132 *L 0 *D CKBD1
*I *1382:I I *C 140.1 130.8 *L 0.00104 *D DEL0

*CAP
1 *209:2 0.000133058
2 *209:3 0.000748878984

*RES
1 *209:2 *209:3 4.50036001
2 *1382:I *209:3 1.50003
3 *1149:Z *209:2 0.750014
*END

*D_NET *210 0.00133421

*CONN
*I *1150:Z O *C 147.5 114 *L 0 *D CKBD1
*I *1387:I I *C 143.5 114.4 *L 0.00104 *D DEL0

*CAP
1 *1387:I 0.000301426
2 *1150:Z 8.65079e-05
3 *210:2 0.00012607
4 *210:3 0.000820211016

*RES
1 *210:2 *210:3 4.31021023
2 *1387:I *210:3 3.31171
3 *1150:Z *210:2 1.31129
*END

*D_NET *211 0.000552049

*CONN
*I *1151:Z O *C 148.7 120.4 *L 0 *D BUFFD1
*I *1496:I I *C 149.1 118 *L 0.00287 *D BUFFD8

*CAP
1 *1496:I 0.000552048984

*RES
1 *1496:I *1151:Z 3.63107
*END

*D_NET *212 0.00107569

*CONN
*I *1152:Z O *C 138.9 23.2 *L 0 *D CKBD1
*I *1356:I I *C 143.7 22.8 *L 0.00104 *D DEL0

*CAP
1 *212:2 6.4627e-05
2 *212:3 0.00101106

*RES
1 *1152:Z *212:3 1.49999
2 *212:2 *212:3 5.08763981
3 *1356:I *212:2 1.49999
*END

*D_NET *213 0.00250681

*CONN
*I *1153:Z O *C 138.5 13.2 *L 0 *D BUFFD1
*I *1362:I I *C 149.5 20.8 *L 0.00104 *D DEL0

*CAP
1 *213:2 0.000336929
2 *213:3 0.000864077969
3 *213:4 0.000862127
4 *213:5 0.000399887
5 *213:6 4.37873e-05

*RES
1 *213:4 *213:6 4.20177
2 *213:3 *213:5 3.88996
3 *213:2 *213:3 5.73370981
4 *213:5 *213:6 0.111899
5 *1153:Z *213:4 3.4288
6 *1362:I *213:2 3.33947
*END

*D_NET *214 1.0254e-05

*CONN
*I *1154:Z O *C 148.9 185.2 *L 0 *D CKBD1
*I *1369:I I *C 149.1 184.8 *L 0.00104 *D DEL0

*CAP
1 *1154:Z 1.02540002e-05

*RES
1 *1154:Z *1369:I 0.19095
*END

*D_NET *215 1.0697e-05

*CONN
*I *1155:Z O *C 146.1 178 *L 0 *D BUFFD1
*I *1367:I I *C 146.3 177.6 *L 0.00104 *D DEL0

*CAP
1 *1155:Z 1.06969995e-05

*RES
1 *1155:Z *1367:I 0.195266
*END

*D_NET *216 0.000586335

*CONN
*I *1156:Z O *C 151.5 81.8 *L 0 *D DEL005
*I *1320:I I *C 149.9 84 *L 0.00103 *D DEL01

*CAP
1 *1320:I 0.000439858008
2 *1156:Z 0.000146478

*RES
1 *1156:Z *1320:I 5.49793
*END

*D_NET *217 1.1011e-05

*CONN
*I *1157:Z O *C 148.9 182.4 *L 0 *D CKBD1
*I *1368:I I *C 149.1 182.8 *L 0.00104 *D DEL0

*CAP
1 *1157:Z 1.10109998e-05

*RES
1 *1157:Z *1368:I 0.19095
*END

*D_NET *218 1.3233e-05

*CONN
*I *1158:Z O *C 145.1 139.2 *L 0 *D CKBD1
*I *1389:I I *C 145.3 139.6 *L 0.00104 *D DEL0

*CAP
1 *1158:Z 1.32330005e-05

*RES
1 *1158:Z *1389:I 0.197749
*END

*D_NET *219 0.000759682

*CONN
*I *1159:Z O *C 143.5 52 *L 0 *D BUFFD1
*I *1373:I I *C 144.1 53.2 *L 0.00104 *D DEL0

*CAP
1 *219:2 0.000759682031

*RES
1 *1373:I *219:2 2.27855
2 *1159:Z *219:2 3.94805002
*END

*D_NET *220 0.00124199

*CONN
*I *1160:Z O *C 151.3 59.2 *L 0 *D CKBD1
*I *1372:I I *C 146.3 60.4 *L 0.00104 *D DEL0

*CAP
1 *1160:Z 0.00013881
2 *220:2 0.00110318992

*RES
1 *1372:I *220:2 2.13739
2 *1160:Z *220:2 7.28878021
*END

*D_NET *221 0.000618632

*CONN
*I *1161:Z O *C 138.9 41 *L 0 *D DEL005
*I *1348:I I *C 138.1 44.4 *L 0.00104 *D DEL0

*CAP
1 *1348:I 0.000618632031

*RES
1 *1348:I *1161:Z 5.22994
*END

*D_NET *222 0.00100975

*CONN
*I *1162:Z O *C 141.5 56.4 *L 0 *D CKBD1
*I *1371:I I *C 143.7 58.8 *L 0.00104 *D DEL0

*CAP
1 *1371:I 0.000173891
2 *1162:Z 0.000835848984

*RES
1 *1371:I *1162:Z 8.66065
*END

*D_NET *223 0.000652514

*CONN
*I *1163:Z O *C 143.5 98.8 *L 0 *D BUFFD1
*I *1383:I I *C 143.9 100 *L 0.00104 *D DEL0

*CAP
1 *1163:Z 6.66701e-05
2 *223:2 0.000585843984

*RES
1 *1383:I *223:2 3.76005006
2 *1163:Z *223:2 1.49998
*END

*D_NET *224 0.00099432

*CONN
*I *1164:Z O *C 148.7 138.4 *L 0 *D CKBD1
*I *1388:I I *C 149.5 136 *L 0.00104 *D DEL0

*CAP
1 *224:2 0.000414785
2 *224:3 0.000579532031

*RES
1 *224:2 *224:3 6.21335983
2 *1164:Z *224:2 1.49996
3 *1388:I *224:3 1.49996
*END

*D_NET *225 0.00148559

*CONN
*I *1072:Z O *C 151.7 62.8 *L 0 *D CKBD1
*I *1165:I I *C 145.9 62.4 *L 0.000643 *D CKBD0

*CAP
1 *225:2 0.00010036
2 *225:3 0.00138524

*RES
1 *225:2 *225:3 6.53767014
2 *1165:I *225:3 2.84936
3 *1072:Z *225:2 0.749973
*END

*D_NET *226 0.000524504

*CONN
*I *1166:Z O *C 138.7 42 *L 0 *D CKBD1
*I *1342:I I *C 138.1 46 *L 0.00104 *D DEL0

*CAP
1 *1342:I 9.26457e-05
2 *1166:Z 0.000431861016

*RES
1 *1342:I *1166:Z 4.89653
*END

*D_NET *227 0.000559856

*CONN
*I *1167:Z O *C 147.9 124 *L 0 *D CKBD1
*I *1385:I I *C 149.1 123.6 *L 0.00104 *D DEL0

*CAP
1 *1167:Z 3.65181e-05
2 *227:2 0.000523334961

*RES
1 *1167:Z *227:2 1.50002
2 *1385:I *227:2 3.31732011
*END

*D_NET *228 0.00818937

*CONN
*I *1168:Z O *C 147.7 157.2 *L 0 *D DEL015
*I *1409:I I *C 145.5 118 *L 0.00105 *D DEL1

*CAP
1 *1409:I 0.0004504
2 *1168:Z 0.000594069
3 *228:2 0.00263662
4 *228:3 0.000534888
5 *228:4 0.000141497
6 *228:5 0.000131117
7 *228:2 *310:4 0.000554791992
8 *1168:Z *186:3 0.00314596

*RES
1 *228:3 *228:5 4.17457
2 *1168:Z *228:4 3.84533
3 *1409:I *228:3 3.49068
4 *228:5 *228:2 3.45533
5 *228:4 *228:2 36.2028008
*END

*D_NET *229 0.00324728

*CONN
*I *1169:Z O *C 142.3 268 *L 0 *D BUFFD1
*I *1344:I I *C 146.3 258.4 *L 0.00104 *D DEL0

*CAP
1 *1344:I 0.00227406
2 *1169:Z 0.0002429
3 *229:2 5.83306e-05
4 *229:3 0.000671964

*RES
1 *229:2 *229:3 5.3051
2 *1169:Z *229:3 2.66827
3 *1344:I *229:2 13.9237003
*END

*D_NET *230 0.0089821

*CONN
*I *1170:Z O *C 147.3 156.4 *L 0 *D DEL015
*I *1415:I I *C 141.9 85.6 *L 0.00105 *D DEL1

*CAP
1 *230:2 0.000180621
2 *230:3 0.00233518
3 *230:4 0.000491017
4 *230:5 0.000367799
5 *230:6 0.00012728
6 *230:7 0.000201288
7 *230:2 *732:5 0.000344056016
8 *230:3 *137:5 0.00193431
9 *230:3 *170:4 0.000410111992
10 *230:4 *247:4 0.00199124
11 *230:2 *311:2 0.000599205

*RES
1 *230:2 *230:3 55.1394997
2 *230:7 *230:3 2.59139
3 *230:6 *230:4 2.79585
4 *230:5 *230:7 2.89765
5 *1170:Z *230:6 1.50015
6 *1415:I *230:5 1.50015
7 *230:4 *230:2 0.749654
*END

*D_NET *231 0.00310914

*CONN
*I *1171:Z O *C 143.5 254.4 *L 0 *D BUFFD1
*I *1345:I I *C 149.5 242.4 *L 0.00104 *D DEL0

*CAP
1 *231:2 0.00227834016
2 *231:3 0.000153975
3 *231:4 0.000676844

*RES
1 *1345:I *231:2 2.25
2 *231:3 *231:4 7.32121
3 *1171:Z *231:3 1.5
4 *231:2 *231:4 11.9184999
*END

*D_NET *232 0.00169949

*CONN
*I *1172:Z O *C 143.7 123.8 *L 0 *D DEL005
*I *1446:I I *C 142.1 118 *L 0.00105 *D DEL1

*CAP
1 *232:2 0.000786588047
2 *232:3 0.000602145
3 *232:4 0.000310758

*RES
1 *232:2 *232:4 2.0294
2 *232:3 *232:4 3.67264
3 *1172:Z *232:2 4.29442978
4 *1446:I *232:3 1.5
*END

*D_NET *233 0.00675618

*CONN
*I *1173:Z O *C 143.9 157.2 *L 0 *D DEL015
*I *1412:I I *C 142.1 116.4 *L 0.00105 *D DEL1

*CAP
1 *1173:Z 4.07525e-05
2 *233:2 8.35142e-05
3 *233:3 0.000153535
4 *233:4 0.000153878
5 *233:5 0.0014962
6 *233:6 0.000662748
7 *233:3 *279:2 0.0015779
8 *233:3 *619:4 0.000250687012
9 *233:2 *470:72 0.000202984004
10 *233:3 *738:14 0.00101732
11 *233:4 *16:9 0.00021933
12 *233:5 *82:4 0.000897326016

*RES
1 *233:4 *233:5 34.7752991
2 *233:6 *233:4 3.76216
3 *233:2 *233:3 2.29868
4 *233:3 *233:5 1.50009
5 *1173:Z *233:6 1.50009
6 *1412:I *233:2 1.50009
*END

*D_NET *234 0.000330246

*CONN
*I *1174:Z O *C 138.5 37.6 *L 0 *D BUFFD1
*I *1343:I I *C 137.9 38.8 *L 0.00104 *D DEL0

*CAP
1 *1343:I 0.00012081
2 *1174:Z 0.000209435

*RES
1 *1343:I *1174:Z 3.55051
*END

*D_NET *235 0.00974782

*CONN
*I *1175:Z O *C 144.9 156.4 *L 0 *D DEL015
*I *1416:I I *C 139.3 87.6 *L 0.00105 *D DEL1

*CAP
1 *1175:Z 0.000166854
2 *235:2 0.000445667
3 *235:3 0.000877925
4 *235:4 0.000215518
5 *235:5 0.000191659
6 *235:6 0.00258444
7 *235:2 *291:3 0.00032008498
8 *235:2 *311:3 0.000476638984
9 *235:2 *866:4 0.00284513
10 *235:2 *168:3 0.0016239

*RES
1 *235:5 *235:6 3.5559
2 *1175:Z *235:4 1.82441
3 *235:2 *235:6 55.3538017
4 *235:4 *235:2 2.27882
5 *235:3 *235:5 5.56781
6 *1416:I *235:3 1.50007
*END

*D_NET *236 0.00114985

*CONN
*I *1176:I I *C 150.1 256.8 *L 0.00103 *D DEL01
*I *1434:Z O *C 150.7 253.6 *L 0 *D DEL1

*CAP
1 *1434:Z 0.000160533
2 *1176:I 0.000605045039
3 *236:2 0.000344618
4 *236:3 3.96531e-05

*RES
1 *236:2 *236:3 2.77988
2 *1176:I *236:3 4.32500982
3 *1434:Z *236:2 2.37507
*END

*D_NET *237 0.000912425

*CONN
*I *1177:Z O *C 147.5 268 *L 0 *D BUFFD1
*I *1332:I I *C 146.5 265.6 *L 0.00104 *D DEL0

*CAP
1 *1332:I 3.49792e-05
2 *1177:Z 0.00010011
3 *237:2 0.000777335

*RES
1 *1332:I *237:2 1.15457
2 *1177:Z *237:2 5.06568003
*END

*D_NET *238 1.3184e-05

*CONN
*I *1178:Z O *C 148.9 278.8 *L 0 *D CKBD0
*I *1334:I I *C 149.1 278.4 *L 0.00104 *D DEL0

*CAP
1 *1178:Z 1.31840002e-05

*RES
1 *1178:Z *1334:I 0.190812
*END

*D_NET *239 1.0386e-05

*CONN
*I *1179:Z O *C 148.9 268.8 *L 0 *D CKBD0
*I *1340:I I *C 149.1 269.2 *L 0.00104 *D DEL0

*CAP
1 *1179:Z 1.0386001e-05

*RES
1 *1179:Z *1340:I 0.190812
*END

*D_NET *240 0.00141715

*CONN
*I *1180:I I *C 145.3 235.2 *L 0.00103 *D DEL015
*I *1658:Q O *C 141.7 232.8 *L 0 *D DFCNQD1

*CAP
1 *240:2 0.000786692969
2 *240:4 0.000630459

*RES
1 *240:2 *240:4 4.34392977
2 *240:3 *240:4 3.09449
3 *1180:I *240:3 1.49999
4 *1658:Q *240:2 0.749993
*END

*D_NET *241 0.00124784

*CONN
*I *1181:Z O *C 141.9 264.4 *L 0 *D DEL0
*I *1448:I I *C 138.7 260.4 *L 0.00105 *D DEL1

*CAP
1 *1181:Z 9.41538e-05
2 *241:2 0.000459682
3 *241:3 0.000694001953

*RES
1 *1181:Z *241:3 4.90688992
2 *241:2 *241:3 3.19222
3 *1448:I *241:2 1.50001
*END

*D_NET *242 0.000403704

*CONN
*I *1182:Z O *C 145.5 217.6 *L 0 *D DEL01
*I *1451:I I *C 145.7 218.8 *L 0.00105 *D DEL1

*CAP
1 *1451:I 0.000271791992
2 *1182:Z 0.000131913

*RES
1 *1451:I *1182:Z 4.05273
*END

*D_NET *243 0.000885705

*CONN
*I *1183:Z O *C 149.5 257.2 *L 0 *D CKBD0
*I *1346:I I *C 146.3 256.8 *L 0.00104 *D DEL0

*CAP
1 *1346:I 7.10993e-05
2 *243:2 0.000172896
3 *243:3 0.000641715

*RES
1 *1346:I *243:3 2.24999
2 *243:2 *243:3 3.57060003
3 *1183:Z *243:2 0.750013
*END

*D_NET *244 0.00192198

*CONN
*I *1184:Z O *C 141.9 290.4 *L 0 *D BUFFD1
*I *1333:I I *C 149.1 282 *L 0.00104 *D DEL0

*CAP
1 *1333:I 0.000162401
2 *244:2 0.000673391016
3 *244:4 0.000569929
4 *244:5 0.000471328
5 *244:6 4.49338e-05

*RES
1 *244:4 *244:6 3.84802
2 *244:2 *244:3 4.92415
3 *1333:I *244:2 1.56225
4 *244:3 *244:4 0.199768
5 *244:5 *244:6 4.95158005
6 *1184:Z *244:5 0.750036
*END

*D_NET *245 0.000977448

*CONN
*I *1185:Z O *C 144.1 304 *L 0 *D BUFFD1
*I *1337:I I *C 149.1 300 *L 0.00104 *D DEL0

*CAP
1 *1337:I 0.000194904
2 *245:2 0.000338286
3 *245:3 0.000411316992
4 *245:4 3.2938e-05

*RES
1 *1337:I *245:2 2.27877
2 *245:3 *245:4 4.32912016
3 *245:2 *245:4 2.76264
4 *1185:Z *245:3 0.750013
*END

*D_NET *246 0.000809121

*CONN
*I *1186:I I *C 144.1 246 *L 0.00103 *D DEL01
*I *1660:Q O *C 146.1 246.4 *L 0 *D DFCNQD1

*CAP
1 *1660:Q 6.33055e-05
2 *1186:I 7.54777e-05
3 *246:2 0.000670338984

*RES
1 *1660:Q *246:2 3.57134008
2 *1186:I *246:2 1.50001
*END

*D_NET *247 0.00717407

*CONN
*I *1187:Z O *C 144.7 153.6 *L 0 *D DEL01
*I *1442:I I *C 142.1 110.8 *L 0.00105 *D DEL1

*CAP
1 *247:2 0.00155187
2 *247:3 0.000449234
3 *247:4 0.000509523
4 *247:5 0.000178808
5 *247:6 0.00023699
6 *247:4 *230:4 0.00199124
7 *247:6 *867:2 0.000294584004
8 *247:2 *170:4 0.00196184

*RES
1 *247:3 *247:5 3.03097
2 *1187:Z *247:4 1.50019
3 *247:6 *247:2 34.5696983
4 *247:5 *247:2 2.90226
5 *247:4 *247:6 3.11431
6 *1442:I *247:3 1.50019
*END

*D_NET *248 0.00506218

*CONN
*I *1188:Z O *C 149.7 156.4 *L 0 *D DEL01
*I *1393:I I *C 147.9 132.4 *L 0.00105 *D DEL1

*CAP
1 *248:2 8.74365e-05
2 *248:3 0.000806445
3 *248:4 0.000836517969
4 *248:5 0.000432204
5 *248:6 0.000479573
6 *248:7 0.00033896
7 *248:8 0.000518058
8 *248:2 *719:6 0.00023226
9 *248:3 *933:4 0.000340061992
10 *248:4 *186:3 0.000837953984
11 *248:3 *1773:ZN 0.000152721006

*RES
1 *1188:Z *248:4 6.27396
2 *248:7 *248:8 2.65665
3 *248:6 *248:3 3.72923
4 *248:5 *248:4 3.5247
5 *248:5 *248:6 2.4959
6 *248:2 *248:8 8.91252041
7 *248:3 *248:2 1.37313
8 *1393:I *248:7 1.50002
*END

*D_NET *249 0.0119452

*CONN
*I *1189:I I *C 140.7 156 *L 0.00103 *D DEL01
*I *1635:Q O *C 139.3 99.6 *L 0 *D DFCNQD1

*CAP
1 *1189:I 8.26943e-05
2 *249:2 0.00324125
3 *249:3 0.000481922
4 *249:4 9.05087e-06
5 *249:5 5.44041e-05
6 *249:3 *797:2 0.00518921
7 *249:2 *297:4 0.000642545
8 *249:3 *369:5 0.000364906992
9 *249:3 *378:7 0.00127830992
10 *249:3 *782:4 0.000600846992

*RES
1 *1189:I *249:4 1.11632
2 *249:5 *249:2 3.5511
3 *249:4 *249:3 7.41998
4 *1635:Q *249:5 1.49966
5 *249:3 *249:2 59.6730995
*END

*D_NET *250 0.00623632

*CONN
*I *1190:I I *C 138.9 157.6 *L 0.00103 *D DEL01
*I *1636:Q O *C 138.7 103.2 *L 0 *D DFCNQD1

*CAP
1 *250:2 0.0020307
2 *250:3 0.000404095
3 *250:4 0.000135442
4 *250:5 3.75556e-05
5 *250:6 0.000367221
6 *250:2 *264:4 0.00137056
7 *250:2 *273:4 0.000387103008
8 *250:2 *293:4 0.000701933984
9 *250:2 *846:11 0.000346053984
10 *250:2 *469:15 0.000189185
11 *250:3 *154:4 0.000266456016

*RES
1 *250:5 *250:6 3.89267
2 *250:4 *250:2 3.67183
3 *1190:I *250:3 1.69975
4 *250:2 *250:6 39.2235985
5 *250:3 *250:5 1.49985
6 *1636:Q *250:4 0.749926
*END

*D_NET *251 0.00113218

*CONN
*I *1191:I I *C 150.7 73.2 *L 0.000968 *D CKBD1
*I *1626:Q O *C 146.3 73.6 *L 0 *D DFCNQD1

*CAP
1 *1191:I 0.000115989
2 *251:2 0.000895748984
3 *251:3 0.000120445

*RES
1 *251:2 *251:3 4.8656702
2 *1191:I *251:3 2.41465
3 *1626:Q *251:2 0.750015
*END

*D_NET *252 1.0842e-05

*CONN
*I *1192:Z O *C 148.9 294 *L 0 *D CKBD0
*I *1336:I I *C 149.1 294.4 *L 0.00104 *D DEL0

*CAP
1 *1192:Z 1.08420007e-05

*RES
1 *1192:Z *1336:I 0.190812
*END

*D_NET *253 1.1652e-05

*CONN
*I *1193:Z O *C 142.3 268.8 *L 0 *D DEL01
*I *1445:I I *C 142.5 269.2 *L 0.00105 *D DEL1

*CAP
1 *1193:Z 1.16520007e-05

*RES
1 *1193:Z *1445:I 0.204468
*END

*D_NET *254 0.000386871

*CONN
*I *1194:I I *C 149.1 247.6 *L 0.00103 *D DEL01
*I *1663:Q O *C 148.9 250 *L 0 *D DFCNQD1

*CAP
1 *1663:Q 4.4062e-06
2 *1194:I 0.000382463984

*RES
1 *1194:I *1663:Q 3.63964
*END

*D_NET *255 0.00198337

*CONN
*I *1195:Z O *C 141.9 312 *L 0 *D BUFFD1
*I *1338:I I *C 149.1 301.6 *L 0.00104 *D DEL0

*CAP
1 *1338:I 0.000184382
2 *255:2 0.00108624992
3 *255:3 0.000168917
4 *255:4 4.20345e-05
5 *255:5 0.000423129
6 *255:6 7.86655e-05

*RES
1 *255:5 *255:6 6.36031
2 *255:4 *255:6 1.81122
3 *1338:I *255:2 3.12372
4 *255:3 *255:5 1.49996
5 *255:2 *255:4 6.95248985
6 *1195:Z *255:3 0.750032
*END

*D_NET *256 0.000921619

*CONN
*I *1196:I I *C 144.3 74.8 *L 0.000968 *D CKBD1
*I *1627:Q O *C 147.3 74.4 *L 0 *D DFCNQD1

*CAP
1 *1196:I 0.000380068
2 *256:2 0.000541555

*RES
1 *1196:I *256:2 3.91265988
2 *1627:Q *256:2 3.03503
*END

*D_NET *257 0.000889349

*CONN
*I *1197:I I *C 151.3 67.6 *L 0.00182 *D DEL005
*I *1625:Q O *C 146.5 67.2 *L 0 *D DFCNQD1

*CAP
1 *1625:Q 5.99223e-05
2 *257:2 8.07151e-05
3 *257:3 0.000748714063

*RES
1 *257:2 *257:3 4.33026981
2 *1625:Q *257:3 2.24997
3 *1197:I *257:2 0.750014
*END

*D_NET *258 0.00193177

*CONN
*I *1198:Z O *C 141.5 294 *L 0 *D BUFFD1
*I *1341:I I *C 149.1 285.6 *L 0.00104 *D DEL0

*CAP
1 *1341:I 0.000390864
2 *1198:Z 0.000639311
3 *258:2 0.000901597969

*RES
1 *1198:Z *258:2 5.47333
2 *1341:I *258:2 10.1408005
*END

*D_NET *259 0.000995582

*CONN
*I *1199:Z O *C 144.5 253.6 *L 0 *D CKBD0
*I *1339:I I *C 142.9 251.2 *L 0.00104 *D DEL0

*CAP
1 *1339:I 0.000537408008
2 *1199:Z 0.000458177

*RES
1 *1339:I *1199:Z 7.34133
*END

*D_NET *260 1.0254e-05

*CONN
*I *1200:Z O *C 148.9 289.6 *L 0 *D CKBD0
*I *1335:I I *C 149.1 289.2 *L 0.00104 *D DEL0

*CAP
1 *1200:Z 1.02540002e-05

*RES
1 *1200:Z *1335:I 0.190812
*END

*D_NET *261 0.00124258

*CONN
*I *1201:Z O *C 150.9 258 *L 0 *D DEL01
*I *1428:I I *C 147.3 262 *L 0.00105 *D DEL1

*CAP
1 *261:2 9.37506e-05
2 *261:4 0.00114883008

*RES
1 *261:2 *261:4 3.5838
2 *261:3 *261:4 3.74494004
3 *1428:I *261:3 1.50001
4 *1201:Z *261:2 0.750005
*END

*D_NET *262 1.0519e-05

*CONN
*I *1202:Z O *C 148.9 235.6 *L 0 *D CKBD0
*I *1349:I I *C 149.1 235.2 *L 0.00104 *D DEL0

*CAP
1 *1202:Z 1.05190002e-05

*RES
1 *1202:Z *1349:I 0.190917
*END

*D_NET *263 0.0115028

*CONN
*I *1203:Z O *C 140.3 156.4 *L 0 *D DEL01
*I *1436:I I *C 138.1 94.8 *L 0.00105 *D DEL1

*CAP
1 *1436:I 0.000203626
2 *263:2 2.37329e-05
3 *263:3 0.000106852
4 *263:4 0.000488276
5 *263:5 0.00236733
6 *263:2 *782:2 0.000376610977
7 *263:3 *799:2 0.00509876
8 *263:2 *803:4 0.000400676016
9 *263:3 *797:2 0.00243695

*RES
1 *263:4 *263:5 58.1688995
2 *263:2 *263:4 6.05423
3 *1436:I *263:3 2.49323
4 *263:3 *263:5 1.50002
5 *1203:Z *263:2 0.750011
*END

*D_NET *264 0.00560146

*CONN
*I *1204:Z O *C 140.1 153.6 *L 0 *D DEL01
*I *1443:I I *C 138.1 107.2 *L 0.00105 *D DEL1

*CAP
1 *264:2 0.000268611
2 *264:3 0.000388582
3 *264:4 0.00186398
4 *264:2 *616:4 0.000275891016
5 *264:3 *4:3 0.000408593008
6 *264:2 *53:7 0.000273775996
7 *264:3 *66:6 0.000751463984
8 *264:4 *250:2 0.00137056

*RES
1 *264:3 *264:4 3.86237
2 *1443:I *264:2 1.49991
3 *264:2 *264:4 39.7807007
4 *1204:Z *264:3 0.750259
*END

*D_NET *265 1.0254e-05

*CONN
*I *1205:Z O *C 140.5 272.4 *L 0 *D DEL01
*I *1432:I I *C 140.7 272.8 *L 0.00105 *D DEL1

*CAP
1 *1205:Z 1.02540002e-05

*RES
1 *1205:Z *1432:I 0.190812
*END

*D_NET *266 0.00672177

*CONN
*I *1206:I I *C 137.7 152.4 *L 0.00103 *D DEL01
*I *1641:Q O *C 138.5 121.2 *L 0 *D DFCNQD1

*CAP
1 *1641:Q 0.000112512
2 *1206:I 0.00016211
3 *266:2 4.49329e-05
4 *266:3 0.00235198
5 *266:4 3.88677e-05
6 *266:2 *617:5 0.000437177969
7 *266:2 *803:5 0.00321127
8 *1206:I *155:2 0.000362928984

*RES
1 *266:2 *266:3 33.0175018
2 *1641:Q *266:4 1.49983
3 *266:3 *266:4 2.62332
4 *1206:I *266:2 1.66811
*END

*D_NET *267 0.000868181

*CONN
*I *1207:I I *C 138.3 231.6 *L 0.00103 *D DEL01
*I *1657:Q O *C 141.5 229.2 *L 0 *D DFCNQD1

*CAP
1 *1657:Q 0.000333036
2 *267:2 0.000464323008
3 *267:3 7.08228e-05

*RES
1 *267:2 *267:3 3.23982
2 *1657:Q *267:3 2.94597
3 *1207:I *267:2 0.749989
*END

*D_NET *268 0.00111159

*CONN
*I *1208:I I *C 138.9 226 *L 0.00103 *D DEL01
*I *1656:Q O *C 142.7 228.4 *L 0 *D DFCNQD1

*CAP
1 *1656:Q 4.93141e-06
2 *1208:I 0.000217679
3 *268:2 0.000288277
4 *268:3 0.000600705977

*RES
1 *268:2 *268:3 3.86227989
2 *1656:Q *268:2 1.46444
3 *1208:I *268:3 2.12256
*END

*D_NET *269 0.00131069

*CONN
*I *1209:Z O *C 151.9 224.8 *L 0 *D DEL01
*I *1452:I I *C 145.5 226 *L 0.00105 *D DEL1

*CAP
1 *1209:Z 0.000149477
2 *269:2 0.00116120992

*RES
1 *1452:I *269:2 2.18943
2 *1209:Z *269:2 7.98035002
*END

*D_NET *270 0.000332662

*CONN
*I *1210:I I *C 140.5 242.4 *L 0.00103 *D DEL01
*I *1659:Q O *C 140.3 240 *L 0 *D DFCNQD1

*CAP
1 *1659:Q 0.000332661992

*RES
1 *1659:Q *1210:I 2.68873
*END

*D_NET *271 0.00259125

*CONN
*I *1211:I I *C 139.7 152.4 *L 0.00103 *D DEL015
*I *1645:Q O *C 139.7 142.8 *L 0 *D DFCNQD1

*CAP
1 *1645:Q 0.000350019
2 *1211:I 0.000152932
3 *271:2 0.00158382
4 *271:3 9.91836e-05
5 *271:4 0.000405266

*RES
1 *271:2 *271:4 12.6511002
2 *1211:I *271:3 2.25008
3 *1645:Q *271:2 2.71511
4 *271:3 *271:4 0.749962
*END

*D_NET *272 0.00162494

*CONN
*I *1212:Z O *C 140.9 203.2 *L 0 *D DEL01
*I *1439:I I *C 145.3 200.8 *L 0.00105 *D DEL1

*CAP
1 *1439:I 2.18684e-05
2 *272:2 0.00160307

*RES
1 *1439:I *272:2 2.09922
2 *1212:Z *272:2 8.69347
*END

*D_NET *273 0.00556412

*CONN
*I *1213:I I *C 139.7 150.4 *L 0.00103 *D DEL01
*I *1642:Q O *C 139.5 127.6 *L 0 *D DFCNQD1

*CAP
1 *1213:I 0.000223369
2 *273:2 0.000901051016
3 *273:3 0.000271862
4 *273:4 0.000165196
5 *273:5 3.71915e-05
6 *273:6 0.000437498
7 *273:7 3.75902e-05
8 *273:8 0.000310882
9 *273:6 *293:3 0.000273456016
10 *273:2 *910:4 0.000481826016
11 *273:2 *780:2 0.000900093047
12 *273:2 *470:71 0.000658227969
13 *273:3 *154:2 0.000478785
14 *273:4 *250:2 0.000387103008

*RES
1 *273:4 *273:7 0.925653
2 *1213:I *273:3 2.52665
3 *273:6 *273:8 1.49999
4 *273:2 *273:5 13.6476002
5 *273:7 *273:8 6.20489
6 *273:5 *273:6 1.14931
7 *273:3 *273:4 6.59181
8 *1642:Q *273:2 0.750102
*END

*D_NET *274 0.000786901

*CONN
*I *1214:Z O *C 140.1 207.6 *L 0 *D DEL01
*I *1447:I I *C 138.1 206.4 *L 0.00105 *D DEL1

*CAP
1 *274:2 0.000786901016

*RES
1 *1214:Z *274:2 3.04211
2 *1447:I *274:2 4.00795984
*END

*D_NET *275 1.1279e-05

*CONN
*I *1215:Z O *C 141.5 181.6 *L 0 *D DEL01
*I *1440:I I *C 141.7 181.2 *L 0.00105 *D DEL1

*CAP
1 *1215:Z 1.12790002e-05

*RES
1 *1215:Z *1440:I 0.206586
*END

*D_NET *276 0.000761523

*CONN
*I *1216:Z O *C 143.5 196.8 *L 0 *D DEL01
*I *1437:I I *C 145.5 199.2 *L 0.00105 *D DEL1

*CAP
1 *276:2 0.000761523047

*RES
1 *1216:Z *276:2 3.05625
2 *1437:I *276:2 3.52706003
*END

*D_NET *277 0.000506182

*CONN
*I *1217:Z O *C 140.1 250 *L 0 *D DEL01
*I *1459:I I *C 138.9 247.6 *L 0.00105 *D DEL1

*CAP
1 *277:2 0.000506182031

*RES
1 *1217:Z *277:2 2.5895
2 *1459:I *277:2 3.02806997
*END

*D_NET *278 0.00395298

*CONN
*I *1218:Z O *C 140.5 149.2 *L 0 *D DEL01
*I *1453:I I *C 138.5 132.4 *L 0.00105 *D DEL1

*CAP
1 *1218:Z 9.17174e-05
2 *278:2 3.29665e-06
3 *278:3 0.00385796

*RES
1 *278:2 *278:3 20.4589996
2 *1453:I *278:3 3.49516
3 *1218:Z *278:2 0.949962
*END

*D_NET *279 0.0106194

*CONN
*I *1219:I I *C 150.1 156 *L 0.00103 *D DEL01
*I *1633:Q O *C 150.9 96 *L 0 *D DFCNQD1

*CAP
1 *1219:I 0.000229265
2 *279:2 0.0027891
3 *279:3 0.000533689
4 *279:4 0.000308467
5 *279:5 8.60967e-05
6 *279:6 0.0012989
7 *279:7 0.000116867
8 *279:8 0.000543733
9 *279:2 *738:13 0.0005195
10 *279:2 *169:2 0.00129657992
11 *279:2 *233:3 0.0015779
12 *279:3 *536:21 0.000860438984
13 *279:4 *188:4 0.00045886

*RES
1 *279:8 *279:3 5.88927
2 *279:2 *279:3 43.0278015
3 *279:4 *279:8 6.02321
4 *279:7 *279:2 3.51124
5 *279:6 *279:7 3.34842
6 *279:5 *279:6 5.26424
7 *1219:I *279:4 3.93472
8 *1633:Q *279:5 0.749783
*END

*D_NET *280 0.00164156

*CONN
*I *1220:I I *C 137.7 143.2 *L 0.00103 *D DEL01
*I *1644:Q O *C 139.9 139.2 *L 0 *D DFCNQD1

*CAP
1 *1220:I 6.64444e-05
2 *280:2 0.000132316
3 *280:3 0.00144282

*RES
1 *280:2 *280:3 3.29847
2 *1220:I *280:3 6.6090498
3 *1644:Q *280:2 0.749992
*END

*D_NET *281 0.00042496

*CONN
*I *1221:I I *C 142.1 168.4 *L 0.00103 *D DEL01
*I *1646:Q O *C 141.9 170.8 *L 0 *D DFCNQD1

*CAP
1 *1646:Q 8.98164e-06
2 *1221:I 0.00041598

*RES
1 *1221:I *1646:Q 3.81327
*END

*D_NET *282 0.00117463

*CONN
*I *1222:I I *C 138.3 96.4 *L 0.00182 *D DEL005
*I *1631:Q O *C 138.5 91.6 *L 0 *D DFCNQD1

*CAP
1 *1631:Q 0.00112621
2 *1222:I 4.84098e-05

*RES
1 *1222:I *282:2 0.949801
2 *1631:Q *282:2 6.39866018
*END

*D_NET *283 0.000469153

*CONN
*I *1223:Z O *C 143.7 89 *L 0 *D DEL005
*I *1427:I I *C 143.9 91.2 *L 0.00105 *D DEL1

*CAP
1 *1223:Z 0.000469152969

*RES
1 *1427:I *1223:Z 3.97555
*END

*D_NET *284 0.000568112

*CONN
*I *1224:I I *C 139.1 186.4 *L 0.00103 *D DEL01
*I *1648:Q O *C 138.9 189.6 *L 0 *D DFCNQD1

*CAP
1 *1648:Q 8.65557e-07
2 *1224:I 0.000567242969

*RES
1 *1224:I *1648:Q 4.08468
*END

*D_NET *285 0.000285544

*CONN
*I *1225:I I *C 138.5 197.2 *L 0.00103 *D DEL01
*I *1650:Q O *C 138.3 199.6 *L 0 *D DFCNQD1

*CAP
1 *1650:Q 1.82264e-06
2 *1225:I 0.000283720996

*RES
1 *1225:I *1650:Q 2.59063
*END

*D_NET *286 0.00071015

*CONN
*I *1226:Z O *C 141.1 192.4 *L 0 *D DEL01
*I *1460:I I *C 139.1 193.6 *L 0.00105 *D DEL1

*CAP
1 *1460:I 7.53076e-05
2 *286:2 0.000634845

*RES
1 *1460:I *286:2 2.25008
2 *1226:Z *286:2 4.84431982
*END

*D_NET *287 0.0005167

*CONN
*I *1227:I I *C 137.9 114.4 *L 0.000643 *D CKBD0
*I *1639:Q O *C 138.7 114 *L 0 *D DFCNQD1

*CAP
1 *1639:Q 2.90719e-05
2 *1227:I 0.000374086992
3 *287:2 0.000113542

*RES
1 *1227:I *287:2 3.23174
2 *1639:Q *287:2 2.24998
*END

*D_NET *288 0.00540495

*CONN
*I *1228:I I *C 145.1 154 *L 0.00103 *D DEL015
*I *1315:Z O *C 145.1 134.6 *L 0 *D DEL005

*CAP
1 *1315:Z 0.00020105
2 *288:2 0.00130763992
3 *288:4 0.000242293
4 *288:5 0.000907776
5 *288:6 0.000173773
6 *288:2 *335:2 0.000356201992
7 *288:2 *178:3 0.000304205
8 *288:2 *854:3 0.000492785977
9 *288:2 *855:9 0.000318181992
10 *288:4 *934:3 0.000478873984
11 *288:2 *75:22 0.000622181992

*RES
1 *288:5 *288:6 6.58984
2 *288:2 *288:3 13.2854996
3 *1228:I *288:6 4.31268
4 *288:2 *288:4 1.7732
5 *288:3 *288:5 4.25551
6 *1315:Z *288:4 1.49993
*END

*D_NET *289 0.000462587

*CONN
*I *1229:I I *C 138.7 222.4 *L 0.00103 *D DEL01
*I *1662:Q O *C 140.7 222 *L 0 *D DFCNQD1

*CAP
1 *1229:I 6.42894e-05
2 *289:2 0.000398299023

*RES
1 *1662:Q *289:2 3.05613995
2 *1229:I *289:2 1.5
*END

*D_NET *290 0.00234214

*CONN
*I *1013:I I *C 138.5 100 *L 0.000968 *D CKBD1
*I *1018:Z O *C 138.3 91.6 *L 0 *D CKBD1

*CAP
1 *290:2 0.000529226
2 *290:3 0.00138449
3 *290:4 7.04762e-05
4 *290:5 0.000357958

*RES
1 *1013:I *290:2 2.69879
2 *290:4 *290:5 1.90753
3 *290:2 *290:4 2.43382
4 *290:3 *290:5 5.57291985
5 *1018:Z *290:3 2.89786
*END

*D_NET *291 0.00696212

*CONN
*I *1231:Z O *C 144.9 150 *L 0 *D DEL015
*I *1408:I I *C 142.9 121.6 *L 0.00105 *D DEL1

*CAP
1 *291:2 0.000480384
2 *291:3 0.000829892969
3 *291:4 0.000171702
4 *291:5 0.000182048
5 *291:6 0.000122999
6 *291:7 3.61665e-05
7 *291:6 *311:3 0.00191942
8 *291:4 *779:2 0.000767895
9 *291:2 *866:4 0.00155699
10 *291:2 *842:24 0.000574522969
11 *291:3 *235:2 0.00032008498

*RES
1 *291:7 *291:3 1.52883
2 *291:6 *291:3 26.7325001
3 *291:5 *291:7 9.79014
4 *291:2 *291:6 2.36667
5 *291:4 *291:5 1.49987
6 *1231:Z *291:2 1.49987
7 *1408:I *291:4 1.49987
*END

*D_NET *292 1.0525e-05

*CONN
*I *1232:I I *C 138.3 6.4 *L 0.00103 *D BUFFD2
*I *1561:Z O *C 138.1 6 *L 0 *D BUFFD1

*CAP
1 *1561:Z 1.0525e-05

*RES
1 *1561:Z *1232:I 0.194224
*END

*D_NET *293 0.00629461

*CONN
*I *1233:Z O *C 141.1 145.6 *L 0 *D DEL015
*I *1414:I I *C 139.1 96.4 *L 0.00105 *D DEL1

*CAP
1 *1233:Z 0.000124521
2 *293:2 0.000240854
3 *293:3 0.00225427
4 *293:4 0.000552156
5 *293:5 0.000139312
6 *293:2 *838:19 0.000405863984
7 *293:3 *83:2 0.00139394
8 *293:3 *166:3 0.00020829
9 *293:4 *250:2 0.000701933984
10 *293:3 *273:6 0.000273456016

*RES
1 *293:4 *293:3 38.1547012
2 *293:2 *293:3 2.27929
3 *1233:Z *293:4 4.51143
4 *293:5 *293:2 2.09881
5 *1414:I *293:5 1.49973
*END

*D_NET *294 0.00488228

*CONN
*I *1234:Z O *C 151.7 114 *L 0 *D DEL015
*I *1413:I I *C 142.7 102 *L 0.00105 *D DEL1

*CAP
1 *294:2 0.000165419
2 *294:3 0.00149253
3 *294:4 0.000182592
4 *294:5 0.00304173

*RES
1 *294:4 *294:5 15.7848997
2 *294:3 *294:4 0.605277
3 *294:2 *294:3 8.88623
4 *1234:Z *294:2 1.21778
5 *1413:I *294:5 4.1736
*END

*D_NET *295 0.000551918

*CONN
*I *1235:I I *C 139.1 184.8 *L 0.00103 *D DEL015
*I *1671:Q O *C 141.5 185.2 *L 0 *D DFCNQD1

*CAP
1 *1235:I 8.57831e-05
2 *295:2 0.000121791
3 *295:3 0.000344345977

*RES
1 *295:2 *295:3 2.46187997
2 *1235:I *295:3 2.25001
3 *1671:Q *295:2 0.749991
*END

*D_NET *296 0.000398161

*CONN
*I *1236:I I *C 141.3 174 *L 0.00103 *D DEL015
*I *1670:Q O *C 141.9 175.2 *L 0 *D DFCNQD1

*CAP
1 *1236:I 0.000398160977

*RES
1 *1236:I *1670:Q 3.77899
*END

*D_NET *297 0.00916148

*CONN
*I *1237:I I *C 137.5 136 *L 0.00105 *D DEL1
*I *1318:Z O *C 151.7 88.8 *L 0 *D CKBD1

*CAP
1 *1237:I 0.00028218
2 *297:2 4.66645e-05
3 *297:3 0.000177185
4 *297:4 0.000870223
5 *297:5 0.00574842
6 *297:4 *249:2 0.000642545
7 *1237:I *781:2 0.00139418

*RES
1 *1237:I *297:2 3.06784
2 *297:4 *297:5 42.3717995
3 *297:3 *297:5 15.0787
4 *1318:Z *297:3 1.49998
5 *297:2 *297:4 0.749989
*END

*D_NET *298 0.00307997

*CONN
*I *1542:Z O *C 149.5 264.4 *L 0 *D BUFFD1
*I *1238:I I *C 137.5 257.2 *L 0.00373 *D CKBD12

*CAP
1 *1542:Z 0.000248005
2 *298:2 0.000600664
3 *298:3 0.000423333
4 *298:4 0.000719808
5 *298:5 0.00032661
6 *298:6 1.14909e-05
7 *298:7 0.000750057969

*RES
1 *298:5 *298:6 1.83817
2 *298:4 *298:7 5.1743
3 *298:3 *298:7 5.72992992
4 *298:4 *298:5 0.111476
5 *298:2 *298:6 3.9736
6 *1542:Z *298:3 4.00682
7 *1238:I *298:2 0.74999
*END

*D_NET *299 0.00511552

*CONN
*I *1020:I I *C 150.5 40.8 *L 0.00072 *D BUFFD1
*I *1239:Z O *C 151.9 6 *L 0 *D DEL015

*CAP
1 *1020:I 0.000123209
2 *299:2 0.000592293
3 *299:3 7.92791e-05
4 *299:4 0.00104159
5 *299:5 0.000223982
6 *299:6 0.00116414
7 *299:8 0.000322605
8 *299:9 0.000327988
9 *299:6 *536:6 0.000496578008
10 *299:6 *1609:CDN 0.000174085
11 *299:2 *485:3 0.000186174004
12 *1020:I *1607:CP 0.000383588984

*RES
1 *299:8 *299:9 4.79041
2 *299:6 *299:8 0.199878
3 *1020:I *299:2 2.06134
4 *299:7 *299:9 0.199878
5 *299:5 *299:6 15.0739002
6 *299:4 *299:7 6.49041
7 *299:3 *299:4 4.1082
8 *299:2 *299:5 5.51977
9 *1239:Z *299:3 0.750061
*END

*D_NET *300 0.000705608

*CONN
*I *1240:Z O *C 151.9 153.6 *L 0 *D DEL0
*I *1252:I I *C 149.1 152.4 *L 0.00287 *D BUFFD8

*CAP
1 *1252:I 0.000596391016
2 *1240:Z 4.97789e-05
3 *300:2 5.94343e-05

*RES
1 *1252:I *300:2 4.62003994
2 *1240:Z *300:2 1.50002
*END

*D_NET *301 0.0031754

*CONN
*I *1241:Z O *C 148.5 152.8 *L 0 *D DEL0
*I *1251:I I *C 141.3 145.6 *L 0.00373 *D CKBD12

*CAP
1 *1251:I 0.00071359
2 *301:2 0.00100267
3 *301:3 0.000238999
4 *301:4 0.00122013

*RES
1 *1251:I *301:2 3.81165
2 *301:2 *301:4 6.40822
3 *301:3 *301:4 7.63191986
4 *1241:Z *301:3 1.50004
*END

*D_NET *302 0.00207476

*CONN
*I *1242:Z O *C 151.5 150 *L 0 *D DEL0
*I *1250:I I *C 143.9 146.4 *L 0.00373 *D CKBD12

*CAP
1 *1250:I 0.000641051
2 *1242:Z 0.000103497
3 *302:2 0.000818375
4 *302:3 0.000511829

*RES
1 *1250:I *302:2 4.07923
2 *302:2 *302:3 4.36398
3 *1242:Z *302:3 4.59190989
*END

*D_NET *303 0.0018852

*CONN
*I *1243:Z O *C 151.5 146.4 *L 0 *D DEL0
*I *1249:I I *C 143.7 149.2 *L 0.00373 *D CKBD12

*CAP
1 *303:2 0.000134058
2 *303:3 0.00175115

*RES
1 *303:2 *303:3 7.6848402
2 *1249:I *303:3 2.99532
3 *1243:Z *303:2 0.750004
*END

*D_NET *304 0.00225702

*CONN
*I *1244:Z O *C 147.5 150 *L 0 *D DEL0
*I *1248:I I *C 139.5 146.4 *L 0.00373 *D CKBD12

*CAP
1 *1248:I 0.000626869
2 *304:2 0.00126546
3 *304:3 0.000364683

*RES
1 *304:2 *304:3 6.80873013
2 *1248:I *304:2 3.66067
3 *1244:Z *304:3 2.72314
*END

*D_NET *305 0.00256451

*CONN
*I *1245:Z O *C 144.3 52 *L 0 *D BUFFD1
*I *1574:D[8] I *C 134.265 42.875 *L 0.00183 *D sram00

*CAP
1 *1245:Z 3.19745e-05
2 *305:2 0.000416254
3 *305:3 1.19172e-06
4 *305:4 0.000293083
5 *305:5 0.000397954
6 *305:6 2.04613e-05
7 *305:7 5.70613e-05
8 *305:8 2.28043e-05
9 *305:9 0.00132372

*RES
1 *305:7 *305:8 0.333413
2 *305:6 *305:7 0.364544
3 *305:4 *305:9 2.21188
4 *305:3 *305:5 3.22513
5 *305:3 *305:4 0.355469
6 *1245:Z *305:2 2.34695
7 *305:5 *305:6 0.355469
8 *305:2 *305:9 8.30961
9 *1245:Z *1574:D[8] 0.0001
*END

*D_NET *306 0.0024838

*CONN
*I *1246:Z O *C 149.5 88.8 *L 0 *D BUFFD1
*I *1574:D[19] I *C 134.265 88.805 *L 0.00183 *D sram00

*CAP
1 *306:2 0.000121504
2 *306:3 0.000273645
3 *306:4 5.9174e-05
4 *306:5 0.000239609
5 *306:6 3.77947e-05
6 *306:7 0.000548587969
7 *306:8 5.02255e-05
8 *306:9 0.000536894
9 *306:10 9.91033e-05
10 *306:11 0.000517264

*RES
1 *306:10 *306:11 3.44618011
2 *306:9 *306:10 0.111532
3 *306:2 *306:3 2.0172
4 *306:8 *306:9 3.00131
5 *306:7 *306:8 0.111532
6 *306:6 *306:7 3.1129
7 *306:4 *306:5 1.28927
8 *306:3 *306:4 0.111532
9 *306:5 *306:6 0.111532
10 *1246:Z *306:2 0.750013
11 *1246:Z *1574:D[19] 0.000105169
*END

*D_NET *307 0.00291725

*CONN
*I *1247:Z O *C 142.5 55.6 *L 0 *D BUFFD1
*I *1574:D[9] I *C 134.265 46.805 *L 0.00183 *D sram00

*CAP
1 *1247:Z 0.000242044
2 *307:2 0.000316352
3 *307:4 0.00102093
4 *307:5 0.000198768
5 *307:6 9.83836e-05
6 *307:7 0.00104077008

*RES
1 *307:2 *307:5 1.69262
2 *307:2 *307:3 2.49511
3 *1247:Z *307:4 6.06457996
4 *307:6 *307:7 6.02155
5 *307:3 *307:4 0.19979
6 *307:5 *307:6 0.264937
7 *1247:Z *1574:D[9] 9.25381e-05
*END

*D_NET *308 0.0145742

*CONN
*I *1244:I I *C 145.1 150.4 *L 0.00104 *D DEL0
*I *1526:Z O *C 150.7 77.2 *L 0 *D BUFFD8

*CAP
1 *1244:I 0.000252036
2 *308:2 0.00226232
3 *308:3 0.00113435
4 *308:4 0.000423467
5 *308:5 0.000348729
6 *308:6 0.000765844
7 *308:7 8.89256e-05
8 *308:8 0.000321734
9 *308:9 0.000108016
10 *308:10 0.000626794
11 *308:11 5.86853e-06
12 *308:8 *374:4 0.00167783
13 *308:8 *784:5 0.00394213
14 *308:2 *800:5 0.000269046016
15 *308:3 *487:4 0.000675595
16 *308:4 *718:2 0.000277094004
17 *1244:I *335:2 0.000460355
18 *308:2 *1764:A1 0.000189046992
19 *308:5 *940:13 0.000501762969
20 *308:2 *184:7 0.000243269004

*RES
1 *308:2 *308:10 0.200159
2 *308:9 *308:5 2.83862
3 *308:8 *308:11 2.48577
4 *308:4 *308:6 3.79195
5 *1244:I *308:4 2.71758
6 *308:10 *308:11 4.5024
7 *308:2 *308:5 51.8484001
8 *308:3 *308:9 8.25005
9 *308:7 *308:3 3.08467
10 *308:6 *308:8 4.53405
11 *1526:Z *308:7 0.750004
*END

*D_NET *309 0.0118314

*CONN
*I *1243:I I *C 149.1 146.8 *L 0.00104 *D DEL0
*I *1489:Z O *C 150.7 70 *L 0 *D BUFFD8

*CAP
1 *1243:I 0.000238446
2 *309:2 0.000321791
3 *309:3 0.000678176
4 *309:4 0.00187055
5 *309:5 3.66204e-05
6 *309:6 0.000287254
7 *309:8 0.00067732
8 *309:9 1.68402e-06
9 *309:10 0.000344454
10 *309:11 0.00017237
11 *309:12 0.000434164
12 *309:3 *310:3 0.000631326016
13 *309:2 *719 0.000894468047
14 *309:3 *75:43 0.0013031
15 *309:4 *167:2 0.00393967

*RES
1 *309:2 *309:9 0.199895
2 *309:10 *309:12 25.7373009
3 *309:8 *309:9 4.32385
4 *309:5 *309:6 4.47426
5 *1489:Z *309:3 2.5896
6 *309:3 *309:7 4.3046
7 *309:5 *309:4 1.95143
8 *309:4 *309:11 22.8583
9 *309:11 *309:12 0.199895
10 *309:7 *309:8 0.199895
11 *1243:I *309:10 4.57872
12 *309:6 *309:2 5.11164
*END

*D_NET *310 0.0107684

*CONN
*I *1242:I I *C 149.1 150.4 *L 0.00104 *D DEL0
*I *1505:Z O *C 150.7 70.8 *L 0 *D BUFFD8

*CAP
1 *1505:Z 0.000100932
2 *310:2 0.000228451
3 *310:3 0.000451991
4 *310:4 0.00024849
5 *310:5 0.000327677
6 *310:6 0.000313426
7 *310:7 0.000338838
8 *310:8 0.000873613
9 *310:9 0.000167712
10 *310:10 0.000209681
11 *310:11 0.000312965
12 *310:12 0.000448417
13 *310:13 1.52193e-06
14 *310:14 0.000450077
15 *310:15 0.000296131
16 *310:16 0.00014795
17 *310:17 0.00151121
18 *310:18 0.000131901
19 *310:4 *933:2 0.000931438984
20 *310:4 *186:2 0.000993762031
21 *310:4 *228:2 0.000554791992
22 *310:2 *75:42 0.0010961
23 *310:3 *309:3 0.000631326016

*RES
1 *310:7 *310:10 3.14579
2 *310:15 *310:16 2.04217
3 *310:14 *310:15 3.1429
4 *310:12 *310:13 3.72524
5 *310:11 *310:14 3.16891
6 *310:10 *310:13 2.03024
7 *310:5 *310:17 5.1363
8 *310:7 *310:8 0.199773
9 *310:17 *310:18 23.6751003
10 *310:6 *310:2 3.41673
11 *310:11 *310:12 0.199773
12 *310:2 *310:9 2.04289
13 *310:8 *310:9 9.32756
14 *310:16 *310:3 2.92724
15 *1505:Z *310:3 3.88528
16 *310:4 *310:18 2.58368
17 *310:5 *310:6 3.43696
18 *1242:I *310:4 3.44889
*END

*D_NET *311 0.0138329

*CONN
*I *1241:I I *C 146.1 152.4 *L 0.00104 *D DEL0
*I *1504:Z O *C 150.7 66.4 *L 0 *D BUFFD8

*CAP
1 *311:2 0.000622732
2 *311:3 0.0043013
3 *311:4 0.00136735
4 *311:5 9.62845e-05
5 *311:6 0.000171698
6 *311:2 *230:2 0.000599205
7 *311:2 *866:4 0.0027841
8 *311:2 *137:5 0.00149411
9 *311:3 *235:2 0.000476638984
10 *311:3 *291:6 0.00191942

*RES
1 *311:6 *311:3 6.17689
2 *311:2 *311:3 72.8072968
3 *311:5 *311:6 1.49978
4 *311:4 *311:2 9.32421
5 *1504:Z *311:5 1.49978
6 *1241:I *311:4 1.49978
*END

*D_NET *312 0.00115995

*CONN
*I *1240:I I *C 149.5 154 *L 0.00104 *D DEL0
*I *1316:Z O *C 150.7 149.2 *L 0 *D BUFFD8

*CAP
1 *1240:I 0.00085936
2 *1316:Z 0.000300589

*RES
1 *1240:I *1316:Z 8.33615
*END

*D_NET *313 0.00361605

*CONN
*I *1253:Z O *C 147.1 74.4 *L 0 *D BUFFD1
*I *1314:I I *C 147.9 94.8 *L 0.000643 *D CKBD0

*CAP
1 *1314:I 3.2597e-05
2 *1253:Z 0.000130108
3 *313:2 3.32691e-05
4 *313:3 0.000804423
5 *313:4 0.000780395
6 *313:5 0.00183526

*RES
1 *313:2 *313:3 4.88562
2 *1314:I *313:2 0.40242
3 *313:4 *313:5 9.63220024
4 *313:3 *313:4 3.7639
5 *1253:Z *313:5 1.10673
*END

*D_NET *314 0.0014483

*CONN
*I *1063:I I *C 138.3 74.8 *L 0.00182 *D DEL005
*I *1254:Z O *C 143.3 77.2 *L 0 *D CKBD1

*CAP
1 *1063:I 0.000125059
2 *1254:Z 0.000110346
3 *314:2 0.00105033008
4 *314:3 0.000162562

*RES
1 *314:2 *314:3 5.91638994
2 *1063:I *314:2 1.21711
3 *1254:Z *314:3 2.21711
*END

*D_NET *315 0.00292458

*CONN
*I *1255:Z O *C 145.1 235.6 *L 0 *D BUFFD1
*I *1574:D[48] I *C 134.195 251.455 *L 0.00183 *D sram00

*CAP
1 *1255:Z 0.000153069
2 *315:2 0.000163462
3 *315:4 1.75561e-05
4 *315:5 0.00122612
5 *315:6 2.48795e-05
6 *315:8 2.45785e-05
7 *315:9 0.0013149

*RES
1 *315:7 *315:8 0.3333
2 *315:3 *315:5 11.3176
3 *315:3 *315:4 0.355372
4 *1255:Z *315:2 0.949699
5 *315:6 *315:9 1.19486
6 *315:5 *315:6 0.355414
7 *315:4 *315:7 0.267084
8 *315:2 *315:9 9.07349
9 *1255:Z *1574:D[48] 0.0001
*END

*D_NET *316 0.0112474

*CONN
*I *1256:Z O *C 143.3 6 *L 0 *D DEL0
*I *1390:I I *C 143.9 42.4 *L 0.00104 *D DEL0
*I *1465:I I *C 145.5 64 *L 0.00105 *D DEL1

*CAP
1 *1390:I 0.000181504
2 *1256:Z 0.000239912
3 *316:3 0.000984511953
4 *316:4 6.45976e-07
5 *316:5 0.00070183
6 *316:6 0.000584262
7 *316:7 0.000434111
8 *316:8 3.45672e-05
9 *316:9 0.000339197
10 *316:10 0.000114518
11 *316:11 0.000889238
12 *316:12 2.96097e-05
13 *316:13 0.000865382
14 *316:5 *1598:CDN 0.000365871992
15 *316:3 *1579:Z 0.00198445
16 *316:9 *940:12 0.000807551016
17 *316:3 *482:3 0.00207114
18 *316:6 *487:3 0.000619143008

*RES
1 *1465:I *316:6 3.65076
2 *316:3 *316:8 5.86714
3 *316:11 *316:12 0.199865
4 *316:7 *316:12 4.26448
5 *1256:Z *316:5 2.58162
6 *316:6 *316:10 2.95268
7 *1390:I *316:9 3.02665
8 *316:4 *316:5 3.22526
9 *316:9 *316:13 27.2315006
10 *316:8 *316:13 1.21706
11 *316:7 *316:9 2.91446
12 *316:10 *316:11 11.1717
13 *316:3 *316:4 0.900431
*END

*D_NET *317 0.00108027

*CONN
*I *1257:Z O *C 148.3 275.2 *L 0 *D DEL1
*I *1410:I I *C 145.1 271.2 *L 0.000975 *D CKBD2

*CAP
1 *317:2 0.000371543
2 *317:3 0.000708729063

*RES
1 *317:2 *317:3 4.81177998
2 *1257:Z *317:2 3.36735
3 *1410:I *317:3 1.50001
*END

*D_NET *318 0.0086817

*CONN
*I *1091:Z O *C 140.3 218.4 *L 0 *D DEL015
*I *1574:D[62] I *C 134.195 310.255 *L 0.00183 *D sram00

*CAP
1 *318:2 6.82523e-05
2 *318:3 0.00167274
3 *318:4 6.91054e-05
4 *318:5 2.0561e-05
5 *318:6 6.36879e-05
6 *318:7 0.00279557
7 *318:8 0.000299201
8 *318:10 0.000301206
9 *318:3 *461:3 0.00141538
10 *318:3 *463:3 0.00197595

*RES
1 *318:7 *318:10 42.3145
2 *318:6 *318:8 6.18774
3 *318:4 *318:10 0.94976
4 *318:2 *318:3 4.17351
5 *318:8 *318:9 0.199778
6 *318:6 *318:7 0.199763
7 *318:4 *318:5 1.0893
8 *318:3 *318:9 23.142
9 *1091:Z *318:2 0.75
10 *1091:Z *1574:D[62] 0.0001
*END

*D_NET *319 0.00783771

*CONN
*I *1086:I I *C 140.9 285.6 *L 0.00103 *D DEL015
*I *1259:Z O *C 142.7 217.6 *L 0 *D BUFFD0

*CAP
1 *1086:I 6.76786e-05
2 *319:2 0.000268687
3 *319:3 0.000990332
4 *319:4 0.00340654
5 *319:5 0.000145753
6 *319:5 *79:4 0.000243494004
7 *319:2 *36:2 0.000864911016
8 *319:2 *464:4 0.00165127
9 *1086:I *85:5 0.000199053008

*RES
1 *319:4 *319:5 0.200005
2 *319:3 *319:4 50.2204018
3 *319:2 *319:5 4.02002
4 *1086:I *319:3 3.04988
5 *1259:Z *319:2 2.90045
*END

*D_NET *320 0.00755429

*CONN
*I *1081:Z O *C 147.5 240 *L 0 *D DEL015
*I *1574:D[60] I *C 134.195 301.855 *L 0.00183 *D sram00

*CAP
1 *320:2 6.32439e-07
2 *320:3 0.000226097
3 *320:4 5.35992e-05
4 *320:5 8.6407e-05
5 *320:6 0.00518086
6 *320:3 *460:3 0.000308057988
7 *320:3 *463:4 0.00169868

*RES
1 *320:2 *320:5 0.905642
2 *320:3 *320:6 49.1062
3 *320:3 *320:4 2.33421
4 *320:5 *320:6 8.68631
5 *1081:Z *320:2 0.75
6 *1081:Z *1574:D[60] 0.0001
*END

*D_NET *321 0.00415509

*CONN
*I *1127:I I *C 139.7 159.6 *L 0.00103 *D DEL015
*I *1261:Z O *C 139.7 139.2 *L 0 *D BUFFD1

*CAP
1 *1261:Z 0.000570598
2 *321:2 0.00189953
3 *321:3 0.00168495

*RES
1 *321:2 *321:3 13.3811998
2 *1261:Z *321:2 10.1721
3 *1127:I *321:3 1.49991
*END

*D_NET *322 0.0081519

*CONN
*I *1087:Z O *C 146.3 67.2 *L 0 *D CKBD0
*I *1574:D[1] I *C 134.265 13.205 *L 0.00183 *D sram00

*CAP
1 *1087:Z 0.000101817
2 *322:2 0.000695539
3 *322:3 5.73853e-06
4 *322:4 0.000141871
5 *322:5 0.000809431
6 *322:6 3.02351e-05
7 *322:7 0.000384863
8 *322:8 9.61949e-07
9 *322:9 0.000734133
10 *322:10 0.000113825
11 *322:11 0.000571
12 *322:12 0.000728129
13 *322:14 2.6039e-06
14 *322:15 0.000712008
15 *322:16 0.000220651
16 *322:17 9.61949e-07
17 *322:18 2.88917e-05
18 *322:19 4.88272e-05
19 *322:20 0.000171526
20 *322:21 0.00108692
21 *322:22 5.3554e-05
22 *322:23 0.000121587
23 *322:24 3.04009e-05
24 *322:10 *328:2 0.000804836953
25 *322:2 *640:3 0.000551594961

*RES
1 *322:21 *322:22 0.199822
2 *322:8 *322:9 4.18898
3 *322:3 *322:4 0.171182
4 *322:13 *322:15 0.199822
5 *322:22 *322:23 0.886471
6 *322:18 *322:20 0.199843
7 *322:23 *322:24 0.489263
8 *322:6 *322:7 2.06747
9 *322:5 *322:6 0.88972
10 *322:7 *322:8 0.111511
11 *322:17 *322:21 10.799
12 *322:10 *322:11 0.199843
13 *322:14 *322:15 9.93215
14 *322:2 *322:19 0.199843
15 *322:12 *322:14 0.199822
16 *322:19 *322:20 2.29269
17 *1087:Z *322:3 0.949809
18 *322:16 *322:17 0.199822
19 *322:10 *322:12 6.43167
20 *322:13 *322:16 1.67158
21 *322:4 *322:5 5.03449
22 *322:9 *322:2 8.79621
23 *322:11 *322:18 4.16866
24 *1087:Z *1574:D[1] 0.0001
*END

*D_NET *323 0.00301995

*CONN
*I *1255:I I *C 144.5 235.2 *L 0.00072 *D BUFFD1
*I *1263:Z O *C 144.5 218.4 *L 0 *D CKBD0

*CAP
1 *1263:Z 0.000784631016
2 *323:2 0.000595331
3 *323:3 0.000519519
4 *323:4 0.000720409
5 *323:5 0.000400068

*RES
1 *323:2 *323:5 2.31636
2 *1263:Z *323:4 4.46336
3 *323:2 *323:3 3.24735
4 *1255:I *323:3 3.05736
5 *323:4 *323:5 4.58265018
*END

*D_NET *324 0.00247635

*CONN
*I *1245:I I *C 143.7 51.6 *L 0.00072 *D BUFFD1
*I *1264:Z O *C 143.9 62.8 *L 0 *D CKBD0

*CAP
1 *1245:I 0.000369035
2 *1264:Z 0.000182189
3 *324:2 0.000877083984
4 *324:3 0.000120237
5 *324:4 0.000117654
6 *324:5 0.000810153

*RES
1 *324:3 *324:5 1.2169
2 *1264:Z *324:4 1.49997
3 *324:4 *324:5 4.04043
4 *324:2 *324:3 5.26722002
5 *1245:I *324:2 2.56063
*END

*D_NET *325 0.00170317

*CONN
*I *1247:I I *C 141.9 55.2 *L 0.00072 *D BUFFD1
*I *1265:Z O *C 143.1 62.8 *L 0 *D CKBD0

*CAP
1 *325:2 0.0010339
2 *325:3 0.000669262

*RES
1 *325:2 *325:3 6.72082996
2 *1265:Z *325:2 4.07797
3 *1247:I *325:3 0.749961
*END

*D_NET *326 0.00665171

*CONN
*I *1266:Z O *C 145.9 8.8 *L 0 *D DEL01
*I *1574:D[11] I *C 134.265 55.205 *L 0.00183 *D sram00

*CAP
1 *326:2 0.000977073
2 *326:3 0.00136731
3 *326:4 0.000112414
4 *326:5 8.69604e-05
5 *326:6 2.18027e-05
6 *326:7 0.000737119
7 *326:8 1.05988e-05
8 *326:9 0.000230232
9 *326:10 0.00014396
10 *326:11 3.53224e-05
11 *326:12 0.000107282
12 *326:13 7.57356e-06
13 *326:15 0.000402275
14 *326:17 0.000125308
15 *326:18 9.61405e-05
16 *326:19 5.46423e-05
17 *326:20 5.03444e-05
18 *326:22 0.000325037
19 *326:9 *328:2 0.000961925
20 *326:12 *484:5 0.000209646992
21 *326:2 *636:4 0.00034902
22 *326:3 *71:2 0.000239730996

*RES
1 *326:4 *326:5 1.3946
2 *326:3 *326:20 15.8415
3 *326:14 *326:3 0.199822
4 *326:9 *326:14 1.20389
5 *326:7 *326:8 0.111497
6 *326:6 *326:7 5.38139
7 *326:8 *326:9 1.43853
8 *326:16 *326:19 0.753801
9 *326:11 *326:22 2.99933
10 *326:12 *326:13 0.200945
11 *326:10 *326:22 0.905862
12 *326:11 *326:12 0.156957
13 *326:13 *326:15 2.92698
14 *326:20 *326:2 0.199822
15 *326:19 *326:21 0.199822
16 *326:17 *326:18 2.60365
17 *326:16 *326:17 0.199822
18 *326:2 *326:21 13.6659
19 *326:15 *326:18 0.199843
20 *326:5 *326:6 0.111497
21 *1266:Z *326:4 0.75
22 *1266:Z *1574:D[11] 0.0001
*END

*D_NET *327 0.00102396

*CONN
*I *1246:I I *C 148.9 89.2 *L 0.00072 *D BUFFD1
*I *1267:Z O *C 151.3 88 *L 0 *D CKBD0

*CAP
1 *1246:I 8.49339e-06
2 *327:2 0.000114798
3 *327:3 0.00090067

*RES
1 *327:2 *327:3 5.49520016
2 *1246:I *327:3 1.14363
3 *1267:Z *327:2 0.750039
*END

*D_NET *328 0.0076503

*CONN
*I *1268:Z O *C 151.7 12.4 *L 0 *D DEL01
*I *1574:D[13] I *C 134.265 63.605 *L 0.00183 *D sram00

*CAP
1 *1268:Z 0.000124187
2 *328:2 0.00268777
3 *328:3 2.17778e-05
4 *328:4 5.90583e-05
5 *328:5 5.05687e-05
6 *328:6 0.00046734
7 *328:7 4.06436e-05
8 *328:8 0.000371165
9 *328:9 3.19899e-05
10 *328:10 0.000215358
11 *328:11 7.38229e-05
12 *328:12 0.000132758
13 *328:13 4.80259e-05
14 *328:14 2.05064e-07
15 *328:15 1.07453e-05
16 *328:17 0.000176724
17 *328:18 0.000452412
18 *328:20 0.000128206
19 *328:21 1.9276e-06
20 *328:22 0.000235126
21 *328:23 0.000174632
22 *328:24 6.72609e-06
23 *328:2 *71:2 0.000372326992
24 *328:2 *322:10 0.000804836953
25 *328:2 *326:9 0.000961925

*RES
1 *328:19 *328:22 1.82792
2 *328:8 *328:9 0.113965
3 *328:3 *328:4 1.70627
4 *328:2 *328:23 31.0977
5 *328:22 *328:23 0.199843
6 *328:12 *328:13 0.800274
7 *328:17 *328:24 1.72997
8 *328:12 *328:24 0.949843
9 *328:6 *328:7 0.111497
10 *328:5 *328:6 3.18611
11 *328:7 *328:8 2.26645
12 *328:11 *328:2 4.80373
13 *328:9 *328:10 1.75609
14 *328:10 *328:11 0.111497
15 *328:13 *328:14 0.267153
16 *328:19 *328:20 0.199843
17 *1268:Z *328:3 0.905777
18 *328:18 *328:21 0.199843
19 *328:16 *328:17 0.199843
20 *328:20 *328:21 1.21967
21 *328:16 *328:18 4.16209
22 *328:14 *328:15 0.333349
23 *328:4 *328:5 0.111604
24 *1268:Z *1574:D[13] 0.0001
*END

*D_NET *329 0.00360694

*CONN
*I *1269:Z O *C 147.1 261.6 *L 0 *D DEL01
*I *1574:D[54] I *C 134.195 276.655 *L 0.00183 *D sram00

*CAP
1 *1269:Z 0.0017227
2 *329:3 0.000172914
3 *329:4 0.000589243
4 *329:5 1.62978e-06
5 *329:6 5.06808e-05
6 *329:7 0.000992902
7 *329:8 2.09505e-05
8 *329:9 5.59118e-05

*RES
1 *329:7 *329:9 10.7166
2 *329:2 *329:4 2.96869
3 *329:2 *329:3 0.199758
4 *329:8 *329:9 1.06125
5 *329:4 *329:5 0.199758
6 *329:3 *329:6 1.33793
7 *1269:Z *329:5 9.54744
8 *329:6 *329:8 0.75
9 *1269:Z *1574:D[54] 0.0001
*END

*D_NET *330 0.00682166

*CONN
*I *1270:Z O *C 139.5 27.6 *L 0 *D DEL01
*I *1574:D[12] I *C 134.265 59.675 *L 0.00183 *D sram00

*CAP
1 *1270:Z 0.000368222
2 *330:2 0.000179333
3 *330:4 6.20426e-05
4 *330:5 0.0008111
5 *330:6 2.84341e-06
6 *330:7 0.000168009
7 *330:9 0.000424479
8 *330:10 1.28119e-05
9 *330:11 0.000161777
10 *330:12 4.51309e-06
11 *330:13 0.00108339
12 *330:14 2.89301e-06
13 *330:15 0.00105815
14 *330:16 0.000151577
15 *330:17 9.89739e-05
16 *330:18 0.000248485
17 *330:19 0.000487662
18 *330:20 4.94456e-05
19 *330:21 0.000358369
20 *330:5 *1616:CDN 0.00108754

*RES
1 *330:2 *330:3 0.19979
2 *330:12 *330:13 0.66809
3 *330:2 *330:12 0.82356
4 *330:5 *330:6 0.199809
5 *330:4 *330:5 7.78421
6 *330:6 *330:7 1.04592
7 *330:15 *330:17 0.668539
8 *330:9 *330:10 2.37151
9 *330:8 *330:9 0.19979
10 *330:13 *330:14 5.37105
11 *330:11 *330:14 0.19979
12 *330:4 *330:19 3.64271
13 *330:19 *330:20 0.053145
14 *330:16 *330:17 0.57229
15 *1270:Z *330:18 2.6402
16 *330:8 *330:11 0.753449
17 *330:20 *330:21 2.20105
18 *330:16 *330:18 1.46039
19 *330:3 *330:15 5.8277
20 *330:7 *330:10 0.199809
21 *1270:Z *1574:D[12] 0.0001
*END

*D_NET *331 0.00727224

*CONN
*I *1271:Z O *C 151.9 44.8 *L 0 *D DEL01
*I *1574:D[18] I *C 134.265 84.875 *L 0.00183 *D sram00

*CAP
1 *1271:Z 0.000169201
2 *331:2 2.1677e-05
3 *331:3 3.07952e-05
4 *331:4 1.64728e-05
5 *331:5 0.000193459
6 *331:6 1.33331e-06
7 *331:7 3.26876e-05
8 *331:8 1.33331e-06
9 *331:9 0.000288296
10 *331:10 9.0192e-05
11 *331:11 0.000808545
12 *331:12 3.05801e-05
13 *331:13 0.000227695
14 *331:14 4.03434e-05
15 *331:15 0.000439863
16 *331:16 8.13749e-05
17 *331:17 0.000151395
18 *331:18 0.000141417
19 *331:19 0.00281866
20 *331:20 0.000503647
21 *331:22 0.000107482
22 *331:16 *616:2 0.000311327012
23 *331:16 *799:2 0.000416121992
24 *331:15 *475:4 0.000348306016

*RES
1 *331:19 *331:22 25.7103
2 *331:16 *331:22 0.949843
3 *331:7 *331:8 0.111497
4 *331:2 *331:3 1.23916
5 *331:18 *331:20 4.00279
6 *331:18 *331:19 0.199843
7 *331:12 *331:13 1.28919
8 *331:5 *331:6 0.111497
9 *331:4 *331:5 1.28964
10 *331:6 *331:7 0.3554
11 *331:15 *331:21 2.29397
12 *331:10 *331:11 4.42472
13 *331:8 *331:9 2.06736
14 *331:9 *331:10 0.111497
15 *331:13 *331:14 0.111497
16 *1271:Z *331:2 1.37311
17 *331:16 *331:17 2.17898
18 *331:11 *331:12 0.111497
19 *331:20 *331:21 0.199822
20 *331:14 *331:15 1.88966
21 *331:3 *331:4 0.111604
22 *1271:Z *1574:D[18] 0.0001
*END

*D_NET *332 0.00316862

*CONN
*I *1105:Z O *C 141.5 163.6 *L 0 *D DEL015
*I *1574:A[6] I *C 134.265 150.16 *L 0.00555 *D sram00

*CAP
1 *1105:Z 1.38707e-05
2 *332:2 0.000270726
3 *332:3 7.70968e-05
4 *332:4 0.000795231
5 *332:5 0.0014709
6 *332:6 0.000288344
7 *332:7 0.000121178
8 *332:8 1.09978e-06
9 *332:9 0.000109978
10 *332:10 2.01776e-05

*RES
1 *332:9 *332:10 0.333643
2 *332:2 *332:3 1.28069
3 *332:7 *332:8 0.199818
4 *332:3 *332:4 4.91696
5 *1105:Z *332:2 0.322594
6 *332:6 *332:9 1.38215
7 *332:5 *332:8 9.91627
8 *332:5 *332:6 1.71188
9 *332:4 *332:7 1.15144
10 *1105:Z *1574:A[6] 0.0001
*END

*D_NET *333 0.00110898

*CONN
*I *1273:Z O *C 139.5 52.8 *L 0 *D DEL01
*I *1574:D[10] I *C 134.265 51.275 *L 0.00183 *D sram00

*CAP
1 *333:2 2.48351e-05
2 *333:3 0.000110868
3 *333:4 0.000210941
4 *333:5 0.000762326016

*RES
1 *333:2 *333:4 1.13187
2 *333:4 *333:5 1.99576
3 *333:3 *333:5 4.57465982
4 *1273:Z *333:3 0.749972
5 *1273:Z *1574:D[10] 6.98038e-05
*END

*D_NET *334 0.00385532

*CONN
*I *1274:Z O *C 145.5 67.2 *L 0 *D DEL01
*I *1574:D[17] I *C 134.265 80.405 *L 0.00183 *D sram00

*CAP
1 *1274:Z 0.000310767
2 *334:2 4.35004e-05
3 *334:3 0.000208738
4 *334:4 3.329e-06
5 *334:6 0.000141137
6 *334:7 0.000110421
7 *334:8 7.85984e-06
8 *334:9 0.000282965
9 *334:10 2.89293e-06
10 *334:11 0.000409222
11 *334:12 6.38891e-05
12 *334:13 0.0004607
13 *334:14 6.89199e-05
14 *334:15 0.000228925
15 *334:16 2.19097e-06
16 *334:17 0.000336516
17 *334:18 6.43358e-05
18 *334:19 0.000697016016
19 *334:21 8.99043e-05
20 *334:22 0.000274924
21 *334:23 1.51241e-05
22 *334:24 3.44599e-06
23 *334:25 2.85996e-05

*RES
1 *334:2 *334:3 0.912265
2 *334:6 *334:8 0.431989
3 *334:22 *334:23 0.19985
4 *334:18 *334:19 1.57845
5 *334:12 *334:13 2.53442
6 *334:24 *334:25 0.333593
7 *334:4 *334:7 0.427578
8 *334:5 *334:6 0.199791
9 *334:21 *334:24 0.267486
10 *334:20 *334:22 1.51887
11 *1274:Z *334:5 1.69214
12 *334:8 *334:9 0.199791
13 *334:9 *334:10 1.37425
14 *334:13 *334:14 0.111512
15 *334:19 *334:23 3.85443997
16 *334:17 *334:18 0.111512
17 *334:16 *334:17 1.81941
18 *334:15 *334:16 0.422814
19 *334:11 *334:12 0.111512
20 *334:20 *334:21 0.19985
21 *334:14 *334:15 0.511036
22 *334:2 *334:11 3.26236
23 *334:3 *334:4 0.199791
24 *334:7 *334:10 0.199791
25 *1274:Z *1574:D[17] 0.000117628
*END

*D_NET *335 0.00834243

*CONN
*I *1044:I I *C 146.3 175.6 *L 0.00103 *D DEL015
*I *1080:Z O *C 148.7 139.2 *L 0 *D CKBD0

*CAP
1 *1044:I 0.000124002
2 *1080:Z 2.6602e-05
3 *335:2 0.00204107
4 *335:3 0.000150225
5 *335:4 0.00275848
6 *335:5 0.000122066
7 *335:6 0.000164579
8 *335:4 *369:2 0.000984518984
9 *335:4 *1045:I 0.000342548984
10 *335:2 *1244:I 0.000460355
11 *335:4 *797:3 0.000811795
12 *335:2 *288:2 0.000356201992

*RES
1 *335:2 *335:6 14.7903
2 *1080:Z *335:5 1.50001
3 *1044:I *335:3 2.61432
4 *335:2 *335:5 3.21871
5 *335:4 *335:6 2.16651
6 *335:3 *335:4 24.375
*END

*D_NET *336 0.00569119

*CONN
*I *1276:Z O *C 151.9 131.2 *L 0 *D DEL01
*I *1574:D[25] I *C 134.265 114.005 *L 0.00183 *D sram00

*CAP
1 *336:2 9.22565e-05
2 *336:3 0.00120295
3 *336:4 3.64547e-05
4 *336:5 0.000315151
5 *336:6 3.98322e-06
6 *336:7 0.000731572
7 *336:8 0.000102921
8 *336:9 0.000405976
9 *336:10 2.26695e-05
10 *336:12 2.47253e-05
11 *336:13 0.000636819
12 *336:14 0.000117018
13 *336:15 1.39504e-06
14 *336:8 *799:3 0.000385001992
15 *336:7 *105:2 0.00115204
16 *336:7 *783:3 0.000460248008

*RES
1 *336:2 *336:3 7.13307
2 *336:12 *336:13 12.3175
3 *336:5 *336:6 0.111516
4 *336:4 *336:5 1.75622
5 *336:6 *336:7 3.56443
6 *336:8 *336:15 2.10078
7 *336:8 *336:9 2.26828
8 *336:11 *336:13 0.199856
9 *336:11 *336:14 1.60331
10 *336:10 *336:12 0.397235
11 *336:14 *336:15 0.199856
12 *336:3 *336:4 0.111516
13 *336:7 *336:10 1.13488
14 *1276:Z *336:2 0.75
15 *1276:Z *1574:D[25] 0.0001
*END

*D_NET *337 0.00397476

*CONN
*I *1027:I I *C 143.5 159.6 *L 0.000968 *D CKBD1
*I *1277:Z O *C 147.7 145.6 *L 0 *D DEL01

*CAP
1 *1027:I 0.000240702
2 *337:2 0.000578613
3 *337:3 0.000481556
4 *337:4 0.000670446
5 *337:5 0.00200208
6 *337:6 1.37474e-06

*RES
1 *337:5 *337:6 0.199894
2 *337:4 *337:6 3.94179
3 *1277:Z *337:4 1.49992
4 *337:2 *337:5 11.7807999
5 *1027:I *337:3 4.07715
6 *337:2 *337:3 3.48988
*END

*D_NET *338 0.00732767

*CONN
*I *1088:I I *C 138.1 164.8 *L 0.00103 *D DEL01
*I *1278:Z O *C 151.5 142.8 *L 0 *D DEL01

*CAP
1 *338:2 0.000563272
2 *338:3 0.00193409
3 *338:4 8.75335e-05
4 *338:5 0.000663732
5 *338:6 0.000371885
6 *338:7 4.03729e-05
7 *338:2 *619:9 0.000325118008
8 *338:2 *66:4 0.000541683008
9 *338:3 *776:3 0.000887668047
10 *338:2 *4:2 0.00191235

*RES
1 *338:2 *338:3 23.6432991
2 *338:7 *338:3 6.28566
3 *338:5 *338:6 0.111477
4 *338:4 *338:5 4.46883
5 *1088:I *338:2 5.1478
6 *338:6 *338:7 2.33453
7 *1278:Z *338:4 0.750037
*END

*D_NET *339 0.00158738

*CONN
*I *1279:Z O *C 139.9 113.2 *L 0 *D DEL01
*I *1574:D[24] I *C 134.265 110.075 *L 0.00183 *D sram00

*CAP
1 *339:2 0.00055077
2 *339:3 0.000953021016
3 *339:4 2.85317e-05
4 *339:5 5.50567e-05

*RES
1 *339:2 *339:3 5.82243013
2 *339:4 *339:5 0.488993
3 *339:3 *339:4 0.0531283
4 *1279:Z *339:2 2.74837
5 *1279:Z *1574:D[24] 8.88432e-05
*END

*D_NET *340 0.00264034

*CONN
*I *1280:Z O *C 151.9 260.8 *L 0 *D DEL01
*I *1574:D[50] I *C 134.195 259.855 *L 0.00183 *D sram00

*CAP
1 *340:2 2.79345e-05
2 *340:3 0.000197817
3 *340:4 0.00165673
4 *340:5 5.78661e-05
5 *340:6 0.00069998

*RES
1 *340:2 *340:3 0.334642
2 *340:4 *340:5 0.22429
3 *340:3 *340:4 10.7592
4 *340:5 *340:6 5.00172
5 *1280:Z *340:3 0.75
6 *1280:Z *1574:D[50] 0.0001
*END

*D_NET *341 0.0026643

*CONN
*I *1281:Z O *C 146.1 272.4 *L 0 *D DEL01
*I *1574:D[55] I *C 134.195 280.585 *L 0.00183 *D sram00

*CAP
1 *1281:Z 0.000488985
2 *341:2 0.00109285
3 *341:4 0.00036997
4 *341:5 5.17951e-05
5 *341:6 0.000381409
6 *341:7 8.48799e-06
7 *341:8 9.08499e-05
8 *341:9 0.000179949

*RES
1 *341:8 *341:9 0.905614
2 *341:6 *341:7 0.199758
3 *341:5 *341:9 2.59538
4 *341:4 *341:5 2.00412
5 *341:3 *341:6 1.8207
6 *341:3 *341:4 0.199758
7 *341:2 *341:8 10.3041
8 *1281:Z *341:7 2.89346
9 *1281:Z *1574:D[55] 0.0001
*END

*D_NET *342 0.00300964

*CONN
*I *1282:Z O *C 148.7 247.2 *L 0 *D DEL01
*I *1574:D[49] I *C 134.195 255.385 *L 0.00183 *D sram00

*CAP
1 *342:2 0.00010166
2 *342:3 0.000204648
3 *342:4 1.52198e-05
4 *342:5 0.000386485
5 *342:6 8.00862e-05
6 *342:7 0.0011931
7 *342:8 2.76906e-05
8 *342:9 5.68923e-05
9 *342:11 1.90612e-05
10 *342:12 8.65309e-05
11 *342:13 0.000187881
12 *342:14 0.000646552
13 *342:15 3.85957e-06

*RES
1 *342:2 *342:3 1.86137
2 *342:12 *342:14 3.11388
3 *342:12 *342:13 0.199763
4 *342:5 *342:6 0.11147
5 *342:4 *342:5 2.65898
6 *342:6 *342:7 6.71347
7 *342:10 *342:11 0.644528
8 *342:8 *342:9 0.3333
9 *342:9 *342:10 0.100286
10 *342:8 *342:13 1.86746
11 *342:7 *342:15 2.21856
12 *342:14 *342:15 0.199778
13 *342:3 *342:4 0.11147
14 *1282:Z *342:2 0.75
15 *1282:Z *1574:D[49] 0.0001
*END

*D_NET *343 0.00453568

*CONN
*I *1283:Z O *C 151.9 110.4 *L 0 *D DEL01
*I *1574:D[26] I *C 134.265 118.475 *L 0.00183 *D sram00

*CAP
1 *343:3 0.000548728
2 *343:4 6.29238e-05
3 *343:5 0.000455684
4 *343:6 0.000988425
5 *343:7 2.77516e-06
6 *343:8 8.97252e-05
7 *343:9 0.000907055
8 *343:10 9.06452e-05
9 *343:11 0.000226432
10 *343:12 5.71774e-05
11 *343:13 0.00036878
12 *343:14 6.32556e-05
13 *343:15 0.00013541
14 *343:16 8.94386e-06
15 *343:17 9.59844e-05
16 *343:18 3.31813e-06
17 *343:19 0.000342506
18 *343:20 3.18691e-05
19 *343:21 5.6016e-05

*RES
1 *343:2 *343:3 0.199834
2 *343:18 *343:19 1.91185
3 *343:12 *343:13 2.15155
4 *343:6 *343:16 3.7237
5 *343:6 *343:7 1.83533
6 *343:4 *343:17 1.23904
7 *343:10 *343:11 1.2893
8 *343:8 *343:9 5.67923021
9 *343:9 *343:10 0.111529
10 *343:13 *343:14 0.111529
11 *343:19 *343:20 0.111529
12 *343:17 *343:18 0.111529
13 *343:5 *343:7 0.199834
14 *343:2 *343:5 2.09279
15 *343:15 *343:16 0.111529
16 *343:11 *343:12 0.111529
17 *343:20 *343:21 0.489012
18 *343:14 *343:15 0.511023
19 *343:3 *343:4 2.9014
20 *1283:Z *343:8 0.750027
21 *1283:Z *1574:D[26] 8.66582e-05
*END

*D_NET *344 0.00430099

*CONN
*I *1085:Z O *C 151.9 168 *L 0 *D DEL015
*I *1574:A[3] I *C 134.265 155 *L 0.00555 *D sram00

*CAP
1 *344:2 8.60519e-05
2 *344:3 0.00135784
3 *344:4 0.000158659
4 *344:5 0.000533588
5 *344:6 0.00216484

*RES
1 *344:3 *344:6 11.2934
2 *344:3 *344:4 1.54642
3 *344:5 *344:6 15.2187
4 *1085:Z *344:2 0.75
5 *344:2 *344:5 0.75
6 *1085:Z *1574:A[3] 0.0001
*END

*D_NET *345 0.00392086

*CONN
*I *1285:Z O *C 147.3 171.6 *L 0 *D DEL01
*I *1574:D[32] I *C 134.195 184.255 *L 0.00183 *D sram00

*CAP
1 *1285:Z 0.00031804
2 *345:2 0.00038741
3 *345:4 0.00109256008
4 *345:6 0.000194238
5 *345:7 0.00105433
6 *345:8 5.01142e-05
7 *345:9 0.000824151

*RES
1 *345:2 *345:5 0.199801
2 *345:8 *345:9 2.89967
3 *345:6 *345:7 8.40378
4 *345:4 *345:5 5.96763
5 *345:3 *345:4 0.199801
6 *345:2 *345:8 2.41889
7 *1285:Z *345:3 1.9439
8 *345:6 *345:9 2.14872
9 *1285:Z *1574:D[32] 0.0001
*END

*D_NET *346 0.00256476

*CONN
*I *1286:Z O *C 148.5 92.4 *L 0 *D DEL01
*I *1574:D[20] I *C 134.265 93.275 *L 0.00183 *D sram00

*CAP
1 *346:2 8.43627e-05
2 *346:3 0.00156046
3 *346:4 3.80025e-05
4 *346:5 0.000881939

*RES
1 *346:2 *346:3 9.18826
2 *346:4 *346:5 5.02847
3 *346:3 *346:4 0.053145
4 *1286:Z *346:2 0.75
5 *1286:Z *1574:D[20] 0.0001
*END

*D_NET *347 0.0023075

*CONN
*I *1287:Z O *C 146.1 204 *L 0 *D DEL01
*I *1574:D[38] I *C 134.195 209.455 *L 0.00183 *D sram00

*CAP
1 *1287:Z 0.000121946
2 *347:2 9.35266e-05
3 *347:3 0.000229884
4 *347:4 9.78857e-06
5 *347:6 7.06142e-05
6 *347:7 0.000168143
7 *347:8 1.62884e-06
8 *347:10 4.99201e-05
9 *347:11 6.89853e-05
10 *347:12 0.000148225
11 *347:13 1.75294e-06
12 *347:15 2.28038e-05
13 *347:16 0.00101663008
14 *347:17 7.14364e-05
15 *347:18 0.000206522
16 *347:19 2.57047e-05

*RES
1 *347:6 *347:9 0.428104
2 *347:7 *347:8 0.199772
3 *347:2 *347:3 1.05384
4 *347:18 *347:19 0.11147
5 *347:12 *347:19 1.23891
6 *347:12 *347:13 0.446138
7 *347:5 *347:6 0.199772
8 *1287:Z *347:4 0.947366
9 *347:9 *347:10 0.199772
10 *347:10 *347:14 0.274181
11 *347:11 *347:13 0.199772
12 *347:17 *347:18 2.22274
13 *347:5 *347:7 1.3568
14 *347:2 *347:16 7.15224
15 *347:16 *347:17 0.11147
16 *347:8 *347:11 0.422796
17 *347:14 *347:15 0.333349
18 *347:3 *347:4 0.199772
19 *1287:Z *1574:D[38] 0.0001
*END

*D_NET *348 0.00179046

*CONN
*I *1058:I I *C 137.7 258.4 *L 0.00072 *D BUFFD1
*I *1288:Z O *C 142.7 250.8 *L 0 *D DEL02

*CAP
1 *1288:Z 0.000132647
2 *348:2 0.000289724
3 *348:3 4.71653e-05
4 *348:4 0.00132093

*RES
1 *348:2 *348:4 4.9518199
2 *1058:I *348:2 2.4778
3 *1288:Z *348:3 1.49999
4 *348:3 *348:4 4.81884
*END

*D_NET *349 0.00217122

*CONN
*I *1289:Z O *C 147.1 181.6 *L 0 *D DEL01
*I *1574:D[33] I *C 134.195 188.185 *L 0.00183 *D sram00

*CAP
1 *349:2 6.71831e-05
2 *349:3 0.00017091
3 *349:5 0.000132133
4 *349:6 0.000476237
5 *349:7 0.000205593
6 *349:8 7.78248e-07
7 *349:10 9.62659e-06
8 *349:11 0.00110875

*RES
1 *349:9 *349:10 0.33351
2 *349:9 *349:11 2.27362
3 *349:7 *349:8 0.199818
4 *349:4 *349:5 0.199818
5 *349:6 *349:11 10.4052
6 *349:5 *349:6 1.10401
7 *349:4 *349:7 1.35752
8 *349:3 *349:8 1.84934
9 *1289:Z *349:2 0.75
10 *349:2 *349:3 0.75
11 *1289:Z *1574:D[33] 0.0001
*END

*D_NET *350 0.00264522

*CONN
*I *1290:Z O *C 145.3 199.6 *L 0 *D DEL01
*I *1574:D[37] I *C 134.195 204.985 *L 0.00183 *D sram00

*CAP
1 *1290:Z 0.000449505
2 *350:2 5.29703e-05
3 *350:3 0.000690277969
4 *350:4 4.13314e-05
5 *350:5 0.000348883
6 *350:6 8.03876e-05
7 *350:7 0.000595913
8 *350:8 5.08848e-05
9 *350:9 0.000335054

*RES
1 *350:2 *350:5 3.1063
2 *350:2 *350:3 3.47366
3 *1290:Z *350:4 2.61875
4 *350:8 *350:9 2.75677
5 *350:7 *350:8 0.111486
6 *350:6 *350:7 3.93448997
7 *350:3 *350:4 0.35541
8 *350:5 *350:6 0.111486
9 *1290:Z *1574:D[37] 0.000120071
*END

*D_NET *351 0.0017568

*CONN
*I *1291:Z O *C 147.9 268.8 *L 0 *D DEL01
*I *1574:D[53] I *C 134.195 272.185 *L 0.00183 *D sram00

*CAP
1 *1291:Z 0.000119103
2 *351:3 0.000104398
3 *351:4 0.000222955
4 *351:5 7.47845e-05
5 *351:6 5.37343e-06
6 *351:7 0.000112262
7 *351:8 0.00111793008

*RES
1 *351:6 *351:8 2.30623
2 *351:4 *351:6 2.77298
3 *351:2 *351:3 0.199758
4 *351:7 *351:8 9.15929
5 *351:3 *351:5 0.943354
6 *1291:Z *351:2 0.883542
7 *351:5 *351:7 0.75
8 *1291:Z *1574:D[53] 0.0001
*END

*D_NET *352 0.00281874

*CONN
*I *1292:Z O *C 143.7 113.2 *L 0 *D DEL01
*I *1574:D[23] I *C 134.265 105.605 *L 0.00183 *D sram00

*CAP
1 *352:2 0.000296424
2 *352:3 0.000301694
3 *352:4 3.35113e-05
4 *352:5 0.000132394
5 *352:6 5.64823e-06
6 *352:7 0.000264973
7 *352:8 4.5263e-05
8 *352:9 6.46846e-05
9 *352:10 5.47771e-05
10 *352:11 0.000285159
11 *352:12 0.000170936
12 *352:13 2.70066e-06
13 *352:14 6.62124e-05
14 *352:15 0.000348045
15 *352:16 0.000233453
16 *352:18 7.17604e-06
17 *352:19 0.000505679023

*RES
1 *352:7 *352:8 0.111526
2 *352:2 *352:3 2.17289
3 *352:18 *352:19 3.39320993
4 *352:12 *352:13 0.333336
5 *352:5 *352:6 0.111526
6 *352:4 *352:5 0.511084
7 *352:6 *352:7 1.60056
8 *352:10 *352:11 1.15021
9 *352:8 *352:9 0.511084
10 *352:9 *352:10 0.111526
11 *352:13 *352:14 0.107643
12 *352:17 *352:19 0.199856
13 *1292:Z *352:2 1.5463
14 *352:11 *352:16 1.46097
15 *352:16 *352:18 0.19996
16 *352:14 *352:15 2.20111
17 *352:12 *352:17 1.35121
18 *352:3 *352:4 0.111526
19 *1292:Z *1574:D[23] 0.000103553
*END

*D_NET *353 0.00230893

*CONN
*I *1293:Z O *C 144.7 92.4 *L 0 *D DEL01
*I *1574:D[21] I *C 134.265 97.205 *L 0.00183 *D sram00

*CAP
1 *1293:Z 0.000597242
2 *353:2 7.57054e-05
3 *353:3 0.000605215
4 *353:4 2.96803e-05
5 *353:5 0.00100108

*RES
1 *353:2 *353:3 3.8969
2 *353:4 *353:5 5.42545986
3 *353:3 *353:4 0.111513
4 *1293:Z *353:2 3.55292
5 *1293:Z *1574:D[21] 8.27859e-05
*END

*D_NET *354 0.00216854

*CONN
*I *1294:Z O *C 143.9 258 *L 0 *D DEL01
*I *1574:D[52] I *C 134.195 268.255 *L 0.00183 *D sram00

*CAP
1 *1294:Z 0.000188545
2 *354:2 3.85773e-05
3 *354:4 5.76325e-05
4 *354:5 0.000764718984
5 *354:6 0.000716982
6 *354:7 2.41312e-05
7 *354:9 2.07589e-05
8 *354:10 4.0526e-05
9 *354:11 4.30464e-05
10 *354:12 0.000252794
11 *354:13 2.08523e-05

*RES
1 *354:4 *354:8 0.267051
2 *354:2 *354:10 1.23888
3 *354:12 *354:13 0.111436
4 *354:6 *354:13 5.7517
5 *354:6 *354:7 0.444755
6 *354:3 *354:5 6.49164009
7 *354:10 *354:11 0.111436
8 *354:8 *354:9 0.333319
9 *354:5 *354:7 0.355408
10 *1294:Z *354:2 1.14933
11 *354:11 *354:12 1.89234
12 *354:3 *354:4 0.355408
13 *1294:Z *1574:D[52] 9.90546e-05
*END

*D_NET *355 0.00218942

*CONN
*I *1295:Z O *C 151.3 239.2 *L 0 *D DEL01
*I *1574:D[46] I *C 134.195 243.055 *L 0.00183 *D sram00

*CAP
1 *355:2 3.05405e-05
2 *355:3 5.83115e-05
3 *355:4 0.000425478
4 *355:6 2.5077e-05
5 *355:7 0.00165002

*RES
1 *355:3 *355:4 1.52867
2 *355:5 *355:7 2.90708
3 *355:5 *355:6 0.489021
4 *355:4 *355:7 13.5142
5 *1295:Z *355:2 0.75
6 *355:2 *355:3 0.75
7 *1295:Z *1574:D[46] 0.0001
*END

*D_NET *356 0.00266505

*CONN
*I *1296:Z O *C 145.7 106 *L 0 *D DEL01
*I *1574:D[22] I *C 134.265 101.675 *L 0.00183 *D sram00

*CAP
1 *356:2 0.000718175
2 *356:3 0.000233173
3 *356:4 4.27884e-05
4 *356:5 0.000471153
5 *356:6 0.00018339
6 *356:7 0.00101636008

*RES
1 *356:2 *356:3 2.0245
2 *356:6 *356:7 5.78091002
3 *356:4 *356:5 2.65141
4 *356:3 *356:4 0.111497
5 *1296:Z *356:2 3.34782
6 *356:5 *356:6 0.364394
7 *1296:Z *1574:D[22] 8.82097e-05
*END

*D_NET *357 0.0022142

*CONN
*I *1297:Z O *C 150.9 225.6 *L 0 *D DEL01
*I *1574:D[41] I *C 134.195 221.785 *L 0.00183 *D sram00

*CAP
1 *357:2 7.41668e-05
2 *357:3 0.000225161
3 *357:4 0.000531408
4 *357:5 0.000481059
5 *357:6 0.000850633984
6 *357:7 5.17636e-05

*RES
1 *357:2 *357:3 1.68386
2 *357:6 *357:7 0.111536
3 *357:3 *357:5 3.776
4 *357:5 *357:6 7.77668
5 *357:4 *357:7 5.75313
6 *1297:Z *357:2 0.75
7 *1297:Z *1574:D[41] 0.0001
*END

*D_NET *358 0.00234456

*CONN
*I *1298:Z O *C 148.7 221.2 *L 0 *D DEL01
*I *1574:D[40] I *C 134.195 217.855 *L 0.00183 *D sram00

*CAP
1 *358:2 0.000183387
2 *358:3 0.000122917
3 *358:4 2.75107e-06
4 *358:5 0.000132425
5 *358:6 0.000152698
6 *358:7 0.0017504

*RES
1 *358:3 *358:7 1.50614
2 *358:4 *358:5 0.920466
3 *358:3 *358:4 0.199772
4 *358:2 *358:7 11.2094
5 *1298:Z *358:2 0.905642
6 *358:5 *358:6 2.15053
7 *1298:Z *1574:D[40] 0.0001
*END

*D_NET *359 0.00226118

*CONN
*I *1299:Z O *C 145.1 207.6 *L 0 *D DEL01
*I *1574:D[39] I *C 134.195 213.385 *L 0.00183 *D sram00

*CAP
1 *1299:Z 0.000790729
2 *359:2 5.11843e-05
3 *359:3 0.000453118
4 *359:4 3.02193e-05
5 *359:5 0.000935926953

*RES
1 *359:2 *359:3 2.85852
2 *359:4 *359:5 6.55786
3 *359:3 *359:4 0.412704
4 *1299:Z *359:2 4.48196
5 *1299:Z *1574:D[39] 0.0001
*END

*D_NET *360 0.00288746

*CONN
*I *1300:Z O *C 144.5 135.6 *L 0 *D DEL01
*I *1574:D[29] I *C 134.265 130.805 *L 0.00183 *D sram00

*CAP
1 *360:2 2.38221e-06
2 *360:3 0.000963693047
3 *360:4 9.14358e-05
4 *360:5 0.000673122
5 *360:6 2.43956e-05
6 *360:7 5.48497e-05
7 *360:8 3.48068e-05
8 *360:9 0.00010045
9 *360:10 0.00023706
10 *360:11 5.73495e-06
11 *360:12 6.49962e-05
12 *360:13 8.16275e-05
13 *360:14 0.000552894

*RES
1 *360:7 *360:8 0.334489
2 *360:12 *360:13 0.189299
3 *360:5 *360:6 0.355567
4 *360:6 *360:7 0.263522
5 *360:10 *360:11 0.112391
6 *360:2 *360:4 0.355567
7 *360:9 *360:10 1.70947
8 *360:13 *360:14 2.45788
9 *360:3 *360:14 5.33359003
10 *360:2 *360:5 3.77484
11 *360:11 *360:12 0.421488
12 *360:3 *360:4 0.445171
13 *1300:Z *360:9 0.750036
14 *1300:Z *1574:D[29] 8.13841e-05
*END

*D_NET *361 0.00194089

*CONN
*I *1301:Z O *C 139.9 131.2 *L 0 *D DEL01
*I *1574:D[28] I *C 134.265 126.875 *L 0.00183 *D sram00

*CAP
1 *361:2 0.000156645
2 *361:3 3.02112e-05
3 *361:4 6.28379e-05
4 *361:5 0.000173087
5 *361:6 5.19507e-05
6 *361:7 0.000340247
7 *361:8 6.26045e-05
8 *361:9 0.000216286
9 *361:10 8.22669e-05
10 *361:11 0.000764732031

*RES
1 *361:10 *361:11 3.94863009
2 *361:8 *361:9 1.4229
3 *361:7 *361:8 0.111525
4 *361:6 *361:7 2.15133
5 *361:4 *361:5 0.82237
6 *361:3 *361:4 0.112188
7 *361:5 *361:6 0.111525
8 *361:3 *361:11 1.16044
9 *1301:Z *361:2 0.750008
10 *361:2 *361:10 0.750008
11 *1301:Z *1574:D[28] 0.000120503
*END

*D_NET *362 0.00160996

*CONN
*I *1302:Z O *C 145.7 239.2 *L 0 *D DEL01
*I *1574:D[45] I *C 134.195 238.585 *L 0.00183 *D sram00

*CAP
1 *362:2 0.000135014
2 *362:3 0.00147494

*RES
1 *362:2 *362:3 9.73155
2 *1302:Z *362:2 0.75
3 *1302:Z *1574:D[45] 0.0001
*END

*D_NET *363 0.00154071

*CONN
*I *1303:Z O *C 144.5 224.8 *L 0 *D DEL01
*I *1574:D[42] I *C 134.195 226.255 *L 0.00183 *D sram00

*CAP
1 *363:3 2.27944e-05
2 *363:4 9.25043e-05
3 *363:5 0.00142541

*RES
1 *363:2 *363:5 1.81743
2 *363:2 *363:3 0.333349
3 *363:4 *363:5 8.75437
4 *1303:Z *363:4 0.75
5 *1303:Z *1574:D[42] 0.0001
*END

*D_NET *364 0.00162526

*CONN
*I *1304:Z O *C 148.1 232.8 *L 0 *D DEL01
*I *1574:D[44] I *C 134.195 234.655 *L 0.00183 *D sram00

*CAP
1 *364:2 9.32966e-05
2 *364:3 0.000214917
3 *364:4 0.000434244
4 *364:5 0.000131796
5 *364:6 0.000569026992
6 *364:7 0.000181991

*RES
1 *364:6 *364:7 0.111536
2 *364:3 *364:5 1.34914
3 *364:5 *364:6 6.68708
4 *364:4 *364:7 5.59747
5 *1304:Z *364:2 0.75
6 *364:2 *364:3 0.75
7 *1304:Z *1574:D[44] 0.0001
*END

*D_NET *365 0.0012503

*CONN
*I *1305:Z O *C 144.3 247.2 *L 0 *D DEL01
*I *1574:D[47] I *C 134.195 246.985 *L 0.00183 *D sram00

*CAP
1 *1305:Z 4.85603e-06
2 *365:2 0.000148059
3 *365:3 0.00109738008

*RES
1 *365:2 *365:3 8.5307
2 *1305:Z *365:2 0.949699
3 *1305:Z *1574:D[47] 0.0001
*END

*D_NET *366 0.0014479

*CONN
*I *1306:Z O *C 147.9 229.2 *L 0 *D DEL01
*I *1574:D[43] I *C 134.195 230.185 *L 0.00183 *D sram00

*CAP
1 *366:2 0.000116976
2 *366:3 5.49541e-05
3 *366:4 2.18857e-05
4 *366:5 4.47494e-05
5 *366:6 0.00120934

*RES
1 *366:5 *366:6 11.3348
2 *1306:Z *366:2 0.75
3 *366:2 *366:3 0.75
4 *366:3 *366:5 0.75
5 *366:4 *366:6 0.75
6 *1306:Z *1574:D[43] 0.0001
*END

*D_NET *367 0.00293075

*CONN
*I *1307:Z O *C 144.7 138.4 *L 0 *D DEL01
*I *1574:D[30] I *C 134.265 135.275 *L 0.00183 *D sram00

*CAP
1 *367:2 0.000261851
2 *367:3 8.57901e-05
3 *367:4 0.000480362
4 *367:5 4.52383e-06
5 *367:6 0.000158443
6 *367:7 0.00055859
7 *367:8 4.0107e-05
8 *367:9 7.45619e-05
9 *367:10 5.96018e-05
10 *367:11 0.000269857
11 *367:12 4.54879e-05
12 *367:13 0.000710957969
13 *367:14 7.67208e-05
14 *367:15 6.73802e-05
15 *367:16 3.65053e-05

*RES
1 *367:7 *367:8 0.111497
2 *367:2 *367:3 0.512147
3 *367:12 *367:13 3.78015995
4 *367:5 *367:6 0.425395
5 *367:4 *367:5 2.24124
6 *367:6 *367:7 2.82745
7 *367:10 *367:11 1.44496
8 *367:8 *367:9 0.511051
9 *367:9 *367:10 0.111497
10 *367:13 *367:14 0.111497
11 *1307:Z *367:2 1.60416
12 *367:15 *367:16 0.333683
13 *367:11 *367:12 0.111497
14 *367:14 *367:15 0.355428
15 *367:3 *367:4 0.454754
16 *1307:Z *1574:D[30] 0.000115361
*END

*D_NET *368 0.00228826

*CONN
*I *1308:Z O *C 144.7 142 *L 0 *D DEL01
*I *1574:D[31] I *C 134.265 139.205 *L 0.00183 *D sram00

*CAP
1 *368:2 0.000453515
2 *368:3 0.00183475

*RES
1 *368:2 *368:3 10.4663
2 *1308:Z *368:2 2.28055
3 *1308:Z *1574:D[31] 0.0001
*END

*D_NET *369 0.00539884

*CONN
*I *1089:Z O *C 146.5 167.2 *L 0 *D DEL015
*I *1574:A[4] I *C 134.265 153.41 *L 0.00555 *D sram00

*CAP
1 *369:2 0.00017265
2 *369:3 0.000231384
3 *369:4 0.00120548
4 *369:5 0.000206422
5 *369:7 0.000364265
6 *369:8 0.001202
7 *369:9 9.14204e-05
8 *369:5 *616:5 0.000286873008
9 *369:5 *249:3 0.000364906992
10 *369:5 *865:3 0.000288919004
11 *369:2 *335:4 0.000984518984

*RES
1 *369:2 *369:9 1.28826
2 *369:2 *369:4 10.6202
3 *369:3 *369:6 0.570494
4 *369:5 *369:8 4.1995
5 *369:5 *369:7 3.08438
6 *369:4 *369:8 8.4821
7 *1089:Z *369:6 0.75
8 *369:6 *369:9 0.75
9 *1089:Z *1574:A[4] 0.0001
*END

*D_NET *370 0.00166791

*CONN
*I *1310:Z O *C 143.3 192.4 *L 0 *D DEL01
*I *1574:D[35] I *C 134.195 196.585 *L 0.00183 *D sram00

*CAP
1 *370:3 0.000127851
2 *370:4 0.000162696
3 *370:5 1.61718e-06
4 *370:8 0.000143403
5 *370:9 0.00123235

*RES
1 *370:2 *370:4 1.37408
2 *370:2 *370:3 0.199801
3 *370:8 *370:9 7.39783
4 *370:6 *370:7 0.489151
5 *370:5 *370:9 1.88009
6 *370:4 *370:5 0.199801
7 *370:3 *370:6 0.722721
8 *1310:Z *370:8 0.75
9 *1310:Z *1574:D[35] 0.0001
*END

*D_NET *371 0.00186643

*CONN
*I *1311:Z O *C 145.3 189.6 *L 0 *D DEL01
*I *1574:D[34] I *C 134.195 192.655 *L 0.00183 *D sram00

*CAP
1 *1311:Z 0.000244101
2 *371:2 5.46006e-05
3 *371:3 0.000369199
4 *371:5 2.78638e-05
5 *371:6 5.31325e-05
6 *371:7 9.4728e-05
7 *371:8 0.000971822031
8 *371:9 5.09823e-05

*RES
1 *371:8 *371:9 0.111494
2 *371:7 *371:8 6.20277977
3 *371:6 *371:7 0.111494
4 *371:4 *371:5 0.333441
5 *371:3 *371:9 2.48391
6 *371:3 *371:4 0.996443
7 *371:2 *371:6 1.23893
8 *1311:Z *371:2 1.54909
9 *1311:Z *1574:D[34] 9.46469e-05
*END

*D_NET *372 0.00240175

*CONN
*I *1312:Z O *C 140.3 116.8 *L 0 *D DEL01
*I *1574:D[27] I *C 134.265 122.405 *L 0.00183 *D sram00

*CAP
1 *1312:Z 0.00020973
2 *372:2 0.000141697
3 *372:4 4.4682e-05
4 *372:5 0.00200564

*RES
1 *372:2 *372:5 5.97878981
2 *372:3 *372:5 5.85016
3 *372:3 *372:4 0.493641
4 *1312:Z *372:2 1.28086
5 *1312:Z *1574:D[27] 9.12291e-05
*END

*D_NET *373 0.00125345

*CONN
*I *1313:Z O *C 144.5 200.4 *L 0 *D DEL01
*I *1574:D[36] I *C 134.195 201.055 *L 0.00183 *D sram00

*CAP
1 *373:2 5.1799e-05
2 *373:3 0.000151087
3 *373:4 0.00069406
4 *373:5 0.000204686
5 *373:6 0.000151807

*RES
1 *373:4 *373:6 8.24366
2 *373:2 *373:3 0.949772
3 *373:3 *373:5 1.44981
4 *373:5 *373:6 0.905658
5 *1313:Z *373:2 0.75
6 *1313:Z *1574:D[36] 0.0001
*END

*D_NET *374 0.0140636

*CONN
*I *1188:I I *C 147.9 156 *L 0.00103 *D DEL01
*I *1314:Z O *C 148.5 95.2 *L 0 *D CKBD0

*CAP
1 *1314:Z 0.000702687
2 *374:2 0.000220709
3 *374:3 0.00098908
4 *374:4 0.000453898
5 *374:5 0.0012488
6 *374:6 0.000780189
7 *374:7 0.00135407
8 *374:8 7.82668e-05
9 *374:9 1.65294e-06
10 *374:10 0.000792772
11 *374:8 *1768:ZN 0.00109128
12 *374:2 *863:20 0.000801362969
13 *374:3 *979:I 0.000829985938
14 *374:4 *537:15 0.00200027984
15 *374:5 *848:4 0.00104073
16 *374:4 *308:8 0.00167783

*RES
1 *374:9 *374:10 1.04943
2 *374:4 *374:5 17.9497
3 *374:8 *374:4 0.62242
4 *374:3 *374:9 6.104
5 *1188:I *374:2 2.12241
6 *1314:Z *374:6 4.16013
7 *374:8 *374:10 23.0326996
8 *374:2 *374:5 15.7478
9 *374:7 *374:3 5.8137
10 *374:6 *374:7 6.8301
*END

*D_NET *375 0.0055286

*CONN
*I *1228:Z O *C 147.3 153.6 *L 0 *D DEL015
*I *1394:I I *C 142.7 130.8 *L 0.00105 *D DEL1

*CAP
1 *1394:I 0.000256974
2 *375:2 3.18652e-05
3 *375:3 0.00172443
4 *375:4 0.000669327
5 *375:5 0.000805708
6 *375:7 0.000589335
7 *375:4 *908:3 0.000302770996
8 *375:2 *626:30 0.000260697012
9 *375:3 *153:4 0.000596501992
10 *1394:I *869:5 0.000291007988

*RES
1 *375:4 *375:3 12.1703997
2 *1394:I *375:5 3.35663
3 *375:6 *375:7 2.94752
4 *375:2 *375:5 8.40318
5 *375:3 *375:2 0.513847
6 *375:4 *375:7 3.52971
7 *1228:Z *375:6 0.750065
*END

*D_NET *376 0.00197611

*CONN
*I *1497:Z O *C 150.7 142 *L 0 *D BUFFD8
*I *1316:I I *C 149.1 148.8 *L 0.00287 *D BUFFD8

*CAP
1 *376:2 7.52597e-05
2 *376:3 0.000261721
3 *376:4 0.00163913

*RES
1 *376:3 *376:4 8.37516022
2 *1316:I *376:3 1.89635
3 *376:2 *376:4 2.43832
4 *1497:Z *376:2 0.750028
*END

*D_NET *377 0.00093697

*CONN
*I *1317:Z O *C 144.7 275.2 *L 0 *D DEL1
*I *1669:CDN I *C 141.5 271.2 *L 0.00163 *D DFCNQD1

*CAP
1 *1669:CDN 0.000333555
2 *377:2 0.000292751
3 *377:3 0.000310661

*RES
1 *377:2 *377:3 3.23982
2 *1317:Z *377:2 1.83931
3 *1669:CDN *377:3 2.74492
*END

*D_NET *378 0.00676008

*CONN
*I *1028:Z O *C 145.3 135.6 *L 0 *D BUFFD0
*I *1574:WEN I *C 134.195 175.12 *L 0.00612 *D sram00

*CAP
1 *378:2 8.55841e-05
2 *378:4 9.24107e-05
3 *378:5 0.000153563
4 *378:7 0.000345139
5 *378:8 0.000317521
6 *378:9 2.87436e-06
7 *378:11 7.69131e-05
8 *378:12 0.000157611
9 *378:14 0.00054862
10 *378:15 1.2216e-06
11 *378:16 0.000260585
12 *378:17 4.71635e-05
13 *378:18 0.000506678
14 *378:19 1.2216e-06
15 *378:20 9.47341e-05
16 *378:21 6.08406e-06
17 *378:22 0.000134568
18 *378:23 1.03237e-05
19 *378:24 1.65276e-05
20 *378:25 0.000304874
21 *378:26 0.000498486
22 *378:27 2.92227e-05
23 *378:28 0.00156976
24 *378:7 *165:2 0.000220089004
25 *378:7 *249:3 0.00127830992

*RES
1 *378:21 *378:22 0.355666
2 *378:6 *378:8 4.97587
3 *378:4 *378:27 1.21719
4 *378:22 *378:23 0.577749
5 *378:20 *378:23 0.199856
6 *378:18 *378:19 6.34357
7 *378:24 *378:25 0.199818
8 *378:13 *378:16 2.75913
9 *378:6 *378:7 0.199856
10 *378:11 *378:24 0.430215
11 *378:10 *378:11 0.199818
12 *378:8 *378:9 0.199856
13 *378:25 *378:27 3.13678
14 *378:13 *378:14 0.199818
15 *378:26 *378:28 7.29373
16 *378:21 *378:28 4.13755
17 *378:16 *378:19 0.199818
18 *378:5 *378:26 0.305363
19 *378:9 *378:20 0.604544
20 *378:17 *378:18 0.199818
21 *378:3 *378:26 3.31183
22 *378:7 *378:17 3.54835
23 *378:10 *378:12 1.37441
24 *378:14 *378:15 6.19275
25 *378:12 *378:15 0.199818
26 *1028:Z *378:2 0.75
27 *378:2 *378:3 0.75
28 *1028:Z *1574:WEN 0.0001
*END

*D_NET *379 0.00050478

*CONN
*I *1254:I I *C 142.7 76.8 *L 0.000968 *D CKBD1
*I *1319:Z O *C 142.1 78.2 *L 0 *D DEL005

*CAP
1 *1254:I 0.000498046016
2 *1319:Z 6.73333e-06

*RES
1 *1254:I *1319:Z 4.14757
*END

*D_NET *380 0.00212297

*CONN
*I *1320:Z O *C 151.7 84.4 *L 0 *D DEL01
*I *1426:I I *C 142.5 80.4 *L 0.00105 *D DEL1

*CAP
1 *1426:I 0.000566749
2 *380:2 0.000150129
3 *380:3 0.00116531
4 *380:4 0.000240779

*RES
1 *380:3 *380:4 0.111537
2 *380:2 *380:3 7.15932989
3 *1426:I *380:4 4.95787
4 *1320:Z *380:2 0.749951
*END

*D_NET *381 0.00256633

*CONN
*I *1321:Z O *C 140.5 73.6 *L 0 *D DEL01
*I *1431:I I *C 138.7 84 *L 0.00105 *D DEL1

*CAP
1 *1431:I 0.000367206
2 *1321:Z 0.000320353
3 *381:2 0.000244821
4 *381:3 0.000511245
5 *381:4 0.00112269

*RES
1 *381:3 *381:4 3.15857
2 *381:2 *381:3 2.6019
3 *1321:Z *381:4 5.17914009
4 *1431:I *381:2 4.44268
*END

*D_NET *382 0.000387128

*CONN
*I *1322:Z O *C 145.7 13.2 *L 0 *D DEL015
*I *1469:I I *C 145.9 15.6 *L 0.00105 *D DEL1

*CAP
1 *1469:I 0.000273950996
2 *1322:Z 0.000113175

*RES
1 *1469:I *1322:Z 3.65281
*END

*D_NET *383 0.00179083

*CONN
*I *1323:Z O *C 145.3 63.6 *L 0 *D DEL015
*I *1468:I I *C 143.3 56.8 *L 0.00105 *D DEL1

*CAP
1 *1468:I 0.000433271
2 *1323:Z 4.64742e-06
3 *383:2 0.000249395
4 *383:3 0.00110351

*RES
1 *383:2 *383:3 6.1019001
2 *1468:I *383:3 4.16182
3 *1323:Z *383:2 1.71867
*END

*D_NET *384 0.00164868

*CONN
*I *1324:Z O *C 151.5 16 *L 0 *D DEL015
*I *1470:I I *C 146.1 20.8 *L 0.00105 *D DEL1

*CAP
1 *1470:I 0.0011776
2 *1324:Z 0.000236993
3 *384:2 0.000234082

*RES
1 *1470:I *384:2 8.2021904
2 *1324:Z *384:2 4.28069
*END

*D_NET *385 0.00212417

*CONN
*I *1325:Z O *C 139.7 9.6 *L 0 *D DEL015
*I *1472:I I *C 137.5 20.8 *L 0.00105 *D DEL1

*CAP
1 *1325:Z 9.45098e-06
2 *385:2 0.000701836
3 *385:3 8.94612e-05
4 *385:5 0.00132344

*RES
1 *385:2 *385:3 3.93451
2 *385:4 *385:5 6.19582987
3 *385:3 *385:5 2.15071
4 *1325:Z *385:2 0.337133
5 *1472:I *385:4 1.49999
*END

*D_NET *386 0.00199208

*CONN
*I *1326:Z O *C 143.1 16 *L 0 *D DEL015
*I *1471:I I *C 140.9 24.4 *L 0.00105 *D DEL1

*CAP
1 *1326:Z 0.000332046
2 *386:2 0.000367805
3 *386:3 0.000813421016
4 *386:4 0.000478806

*RES
1 *386:2 *386:4 2.82541
2 *386:3 *386:4 2.15067
3 *1326:Z *386:2 3.81519
4 *1471:I *386:3 4.49618006
*END

*D_NET *387 0.00144938

*CONN
*I *1327:Z O *C 143.1 20.4 *L 0 *D DEL015
*I *1473:I I *C 137.5 24.4 *L 0.00105 *D DEL1

*CAP
1 *387:2 0.000536362
2 *387:3 0.000853415
3 *387:4 5.9603e-05

*RES
1 *387:2 *387:4 3.21344
2 *387:3 *387:4 5.10770988
3 *1473:I *387:3 1.49998
4 *1327:Z *387:2 0.749992
*END

*D_NET *388 0.00147681

*CONN
*I *1328:Z O *C 148.5 27.6 *L 0 *D DEL015
*I *1474:I I *C 139.7 28 *L 0.00105 *D DEL1

*CAP
1 *388:2 0.00128409008
2 *388:3 0.000192726

*RES
1 *1328:Z *388:3 1.6557
2 *388:2 *388:3 7.64518023
3 *1474:I *388:2 1.49997
*END

*D_NET *389 0.00184279

*CONN
*I *1329:Z O *C 140.5 49.2 *L 0 *D DEL015
*I *1475:I I *C 142.7 55.2 *L 0.00105 *D DEL1

*CAP
1 *389:2 0.00070216
2 *389:3 0.000624803
3 *389:4 0.000515828

*RES
1 *389:2 *389:4 2.94665
2 *1475:I *389:2 4.38620996
3 *389:3 *389:4 3.45035
4 *1329:Z *389:3 0.749998
*END

*D_NET *390 0.000510133

*CONN
*I *1330:Z O *C 148.3 174.4 *L 0 *D DEL0
*I *1613:B1 I *C 149.3 174 *L 0.000651 *D INR2D0

*CAP
1 *1613:B1 0.000137466
2 *1330:Z 0.000372666016

*RES
1 *1613:B1 *1330:Z 5.05979
*END

*D_NET *391 0.001979

*CONN
*I *1331:Z O *C 151.5 272.4 *L 0 *D DEL0
*I *1542:I I *C 148.9 264 *L 0.00072 *D BUFFD1

*CAP
1 *1331:Z 5.44643e-05
2 *391:2 3.07805e-05
3 *391:3 0.000781124
4 *391:4 0.00111263

*RES
1 *391:2 *391:3 5.41117
2 *1331:Z *391:2 0.812574
3 *391:3 *391:4 3.32369
4 *1542:I *391:4 6.29541016
*END

*D_NET *392 0.00275865

*CONN
*I *1332:Z O *C 148.9 265.2 *L 0 *D DEL0
*I *1530:I I *C 141.9 257.2 *L 0.00373 *D CKBD12

*CAP
1 *1530:I 0.000242729
2 *392:2 0.00179743
3 *392:3 0.000718506

*RES
1 *392:2 *392:3 4.6462
2 *1332:Z *392:2 10.6511002
3 *1530:I *392:3 2.30002
*END

*D_NET *393 0.00225166

*CONN
*I *1333:Z O *C 151.5 282.4 *L 0 *D DEL0
*I *1519:I I *C 147.7 271.6 *L 0.00373 *D CKBD12

*CAP
1 *1333:Z 5.70659e-05
2 *393:2 3.23773e-05
3 *393:3 0.000540021
4 *393:4 0.00077046
5 *393:5 0.000345523
6 *393:6 0.000506198

*RES
1 *393:4 *393:5 4.52885
2 *393:2 *393:3 4.80971003
3 *1333:Z *393:2 0.802597
4 *393:3 *393:5 3.23989
5 *1519:I *393:6 3.07542
6 *393:4 *393:6 0.749976
*END

*D_NET *394 0.00234169

*CONN
*I *1334:Z O *C 151.5 278.8 *L 0 *D DEL0
*I *1538:I I *C 147.7 268 *L 0.00373 *D CKBD12

*CAP
1 *1538:I 0.000445794
2 *394:2 0.000272186
3 *394:3 0.000594037
4 *394:4 3.21604e-05
5 *394:5 0.000645523008
6 *394:6 0.000351992

*RES
1 *394:2 *394:3 3.08361
2 *1334:Z *394:6 2.96248
3 *394:4 *394:5 3.19199
4 *394:3 *394:4 0.35538
5 *394:2 *394:6 2.32818
6 *1538:I *394:5 4.0939002
*END

*D_NET *395 0.00175038

*CONN
*I *1335:Z O *C 151.5 289.6 *L 0 *D DEL0
*I *1528:I I *C 147.7 279.6 *L 0.00373 *D CKBD12

*CAP
1 *1528:I 0.000491838984
2 *395:2 0.000484251
3 *395:3 0.000357049
4 *395:4 8.63298e-05
5 *395:5 0.000330902

*RES
1 *395:4 *395:5 3.14612
2 *395:2 *395:5 3.42916
3 *395:2 *395:3 2.02296
4 *1528:I *395:3 3.75338006
5 *1335:Z *395:4 0.749977
*END

*D_NET *396 0.0019448

*CONN
*I *1336:Z O *C 151.5 294 *L 0 *D DEL0
*I *1529:I I *C 147.7 283.2 *L 0.00373 *D CKBD12

*CAP
1 *1529:I 0.000137045
2 *396:2 0.000442516
3 *396:3 0.000467288
4 *396:4 2.95427e-06
5 *396:5 0.000717066016
6 *396:6 0.000177923

*RES
1 *396:2 *396:3 3.8424
2 *396:4 *396:5 4.16535
3 *1336:Z *396:6 1.37258
4 *396:3 *396:4 0.199726
5 *396:2 *396:6 4.19930983
6 *1529:I *396:5 1.49362
*END

*D_NET *397 0.00218289

*CONN
*I *1337:Z O *C 151.5 300.4 *L 0 *D DEL0
*I *1539:I I *C 147.7 286.8 *L 0.00373 *D CKBD12

*CAP
1 *397:2 0.00127289
2 *397:3 0.000456364
3 *397:4 0.000205574
4 *397:5 0.000248052

*RES
1 *397:3 *397:5 3.10339
2 *397:2 *397:4 8.25924015
3 *397:2 *397:5 2.59034
4 *1337:Z *397:4 2.74497
5 *1539:I *397:3 0.749981
*END

*D_NET *398 0.00194103

*CONN
*I *1338:Z O *C 151.5 301.2 *L 0 *D DEL0
*I *1540:I I *C 147.7 290.4 *L 0.00373 *D CKBD12

*CAP
1 *1540:I 0.000235625
2 *398:2 0.000261655
3 *398:3 0.000597495977
4 *398:4 0.000227319
5 *398:5 0.000377297
6 *398:6 0.000241633

*RES
1 *1338:Z *398:6 2.90055
2 *398:4 *398:5 2.31214
3 *398:2 *398:6 2.39384
4 *398:2 *398:3 3.84619999
5 *398:3 *398:4 1.44321
6 *1540:I *398:5 3.49489
*END

*D_NET *399 0.00206775

*CONN
*I *1339:Z O *C 145.3 250.8 *L 0 *D DEL0
*I *1531:I I *C 147.7 240 *L 0.00373 *D CKBD12

*CAP
1 *1531:I 0.000193409
2 *1339:Z 0.000477926
3 *399:2 0.000512564
4 *399:3 9.77647e-06
5 *399:4 0.00087408

*RES
1 *399:3 *399:4 0.35686
2 *399:2 *399:3 2.91304
3 *1531:I *399:2 2.17285
4 *1339:Z *399:5 2.68202
5 *399:4 *399:5 4.27319002
*END

*D_NET *400 0.00203961

*CONN
*I *1340:Z O *C 151.5 268.8 *L 0 *D DEL0
*I *1520:I I *C 144.5 264.4 *L 0.00373 *D CKBD12

*CAP
1 *1340:Z 8.62799e-05
2 *400:2 3.72486e-05
3 *400:3 0.00191608

*RES
1 *400:2 *400:3 4.48922
2 *1340:Z *400:2 1.01565
3 *1520:I *400:3 9.44540024
*END

*D_NET *401 0.00174518

*CONN
*I *1341:Z O *C 151.5 286 *L 0 *D DEL0
*I *1541:I I *C 147.7 276 *L 0.00373 *D CKBD12

*CAP
1 *1541:I 0.000410069
2 *401:2 0.000963671016
3 *401:3 8.12727e-05
4 *401:4 0.000290182

*RES
1 *1541:I *401:2 3.10626
2 *401:3 *401:4 2.83489
3 *401:2 *401:4 6.6433301
4 *1341:Z *401:3 0.750031
*END

*D_NET *402 0.000434715

*CONN
*I *1342:Z O *C 140.5 45.6 *L 0 *D DEL0
*I *1484:I I *C 140.9 44.4 *L 0.00287 *D BUFFD8

*CAP
1 *1484:I 0.000423945
2 *1342:Z 1.07709e-05

*RES
1 *1484:I *1342:Z 2.84565
*END

*D_NET *403 2.4758e-05

*CONN
*I *1343:Z O *C 140.3 38.4 *L 0 *D DEL0
*I *1501:I I *C 140.7 38.8 *L 0.00287 *D BUFFD8

*CAP
1 *1343:Z 2.47580005e-05

*RES
1 *1343:Z *1501:I 0.390476
*END

*D_NET *404 0.00283173

*CONN
*I *1344:Z O *C 148.7 258 *L 0 *D DEL0
*I *1534:I I *C 140.3 250 *L 0.00373 *D CKBD12

*CAP
1 *1534:I 0.000112338
2 *404:2 0.000562249
3 *404:3 0.000993261016
4 *404:4 0.000576299
5 *404:5 0.000310399
6 *404:6 0.000277192

*RES
1 *404:4 *404:6 4.03995991
2 *1344:Z *404:2 2.94453
3 *404:5 *404:6 1.4788
4 *404:2 *404:3 3.14987
5 *404:3 *404:5 4.00495
6 *1534:I *404:4 0.905625
*END

*D_NET *405 0.00267483

*CONN
*I *1345:Z O *C 151.9 242.8 *L 0 *D DEL0
*I *1532:I I *C 144.7 232 *L 0.00373 *D CKBD12

*CAP
1 *1345:Z 4.40913e-05
2 *405:2 3.92274e-05
3 *405:3 0.0025915

*RES
1 *405:2 *405:3 9.54185009
2 *1345:Z *405:2 0.58894
3 *1532:I *405:3 8.94301
*END

*D_NET *406 0.00259963

*CONN
*I *1346:Z O *C 148.7 257.2 *L 0 *D DEL0
*I *1521:I I *C 147.7 243.6 *L 0.00373 *D CKBD12

*CAP
1 *406:2 0.000767318
2 *406:3 0.00089807
3 *406:4 0.000934236016

*RES
1 *1521:I *406:4 2.58927
2 *406:2 *406:3 4.03464
3 *1346:Z *406:3 4.92814016
4 *406:2 *406:4 4.13932
*END

*D_NET *407 0.00211217

*CONN
*I *1347:Z O *C 151.5 250 *L 0 *D DEL0
*I *1533:I I *C 149.1 236.8 *L 0.00287 *D BUFFD8

*CAP
1 *1533:I 0.000133266
2 *1347:Z 5.78755e-05
3 *407:2 3.30717e-05
4 *407:3 0.00188794

*RES
1 *407:2 *407:3 9.5968504
2 *1347:Z *407:2 0.80291
3 *1533:I *407:3 6.08472
*END

*D_NET *408 0.00202253

*CONN
*I *1348:Z O *C 140.5 44.8 *L 0 *D DEL0
*I *1524:I I *C 147.7 48.4 *L 0.00373 *D CKBD12

*CAP
1 *1524:I 8.6966e-05
2 *408:2 0.00128972992
3 *408:3 0.000645839

*RES
1 *1524:I *408:3 4.36892
2 *408:2 *408:3 6.97698021
3 *1348:Z *408:2 0.750013
*END

*D_NET *409 0.0018828

*CONN
*I *1349:Z O *C 151.5 235.6 *L 0 *D DEL0
*I *1535:I I *C 147.7 228.4 *L 0.00373 *D CKBD12

*CAP
1 *409:2 0.00040784
2 *409:3 0.000889473047
3 *409:4 0.000242934
4 *409:5 0.00034257

*RES
1 *409:2 *409:4 2.30617
2 *409:3 *409:4 4.74171019
3 *409:2 *409:5 2.61548
4 *1349:Z *409:5 2.90084
5 *1535:I *409:3 0.750009
*END

*D_NET *410 0.00308719

*CONN
*I *1350:Z O *C 151.5 265.2 *L 0 *D DEL0
*I *1536:I I *C 149.1 251.2 *L 0.00287 *D BUFFD8

*CAP
1 *1536:I 0.00015108
2 *410:2 0.000460642
3 *410:3 0.00193266
4 *410:4 0.000542802

*RES
1 *410:2 *410:4 3.85334
2 *410:2 *410:3 10.8732996
3 *1350:Z *410:4 2.9005
4 *1536:I *410:3 1.3945
*END

*D_NET *411 0.00384377

*CONN
*I *1351:Z O *C 144.1 236.4 *L 0 *D DEL0
*I *1522:I I *C 149.1 220.8 *L 0.00287 *D BUFFD8

*CAP
1 *1522:I 0.000396937
2 *411:2 0.00141754
3 *411:3 0.00124361
4 *411:4 2.83357e-06
5 *411:5 0.000724874
6 *411:6 5.79475e-05

*RES
1 *411:5 *411:6 4.38525
2 *411:3 *411:4 6.17487
3 *411:2 *411:6 7.96011019
4 *1522:I *411:3 3.10784
5 *411:2 *411:4 0.199804
6 *1351:Z *411:5 0.750026
*END

*D_NET *412 0.00215586

*CONN
*I *1352:Z O *C 145.5 206.8 *L 0 *D DEL0
*I *1537:I I *C 149.1 199.4 *L 0.00275 *D CKBD8

*CAP
1 *1537:I 0.00101451
2 *412:2 0.000246882
3 *412:4 0.000894475

*RES
1 *412:2 *412:4 3.39541
2 *412:3 *412:4 3.21233
3 *1537:I *412:2 6.0233798
4 *1352:Z *412:3 0.749981
*END

*D_NET *413 0.00486031

*CONN
*I *1353:Z O *C 142.5 235.6 *L 0 *D DEL0
*I *1499:I I *C 149.1 215.2 *L 0.00287 *D BUFFD8

*CAP
1 *1499:I 0.000193547
2 *1353:Z 0.000451557
3 *413:2 0.00147096
4 *413:3 0.000549845
5 *413:4 0.000750979
6 *413:5 0.000975186
7 *413:6 0.000468234

*RES
1 *413:5 *413:6 5.53725
2 *413:3 *413:4 3.69955
3 *1353:Z *413:6 5.51539
4 *1499:I *413:2 1.83939
5 *413:3 *413:5 3.12071
6 *413:2 *413:4 7.95948982
*END

*D_NET *414 0.00166699

*CONN
*I *1354:Z O *C 151.5 232 *L 0 *D DEL0
*I *1498:I I *C 149.1 222.4 *L 0.00287 *D BUFFD8

*CAP
1 *1498:I 0.00124992
2 *414:2 8.87637e-05
3 *414:3 0.000328296

*RES
1 *1498:I *414:3 8.44608021
2 *414:2 *414:3 2.52393
3 *1354:Z *414:2 0.750064
*END

*D_NET *415 0.00168305

*CONN
*I *1355:Z O *C 145.9 41.2 *L 0 *D DEL0
*I *1493:I I *C 143.5 49.6 *L 0.00287 *D BUFFD8

*CAP
1 *1493:I 0.000541922
2 *1355:Z 0.000895055
3 *415:2 0.00024607

*RES
1 *1355:Z *415:2 5.26471
2 *1493:I *415:2 6.14135981
*END

*D_NET *416 0.00135018

*CONN
*I *1356:Z O *C 146.1 23.2 *L 0 *D DEL0
*I *1525:I I *C 149.1 28 *L 0.00287 *D BUFFD8

*CAP
1 *1356:Z 0.000395491
2 *416:2 0.000392316
3 *416:3 0.00056237

*RES
1 *416:2 *416:3 2.77321
2 *1525:I *416:3 3.77817011
3 *1356:Z *416:2 2.61813
*END

*D_NET *417 0.00251538

*CONN
*I *1357:Z O *C 148.7 204 *L 0 *D DEL0
*I *1514:I I *C 147.7 193.2 *L 0.00373 *D CKBD12

*CAP
1 *1357:Z 0.000112264
2 *417:2 0.00081374
3 *417:3 0.00158938

*RES
1 *1514:I *417:3 1.49996
2 *1357:Z *417:2 5.135
3 *417:2 *417:3 7.91605997
*END

*D_NET *418 0.00134393

*CONN
*I *1358:Z O *C 151.5 206.8 *L 0 *D DEL0
*I *1507:I I *C 149.1 200.6 *L 0.00275 *D CKBD8

*CAP
1 *1507:I 0.000691762969
2 *418:2 0.000570912
3 *418:3 8.12572e-05

*RES
1 *418:2 *418:3 4.7642498
2 *1507:I *418:2 4.06694
3 *1358:Z *418:3 0.750012
*END

*D_NET *419 0.00223177

*CONN
*I *1359:Z O *C 151.5 218.4 *L 0 *D DEL0
*I *1513:I I *C 149.1 204.4 *L 0.00287 *D BUFFD8

*CAP
1 *1359:Z 0.000385565
2 *419:3 0.00048294
3 *419:4 0.00136326

*RES
1 *1359:Z *419:2 3.19041
2 *419:2 *419:4 10.0969
3 *419:3 *419:4 3.24033
4 *1513:I *419:3 0.749996
*END

*D_NET *420 0.0035775

*CONN
*I *1360:Z O *C 143.3 225.6 *L 0 *D DEL0
*I *1500:I I *C 149.1 208 *L 0.00287 *D BUFFD8

*CAP
1 *1500:I 0.000433856
2 *420:2 0.000278829
3 *420:3 0.000349404
4 *420:4 0.000620658
5 *420:5 0.00189476

*RES
1 *1360:Z *420:5 8.97891045
2 *420:2 *420:4 3.38942
3 *420:2 *420:3 1.58654
4 *1500:I *420:4 3.49643
5 *420:3 *420:5 5.23478
*END

*D_NET *421 0.00459196

*CONN
*I *1361:Z O *C 142.7 232 *L 0 *D DEL0
*I *1523:I I *C 149.1 211.6 *L 0.00287 *D BUFFD8

*CAP
1 *1523:I 0.000903651
2 *421:2 5.52814e-05
3 *421:3 0.000358358
4 *421:4 0.00055037
5 *421:5 0.000670554
6 *421:6 0.00205378016

*RES
1 *421:3 *421:4 1.88345
2 *1523:I *421:2 4.98494
3 *421:3 *421:6 6.59825993
4 *1361:Z *421:5 3.9001
5 *421:4 *421:5 2.56013
6 *421:2 *421:6 6.28383
*END

*D_NET *422 0.00114413

*CONN
*I *1362:Z O *C 151.9 20.4 *L 0 *D DEL0
*I *1509:I I *C 149.1 26.4 *L 0.00287 *D BUFFD8

*CAP
1 *1362:Z 1.04648e-05
2 *422:2 0.000571030977
3 *422:3 0.000527734
4 *422:4 3.49058e-05

*RES
1 *1362:Z *422:2 1.13256
2 *422:3 *422:4 3.28676
3 *422:2 *422:4 4.65732002
4 *1509:I *422:3 1.49997
*END

*D_NET *423 0.00208879

*CONN
*I *1363:Z O *C 145.9 196 *L 0 *D DEL0
*I *1515:I I *C 149.1 186.2 *L 0.00275 *D CKBD8

*CAP
1 *1515:I 0.000241864
2 *1363:Z 0.000615453
3 *423:2 0.00116326
4 *423:3 6.81963e-05

*RES
1 *423:2 *423:3 6.56978989
2 *1515:I *423:2 2.36393
3 *1363:Z *423:3 4.16657
*END

*D_NET *424 0.00106904

*CONN
*I *1364:Z O *C 151.9 192.4 *L 0 *D DEL0
*I *1516:I I *C 149.1 188.6 *L 0.00275 *D CKBD8

*CAP
1 *1516:I 0.000649806992
2 *424:2 8.29921e-05
3 *424:3 0.000336232

*RES
1 *1516:I *424:3 4.4840498
2 *424:2 *424:3 2.69956
3 *1364:Z *424:2 0.750033
*END

*D_NET *425 0.00186965

*CONN
*I *1365:Z O *C 145.9 19.6 *L 0 *D DEL0
*I *1502:I I *C 145.9 26.4 *L 0.00287 *D BUFFD8

*CAP
1 *1502:I 9.67851e-06
2 *1365:Z 0.000117445
3 *425:2 0.00174253

*RES
1 *1502:I *425:2 9.40205956
2 *1365:Z *425:2 1.50006
*END

*D_NET *426 0.00393707

*CONN
*I *1366:Z O *C 140.1 85.2 *L 0 *D DEL0
*I *1506:I I *C 143.9 98.4 *L 0.00287 *D BUFFD8

*CAP
1 *1366:Z 0.000258278
2 *426:2 0.000592852
3 *426:3 0.00218629
4 *426:4 0.000899637

*RES
1 *1366:Z *426:3 3.70229
2 *426:2 *426:4 5.06673
3 *1506:I *426:2 3.14758
4 *426:3 *426:4 10.6111002
*END

*D_NET *427 0.00149634

*CONN
*I *1367:Z O *C 148.7 178 *L 0 *D DEL0
*I *1517:I I *C 149.1 170.4 *L 0.00287 *D BUFFD8

*CAP
1 *427:2 0.000451283
2 *427:3 0.000594421016
3 *427:4 0.000450639

*RES
1 *427:3 *427:4 3.09854
2 *1367:Z *427:3 4.14808989
3 *427:2 *427:4 2.79402
4 *1517:I *427:2 0.74998
*END

*D_NET *428 0.00110737

*CONN
*I *1368:Z O *C 151.5 182.4 *L 0 *D DEL0
*I *1508:I I *C 149.1 177.6 *L 0.00287 *D BUFFD8

*CAP
1 *1508:I 0.000769697031
2 *428:2 5.98046e-05
3 *428:3 0.000277871

*RES
1 *1508:I *428:3 5.72805023
2 *428:2 *428:3 2.77365
3 *1368:Z *428:2 0.750006
*END

*D_NET *429 0.00107676

*CONN
*I *1369:Z O *C 151.5 185.2 *L 0 *D DEL0
*I *1518:I I *C 149.1 181.2 *L 0.00287 *D BUFFD8

*CAP
1 *1518:I 0.000727011953
2 *429:2 0.000349744

*RES
1 *1518:I *429:2 4.98381996
2 *1369:Z *429:2 2.9631
*END

*D_NET *430 0.00303779

*CONN
*I *1370:Z O *C 146.1 31.2 *L 0 *D DEL0
*I *1492:I I *C 143.3 46 *L 0.00287 *D BUFFD8

*CAP
1 *1370:Z 0.000105551
2 *430:2 0.000941093
3 *430:3 2.30645e-06
4 *430:4 0.00198886

*RES
1 *430:4 *430:5 3.6281
2 *430:2 *430:3 0.199866
3 *430:3 *430:4 7.35042
4 *1492:I *430:2 5.17948
5 *1370:Z *430:5 1.50001
*END

*D_NET *431 0.00104302

*CONN
*I *1371:Z O *C 146.1 59.2 *L 0 *D DEL0
*I *1503:I I *C 149.1 60.4 *L 0.00287 *D BUFFD8

*CAP
1 *1503:I 0.000273006
2 *1371:Z 7.10725e-05
3 *431:2 0.00069894

*RES
1 *1371:Z *431:2 0.949763
2 *1503:I *431:2 6.17252016
*END

*D_NET *432 0.000762592

*CONN
*I *1372:Z O *C 148.7 60 *L 0 *D DEL0
*I *1511:I I *C 149.1 64 *L 0.00287 *D BUFFD8

*CAP
1 *1511:I 7.11636e-05
2 *1372:Z 0.000691432031

*RES
1 *1372:Z *1511:I 4.82374
*END

*D_NET *433 0.000995684

*CONN
*I *1373:Z O *C 146.5 52.8 *L 0 *D DEL0
*I *1510:I I *C 149.1 55.2 *L 0.00287 *D BUFFD8

*CAP
1 *1510:I 0.000115681
2 *433:2 0.000879998047

*RES
1 *1510:I *433:2 1.93896
2 *1373:Z *433:2 4.60254002
*END

*D_NET *434 0.00452138

*CONN
*I *1131:I I *C 145.3 87.6 *L 0.00072 *D BUFFD1
*I *1374:Z O *C 148.3 66.4 *L 0 *D DEL0

*CAP
1 *1131:I 1.22612e-05
2 *1374:Z 0.000696284
3 *434:2 5.48571e-05
4 *434:3 0.000163588
5 *434:4 0.00169924
6 *434:5 0.00189513

*RES
1 *1374:Z *434:2 3.96572
2 *434:3 *434:5 8.08683
3 *434:3 *434:4 1.05702
4 *1131:I *434:4 8.79428005
5 *434:2 *434:5 3.01324
*END

*D_NET *435 0.00257921

*CONN
*I *1375:Z O *C 140.3 80.8 *L 0 *D DEL0
*I *1527:I I *C 149.1 85.6 *L 0.00287 *D BUFFD8

*CAP
1 *435:2 0.000355279
2 *435:3 0.000822169
3 *435:4 0.00140176

*RES
1 *435:2 *435:4 7.72912979
2 *435:3 *435:4 4.44092
3 *1527:I *435:2 1.54922
4 *1375:Z *435:3 0.749962
*END

*D_NET *436 0.00192879

*CONN
*I *1376:Z O *C 151.5 178.8 *L 0 *D DEL0
*I *1491:I I *C 149.1 172 *L 0.00287 *D BUFFD8

*CAP
1 *1491:I 0.000238509
2 *1376:Z 8.63734e-05
3 *436:2 0.000379271
4 *436:3 0.000603011
5 *436:4 0.000621621016

*RES
1 *436:3 *436:4 3.94343
2 *1376:Z *436:2 3.59506
3 *1491:I *436:3 1.75439
4 *436:2 *436:4 5.11320019
*END

*D_NET *437 2.3422e-05

*CONN
*I *1377:Z O *C 145.5 106.8 *L 0 *D DEL0
*I *1486:I I *C 145.9 107 *L 0.00275 *D CKBD8

*CAP
1 *1486:I 4.59388e-06
2 *1377:Z 1.88280005e-05

*RES
1 *1377:Z *1486:I 0.281683
*END

*D_NET *438 0.00295797

*CONN
*I *1378:Z O *C 145.9 81.6 *L 0 *D DEL0
*I *1495:I I *C 149.1 92.8 *L 0.00287 *D BUFFD8

*CAP
1 *1495:I 9.1741e-06
2 *1378:Z 0.000261051
3 *438:2 8.38464e-05
4 *438:3 0.00158217
5 *438:4 0.00102173

*RES
1 *438:2 *438:3 6.41316986
2 *1495:I *438:2 0.394854
3 *438:3 *438:4 5.5168
4 *1378:Z *438:4 4.31081
*END

*D_NET *439 0.00197642

*CONN
*I *1379:Z O *C 151.7 78 *L 0 *D DEL0
*I *1494:I I *C 149.1 91.2 *L 0.00287 *D BUFFD8

*CAP
1 *1379:Z 3.03972e-05
2 *439:2 0.000598286
3 *439:3 0.0012944
4 *439:4 5.33285e-05

*RES
1 *439:2 *439:4 3.28337
2 *1379:Z *439:3 1.34973
3 *439:3 *439:4 10.4212999
4 *1494:I *439:2 0.749921
*END

*D_NET *440 0.00139699

*CONN
*I *1380:Z O *C 151.7 102.4 *L 0 *D DEL0
*I *1512:I I *C 149.1 107 *L 0.00275 *D CKBD8

*CAP
1 *1512:I 0.000237064
2 *440:2 0.00109370008
3 *440:3 6.62211e-05

*RES
1 *440:2 *440:3 5.02320004
2 *1512:I *440:2 3.54045
3 *1380:Z *440:3 0.75
*END

*D_NET *441 0.00235897

*CONN
*I *1381:Z O *C 140.3 117.6 *L 0 *D DEL0
*I *1487:I I *C 149.1 121.6 *L 0.00287 *D BUFFD8

*CAP
1 *1487:I 0.000181724
2 *1381:Z 0.000609505
3 *441:2 0.000335806
4 *441:3 0.000358879
5 *441:4 0.000873052031

*RES
1 *1487:I *441:3 3.79064
2 *1381:Z *441:2 3.28825
3 *441:3 *441:4 3.94779992
4 *441:2 *441:4 2.26214
*END

*D_NET *442 0.00208417

*CONN
*I *1382:Z O *C 142.5 131.2 *L 0 *D DEL0
*I *1485:I I *C 149.1 134.4 *L 0.00287 *D BUFFD8

*CAP
1 *1485:I 7.08523e-05
2 *442:2 0.00107112
3 *442:3 6.19937e-05
4 *442:4 0.000880203

*RES
1 *442:2 *442:4 5.3529501
2 *1485:I *442:3 1.52994
3 *442:3 *442:4 4.64128
4 *1382:Z *442:2 0.749982
*END

*D_NET *443 0.00100298

*CONN
*I *1383:Z O *C 146.3 99.6 *L 0 *D DEL0
*I *1480:I I *C 146.3 105.6 *L 0.00287 *D BUFFD8

*CAP
1 *443:2 0.00100298

*RES
1 *1480:I *443:2 5.05678988
2 *1383:Z *443:2 0.75
*END

*D_NET *444 0.00265907

*CONN
*I *1384:Z O *C 144.9 120.4 *L 0 *D DEL0
*I *1488:I I *C 149.1 128.8 *L 0.00287 *D BUFFD8

*CAP
1 *1384:Z 0.000626253
2 *444:2 0.000301889
3 *444:3 0.000730984
4 *444:4 0.000111011
5 *444:5 0.000888941016

*RES
1 *444:2 *444:5 2.50885
2 *444:2 *444:3 3.4909
3 *444:4 *444:5 4.73859978
4 *1384:Z *444:3 3.5713
5 *1488:I *444:4 0.750023
*END

*D_NET *445 0.00088793

*CONN
*I *1385:Z O *C 151.5 124 *L 0 *D DEL0
*I *1482:I I *C 149.1 127.2 *L 0.00287 *D BUFFD8

*CAP
1 *445:3 6.62855e-05
2 *445:4 0.000821641953

*RES
1 *445:2 *445:4 3.17553997
2 *445:3 *445:4 2.61836
3 *1385:Z *445:3 0.749985
4 *1482:I *445:2 0.749985
*END

*D_NET *446 0.00201048

*CONN
*I *1151:I I *C 148.1 120 *L 0.00072 *D BUFFD1
*I *1386:Z O *C 148.3 110.4 *L 0 *D DEL0

*CAP
1 *1151:I 5.80148e-05
2 *1386:Z 0.000570011
3 *446:2 0.000457158
4 *446:3 0.000925286016

*RES
1 *1151:I *446:3 3.94279
2 *446:2 *446:3 4.63530016
3 *1386:Z *446:2 3.28218
*END

*D_NET *447 0.00194072

*CONN
*I *1387:Z O *C 145.9 114 *L 0 *D DEL0
*I *1483:I I *C 149.1 120 *L 0.00287 *D BUFFD8

*CAP
1 *1483:I 1.77811e-06
2 *447:2 0.00107896992
3 *447:3 0.000859965

*RES
1 *447:2 *447:3 4.2133
2 *1483:I *447:2 5.35775995
3 *1387:Z *447:3 1.5
*END

*D_NET *448 0.00102538

*CONN
*I *1388:Z O *C 151.9 135.6 *L 0 *D DEL0
*I *1479:I I *C 149.1 138 *L 0.00287 *D BUFFD8

*CAP
1 *448:2 0.000106002
2 *448:3 0.000919378984

*RES
1 *1479:I *448:3 3.09256
2 *448:2 *448:3 3.31843996
3 *1388:Z *448:2 0.750011
*END

*D_NET *449 0.00139665

*CONN
*I *1389:Z O *C 147.7 139.2 *L 0 *D DEL0
*I *1481:I I *C 145.3 143.2 *L 0.00287 *D BUFFD8

*CAP
1 *1389:Z 0.000476683
2 *449:2 7.22443e-05
3 *449:3 0.000847722031

*RES
1 *449:2 *449:3 2.92226005
2 *1481:I *449:3 2.71273
3 *1389:Z *449:2 2.60433
*END

*D_NET *450 0.00640518

*CONN
*I *1239:I I *C 149.7 6.4 *L 0.00103 *D DEL015
*I *1390:Z O *C 146.3 42 *L 0 *D DEL0

*CAP
1 *1239:I 0.000688422
2 *450:2 0.00119297
3 *450:3 2.5485e-07
4 *450:4 0.000918369
5 *450:5 0.000997464
6 *450:6 0.00111874
7 *450:7 0.000511411
8 *450:8 4.36157e-05
9 *450:5 *536:6 0.000480791992
10 *450:4 *1469:Z 0.00023569
11 *450:2 *629:21 0.000217462012

*RES
1 *450:4 *450:5 7.92990017
2 *450:3 *450:4 0.51389
3 *1390:Z *450:2 5.68534
4 *1239:I *450:3 5.47201
5 *450:2 *450:8 2.30627
6 *450:6 *450:8 7.11387
7 *450:6 *450:7 2.95786
8 *450:5 *450:7 5.5434
*END

*D_NET *451 0.00256744

*CONN
*I *1261:I I *C 139.1 139.6 *L 0.00072 *D BUFFD1
*I *1391:Z O *C 140.9 128.4 *L 0 *D DEL1

*CAP
1 *1261:I 0.000242889
2 *1391:Z 7.34827e-05
3 *451:2 0.000788435
4 *451:3 5.0939e-05
5 *451:4 0.00134554
6 *451:5 6.61734e-05

*RES
1 *451:4 *451:5 3.53869
2 *451:3 *451:4 3.62141
3 *451:2 *451:5 4.6413002
4 *1391:Z *451:2 0.949846
5 *1261:I *451:3 1.82831
*END

*D_NET *452 0.00268411

*CONN
*I *1272:I I *C 145.9 141.6 *L 0.000643 *D CKBD0
*I *1392:Z O *C 146.1 132 *L 0 *D DEL1

*CAP
1 *1272:I 0.000604615
2 *1392:Z 9.93899e-05
3 *452:2 0.000190176
4 *452:3 0.00178992

*RES
1 *1272:I *452:2 6.38486
2 *1392:Z *452:3 4.27363
3 *452:2 *452:3 7.38832998
*END

*D_NET *453 0.00471932

*CONN
*I *1393:Z O *C 151.1 132 *L 0 *D DEL1
*I *1574:A[8] I *C 134.265 146.91 *L 0.00555 *D sram00

*CAP
1 *453:2 0.00014256
2 *453:3 0.00124
3 *453:4 4.30061e-05
4 *453:5 0.000342741
5 *453:6 9.17776e-05
6 *453:7 0.00219672984
7 *453:8 6.14085e-05
8 *453:9 4.89391e-05
9 *453:10 0.000132504
10 *453:11 0.000419603

*RES
1 *453:10 *453:11 3.62768
2 *453:8 *453:10 1.70688
3 *453:2 *453:3 7.68621
4 *453:8 *453:9 0.466934
5 *453:7 *453:11 8.43318
6 *453:6 *453:7 4.51513
7 *453:4 *453:5 1.91186
8 *453:3 *453:4 0.111516
9 *453:5 *453:6 0.111516
10 *1393:Z *453:2 0.75
11 *1393:Z *1574:A[8] 0.0001
*END

*D_NET *454 0.00490784

*CONN
*I *1394:Z O *C 145.9 131.2 *L 0 *D DEL1
*I *1574:A[7] I *C 134.265 148.5 *L 0.00555 *D sram00

*CAP
1 *454:2 2.6324e-05
2 *454:3 0.000119179
3 *454:4 0.000129066
4 *454:5 4.02673e-06
5 *454:6 0.000213176
6 *454:7 3.92756e-05
7 *454:8 0.000440596
8 *454:9 4.16195e-05
9 *454:10 0.000482847
10 *454:11 4.25511e-05
11 *454:12 0.00196934
12 *454:13 0.000112087
13 *454:14 0.000334489
14 *454:16 0.000169693
15 *454:17 0.000763666
16 *454:18 1.99233e-05

*RES
1 *454:7 *454:8 2.06751
2 *454:2 *454:3 0.429645
3 *454:13 *454:16 1.35407
4 *454:5 *454:6 1.44493
5 *454:4 *454:5 0.111516
6 *454:6 *454:7 0.111516
7 *454:15 *454:17 4.47444
8 *454:12 *454:18 11.5434
9 *454:10 *454:11 0.111516
10 *454:8 *454:9 0.111516
11 *454:9 *454:10 2.84573
12 *454:13 *454:14 1.92256
13 *454:17 *454:18 0.199856
14 *454:15 *454:16 0.199856
15 *454:11 *454:12 0.488998
16 *454:3 *454:4 1.239
17 *1394:Z *454:3 0.75
18 *1394:Z *1574:A[7] 0.0001
*END

*D_NET *455 0.005698

*CONN
*I *1275:I I *C 150.1 139.6 *L 0.00103 *D DEL01
*I *1395:Z O *C 151.9 124.8 *L 0 *D DEL1

*CAP
1 *455:2 3.44402e-05
2 *455:3 0.0011729
3 *455:4 0.00129343
4 *455:5 0.000126254
5 *455:6 0.000181201
6 *455:7 0.000773157
7 *455:4 *796:2 0.000472178984
8 *455:2 *739:5 0.000238646992
9 *455:3 *868:2 0.000676667969
10 *455:3 *913:3 0.000729138047

*RES
1 *455:6 *455:7 0.199896
2 *455:3 *455:6 4.92499
3 *1275:I *455:4 1.55011
4 *455:5 *455:7 11.0087004
5 *455:2 *455:3 8.1213
6 *455:4 *455:5 6.1373
7 *1395:Z *455:2 0.750028
*END

*D_NET *456 0.00368957

*CONN
*I *1278:I I *C 149.7 143.2 *L 0.00103 *D DEL01
*I *1396:Z O *C 146.9 128.4 *L 0 *D DEL1

*CAP
1 *1278:I 4.69621e-06
2 *1396:Z 0.000109626
3 *456:2 0.000694304
4 *456:3 0.00117468
5 *456:4 2.59905e-06
6 *456:5 0.00108162
7 *456:6 0.000622051

*RES
1 *456:5 *456:6 3.43897
2 *456:2 *456:3 6.13068008
3 *456:3 *456:4 0.199816
4 *1278:I *456:2 4.28472
5 *456:4 *456:5 5.21663
6 *1396:Z *456:6 1.50002
*END

*D_NET *457 0.00293806

*CONN
*I *1284:I I *C 146.9 141.6 *L 0.00103 *D DEL01
*I *1397:Z O *C 147.1 127.6 *L 0 *D DEL1

*CAP
1 *1397:Z 0.000563957
2 *457:2 0.000321365
3 *457:3 0.00125361
4 *457:4 0.000799146

*RES
1 *457:2 *457:3 5.79533005
2 *457:3 *457:4 4.23145
3 *1284:I *457:2 2.09295
4 *1397:Z *457:4 3.0365
*END

*D_NET *458 0.00377118

*CONN
*I *1277:I I *C 145.9 145.2 *L 0.00103 *D DEL01
*I *1398:Z O *C 146.1 124.8 *L 0 *D DEL1

*CAP
1 *1398:Z 0.00107257
2 *458:3 0.00125414
3 *458:4 0.00144447

*RES
1 *458:2 *458:3 0.199886
2 *1277:I *458:4 8.27525997
3 *1398:Z *458:2 5.94873
4 *458:3 *458:4 6.71809
*END

*D_NET *459 0.00257448

*CONN
*I *1309:I I *C 145.9 136 *L 0.00103 *D DEL01
*I *1399:Z O *C 147.1 124 *L 0 *D DEL1

*CAP
1 *1309:I 2.02249e-05
2 *459:2 0.00121599992
3 *459:4 0.000168795
4 *459:5 0.000752924
5 *459:6 0.000416559

*RES
1 *459:4 *459:5 3.96804
2 *459:2 *459:3 3.98334
3 *1309:I *459:4 2.61842
4 *459:3 *459:5 0.19986
5 *459:2 *459:6 4.70474005
6 *1399:Z *459:6 0.749976
*END

*D_NET *460 0.0117962

*CONN
*I *1400:Z O *C 141.7 175.2 *L 0 *D DEL1
*I *1574:D[56] I *C 134.195 285.055 *L 0.00183 *D sram00
*I *1698:B1 I *C 143.7 174 *L 0.000689 *D MOAI22D0

*CAP
1 *1698:B1 0.000405939
2 *460:3 0.000490365
3 *460:4 0.00616815
4 *460:5 6.96488e-05
5 *460:6 3.25655e-05
6 *460:7 0.000170169
7 *460:8 5.54366e-05
8 *460:9 4.60246e-05
9 *460:10 0.000160851
10 *460:11 0.000163863
11 *460:13 0.000958141
12 *460:14 0.000577614
13 *1698:B1 *852:9 0.000365421016
14 *460:3 *320:3 0.000308057988
15 *460:4 *462:5 0.00182398

*RES
1 *460:4 *460:11 2.39854
2 *460:9 *460:10 3.26789
3 *460:13 *460:14 0.199763
4 *460:4 *460:14 58.9147
5 *460:7 *460:8 0.112343
6 *460:12 *460:3 0.199763
7 *460:5 *460:7 2.26302
8 *460:8 *460:11 0.566079
9 *460:3 *460:15 18.8308
10 *460:9 *460:15 0.949763
11 *1698:B1 *460:5 3.61506
12 *460:12 *460:13 7.73755
13 *1400:Z *460:6 0.75
14 *460:6 *460:11 0.75
15 *1400:Z *1574:D[56] 0.0001
*END

*D_NET *461 0.0107667

*CONN
*I *1401:Z O *C 144.7 186 *L 0 *D DEL1
*I *1574:D[57] I *C 134.195 288.985 *L 0.00183 *D sram00
*I *1699:B1 I *C 143.3 182.8 *L 0.000689 *D MOAI22D0

*CAP
1 *461:3 0.000423799
2 *461:4 0.000102299
3 *461:5 0.00069655
4 *461:6 0.00108281
5 *461:7 0.00036073
6 *461:9 0.000102469
7 *461:10 0.000368356
8 *461:11 9.60291e-07
9 *461:13 0.000311304
10 *461:15 0.00113111
11 *461:16 1.72287e-06
12 *461:17 0.000284415
13 *461:18 1.19471e-05
14 *461:19 0.00147255
15 *461:20 0.000209372
16 *461:21 0.00185096
17 *461:22 0.000386206
18 *461:24 3.73384e-05
19 *461:25 0.000128001
20 *461:26 4.76474e-05
21 *461:27 0.000245608
22 *461:28 4.24505e-05
23 *461:29 5.08672e-05
24 *461:30 1.92058e-06
25 *461:3 *318:3 0.00141538

*RES
1 *461:6 *461:11 3.53479
2 *461:8 *461:10 2.60339
3 *461:25 *461:28 0.199763
4 *461:24 *461:29 0.255434
5 *461:23 *461:24 0.199763
6 *461:19 *461:20 17.2437
7 *461:14 *461:17 2.30411
8 *461:3 *461:26 4.63635
9 *461:6 *461:7 6.22502
10 *461:8 *461:9 0.199818
11 *461:22 *461:25 0.799501
12 *461:5 *461:7 3.84624
13 *461:12 *461:3 0.199778
14 *461:21 *461:23 25.9992
15 *461:10 *461:11 0.199818
16 *461:14 *461:15 0.199778
17 *461:27 *461:28 1.6836
18 *461:17 *461:20 0.199778
19 *461:26 *461:27 0.199778
20 *461:18 *461:19 0.199818
21 *461:4 *461:7 1.83938
22 *461:29 *461:30 0.488938
23 *461:9 *461:18 0.428959
24 *461:12 *461:13 2.76935
25 *461:21 *461:22 2.14179
26 *461:15 *461:16 16.2994
27 *461:13 *461:16 0.199778
28 *1699:B1 *461:5 0.75
29 *1401:Z *461:4 0.75
30 *1401:Z *1574:D[57] 0.0001
*END

*D_NET *462 0.012663

*CONN
*I *1084:Z O *C 143.1 182.4 *L 0 *D DEL0
*I *1700:B1 I *C 145.9 188.4 *L 0.000689 *D MOAI22D0
*I *1574:D[58] I *C 134.195 293.455 *L 0.00183 *D sram00

*CAP
1 *1084:Z 8.03002e-05
2 *462:3 0.000316436
3 *462:4 0.00017366
4 *462:5 0.000868478
5 *462:6 0.000265961
6 *462:9 0.00021284
7 *462:10 0.000460182
8 *462:11 0.00578294
9 *462:13 1.83543e-05
10 *462:11 *44:3 0.000402821016
11 *462:5 *460:4 0.00182398
12 *462:5 *464:5 0.00184956
13 *1084:Z *852:11 0.000407476992

*RES
1 *462:5 *462:10 2.7502
2 *462:8 *462:9 3.75681
3 *462:6 *462:7 0.3333
4 *462:7 *462:8 0.11219
5 *462:5 *462:12 1.51425
6 *462:6 *462:11 73.278
7 *462:3 *462:10 3.18119
8 *1084:Z *462:4 0.949801
9 *1700:B1 *462:3 1.74887
10 *462:12 *462:13 0.199818
11 *462:11 *462:13 9.16627
12 *462:4 *462:10 4.53565
13 *1084:Z *1574:D[58] 0.0001
*END

*D_NET *463 0.0122289

*CONN
*I *1082:Z O *C 140.5 221.2 *L 0 *D DEL0
*I *1705:B1 I *C 145.7 208 *L 0.000689 *D MOAI22D0
*I *1574:D[63] I *C 134.195 314.185 *L 0.00183 *D sram00

*CAP
1 *1705:B1 0.000946336
2 *463:3 0.000107144
3 *463:4 0.00159482
4 *463:6 0.000334999
5 *463:7 5.69359e-05
6 *463:8 8.24569e-05
7 *463:9 0.000424573
8 *463:10 2.22406e-05
9 *463:11 0.000501581
10 *463:12 1.85153e-05
11 *463:13 4.59268e-05
12 *463:14 3.7253e-05
13 *463:15 2.00165e-05
14 *463:17 0.000373419
15 *463:18 0.000114706
16 *463:19 0.000229523
17 *463:21 0.00364384
18 *463:3 *318:3 0.00197595
19 *463:4 *320:3 0.00169868

*RES
1 *463:10 *463:11 3.82838
2 *463:5 *463:6 0.199772
3 *463:15 *463:21 3.70666
4 *463:19 *463:20 2.1372
5 *463:9 *463:10 0.267084
6 *1705:B1 *463:5 5.17196
7 *463:11 *463:12 0.267084
8 *463:12 *463:3 0.955756
9 *463:17 *463:21 3.8723
10 *463:3 *463:16 1.1949
11 *463:18 *463:21 38.4213
12 *463:4 *463:20 0.199763
13 *463:18 *463:19 0.199763
14 *463:13 *463:4 33.1078
15 *463:7 *463:9 2.95067
16 *463:13 *463:14 1.86737
17 *463:16 *463:17 0.199778
18 *463:6 *463:7 1.80157
19 *1082:Z *463:8 0.75
20 *463:8 *463:15 0.75
21 *1082:Z *1574:D[63] 0.0001
*END

*D_NET *464 0.0138807

*CONN
*I *1083:Z O *C 140.5 182.4 *L 0 *D DEL0
*I *1701:B1 I *C 145.9 193.6 *L 0.000689 *D MOAI22D0
*I *1574:D[59] I *C 134.195 297.385 *L 0.00183 *D sram00

*CAP
1 *1083:Z 2.76168e-05
2 *464:3 0.000269582
3 *464:4 0.0015105
4 *464:5 0.000947397
5 *464:6 0.000228228
6 *464:7 4.46117e-05
7 *464:8 4.99934e-05
8 *464:9 0.000262997
9 *464:10 3.68932e-05
10 *464:11 0.000318513
11 *464:12 0.00013249
12 *464:13 0.00464067969
13 *464:14 0.000186944
14 *464:15 2.12437e-06
15 *464:14 *79:4 0.000634436016
16 *464:3 *73:6 0.0010868
17 *464:4 *319:2 0.00165127
18 *464:5 *462:5 0.00184956

*RES
1 *464:5 *464:4 10.838
2 *464:3 *464:14 0.199778
3 *464:8 *464:9 1.60039
4 *464:7 *464:8 0.111487
5 *464:9 *464:10 0.111487
6 *464:11 *464:12 4.66842
7 *464:6 *464:7 1.23895
8 *464:14 *464:15 2.2919
9 *464:13 *464:15 0.199778
10 *1083:Z *464:5 1.6998
11 *1701:B1 *464:6 0.949773
12 *464:11 *464:13 59.8249
13 *464:4 *464:3 20.3529
14 *464:10 *464:4 2.35645
15 *1083:Z *1574:D[59] 0.0001
*END

*D_NET *465 0.00197632

*CONN
*I *1259:I I *C 142.1 217.2 *L 0.000697 *D BUFFD0
*I *1405:Z O *C 142.1 214.8 *L 0 *D DEL1
*I *1703:B1 I *C 141.5 206.4 *L 0.000689 *D MOAI22D0

*CAP
1 *1259:I 0.000360954
2 *1703:B1 0.00127452008
3 *465:3 0.000247844
4 *465:4 9.29806e-05

*RES
1 *465:3 *465:4 0.542597
2 *1405:Z *465:3 1.49406
3 *1405:Z *1259:I 2.67248
4 *1703:B1 *465:4 7.07936001
*END

*D_NET *466 0.000742752

*CONN
*I *1258:I I *C 142.5 210 *L 0.000697 *D BUFFD0
*I *1406:Z O *C 142.3 210.4 *L 0 *D DEL1
*I *1704:B1 I *C 141.5 208 *L 0.000689 *D MOAI22D0

*CAP
1 *1258:I 2.66112e-06
2 *1704:B1 0.000267372
3 *1406:Z 8.85906e-05
4 *466:3 0.000384133008

*RES
1 *1406:Z *466:3 2.45936
2 *1406:Z *1258:I 0.242672
3 *1704:B1 *466:3 3.12697005
*END

*D_NET *467 0.00243132

*CONN
*I *1260:I I *C 150.5 213.6 *L 0.000697 *D BUFFD0
*I *1407:Z O *C 148.7 211.2 *L 0 *D DEL1
*I *1702:B1 I *C 145.7 206.4 *L 0.000689 *D MOAI22D0

*CAP
1 *1260:I 7.55261e-05
2 *1702:B1 0.000939025
3 *467:3 7.65147e-05
4 *467:4 0.000555133
5 *467:5 0.000785121

*RES
1 *1702:B1 *467:4 5.51597977
2 *467:4 *467:5 3.16788
3 *467:3 *467:5 3.86479
4 *1407:Z *467:5 1.50003
5 *1260:I *467:3 2.15586
*END

*D_NET *468 0.014779

*CONN
*I *1408:Z O *C 146.1 121.2 *L 0 *D DEL1
*I *1574:D[7] I *C 134.265 38.405 *L 0.00183 *D sram00
*I *1741:B1 I *C 143.1 87.6 *L 0.000689 *D MOAI22D0

*CAP
1 *468:3 0.00497978031
2 *468:4 0.000107065
3 *468:5 8.82204e-05
4 *468:6 0.000755686
5 *468:7 0.000189359
6 *468:8 4.27045e-05
7 *468:9 0.000265345
8 *468:10 4.93153e-05
9 *468:11 0.000546343
10 *468:13 0.000304706
11 *468:14 8.69286e-05
12 *468:15 0.000605689
13 *468:16 0.000343991
14 *468:17 0.000578182
15 *468:15 *716:2 0.00143568
16 *468:5 *735:3 0.00264514
17 *468:3 *726:4 0.000544197031
18 *468:3 *53:6 0.000690327969
19 *468:3 *1739:A1 0.000520125977

*RES
1 *468:8 *468:9 1.75609
2 *468:6 *468:13 3.65262
3 *468:13 *468:14 1.47237
4 *468:3 *468:7 1.17259
5 *468:7 *468:8 0.11188
6 *468:9 *468:10 0.107607
7 *468:4 *468:6 4.28651
8 *468:10 *468:11 3.75725
9 *468:14 *468:15 10.1265
10 *468:3 *468:17 41.369
11 *468:12 *468:17 1.29028
12 *468:16 *468:17 2.75585
13 *468:15 *468:16 9.89945
14 *1741:B1 *468:5 0.75
15 *1408:Z *468:4 0.75
16 *468:5 *468:12 0.75
17 *1408:Z *1574:D[7] 0.0001
*END

*D_NET *469 0.0166322

*CONN
*I *1409:Z O *C 148.7 117.6 *L 0 *D DEL1
*I *1574:D[6] I *C 134.265 34.475 *L 0.00183 *D sram00
*I *1742:B1 I *C 140.5 80.4 *L 0.000689 *D MOAI22D0

*CAP
1 *469:3 0.00100359
2 *469:4 1.6277e-05
3 *469:5 8.5085e-05
4 *469:6 0.000122076
5 *469:7 0.000380445
6 *469:8 5.9827e-05
7 *469:9 0.000643987
8 *469:10 3.8098e-05
9 *469:11 0.00385181
10 *469:12 5.976e-06
11 *469:13 8.1203e-05
12 *469:14 0.00032374
13 *469:15 0.000485218
14 *469:17 4.225e-06
15 *469:18 0.000115275
16 *469:19 5.034e-06
17 *469:20 0.000439234
18 *469:21 2.24e-07
19 *469:22 9.2462e-05
20 *469:23 7.3e-08
21 *469:25 7.28449e-10
22 *469:26 0.000239508
23 *469:27 0.000365362
24 *469:15 *250:2 0.000189185
25 *469:4 *803:3 0.0015085
26 *469:11 *846:8 0.00108440008
27 *469:11 *58:2 0.0016001
28 *469:3 *798:4 0.000754031016
29 *469:15 *871:3 0.000459331992
30 *469:3 *53:7 0.000836521953
31 *469:4 *474:7 0.00184136

*RES
1 *469:10 *469:3 3.93062
2 *469:3 *469:15 19.558
3 *469:19 *469:27 0.588636
4 *469:19 *469:21 0.199843
5 *469:17 *469:27 0.791797
6 *469:25 *469:26 6.81766
7 *469:23 *469:25 0.199843
8 *469:18 *469:24 5.68838
9 *469:8 *469:9 3.15702
10 *469:7 *469:8 0.111516
11 *469:9 *469:10 0.111516
12 *469:12 *469:13 0.053135
13 *469:5 *469:7 2.79544
14 *469:11 *469:12 0.333332
15 *469:24 *469:26 0.199843
16 *469:11 *469:20 42.265
17 *469:4 *469:27 2.15078
18 *469:20 *469:22 0.199843
19 *469:17 *469:18 0.199843
20 *469:13 *469:14 3.1428
21 *469:21 *469:22 4.32471
22 *469:16 *469:23 0.432331
23 *469:15 *469:16 0.199843
24 *1742:B1 *469:6 0.75
25 *1409:Z *469:5 0.75
26 *469:6 *469:4 0.75
27 *1409:Z *1574:D[6] 0.0001
*END

*D_NET *470 0.0477245

*CONN
*I *1410:Z O *C 145.9 271.4 *L 0 *D CKBD2
*I *1665:CDN I *C 139.3 254.8 *L 0.00163 *D DFCNQD1
*I *1666:CDN I *C 140.9 262 *L 0.00163 *D DFCNQD1
*I *1664:CDN I *C 149.1 254.8 *L 0.00163 *D DFCNQD1
*I *1661:CDN I *C 139.7 246 *L 0.00163 *D DFCNQD1
*I *1658:CDN I *C 142.5 233.2 *L 0.00163 *D DFCNQD1
*I *1645:CDN I *C 140.5 143.2 *L 0.00163 *D DFCNQD1
*I *1643:CDN I *C 139.3 134.4 *L 0.00163 *D DFCNQD1
*I *1640:CDN I *C 138.9 120 *L 0.00163 *D DFCNQD1
*I *1573:I I *C 149.7 110.8 *L 0.000977 *D CKBD3
*I *1680:CDN I *C 149.9 109.4 *L 0.00157 *D EDFCNQD1
*I *1679:CDN I *C 149.7 112.8 *L 0.00237 *D EDFCNQD4
*I *1588:CDN I *C 149.9 116.4 *L 0.00163 *D DFCNQD1
*I *1639:CDN I *C 139.5 114.4 *L 0.00163 *D DFCNQD1
*I *1641:CDN I *C 139.3 121.6 *L 0.00163 *D DFCNQD1
*I *1642:CDN I *C 140.3 127.2 *L 0.00163 *D DFCNQD1
*I *1644:CDN I *C 140.7 139.6 *L 0.00163 *D DFCNQD1
*I *1646:CDN I *C 142.7 170.4 *L 0.00163 *D DFCNQD1
*I *1670:CDN I *C 142.7 175.6 *L 0.00163 *D DFCNQD1
*I *1647:CDN I *C 142.5 179.2 *L 0.00163 *D DFCNQD1
*I *1671:CDN I *C 142.3 184.8 *L 0.00163 *D DFCNQD1
*I *1653:CDN I *C 139.9 204.4 *L 0.00163 *D DFCNQD1
*I *1650:CDN I *C 139.1 199.2 *L 0.00163 *D DFCNQD1
*I *1649:CDN I *C 139.9 195.6 *L 0.00163 *D DFCNQD1
*I *1648:CDN I *C 139.7 190 *L 0.00163 *D DFCNQD1
*I *1672:CDN I *C 146.9 190 *L 0.00163 *D DFCNQD1
*I *1673:CDN I *C 146.9 195.6 *L 0.00163 *D DFCNQD1
*I *1651:CDN I *C 147.1 197.2 *L 0.00163 *D DFCNQD1
*I *1652:CDN I *C 147.5 202.8 *L 0.00163 *D DFCNQD1
*I *1674:CDN I *C 147.5 210 *L 0.00163 *D DFCNQD1
*I *1677:CDN I *C 146.9 213.6 *L 0.00163 *D DFCNQD1
*I *1676:CDN I *C 139.9 211.6 *L 0.00163 *D DFCNQD1
*I *1675:CDN I *C 139.7 213.6 *L 0.00163 *D DFCNQD1
*I *1654:CDN I *C 146.5 217.2 *L 0.00163 *D DFCNQD1
*I *1655:CDN I *C 146.3 224.4 *L 0.00163 *D DFCNQD1
*I *1662:CDN I *C 141.5 222.4 *L 0.00163 *D DFCNQD1
*I *1656:CDN I *C 143.5 228 *L 0.00163 *D DFCNQD1
*I *1657:CDN I *C 142.3 229.6 *L 0.00163 *D DFCNQD1
*I *1659:CDN I *C 141.1 240.4 *L 0.00163 *D DFCNQD1
*I *1660:CDN I *C 146.9 246 *L 0.00163 *D DFCNQD1
*I *1663:CDN I *C 148.1 249.6 *L 0.00163 *D DFCNQD1
*I *1668:CDN I *C 148.7 260.4 *L 0.00163 *D DFCNQD1
*I *1667:CDN I *C 143.3 267.6 *L 0.00163 *D DFCNQD1

*CAP
1 *1668:CDN 0.000315986
2 *1662:CDN 0.000206967
3 *1655:CDN 1.84054e-05
4 *1677:CDN 8.28508e-05
5 *1674:CDN 2.02726e-05
6 *1673:CDN 8.25307e-05
7 *1672:CDN 5.9564e-05
8 *1670:CDN 4.68403e-05
9 *1646:CDN 9.53878e-05
10 *1639:CDN 0.000184827
11 *1679:CDN 8.89059e-05
12 *1680:CDN 0.000550881
13 *1640:CDN 0.00010243
14 *1664:CDN 0.000266398
15 *1666:CDN 6.2685e-05
16 *470:43 0.000688334
17 *470:44 0.000134813
18 *470:45 0.00072029
19 *470:46 0.000520098
20 *470:47 0.000491263
21 *470:48 0.000302035
22 *470:49 9.60814e-05
23 *470:51 0.000536103
24 *470:52 0.000218144
25 *470:53 0.000157193
26 *470:54 0.000477606
27 *470:55 0.000116381
28 *470:56 0.000539171
29 *470:57 0.000552321
30 *470:58 0.000609404
31 *470:59 0.000146629
32 *470:60 0.00149089
33 *470:61 0.000473658
34 *470:62 0.000222011
35 *470:63 0.000871534
36 *470:64 0.00046755
37 *470:65 0.000176772
38 *470:66 0.00050388
39 *470:67 4.53466e-07
40 *470:68 0.000614659
41 *470:69 0.000137613
42 *470:70 2.21398e-06
43 *470:71 0.000367067
44 *470:72 0.00142516
45 *470:73 2.96353e-05
46 *470:74 0.000439488
47 *470:75 1.69916e-05
48 *470:76 0.000925977
49 *470:77 0.000605963
50 *470:78 0.000165728
51 *470:79 0.00020598
52 *470:80 0.00101467
53 *470:81 0.000644135
54 *470:83 0.000343994
55 *470:84 0.000714822
56 *470:85 0.000426178
57 *470:86 0.000333084
58 *470:87 0.000263544
59 *470:88 0.00141644
60 *470:89 4.53732e-05
61 *470:90 0.00122809
62 *470:91 0.000432019
63 *470:92 0.000862705
64 *470:93 0.00028459
65 *470:94 0.000575768
66 *470:95 0.000256688
67 *470:96 0.00174811
68 *470:97 6.32985e-05
69 *470:98 0.000895861
70 *470:99 0.000226786
71 *470:100 0.000427992
72 *470:101 0.000199738
73 *470:102 0.00107538
74 *470:103 0.000411453
75 *470:104 0.00111995
76 *470:105 0.000304009
77 *470:106 0.000447037
78 *470:107 0.000488409
79 *470:108 0.000202939
80 *470:109 0.000398169
81 *470:110 0.000574488
82 *470:111 0.000127184
83 *470:112 0.000802021
84 *470:113 0.000240443
85 *470:114 0.000828855
86 *470:115 0.000335645
87 *470:116 0.000653257
88 *470:117 0.000291072
89 *470:118 0.000659979
90 *470:119 0.000690468
91 *470:120 0.000247219
92 *470:72 *233:2 0.000202984004
93 *470:71 *273:2 0.000658227969
94 *1666:CDN *618:7 0.00136056
95 *1662:CDN *841:7 0.00110753
96 *1646:CDN *61:3 0.000615751016
97 *1640:CDN *780:2 0.000471555
98 *1677:CDN *859:10 0.00101771
99 *1670:CDN *852:19 0.000664336953
100 *1672:CDN *936:11 0.000361676992
101 *470:43 *44:3 0.000645703008
102 *470:44 *992:Z 0.000682665

*RES
1 *470:71 *470:99 3.12618
2 *470:49 *470:81 4.21673
3 *470:103 *470:112 2.30619
4 *470:76 *470:100 2.61233
5 *470:71 *470:92 5.87795
6 *1668:CDN *470:47 3.89352
7 *470:52 *470:106 3.20048
8 *470:61 *470:97 1.19898
9 *470:56 *470:115 2.92867
10 *470:120 *470:44 2.69933
11 *470:76 *470:77 3.25105
12 *470:72 *470:110 6.2867
13 *1639:CDN *470:72 2.43522
14 *470:72 *470:78 3.137
15 *470:78 *470:93 1.06828
16 *470:55 *470:96 4.45774
17 *1664:CDN *470:46 3.02816
18 *470:43 *470:50 4.9489
19 *470:51 *470:79 2.5372
20 *470:106 *470:109 2.1168
21 *1677:CDN *470:52 1.06121
22 *1662:CDN *470:66 2.60671
23 *470:75 *470:92 1.14695
24 *470:63 *470:67 3.53555
25 *1646:CDN *470:59 0.949863
26 *470:58 *470:62 1.91242
27 *470:65 *470:86 2.56883
28 *1666:CDN *470:115 1.49993
29 *470:46 *470:47 2.07642
30 *470:73 *470:102 1.53385
31 *470:53 *470:81 0.912193
32 *470:107 *470:113 4.15721
33 *470:52 *470:96 5.68794
34 *470:49 *470:80 0.645799
35 *1670:CDN *470:58 0.949863
36 *470:95 *470:107 1.86768
37 *470:57 *470:84 2.97196
38 *470:82 *470:116 3.43025
39 *470:88 *470:114 5.34621
40 *470:58 *470:97 3.73931
41 *470:65 *470:83 3.05604
42 *470:59 *470:62 2.95323
43 *470:68 *470:89 3.71537
44 *470:51 *470:95 1.11157
45 *470:54 *470:55 2.59173
46 *470:48 *470:79 2.71077
47 *470:91 *470:101 1.4044
48 *470:88 *470:99 3.53056
49 *470:70 *470:104 1.26704
50 *470:56 *470:57 2.66249
51 *470:114 *470:44 6.04778
52 *470:69 *470:104 5.55807
53 *470:68 *470:103 0.956315
54 *1674:CDN *470:80 6.93583
55 *470:46 *470:48 2.09744
56 *470:84 *470:116 4.67065
57 *1680:CDN *470:105 3.76969
58 *1655:CDN *470:54 0.949655
59 *470:43 *470:111 1.37256
60 *470:60 *470:108 1.28036
61 *470:64 *470:112 3.37489
62 *470:64 *470:87 2.20192
63 *1673:CDN *470:53 1.35278
64 *470:45 *470:117 4.70332
65 *1640:CDN *470:78 1.23936
66 *470:73 *470:94 3.62505
67 *1672:CDN *470:111 1.49993
68 *470:101 *470:102 5.93789
69 *470:67 *470:98 1.26725
70 *470:54 *470:118 4.57408
71 *470:59 *470:60 8.83368
72 *470:50 *470:53 0.35547
73 *470:74 *470:94 2.31347
74 *470:90 *470:113 1.99484
75 *470:45 *470:105 1.56486
76 *470:63 *470:85 2.25041
77 *470:61 *470:87 3.24772
78 *1679:CDN *470:45 1.19003
79 *470:70 *470:90 6.20304
80 *470:111 *470:112 4.27001
81 *470:108 *470:119 13.6393995
82 *470:85 *470:86 3.43087
83 *470:91 *470:109 2.95074
84 *470:74 *470:89 1.25518
85 *470:69 *470:115 1.99484
86 *470:119 *470:120 1.68619
87 *470:77 *470:93 1.73531
88 *470:65 *470:66 5.03964
89 *470:98 *470:113 4.64109
90 *470:110 *470:117 3.19819
91 *1588:CDN *470:117 1.89931
92 *470:75 *470:76 5.26837
93 *1573:I *470:105 1.49993
94 *1665:CDN *470:104 0.750067
95 *1648:CDN *470:103 0.750067
96 *1653:CDN *470:102 0.750067
97 *1676:CDN *470:101 0.750067
98 *1642:CDN *470:100 0.750067
99 *1644:CDN *470:99 0.750067
100 *1659:CDN *470:98 0.750067
101 *1647:CDN *470:97 0.750067
102 *1654:CDN *470:96 0.750067
103 *1660:CDN *470:95 0.750067
104 *1650:CDN *470:94 0.750067
105 *1641:CDN *470:93 0.750067
106 *1643:CDN *470:92 0.750067
107 *1675:CDN *470:91 0.750067
108 *1661:CDN *470:90 0.750067
109 *1649:CDN *470:89 0.750067
110 *1645:CDN *470:88 0.750067
111 *1671:CDN *470:87 0.750067
112 *1657:CDN *470:86 0.750067
113 *1658:CDN *470:85 0.750067
114 *1667:CDN *470:84 0.750067
115 *1656:CDN *470:83 0.750067
116 *1410:Z *470:82 0.750067
117 *1651:CDN *470:81 0.750067
118 *1652:CDN *470:80 0.750067
119 *1663:CDN *470:79 0.750067
120 *470:66 *470:118 0.750067
*END

*D_NET *471 0.00293359

*CONN
*I *1411:Z O *C 151.9 175.2 *L 0 *D DEL1
*I *1574:CEN I *C 134.195 177.81 *L 0.00171 *D sram00

*CAP
1 *471:2 0.000364306
2 *471:3 3.5469e-07
3 *471:4 9.69781e-05
4 *471:6 3.69665e-05
5 *471:7 0.000101333
6 *471:8 0.000196301
7 *471:9 3.20403e-05
8 *471:10 6.16963e-05
9 *471:11 3.03949e-05
10 *471:12 0.000237189
11 *471:13 2.09957e-05
12 *471:14 5.57355e-05
13 *471:15 1.7163e-05
14 *471:16 0.000142684
15 *471:17 3.85134e-05
16 *471:18 0.000272579
17 *471:19 7.61893e-05
18 *471:20 0.000506477
19 *471:21 0.000645683008

*RES
1 *471:7 *471:8 2.15941
2 *471:2 *471:3 0.600739
3 *471:18 *471:19 0.111497
4 *471:12 *471:13 0.111497
5 *471:5 *471:6 0.489143
6 *471:4 *471:5 0.738468
7 *471:10 *471:11 0.111497
8 *471:8 *471:9 0.111596
9 *471:9 *471:10 0.511193
10 *471:13 *471:14 0.510994
11 *471:19 *471:20 2.28519
12 *471:17 *471:18 1.60038
13 *471:16 *471:17 0.111497
14 *471:15 *471:16 0.822289
15 *471:11 *471:12 1.44478
16 *471:20 *471:21 3.15471
17 *471:14 *471:15 0.111497
18 *471:2 *471:21 3.26207995
19 *471:3 *471:4 0.199798
20 *1411:Z *471:7 0.750016
21 *1411:Z *1574:CEN 9.95508e-05
*END

*D_NET *472 0.0156048

*CONN
*I *1412:Z O *C 145.3 116.8 *L 0 *D DEL1
*I *1574:D[4] I *C 134.265 26.075 *L 0.00183 *D sram00
*I *1747:B1 I *C 141.5 71.2 *L 0.000689 *D MOAI22D0

*CAP
1 *472:3 0.000553738
2 *472:4 0.000400646
3 *472:5 0.000672539
4 *472:6 2.54323e-05
5 *472:7 6.19633e-05
6 *472:8 6.30085e-05
7 *472:9 3.66305e-05
8 *472:10 7.25145e-05
9 *472:11 6.61938e-05
10 *472:12 0.000263133
11 *472:13 3.32462e-05
12 *472:15 1.17457e-05
13 *472:16 0.000264526
14 *472:18 4.97697e-08
15 *472:19 0.000112778
16 *472:20 0.000186885
17 *472:21 2.6378e-06
18 *472:23 0.000234167
19 *472:24 1.1447e-06
20 *472:25 0.00326166
21 *472:26 0.000358044
22 *472:27 0.000208485
23 *472:28 0.000124126
24 *472:29 0.000106557
25 *472:30 0.000588477
26 *472:31 9.00832e-06
27 *472:3 *537:9 0.00129864
28 *472:27 *847:6 0.00132366
29 *472:3 *1068:I 0.000620885
30 *472:4 *841:20 0.000854511953
31 *472:5 *733:4 0.00190639
32 *472:6 *738:3 0.000728967031
33 *472:7 *45:6 0.00115234008

*RES
1 *472:13 *472:4 0.488998
2 *472:5 *472:28 10.7126
3 *472:23 *472:24 0.199822
4 *472:21 *472:27 4.34509
5 *472:20 *472:21 0.199843
6 *472:14 *472:15 0.199843
7 *472:25 *472:26 5.79797
8 *472:11 *472:12 2.17908
9 *472:10 *472:11 0.111516
10 *472:12 *472:13 0.111516
11 *472:15 *472:26 6.49634
12 *472:28 *472:30 0.199822
13 *472:17 *472:20 1.98395
14 *472:17 *472:19 0.199843
15 *472:22 *472:23 2.75948
16 *472:8 *472:10 1.39464
17 *472:6 *472:3 6.6997
18 *472:27 *472:29 0.199843
19 *472:6 *472:24 2.13776
20 *472:16 *472:31 3.24954
21 *472:16 *472:18 0.199843
22 *472:14 *472:31 0.789233
23 *472:29 *472:30 9.77955
24 *472:18 *472:19 1.66956
25 *472:22 *472:5 0.199822
26 *472:4 *472:25 27.706
27 *1747:B1 *472:9 0.75
28 *1412:Z *472:8 0.75
29 *472:9 *472:7 0.75
30 *472:7 *472:31 0.75
31 *1412:Z *1574:D[4] 0.0001
*END

*D_NET *473 0.0138632

*CONN
*I *1413:Z O *C 145.9 102.4 *L 0 *D DEL1
*I *1738:B1 I *C 141.5 64 *L 0.000689 *D MOAI22D0
*I *1574:D[3] I *C 134.265 21.605 *L 0.00183 *D sram00

*CAP
1 *473:3 0.000518191
2 *473:4 0.000133376
3 *473:5 0.000124735
4 *473:6 0.00037444
5 *473:7 0.000256277
6 *473:8 0.000189222
7 *473:9 0.000877285
8 *473:10 0.000294308
9 *473:11 3.70303e-06
10 *473:12 1.11758e-05
11 *473:13 0.000166737
12 *473:14 0.000435223
13 *473:15 0.00218629
14 *473:17 1.66803e-06
15 *473:18 0.000665845
16 *473:19 4.90735e-05
17 *473:20 3.2927e-05
18 *473:21 0.00158346
19 *473:10 *735:2 0.0022846
20 *473:3 *796:3 0.000630921016
21 *473:3 *737:7 0.00304373

*RES
1 *473:8 *473:9 5.42976
2 *473:14 *473:21 21.3203
3 *473:19 *473:20 0.355563
4 *473:6 *473:7 1.81572
5 *473:7 *473:8 0.419913
6 *473:16 *473:19 0.448361
7 *473:16 *473:18 0.199822
8 *473:4 *473:3 3.04403
9 *473:3 *473:11 1.13883
10 *473:15 *473:21 26.5757
11 *473:12 *473:14 7.60269
12 *473:10 *473:21 2.25365
13 *473:6 *473:20 1.73811
14 *473:15 *473:17 0.199822
15 *473:17 *473:18 5.09537
16 *473:11 *473:13 0.199856
17 *473:12 *473:13 1.0147
18 *1738:B1 *473:5 0.75
19 *1413:Z *473:4 0.75
20 *473:5 *473:10 0.75
21 *1413:Z *1574:D[3] 0.0001
*END

*D_NET *474 0.0125095

*CONN
*I *1414:Z O *C 142.3 96 *L 0 *D DEL1
*I *1748:B1 I *C 140.7 73.2 *L 0.000689 *D MOAI22D0
*I *1574:D[5] I *C 134.265 30.005 *L 0.00183 *D sram00

*CAP
1 *474:3 0.000744271
2 *474:4 8.70098e-05
3 *474:5 0.000127691
4 *474:6 6.60529e-05
5 *474:7 0.00174109
6 *474:8 0.00123173
7 *474:9 8.63218e-05
8 *474:10 0.000218686
9 *474:11 0.00187881
10 *474:12 6.82891e-05
11 *474:13 2.95289e-05
12 *474:14 0.000315271
13 *474:15 0.000326939
14 *474:16 0.000183394
15 *474:17 5.98605e-05
16 *474:3 *803:2 0.000760327969
17 *474:3 *58:4 0.000874876953
18 *474:7 *469:4 0.00184136
19 *474:7 *475:5 0.00137407
20 *474:3 *618:18 0.000493945977

*RES
1 *474:8 *474:10 1.68385
2 *474:9 *474:15 2.94668
3 *474:13 *474:14 2.51219
4 *474:11 *474:17 20.7079
5 *474:6 *474:7 12.1357
6 *474:7 *474:8 6.98576
7 *474:3 *474:6 0.389992
8 *474:11 *474:12 0.733851
9 *474:3 *474:15 10.9522
10 *474:16 *474:17 0.199843
11 *474:12 *474:13 0.107859
12 *1748:B1 *474:5 0.88367
13 *474:5 *474:7 0.822675
14 *474:4 *474:9 0.33479
15 *474:10 *474:16 10.5232
16 *1414:Z *474:9 0.75
17 *1414:Z *1574:D[5] 0.0001
*END

*D_NET *475 0.0134329

*CONN
*I *1415:Z O *C 145.1 85.2 *L 0 *D DEL1
*I *1574:D[2] I *C 134.265 17.675 *L 0.00183 *D sram00
*I *1739:B1 I *C 141.7 56.8 *L 0.000689 *D MOAI22D0

*CAP
1 *475:3 0.000775561
2 *475:4 4.38484e-05
3 *475:5 0.00117267
4 *475:6 0.00160447
5 *475:7 0.000350224
6 *475:8 0.000603595
7 *475:9 5.33722e-06
8 *475:10 8.78682e-05
9 *475:11 0.000385651
10 *475:12 0.00107139
11 *475:13 6.56135e-06
12 *475:14 9.4503e-06
13 *475:15 0.00128877
14 *475:16 7.51372e-05
15 *475:17 8.10375e-06
16 *475:18 6.74007e-05
17 *475:20 2.64413e-06
18 *475:21 0.000338032
19 *475:22 8.81375e-05
20 *475:24 0.000112816
21 *475:25 0.000317589
22 *475:26 2.64413e-06
23 *475:27 0.000143958
24 *475:29 1.37103e-06
25 *475:30 0.00108877
26 *475:31 0.000206952
27 *475:3 *636:4 0.00185156
28 *475:4 *331:15 0.000348306016
29 *475:5 *474:7 0.00137407

*RES
1 *475:17 *475:18 0.53296
2 *1415:Z *475:6 8.5983
3 *475:10 *475:30 0.949822
4 *475:27 *475:29 0.199822
5 *475:10 *475:11 2.73501
6 *475:18 *475:20 0.199843
7 *475:23 *475:4 0.590229
8 *475:28 *475:30 9.53805
9 *475:7 *475:8 3.93595
10 *475:8 *475:9 0.11173
11 *475:22 *475:24 0.199843
12 *475:16 *475:31 0.988397
13 *475:20 *475:21 2.00107
14 *475:5 *475:12 6.49993
15 *475:16 *475:17 0.199843
16 *475:23 *475:25 0.199822
17 *475:13 *475:31 0.594573
18 *475:9 *475:31 1.23899
19 *475:12 *475:14 0.199843
20 *475:19 *475:22 0.584027
21 *475:19 *475:21 0.199843
22 *475:29 *475:3 15.01
23 *475:13 *475:15 0.199843
24 *475:6 *475:5 6.76326
25 *1739:B1 *475:7 1.54612
26 *475:28 *475:3 0.199822
27 *475:26 *475:27 1.52964
28 *475:24 *475:25 4.00279
29 *475:14 *475:15 10.3075
30 *475:4 *475:26 0.199822
31 *1415:Z *1574:D[2] 0.0001
*END

*D_NET *476 0.0122626

*CONN
*I *1416:Z O *C 142.5 88 *L 0 *D DEL1
*I *1574:D[0] I *C 134.265 9.275 *L 0.00183 *D sram00
*I *1740:B1 I *C 140.7 46 *L 0.000689 *D MOAI22D0

*CAP
1 *476:3 0.000179228
2 *476:4 0.0037371
3 *476:5 5.40592e-05
4 *476:6 0.000101618
5 *476:7 0.000122146
6 *476:8 0.000463609
7 *476:9 0.000529187
8 *476:10 2.74858e-05
9 *476:11 0.000479006
10 *476:12 7.98343e-07
11 *476:13 0.000167652
12 *476:15 0.000173012
13 *476:16 0.000139539
14 *476:17 1.14049e-07
15 *476:18 4.6475e-05
16 *476:19 0.000138398
17 *476:20 7.24211e-06
18 *476:21 0.000928074
19 *476:7 *537:9 0.00229844
20 *476:11 *612:3 0.000324235996
21 *476:3 *477:3 0.000318039004
22 *476:4 *1600:CP 0.000375208008
23 *476:5 *839:17 0.00165189

*RES
1 *476:8 *476:5 1.33864
2 *476:5 *476:12 0.199843
3 *476:10 *476:21 1.2169
4 *476:14 *476:3 3.53896
5 *476:19 *476:20 0.199843
6 *476:14 *476:15 0.199843
7 *476:4 *476:9 4.51334
8 *476:16 *476:18 1.63226
9 *476:6 *476:8 2.41158
10 *476:11 *476:12 8.38034
11 *476:13 *476:15 3.58194
12 *476:4 *476:21 30.7036
13 *476:20 *476:21 4.7164
14 *476:18 *476:19 5.54603
15 *476:3 *476:17 0.199843
16 *476:16 *476:17 3.04837
17 *476:11 *476:13 3.48682
18 *1740:B1 *476:7 0.75
19 *1416:Z *476:6 0.75
20 *476:7 *476:10 0.75
21 *1416:Z *1574:D[0] 0.0001
*END

*D_NET *477 0.00594274

*CONN
*I *1262:I I *C 147.9 69.6 *L 0.00072 *D BUFFD1
*I *1417:Z O *C 146.3 70.8 *L 0 *D DEL1
*I *1743:B1 I *C 140.7 49.6 *L 0.000689 *D MOAI22D0

*CAP
1 *1262:I 0.000111856
2 *1743:B1 0.000225351
3 *1417:Z 0.000151771
4 *477:3 0.00202779
5 *477:4 0.000418337
6 *477:5 0.000288257
7 *477:6 0.000416945
8 *477:7 0.000336681
9 *477:8 7.4787e-05
10 *1743:B1 *537:9 0.000336461016
11 *1417:Z *633:56 0.000277925996
12 *1417:Z *853:10 0.000232185
13 *1743:B1 *1743:A1 0.00024287
14 *1262:I *1729:A2 0.000235018008
15 *477:3 *476:3 0.000318039004
16 *477:6 *1422:Z 0.000248454004

*RES
1 *1262:I *477:7 3.31727
2 *477:5 *477:8 2.34588
3 *477:6 *477:7 0.600601
4 *477:4 *477:5 2.89456
5 *477:3 *477:8 15.1213999
6 *477:3 *477:6 5.9038
7 *1743:B1 *477:4 1.92871
8 *1417:Z *477:7 4.17398
*END

*D_NET *478 0.000902901

*CONN
*I *1263:I I *C 143.9 218.8 *L 0.000643 *D CKBD0
*I *1418:Z O *C 143.9 221.2 *L 0 *D DEL1
*I *1690:A1 I *C 145.7 220.6 *L 0.00073 *D AO22D0

*CAP
1 *1263:I 0.000206438
2 *1690:A1 0.000259326
3 *478:3 0.000437135

*RES
1 *1690:A1 *478:3 5.21927023
2 *1263:I *478:3 2.58949
3 *1418:Z *478:3 0.749967
*END

*D_NET *479 0.000992042

*CONN
*I *1264:I I *C 143.3 62.4 *L 0.000643 *D CKBD0
*I *1419:Z O *C 141.3 63.6 *L 0 *D DEL1
*I *1719:B1 I *C 140.9 62.4 *L 0.000689 *D MOAI22D0

*CAP
1 *479:3 0.000406315
2 *479:4 0.000120008
3 *479:5 0.000465725

*RES
1 *479:4 *479:5 2.9660399
2 *1419:Z *479:3 2.21733
3 *1264:I *479:4 1.49999
4 *1719:B1 *479:3 0.750019
5 *479:3 *479:5 0.750019
*END

*D_NET *480 0.00469748

*CONN
*I *1420:Z O *C 145.5 78 *L 0 *D DEL1
*I *1574:D[15] I *C 134.265 72.005 *L 0.00183 *D sram00
*I *1735:B1 I *C 148.1 84 *L 0.000689 *D MOAI22D0

*CAP
1 *480:3 0.00063305
2 *480:4 3.17046e-06
3 *480:5 0.000654202
4 *480:6 0.000122651
5 *480:8 0.000975475
6 *480:9 9.67512e-07
7 *480:10 0.000348394
8 *480:11 3.77925e-05
9 *480:12 0.00071386
10 *480:13 0.000127071
11 *480:14 0.000512156
12 *480:15 0.000303382
13 *480:16 0.000265351

*RES
1 *480:8 *480:9 0.121057
2 *480:3 *480:4 0.199789
3 *480:6 *480:15 1.72635
4 *480:8 *480:14 5.31387997
5 *480:3 *480:15 3.64356
6 *480:7 *480:14 1.23928
7 *480:11 *480:16 1.84011
8 *480:9 *480:10 1.91186
9 *480:10 *480:11 0.11149
10 *480:5 *480:14 2.06592
11 *480:12 *480:16 5.06779
12 *480:12 *480:13 0.637315
13 *480:4 *480:5 3.03592
14 *1420:Z *480:7 0.750021
15 *1735:B1 *480:6 0.750021
16 *1420:Z *1574:D[15] 8.10834e-05
*END

*D_NET *481 0.00291705

*CONN
*I *1267:I I *C 150.7 87.6 *L 0.000643 *D CKBD0
*I *1421:Z O *C 149.3 88 *L 0 *D DEL1
*I *1752:B1 I *C 145.1 94.8 *L 0.00101 *D MOAI22D1

*CAP
1 *1267:I 0.000105928
2 *1421:Z 7.20535e-05
3 *481:3 0.000569609
4 *481:4 0.00110612
5 *481:5 0.00106335

*RES
1 *481:3 *481:4 5.80073023
2 *481:3 *481:5 5.57396
3 *1752:B1 *481:5 1.5286
4 *1267:I *481:4 5.00855
5 *1421:Z *481:4 0.949824
*END

*D_NET *482 0.0101414

*CONN
*I *1266:I I *C 144.1 8.4 *L 0.00103 *D DEL01
*I *1422:Z O *C 146.1 70 *L 0 *D DEL1
*I *1729:B1 I *C 146.3 69.6 *L 0.000689 *D MOAI22D0

*CAP
1 *1422:Z 0.000180295
2 *482:3 0.00104998
3 *482:4 0.000611443
4 *482:5 0.000222566
5 *482:6 0.000140616
6 *482:7 0.000379804
7 *482:8 0.00149018
8 *482:9 0.000184001
9 *482:10 5.19124e-05
10 *482:11 8.64752e-05
11 *482:12 0.000196349
12 *482:3 *1579:Z 0.000904473984
13 *482:5 *736:2 0.00232375
14 *1422:Z *477:6 0.000248454004
15 *482:3 *316:3 0.00207114

*RES
1 *482:11 *482:12 3.33443
2 *482:10 *482:11 3.08245
3 *482:9 *482:10 2.0531
4 *482:3 *482:12 7.89683
5 *482:5 *482:6 5.96133
6 *1422:Z *482:5 3.69676
7 *482:8 *482:9 3.25241
8 *482:7 *482:8 21.5869999
9 *482:6 *482:7 3.9807
10 *482:4 *482:3 3.68853
11 *1422:Z *1729:B1 0.194012
12 *1266:I *482:4 0.750024
*END

*D_NET *483 0.00154346

*CONN
*I *1265:I I *C 142.5 62.4 *L 0.000643 *D CKBD0
*I *1423:Z O *C 140.9 60 *L 0 *D DEL1
*I *1725:B1 I *C 145.9 60.4 *L 0.000689 *D MOAI22D0

*CAP
1 *1725:B1 0.00025503
2 *483:3 0.00128842

*RES
1 *1265:I *483:3 3.64853
2 *1725:B1 *483:3 4.52286005
3 *1423:Z *483:3 2.90077
*END

*D_NET *484 0.00845518

*CONN
*I *1270:I I *C 137.7 28 *L 0.00103 *D DEL01
*I *1424:Z O *C 146.1 73.6 *L 0 *D DEL1
*I *1732:B1 I *C 147.1 71.2 *L 0.000689 *D MOAI22D0

*CAP
1 *1270:I 6.54633e-05
2 *1732:B1 0.00015701
3 *484:3 0.000616746
4 *484:4 0.000714852
5 *484:5 0.00045482
6 *484:6 0.00089733
7 *484:7 0.000510205
8 *484:9 0.000780233
9 *484:10 0.000806522
10 *484:11 1.84847e-06
11 *484:12 0.000230443
12 *484:13 0.000230744
13 *484:14 3.50662e-05
14 *484:15 0.000733583
15 *484:15 *1747:A2 0.000435906992
16 *484:3 *617:3 0.000587688984
17 *484:3 *1557:I 0.000515200977
18 *484:4 *71:2 0.00047186
19 *484:5 *326:12 0.000209646992

*RES
1 *484:6 *484:14 5.39784
2 *484:5 *484:4 1.77386
3 *1270:I *484:10 2.32523
4 *484:8 *484:13 2.35859
5 *484:7 *484:12 7.72437
6 *484:3 *484:7 0.19978
7 *484:6 *484:3 5.20172
8 *484:14 *484:15 3.34947
9 *1732:B1 *484:15 2.49814
10 *1424:Z *484:15 2.49896
11 *484:4 *484:13 4.78447
12 *484:9 *484:11 0.19978
13 *484:5 *484:12 2.18969
14 *484:10 *484:11 6.1873
15 *484:8 *484:9 6.76648
*END

*D_NET *485 0.00911147

*CONN
*I *1268:I I *C 149.9 12 *L 0.00103 *D DEL01
*I *1425:Z O *C 147.1 77.2 *L 0 *D DEL1
*I *1733:B1 I *C 147.3 76.8 *L 0.000689 *D MOAI22D0

*CAP
1 *1733:B1 8.86923e-05
2 *485:3 0.00429915
3 *485:4 0.000889022
4 *485:5 9.91884e-05
5 *485:6 0.000221403
6 *485:7 0.000211366
7 *485:9 0.000836804
8 *485:10 0.00049463
9 *485:11 0.000367889
10 *485:11 *75:19 0.000304759004
11 *485:3 *935:11 0.00111240008
12 *485:3 *299:2 0.000186174004

*RES
1 *485:6 *485:7 1.84957
2 *485:8 *485:9 0.199782
3 *485:3 *485:11 31.8563004
4 *485:4 *485:6 4.60958
5 *1733:B1 *485:5 1.2614
6 *1268:I *485:3 2.66425
7 *485:10 *485:11 2.66133
8 *485:8 *485:10 6.04257
9 *485:7 *485:9 8.04768
10 *485:4 *485:5 2.42704
11 *1425:Z *485:5 0.750035
*END

*D_NET *486 0.00417857

*CONN
*I *1426:Z O *C 145.7 80.8 *L 0 *D DEL1
*I *1734:B1 I *C 147.1 78.4 *L 0.000689 *D MOAI22D0
*I *1574:D[14] I *C 134.265 68.075 *L 0.00183 *D sram00

*CAP
1 *1734:B1 0.000265535
2 *486:3 7.55361e-05
3 *486:4 0.000273839
4 *486:5 0.000151473
5 *486:6 0.000105928
6 *486:7 3.45223e-05
7 *486:8 0.000667306
8 *486:9 6.89815e-05
9 *486:10 0.000860551
10 *486:11 0.00138121
11 *486:12 0.000112904
12 *486:13 0.00012146
13 *486:14 5.92865e-05

*RES
1 *486:8 *486:9 0.111511
2 *486:11 *486:14 9.48268
3 *486:13 *486:14 0.199843
4 *486:6 *486:7 0.111511
5 *486:10 *486:13 1.33864
6 *1734:B1 *486:3 2.53507
7 *486:11 *486:12 0.93385
8 *486:9 *486:10 4.40291
9 *486:3 *486:6 1.42322
10 *486:4 *486:8 4.44108
11 *486:5 *486:7 1.27688
12 *486:4 *486:5 0.530748
13 *1426:Z *486:5 0.75
14 *1426:Z *1574:D[14] 0.0001
*END

*D_NET *487 0.00851002

*CONN
*I *1271:I I *C 150.1 44.4 *L 0.00103 *D DEL01
*I *1427:Z O *C 147.1 91.6 *L 0 *D DEL1
*I *1751:B1 I *C 144.9 92.8 *L 0.000689 *D MOAI22D0

*CAP
1 *1271:I 0.000121489
2 *1751:B1 0.000629423
3 *1427:Z 7.06248e-05
4 *487:3 0.00131367
5 *487:4 0.00165182
6 *487:5 0.000857001
7 *487:6 0.000228863
8 *487:7 0.000425866
9 *487:8 0.00021626
10 *487:9 0.000317156
11 *487:10 0.000253161
12 *487:11 0.000278416
13 *487:12 0.000290162
14 *487:4 *308:3 0.000675595
15 *487:3 *316:6 0.000619143008
16 *487:4 *1585:ZN 0.000561362969

*RES
1 *487:6 *487:10 2.79672
2 *487:11 *487:12 2.98133
3 *487:7 *487:8 3.22742
4 *487:4 *487:8 2.085
5 *1751:B1 *487:6 4.18301
6 *487:10 *487:11 2.82995
7 *487:5 *487:3 5.14545
8 *487:3 *487:9 11.0797
9 *487:4 *487:12 11.2231998
10 *1427:Z *487:6 2.56142
11 *1271:I *487:5 3.22914
12 *487:7 *487:9 1.76048
*END

*D_NET *488 0.00149384

*CONN
*I *1269:I I *C 145.3 262 *L 0.00103 *D DEL01
*I *1428:Z O *C 150.5 261.6 *L 0 *D DEL1
*I *1696:A1 I *C 144.9 258.6 *L 0.00073 *D AO22D0

*CAP
1 *1696:A1 0.000618365
2 *1428:Z 7.47946e-05
3 *488:3 0.000703453984
4 *488:4 9.72288e-05

*RES
1 *488:3 *488:4 4.79596996
2 *1428:Z *488:4 1.49998
3 *1696:A1 *488:3 4.58762
4 *1269:I *488:3 0.750029
*END

*D_NET *489 0.00343145

*CONN
*I *1273:I I *C 137.7 53.2 *L 0.00103 *D DEL01
*I *1429:Z O *C 144.3 60 *L 0 *D DEL1
*I *1726:B1 I *C 144.1 62.4 *L 0.000689 *D MOAI22D0

*CAP
1 *1273:I 0.000406023
2 *1726:B1 0.000244963
3 *489:3 0.00169396
4 *489:4 0.000388136
5 *489:5 0.000698366

*RES
1 *489:3 *489:4 8.64334965
2 *1273:I *489:5 7.45584
3 *1726:B1 *489:3 2.30354
4 *489:4 *489:5 1.86765
5 *1429:Z *489:3 0.750042
*END

*D_NET *490 0.00463062

*CONN
*I *1274:I I *C 143.7 67.6 *L 0.00103 *D DEL01
*I *1430:Z O *C 140.7 88.8 *L 0 *D DEL1
*I *1750:B1 I *C 140.9 89.2 *L 0.00101 *D MOAI22D1

*CAP
1 *1274:I 9.25052e-06
2 *1430:Z 2.26082e-06
3 *490:3 0.00123468992
4 *490:4 3.95643e-07
5 *490:5 0.000680563
6 *490:6 0.000791701
7 *490:8 0.000927219
8 *490:9 0.00098453

*RES
1 *490:6 *490:9 3.51618
2 *1274:I *490:8 2.44969
3 *490:5 *490:6 5.12827
4 *490:3 *490:8 4.02142
5 *490:3 *490:4 6.45191002
6 *490:7 *490:9 3.74596
7 *490:4 *490:5 0.357269
8 *1430:Z *1750:B1 0.190891
9 *1430:Z *490:7 0.749979
*END

*D_NET *491 0.00335905

*CONN
*I *1431:Z O *C 141.9 84.4 *L 0 *D DEL1
*I *1574:D[16] I *C 134.265 76.475 *L 0.00183 *D sram00
*I *1749:B1 I *C 140.3 85.6 *L 0.000689 *D MOAI22D0

*CAP
1 *491:3 0.000114516
2 *491:4 1.23455e-05
3 *491:5 0.000222659
4 *491:7 0.000230969
5 *491:8 0.000247124
6 *491:9 2.6275e-06
7 *491:10 0.000232679
8 *491:11 0.000225136
9 *491:12 0.00056177
10 *491:13 0.000103491
11 *491:14 0.000823892031
12 *491:16 0.000174874
13 *491:17 0.000406961

*RES
1 *491:8 *491:9 0.199791
2 *491:3 *491:4 0.199791
3 *491:13 *491:17 2.23955
4 *491:10 *491:14 5.03209019
5 *491:6 *491:7 0.199791
6 *491:7 *491:12 1.09002
7 *491:11 *491:12 2.66477
8 *491:9 *491:10 0.445115
9 *491:5 *491:11 1.40959
10 *491:14 *491:15 0.112104
11 *491:6 *491:8 1.21909
12 *1749:B1 *491:3 1.04894
13 *491:15 *491:16 1.1116
14 *491:4 *491:5 0.708713
15 *1431:Z *491:13 0.750022
16 *491:5 *491:17 0.750022
17 *1431:Z *1574:D[16] 7.67836e-05
*END

*D_NET *492 0.00131158

*CONN
*I *1281:I I *C 144.3 272.8 *L 0.00103 *D DEL01
*I *1432:Z O *C 143.9 272.4 *L 0 *D DEL1
*I *1697:A1 I *C 142.7 265.8 *L 0.00073 *D AO22D0

*CAP
1 *1697:A1 0.000163673
2 *1432:Z 2.18434e-05
3 *492:3 0.000138374
4 *492:4 7.54942e-05
5 *492:5 0.000909468984
6 *492:6 2.72001e-06

*RES
1 *492:3 *492:4 0.666585
2 *1432:Z *492:3 0.938617
3 *492:5 *492:6 0.19974
4 *492:4 *492:5 4.81965017
5 *1697:A1 *492:6 2.10911
6 *1432:Z *1281:I 0.333072
*END

*D_NET *493 0.000710198

*CONN
*I *1285:I I *C 145.5 172 *L 0.00103 *D DEL01
*I *1433:Z O *C 143.5 171.6 *L 0 *D DEL1
*I *1736:B1 I *C 143.7 172 *L 0.000689 *D MOAI22D0

*CAP
1 *1285:I 8.07675e-05
2 *1736:B1 5.35738e-05
3 *1433:Z 2.64152e-06
4 *493:3 0.000573217969

*RES
1 *1285:I *493:3 1.50002
2 *1736:B1 *493:3 2.90063
3 *1433:Z *1736:B1 0.231923
*END

*D_NET *494 0.00303689

*CONN
*I *1176:Z O *C 151.9 257.2 *L 0 *D DEL01
*I *1280:I I *C 150.1 260.4 *L 0.00103 *D DEL01
*I *1692:A1 I *C 145.1 253 *L 0.00073 *D AO22D0

*CAP
1 *1176:Z 4.14391e-06
2 *494:3 0.000586698
3 *494:5 0.000456522
4 *494:6 0.000692861
5 *494:7 0.00074403
6 *494:8 0.000552627

*RES
1 *494:6 *494:7 4.3212
2 *494:5 *494:8 4.37293
3 *1280:I *494:3 4.5689702
4 *1176:Z *494:5 1.15626
5 *494:4 *494:7 4.14425
6 *494:3 *494:5 2.18549
7 *1692:A1 *494:6 1.50003
8 *494:4 *494:8 0.750015
*END

*D_NET *495 0.00168829

*CONN
*I *1282:I I *C 146.9 247.6 *L 0.00103 *D DEL01
*I *1435:Z O *C 148.7 250.8 *L 0 *D DEL1
*I *1691:A1 I *C 145.1 247.8 *L 0.00073 *D AO22D0

*CAP
1 *495:3 0.000241186
2 *495:4 0.00053556
3 *495:5 0.00091154

*RES
1 *495:3 *495:4 3.25236
2 *1435:Z *495:5 3.58417
3 *495:3 *495:5 3.83860993
4 *1691:A1 *495:4 1.49998
5 *1282:I *495:3 0.750021
*END

*D_NET *496 0.0017643

*CONN
*I *1286:I I *C 146.7 92.8 *L 0.00103 *D DEL01
*I *1436:Z O *C 141.3 95.2 *L 0 *D DEL1
*I *1753:B1 I *C 142.9 94.8 *L 0.00101 *D MOAI22D1

*CAP
1 *1286:I 1.49944e-05
2 *1753:B1 0.000106662
3 *1436:Z 4.71615e-05
4 *496:3 0.000674539
5 *496:4 0.000920957031

*RES
1 *496:3 *496:4 2.35295
2 *1436:Z *496:4 3.28377
3 *1286:I *496:3 4.84336996
4 *1753:B1 *496:4 1.50003
*END

*D_NET *497 0.0013356

*CONN
*I *1290:I I *C 143.5 199.2 *L 0.00103 *D DEL01
*I *1437:Z O *C 148.7 199.6 *L 0 *D DEL1
*I *1717:B1 I *C 143.7 197.2 *L 0.000689 *D MOAI22D0

*CAP
1 *1290:I 0.000161993
2 *1717:B1 0.000289068
3 *497:3 0.00013158
4 *497:4 0.000752975

*RES
1 *1290:I *497:4 1.89947
2 *497:3 *497:4 4.34648991
3 *1437:Z *497:3 1.6556
4 *1717:B1 *497:4 2.71238
*END

*D_NET *498 0.00109967

*CONN
*I *1288:I I *C 140.3 251.2 *L 0.00105 *D DEL02
*I *1438:Z O *C 141.7 253.6 *L 0 *D DEL1
*I *1693:A1 I *C 143.5 253 *L 0.00073 *D AO22D0

*CAP
1 *1288:I 0.00037452
2 *498:3 0.000400943984
3 *498:4 0.000324206

*RES
1 *498:3 *498:4 2.98979
2 *1693:A1 *498:3 1.69966
3 *1288:I *498:4 5.44289017
4 *1438:Z *498:4 0.749959
*END

*D_NET *499 0.00142693

*CONN
*I *1287:I I *C 144.3 204.4 *L 0.00103 *D DEL01
*I *1439:Z O *C 148.5 200.4 *L 0 *D DEL1
*I *1718:B1 I *C 143.7 202.8 *L 0.000689 *D MOAI22D0

*CAP
1 *1287:I 8.4671e-05
2 *1439:Z 0.000150146
3 *499:3 0.0008348
4 *499:4 0.000281184
5 *499:5 7.61364e-05

*RES
1 *1287:I *499:4 2.7642
2 *499:3 *499:5 4.53919983
3 *499:3 *499:4 0.778236
4 *1439:Z *499:5 1.69971
5 *1718:B1 *499:4 0.749976
*END

*D_NET *500 0.00159227

*CONN
*I *1289:I I *C 145.3 181.2 *L 0.00103 *D DEL01
*I *1440:Z O *C 144.9 181.6 *L 0 *D DEL1
*I *1737:B1 I *C 143.1 177.6 *L 0.000689 *D MOAI22D0

*CAP
1 *1289:I 0.000118392
2 *1440:Z 9.37839e-06
3 *500:4 0.000568568
4 *500:5 0.000895937031

*RES
1 *1440:Z *1289:I 0.33164
2 *500:4 *500:5 2.64826
3 *500:3 *500:5 4.97696018
4 *1289:I *500:3 0.750007
5 *1737:B1 *500:4 0.750007
*END

*D_NET *501 0.0018096

*CONN
*I *1293:I I *C 142.9 92.8 *L 0.00103 *D DEL01
*I *1441:Z O *C 140.9 98.8 *L 0 *D DEL1
*I *1754:B1 I *C 141.1 98.4 *L 0.00101 *D MOAI22D1

*CAP
1 *1293:I 0.000365476
2 *1754:B1 8.64983e-05
3 *501:3 0.000209421
4 *501:4 0.0011482

*RES
1 *1754:B1 *501:3 1.35666
2 *501:3 *501:4 5.03396988
3 *1293:I *501:4 4.0964
4 *1441:Z *501:3 0.749995
*END

*D_NET *502 0.0017408

*CONN
*I *1279:I I *C 138.1 112.8 *L 0.00103 *D DEL01
*I *1442:Z O *C 145.3 110.4 *L 0 *D DEL1
*I *1706:A1 I *C 140.3 112.6 *L 0.00073 *D AO22D0

*CAP
1 *1706:A1 4.78477e-05
2 *1442:Z 0.000170757
3 *502:3 0.000657378984
4 *502:4 0.000458385
5 *502:5 0.000406424

*RES
1 *502:4 *502:5 2.46209
2 *1442:Z *502:3 1.21725
3 *1706:A1 *502:5 2.24997
4 *502:3 *502:5 5.51229
5 *1279:I *502:4 0.750017
*END

*D_NET *503 0.00135756

*CONN
*I *1292:I I *C 141.9 112.8 *L 0.00103 *D DEL01
*I *1443:Z O *C 141.3 106.8 *L 0 *D DEL1
*I *1756:B1 I *C 141.5 107.2 *L 0.000689 *D MOAI22D0

*CAP
1 *1292:I 9.03594e-05
2 *1756:B1 0.000117791
3 *503:3 0.000493549
4 *503:4 0.000655853984

*RES
1 *1756:B1 *503:3 1.44528
2 *1292:I *503:4 4.41430998
3 *503:3 *503:4 2.88477
4 *1443:Z *503:3 0.75002
*END

*D_NET *504 0.00173064

*CONN
*I *1296:I I *C 143.9 105.6 *L 0.00103 *D DEL01
*I *1444:Z O *C 140.9 102.4 *L 0 *D DEL1
*I *1755:B1 I *C 141.1 102 *L 0.00101 *D MOAI22D1

*CAP
1 *1296:I 0.000376927
2 *1755:B1 0.000135444
3 *504:3 0.000517748
4 *504:4 0.000700525

*RES
1 *1755:B1 *504:4 1.37169
2 *504:3 *504:4 6.19752979
3 *1296:I *504:3 3.83743
4 *1444:Z *504:4 0.750009
*END

*D_NET *505 0.00171848

*CONN
*I *1291:I I *C 146.1 269.2 *L 0.00103 *D DEL01
*I *1445:Z O *C 145.7 268.8 *L 0 *D DEL1
*I *1695:A1 I *C 142.3 263.8 *L 0.00073 *D AO22D0

*CAP
1 *1291:I 6.09034e-06
2 *1445:Z 2.82804e-05
3 *505:3 9.81657e-05
4 *505:4 0.000278217
5 *505:5 0.00069414
6 *505:6 4.32997e-05
7 *505:7 9.2785e-05
8 *505:8 0.000477483

*RES
1 *505:3 *505:5 4.18001986
2 *505:4 *505:7 1.90944
3 *1445:Z *1291:I 0.330008
4 *505:6 *505:7 0.334601
5 *505:5 *505:8 3.97362
6 *1695:A1 *505:4 1.50003
7 *1445:Z *505:3 0.750013
8 *505:7 *505:8 0.750013
*END

*D_NET *506 0.00323461

*CONN
*I *1283:I I *C 150.1 110.8 *L 0.00103 *D DEL01
*I *1446:Z O *C 145.3 117.6 *L 0 *D DEL1
*I *1708:A1 I *C 140.7 118.2 *L 0.00073 *D AO22D0

*CAP
1 *1283:I 0.000121919
2 *506:3 0.000617045
3 *506:4 0.000557789
4 *506:5 8.45148e-05
5 *506:6 0.000992416953
6 *506:7 0.000860928

*RES
1 *506:5 *506:7 4.25557
2 *506:6 *506:7 5.079
3 *506:3 *506:5 3.26846
4 *506:3 *506:4 2.83687
5 *1446:Z *506:7 1.5
6 *1283:I *506:4 1.2441
7 *1708:A1 *506:6 1.5
*END

*D_NET *507 0.00142755

*CONN
*I *1299:I I *C 143.3 208 *L 0.00103 *D DEL01
*I *1447:Z O *C 141.3 206.8 *L 0 *D DEL1
*I *1720:B1 I *C 141.1 202.8 *L 0.000689 *D MOAI22D0

*CAP
1 *1299:I 0.000260491
2 *1720:B1 0.000490821992
3 *507:3 0.000317329
4 *507:4 0.00035891

*RES
1 *1299:I *507:4 3.66308
2 *1720:B1 *507:3 4.01230001
3 *507:3 *507:4 2.27149
4 *1447:Z *507:3 0.74998
*END

*D_NET *508 0.000801507

*CONN
*I *1294:I I *C 142.1 258.4 *L 0.00103 *D DEL01
*I *1448:Z O *C 141.9 260.8 *L 0 *D DEL1
*I *1694:A1 I *C 143.3 260.2 *L 0.00073 *D AO22D0

*CAP
1 *1294:I 0.00037685
2 *508:3 0.000419515
3 *508:4 5.14031e-06

*RES
1 *508:3 *508:4 2.69797993
2 *1294:I *508:4 2.11109
3 *1694:A1 *508:3 1.69966
4 *1448:Z *508:4 0.749997
*END

*D_NET *509 0.00709545

*CONN
*I *1276:I I *C 150.1 130.8 *L 0.00103 *D DEL01
*I *1449:Z O *C 141.9 110.4 *L 0 *D DEL1
*I *1707:A1 I *C 140.7 116.2 *L 0.00073 *D AO22D0

*CAP
1 *1449:Z 0.000427976
2 *509:3 0.000728113
3 *509:4 0.00061232
4 *509:5 0.000411159
5 *509:7 0.000404184
6 *509:8 0.00140216
7 *509:9 0.000599205
8 *509:10 0.00122913
9 *509:3 *846:9 0.000950971016
10 *509:3 *73:7 0.0003302

*RES
1 *509:8 *509:10 11.0172997
2 *509:3 *509:9 2.15081
3 *509:4 *509:7 2.37372
4 *1276:I *509:4 3.31951
5 *509:6 *509:9 3.75677
6 *509:3 *509:5 2.67262
7 *1449:Z *509:9 4.06088
8 *509:7 *509:8 7.33736
9 *509:5 *509:10 3.87764
10 *1707:A1 *509:6 1.50005
*END

*D_NET *510 0.00162228

*CONN
*I *1295:I I *C 149.5 238.8 *L 0.00103 *D DEL01
*I *1450:Z O *C 149.3 242.8 *L 0 *D DEL1
*I *1730:A1 I *C 144.9 244.2 *L 0.00073 *D AO22D0

*CAP
1 *1295:I 0.000592669
2 *1450:Z 0.000106286
3 *510:3 6.21186e-05
4 *510:5 0.00086121

*RES
1 *510:3 *510:5 4.01788998
2 *510:4 *510:5 2.14738
3 *1295:I *1450:Z 4.00085
4 *1450:Z *510:3 0.905644
5 *1730:A1 *510:4 1.50003
*END

*D_NET *511 0.00207417

*CONN
*I *1298:I I *C 146.9 220.8 *L 0.00103 *D DEL01
*I *1451:Z O *C 148.9 218.4 *L 0 *D DEL1
*I *1721:A1 I *C 146.9 215.4 *L 0.00073 *D AO22D0

*CAP
1 *1298:I 0.000105242
2 *511:3 0.000354901
3 *511:4 8.52697e-05
4 *511:5 0.000510124
5 *511:6 0.000425044
6 *511:7 0.000593599961

*RES
1 *511:5 *511:7 3.17908
2 *1298:I *511:3 2.75615
3 *511:4 *511:6 2.77299
4 *511:3 *511:7 3.18077993
5 *1721:A1 *511:5 1.50002
6 *1451:Z *511:4 0.750009
7 *511:3 *511:6 0.750009
*END

*D_NET *512 0.00115235

*CONN
*I *1297:I I *C 149.1 226 *L 0.00103 *D DEL01
*I *1452:Z O *C 148.7 225.6 *L 0 *D DEL1
*I *1722:A1 I *C 146.5 222.6 *L 0.00073 *D AO22D0

*CAP
1 *1452:Z 1.88995e-05
2 *512:3 0.000271191
3 *512:4 0.000477846016
4 *512:5 0.000384413

*RES
1 *512:3 *512:5 2.46174
2 *1452:Z *512:3 1.37257
3 *512:4 *512:5 2.79678011
4 *1452:Z *1297:I 0.325144
5 *1722:A1 *512:4 1.5
*END

*D_NET *513 0.00133445

*CONN
*I *1300:I I *C 142.7 136 *L 0.00103 *D DEL01
*I *1453:Z O *C 141.7 132 *L 0 *D DEL1
*I *1711:A1 I *C 141.1 136.2 *L 0.00073 *D AO22D0

*CAP
1 *1300:I 0.000104908
2 *1711:A1 6.73462e-06
3 *1453:Z 0.00071186
4 *513:3 0.000510962

*RES
1 *1453:Z *513:3 4.85236979
2 *1711:A1 *513:3 1.61158
3 *1300:I *513:3 4.03725
*END

*D_NET *514 0.00131878

*CONN
*I *1303:I I *C 142.7 224.4 *L 0.00103 *D DEL01
*I *1454:Z O *C 142.5 228.4 *L 0 *D DEL1
*I *1723:A1 I *C 144.7 226.2 *L 0.00073 *D AO22D0

*CAP
1 *1303:I 0.000332728
2 *1454:Z 9.97434e-05
3 *514:3 0.000271725
4 *514:4 0.000614580977

*RES
1 *514:3 *514:4 3.70567989
2 *1303:I *514:3 2.17243
3 *1454:Z *514:3 2.89088
4 *1723:A1 *514:4 1.5
*END

*D_NET *515 0.000800044

*CONN
*I *1311:I I *C 143.5 190 *L 0.00103 *D DEL01
*I *1455:Z O *C 142.1 188.8 *L 0 *D DEL1
*I *1716:B1 I *C 142.3 188.4 *L 0.000689 *D MOAI22D0

*CAP
1 *1716:B1 0.000264811
2 *1455:Z 2.61698e-06
3 *515:3 0.00053262

*RES
1 *1716:B1 *515:3 1.63328
2 *1311:I *515:3 3.87582994
3 *1455:Z *1716:B1 0.234315
*END

*D_NET *516 0.000821375

*CONN
*I *1307:I I *C 142.9 138 *L 0.00103 *D DEL01
*I *1456:Z O *C 140.9 138.4 *L 0 *D DEL1
*I *1712:A1 I *C 141.3 137.8 *L 0.00073 *D AO22D0

*CAP
1 *1307:I 4.08947e-05
2 *1712:A1 6.79785e-05
3 *1456:Z 9.78604e-05
4 *516:3 0.000510774023
5 *516:4 0.000103869

*RES
1 *1456:Z *516:3 1.41224
2 *516:3 *516:4 2.34762001
3 *1307:I *516:4 1.5
4 *1712:A1 *516:3 1.69985
*END

*D_NET *517 0.00110005

*CONN
*I *1302:I I *C 143.9 238.8 *L 0.00103 *D DEL01
*I *1457:Z O *C 143.5 239.2 *L 0 *D DEL1
*I *1728:A1 I *C 142.9 242.2 *L 0.00073 *D AO22D0

*CAP
1 *1302:I 5.25243e-06
2 *1457:Z 1.70597e-05
3 *517:3 3.2545e-05
4 *517:4 0.000107281
5 *517:6 0.000937924063

*RES
1 *517:3 *517:4 0.429319
2 *517:5 *517:6 4.72871017
3 *517:4 *517:6 1.14935
4 *1457:Z *1302:I 0.333931
5 *1728:A1 *517:5 1.50002
6 *1457:Z *517:4 0.749973
*END

*D_NET *518 0.000998601

*CONN
*I *1308:I I *C 142.9 141.6 *L 0.00103 *D DEL01
*I *1458:Z O *C 140.9 142 *L 0 *D DEL1
*I *1713:A1 I *C 141.3 141.4 *L 0.00073 *D AO22D0

*CAP
1 *1308:I 0.000137402
2 *1713:A1 9.70157e-06
3 *1458:Z 0.000183647
4 *518:3 0.000667848984

*RES
1 *1713:A1 *518:3 2.44984
2 *1458:Z *518:3 2.35356
3 *1308:I *518:3 3.10967994
*END

*D_NET *519 0.000941867

*CONN
*I *1305:I I *C 142.5 247.6 *L 0.00103 *D DEL01
*I *1459:Z O *C 142.1 247.2 *L 0 *D DEL1
*I *1731:A1 I *C 142.9 244.2 *L 0.00073 *D AO22D0

*CAP
1 *1305:I 0.000119492
2 *1731:A1 0.00079858
3 *1459:Z 2.37984e-05

*RES
1 *1459:Z *1305:I 0.336378
2 *1305:I *1731:A1 5.87080002
*END

*D_NET *520 0.000520592

*CONN
*I *1310:I I *C 141.5 192 *L 0.00103 *D DEL01
*I *1460:Z O *C 142.3 193.2 *L 0 *D DEL1
*I *1715:B1 I *C 142.9 193.6 *L 0.000689 *D MOAI22D0

*CAP
1 *1310:I 0.000470638984
2 *1460:Z 4.99544e-05

*RES
1 *1310:I *1460:Z 3.14189005
2 *1460:Z *1715:B1 0.594857
*END

*D_NET *521 0.00141845

*CONN
*I *1304:I I *C 146.3 233.2 *L 0.00103 *D DEL01
*I *1461:Z O *C 141.5 232.8 *L 0 *D DEL1
*I *1727:A1 I *C 142.9 235 *L 0.00073 *D AO22D0

*CAP
1 *1304:I 0.000218419
2 *521:3 0.00120004

*RES
1 *1727:A1 *521:3 3.84146
2 *1304:I *521:3 4.59111977
3 *1461:Z *521:3 2.74489
*END

*D_NET *522 0.00151921

*CONN
*I *1306:I I *C 146.1 229.6 *L 0.00103 *D DEL01
*I *1462:Z O *C 141.3 229.2 *L 0 *D DEL1
*I *1724:A1 I *C 143.1 231.4 *L 0.00073 *D AO22D0

*CAP
1 *1306:I 0.000286901
2 *1462:Z 0.000531395
3 *522:3 0.000700915

*RES
1 *1462:Z *522:3 3.43103
2 *1724:A1 *522:3 3.04883
3 *1306:I *522:3 5.08481979
*END

*D_NET *523 0.00224063

*CONN
*I *1301:I I *C 138.1 130.8 *L 0.00103 *D DEL01
*I *1463:Z O *C 142.7 124.8 *L 0 *D DEL1
*I *1710:A1 I *C 141.3 129 *L 0.00073 *D AO22D0

*CAP
1 *1301:I 0.000857258
2 *1463:Z 0.000115276
3 *523:3 0.000964586016
4 *523:4 0.000178934
5 *523:5 0.000124579

*RES
1 *523:4 *523:5 1.5493
2 *1301:I *523:5 5.14132
3 *1463:Z *523:3 2.07105
4 *523:3 *523:4 5.49552011
5 *1710:A1 *523:4 1.5
*END

*D_NET *524 0.00260885

*CONN
*I *1312:I I *C 138.5 116.4 *L 0.00103 *D DEL01
*I *1464:Z O *C 140.9 124 *L 0 *D DEL1
*I *1709:A1 I *C 141.3 123.4 *L 0.00073 *D AO22D0

*CAP
1 *1709:A1 0.000162473
2 *1464:Z 8.67796e-06
3 *524:3 0.00019923
4 *524:4 0.000197571
5 *524:5 0.000461204
6 *524:6 9.09141e-05
7 *524:7 0.00148877

*RES
1 *524:5 *524:6 1.86775
2 *524:4 *524:7 1.50005
3 *1464:Z *524:3 1.04979
4 *524:5 *524:7 8.78211975
5 *1709:A1 *524:3 2.42173
6 *1312:I *524:4 0.750023
7 *524:3 *524:6 0.750023
*END

*D_NET *525 0.00321234

*CONN
*I *1465:Z O *C 148.7 63.6 *L 0 *D DEL1
*I *1593:D I *C 149.5 46 *L 0.000971 *D DFCNQD1

*CAP
1 *1593:D 0.000242427
2 *525:2 0.000608142
3 *525:3 0.000402777
4 *525:4 0.00047284
5 *525:5 0.000293213
6 *525:6 0.00119293

*RES
1 *525:2 *525:3 3.06825
2 *1465:Z *525:5 1.93772
3 *525:5 *525:6 6.03195
4 *525:4 *525:6 2.66392
5 *525:3 *525:4 2.02544
6 *1593:D *525:2 1.87044
*END

*D_NET *526 0.000626701

*CONN
*I *1466:Z O *C 146.5 96 *L 0 *D DEL1
*I *1586:D I *C 147.9 98.4 *L 0.000971 *D DFCNQD1

*CAP
1 *1586:D 0.000199253
2 *1466:Z 0.000427446992

*RES
1 *1466:Z *1586:D 5.11169
*END

*D_NET *527 0.000688331

*CONN
*I *1313:I I *C 142.7 200.8 *L 0.00103 *D DEL01
*I *1467:Z O *C 140.7 200.4 *L 0 *D DEL1
*I *1714:B1 I *C 140.9 200.8 *L 0.000689 *D MOAI22D0

*CAP
1 *1714:B1 0.000195976
2 *1467:Z 2.67498e-06
3 *527:3 0.000489678008

*RES
1 *1313:I *527:3 2.9005301
2 *1467:Z *1714:B1 0.255283
3 *1714:B1 *527:3 1.50001
*END

*D_NET *528 0.00250573

*CONN
*I *1123:I I *C 142.3 46 *L 0.000643 *D CKBD0
*I *1468:Z O *C 146.5 56.4 *L 0 *D DEL1

*CAP
1 *1468:Z 0.000323782
2 *528:2 0.000597076
3 *528:3 0.00104409
4 *528:4 0.000540789

*RES
1 *528:2 *528:3 2.93522
2 *528:3 *528:4 7.2699399
3 *1468:Z *528:4 5.77304
4 *1123:I *528:2 1.5
*END

*D_NET *529 0.00537328

*CONN
*I *1048:I I *C 137.7 33.6 *L 0.000968 *D CKBD1
*I *1469:Z O *C 149.1 16 *L 0 *D DEL1
*I *1685:D I *C 138.7 35 *L 0.000758 *D EDFCNQD1

*CAP
1 *1048:I 0.000300115
2 *1685:D 3.70494e-06
3 *1469:Z 0.000284328
4 *529:3 0.000359028
5 *529:4 0.000688284
6 *529:5 0.000128135
7 *529:6 4.83253e-07
8 *529:7 0.000522103
9 *529:8 0.000816477
10 *529:9 0.000226543
11 *529:10 0.000959696016
12 *529:3 *1600:CP 0.000391739023
13 *1469:Z *450:4 0.00023569
14 *529:4 *84:6 0.000456955

*RES
1 *529:3 *529:9 1.83884
2 *529:7 *529:8 2.38205
3 *529:6 *529:7 3.06949
4 *529:4 *529:6 4.67991
5 *529:5 *529:10 6.72829008
6 *529:3 *529:8 3.15183
7 *1469:Z *529:5 2.9696
8 *1685:D *529:9 2.44159
9 *529:4 *529:10 2.59549
10 *1048:I *529:9 4.00385
*END

*D_NET *530 0.00334806

*CONN
*I *1050:I I *C 145.9 10 *L 0.000968 *D CKBD1
*I *1470:Z O *C 149.3 20.4 *L 0 *D DEL1
*I *1682:D I *C 144.1 6.2 *L 0.000758 *D EDFCNQD1

*CAP
1 *1682:D 0.000288622
2 *1470:Z 0.000257745
3 *530:3 0.000474971
4 *530:4 2.90879e-06
5 *530:5 0.00122197
6 *530:6 0.000642711
7 *530:7 0.000459159

*RES
1 *530:5 *530:7 2.77324
2 *530:6 *530:7 4.08507
3 *530:4 *530:5 6.83131981
4 *530:3 *530:4 0.199824
5 *1470:Z *530:3 4.68215
6 *1050:I *530:7 2.84923
7 *1682:D *530:6 2.13614
*END

*D_NET *531 0.00154657

*CONN
*I *1052:I I *C 150.7 22.8 *L 0.00072 *D BUFFD1
*I *1471:Z O *C 144.1 24 *L 0 *D DEL1
*I *1683:D I *C 144.7 24.2 *L 0.000758 *D EDFCNQD1

*CAP
1 *1052:I 0.000387669
2 *1683:D 8.43367e-05
3 *1471:Z 3.95999e-05
4 *531:3 0.000144362
5 *531:4 0.000890591016

*RES
1 *1683:D *531:4 1.49996
2 *531:3 *531:4 5.27622986
3 *1471:Z *531:4 2.06578
4 *1052:I *531:3 3.15369
*END

*D_NET *532 0.00278924

*CONN
*I *1051:I I *C 137.7 12 *L 0.000968 *D CKBD1
*I *1472:Z O *C 140.7 20.4 *L 0 *D DEL1
*I *1681:D I *C 145.3 9.8 *L 0.000758 *D EDFCNQD1

*CAP
1 *1051:I 0.0005591
2 *1681:D 0.000246651
3 *1472:Z 0.000593084
4 *532:3 9.7058e-05
5 *532:5 0.00129335

*RES
1 *532:4 *532:5 5.07328987
2 *532:3 *532:5 4.48519
3 *1051:I *532:5 4.47783
4 *1472:Z *532:4 3.88563
5 *1681:D *532:3 1.75734
*END

*D_NET *533 0.00239604

*CONN
*I *1054:I I *C 137.5 19.2 *L 0.000643 *D CKBD0
*I *1473:Z O *C 140.7 24 *L 0 *D DEL1
*I *1684:D I *C 139.9 26.6 *L 0.000758 *D EDFCNQD1

*CAP
1 *1054:I 0.00023838
2 *1684:D 0.000109241
3 *533:3 0.000394951
4 *533:4 0.00103083
5 *533:5 0.000622635

*RES
1 *1473:Z *533:5 1.9669
2 *1054:I *533:4 2.9147
3 *533:3 *533:5 2.92884
4 *533:3 *533:4 5.82531977
5 *1684:D *533:5 3.65745
*END

*D_NET *534 0.0048341

*CONN
*I *1053:I I *C 140.9 48 *L 0.00072 *D BUFFD1
*I *1474:Z O *C 142.9 27.6 *L 0 *D DEL1
*I *1687:D I *C 139.7 37.4 *L 0.000758 *D EDFCNQD1

*CAP
1 *1053:I 7.53639e-05
2 *1474:Z 0.000915109
3 *534:3 0.000258057
4 *534:4 0.00103623
5 *534:5 0.00156099
6 *534:6 0.000516638
7 *534:7 0.000471691

*RES
1 *534:5 *534:6 2.87131
2 *534:4 *534:6 3.66291
3 *534:3 *534:4 4.33539
4 *1053:I *534:7 3.03057
5 *1474:Z *534:3 5.00387
6 *534:5 *534:7 9.36096954
7 *1687:D *534:6 1.49993
*END

*D_NET *535 0.00219024

*CONN
*I *1475:Z O *C 145.9 55.6 *L 0 *D DEL1
*I *1689:D I *C 144.9 51.8 *L 0.000758 *D EDFCNQD1
*I *1599:D I *C 149.7 49.6 *L 0.000971 *D DFCNQD1

*CAP
1 *1599:D 0.000718886
2 *1689:D 0.000440943
3 *535:3 0.000308744
4 *535:4 0.000721672031

*RES
1 *535:3 *535:4 3.7072
2 *1599:D *535:3 4.22193003
3 *1689:D *535:4 3.16052
4 *1475:Z *535:4 2.90148
*END

*D_NET *536 0.0310914

*CONN
*I *1077:I I *C 141.9 166.8 *L 0.00103 *D DEL015
*I *1476:Z O *C 146.9 12.4 *L 0 *D BUFFD2
*I *1766:I0 I *C 148.3 136 *L 0.000706 *D MUX2ND0
*I *1777:I I *C 148.1 134.6 *L 0.00062 *D CKND0
*I *1757:B2 I *C 146.9 132.2 *L 0.000881 *D AOI221D0
*I *1611:A2 I *C 146.5 121.6 *L 0.000606 *D CKND2D0

*CAP
1 *1077:I 9.12945e-05
2 *536:6 6.15176e-05
3 *536:7 0.000340731
4 *536:8 0.000107766
5 *536:9 0.00155016
6 *536:10 0.000786463
7 *536:11 0.000835076
8 *536:12 0.000483083
9 *536:13 0.000189883
10 *536:14 7.10558e-05
11 *536:15 0.000367262
12 *536:16 0.000384936
13 *536:17 0.000474787
14 *536:18 0.000789589
15 *536:19 0.000468255
16 *536:21 0.00262642
17 *536:22 0.000495507
18 *536:23 0.000352313
19 *536:24 4.51663e-05
20 *536:25 0.000590609
21 *536:26 4.60079e-05
22 *536:27 0.00211336
23 *536:28 9.50617e-05
24 *536:29 0.000752438
25 *536:30 9.75464e-05
26 *536:31 6.42428e-05
27 *536:32 0.000269154
28 *536:33 0.000757287
29 *536:34 1.30249e-05
30 *536:35 0.000388623
31 *536:37 0.000543078
32 *536:38 0.00118474
33 *536:39 0.000174814
34 *536:40 8.24776e-05
35 *536:41 0.000683987
36 *536:9 *913:3 0.000426223008
37 *536:28 *940:13 0.0022
38 *536:21 *279:3 0.000860438984
39 *536:12 *937:6 0.000214155
40 *536:6 *299:6 0.000496578008
41 *536:6 *450:5 0.000480791992
42 *536:7 *992:Z 0.000840587969
43 *536:8 *800:7 0.000557545
44 *536:8 *613:28 0.00386523
45 *536:9 *739:9 0.00103811
46 *536:7 *12:2 0.00113363
47 *536:10 *16:9 0.000600467031

*RES
1 *536:9 *536:13 5.78224
2 *536:8 *536:26 0.199931
3 *536:14 *536:17 2.23219
4 *536:16 *536:20 1.85373
5 *536:15 *536:19 2.72892
6 *536:18 *536:39 3.90091
7 *1611:A2 *536:23 1.76531
8 *536:14 *536:16 1.97115
9 *536:36 *536:38 13.1946
10 *536:8 *536:27 18.4545002
11 *536:36 *536:37 0.199931
12 *536:9 *536:23 4.18645
13 *536:20 *536:21 6.13085
14 *536:6 *536:11 4.56885
15 *536:7 *536:41 17.9152
16 *536:10 *536:7 11.5898
17 *536:21 *536:40 9.44717
18 *536:35 *536:37 5.86756
19 *536:28 *536:29 9.91096
20 *536:31 *536:33 12.8725
21 *536:23 *536:24 2.26204
22 *536:13 *536:22 1.88583
23 *536:31 *536:32 1.00613
24 *536:12 *536:17 2.21276
25 *536:38 *536:39 1.71772
26 *536:40 *536:41 2.01142
27 *536:27 *536:28 1.19931
28 *536:34 *536:35 3.65902
29 *536:6 *536:18 3.10738
30 *536:12 *536:22 3.08457
31 *536:33 *536:34 1.55411
32 *536:29 *536:30 1.20747
33 *536:11 *536:19 5.55753
34 *536:30 *536:32 3.0184
35 *1077:I *536:10 2.86268
36 *536:24 *536:25 5.55555
37 *536:25 *536:26 2.69203
38 *1757:B2 *536:17 1.50005
39 *1766:I0 *536:16 1.50005
40 *1476:Z *536:15 0.749883
41 *1777:I *536:14 0.749883
*END

*D_NET *537 0.0264319

*CONN
*I *1126:I I *C 147.1 159.6 *L 0.00103 *D DEL01
*I *1477:Z O *C 140.7 16 *L 0 *D DEL1
*I *1776:I I *C 148.1 125 *L 0.00062 *D CKND0
*I *1758:A2 I *C 147.5 163.2 *L 0.000606 *D CKND2D0
*I *1612:A1 I *C 148.7 146.6 *L 0.000617 *D CKND2D0
*I *1746:A1 I *C 147.1 138 *L 0.000682 *D IND3D0
*I *1757:A2 I *C 146.9 132.6 *L 0.000727 *D AOI221D0
*I *1767:B1 I *C 146.9 125.2 *L 0.000894 *D INR3D0
*I *1771:A1 I *C 145.5 120 *L 0.000647 *D NR2D0

*CAP
1 *1767:B1 0.000273359
2 *1757:A2 3.75962e-05
3 *1758:A2 0.000213345
4 *1776:I 5.40727e-05
5 *1477:Z 0.000141697
6 *537:9 0.00327207
7 *537:10 0.000463737
8 *537:11 0.000185984
9 *537:12 0.000497838
10 *537:13 0.000521454
11 *537:14 8.65762e-05
12 *537:15 8.75747e-05
13 *537:16 0.000659756
14 *537:17 0.000269814
15 *537:18 0.000629949
16 *537:19 0.000130064
17 *537:20 0.000627403
18 *537:21 0.000354243
19 *537:22 0.000220684
20 *537:23 0.000341761
21 *537:24 0.000102304
22 *537:26 0.00025179
23 *537:27 0.000186234
24 *537:28 0.000505727
25 *537:29 0.000319793
26 *537:30 0.000578023
27 *537:31 0.001503
28 *537:32 0.000669642
29 *537:33 0.00169927
30 *537:34 0.000637938
31 *1757:A2 *848:5 0.000544901016
32 *1757:A2 *178:3 0.000907156016
33 *537:15 *374:4 0.00200027984
34 *537:9 *1743:B1 0.000336461016
35 *537:9 *839:22 0.000827468984
36 *537:10 *732:6 0.000568377969
37 *537:9 *738:3 0.000418868008
38 *537:11 *45:6 0.00113617
39 *537:9 *472:3 0.00129864
40 *537:9 *476:7 0.00229844
41 *537:12 *736:8 0.000572383984

*RES
1 *537:17 *537:32 4.41405
2 *537:17 *537:20 3.01422
3 *1767:B1 *537:23 3.04582
4 *537:15 *537:18 4.79104
5 *537:12 *537:30 3.12177
6 *537:15 *537:22 0.905873
7 *537:22 *537:33 4.5399
8 *537:16 *537:18 5.47405
9 *537:19 *537:33 3.00757
10 *537:11 *537:29 2.76973
11 *537:13 *537:14 3.07354
12 *1477:Z *537:9 1.50018
13 *537:10 *537:34 8.64848
14 *537:30 *537:31 15.3139
15 *1776:I *537:23 2.56128
16 *537:16 *537:24 1.69976
17 *537:20 *537:10 2.75809
18 *537:25 *537:26 4.47393
19 *537:24 *537:32 7.37283
20 *537:25 *537:11 0.19958
21 *537:9 *537:27 36.3325005
22 *537:14 *537:21 0.960758
23 *1758:A2 *537:13 1.78403
24 *537:12 *537:34 3.35295
25 *537:28 *537:29 4.46506
26 *537:21 *537:33 13.0925
27 *1757:A2 *537:16 1.76518
28 *537:28 *537:31 9.26718
29 *537:26 *537:27 2.35061
30 *1771:A1 *537:20 0.75009
31 *1126:I *537:14 0.75009
32 *1612:A1 *537:19 0.75009
33 *1746:A1 *537:18 0.75009
34 *537:23 *537:32 0.75009
*END

*D_NET *538 0.0207428

*CONN
*I *1049:I I *C 144.1 103.6 *L 0.000643 *D CKBD0
*I *1478:Z O *C 145.1 48.4 *L 0 *D DEL1
*I *1784:B1 I *C 148.3 78.4 *L 0.000658 *D IND2D0
*I *1771:A2 I *C 145.1 120 *L 0.000664 *D NR2D0
*I *1757:C I *C 146.3 132.2 *L 0.000701 *D AOI221D0
*I *1770:A2 I *C 148.1 148.8 *L 0.000664 *D NR2D0
*I *1612:A2 I *C 148.3 146.8 *L 0.000606 *D CKND2D0
*I *1766:S I *C 148.1 136 *L 0.00146 *D MUX2ND0
*I *1768:A3 I *C 147.3 131 *L 0.00185 *D NR3D1
*I *1767:A1 I *C 146.3 125.2 *L 0.000718 *D INR3D0

*CAP
1 *1767:A1 0.000135596
2 *1766:S 0.000266582
3 *1770:A2 0.000231401
4 *1784:B1 0.00015359
5 *1478:Z 0.000288899
6 *538:10 0.0017066
7 *538:11 0.000432203
8 *538:12 0.0013602
9 *538:13 0.000430302
10 *538:14 0.000599204
11 *538:15 0.00046814
12 *538:16 0.000342909
13 *538:17 0.00148582
14 *538:18 0.000176689
15 *538:19 0.000447359
16 *538:20 0.000767273
17 *538:21 0.00027028
18 *538:22 0.000327596
19 *538:23 0.000630949
20 *538:24 0.000616678
21 *538:25 7.4217e-06
22 *538:26 0.000559101
23 *538:27 0.000868104
24 *538:28 0.000269837
25 *538:29 0.000491395
26 *538:30 8.95291e-05
27 *538:31 0.000158043
28 *538:32 0.000601314
29 *538:33 0.0001751
30 *538:34 0.000204552
31 *538:12 *847:8 0.00110689
32 *538:10 *629:45 0.000691227031
33 *1767:A1 *739:5 0.00388755
34 *538:11 *717:2 0.00049445

*RES
1 *538:15 *538:16 1.74702
2 *538:12 *538:20 8.10238
3 *538:17 *538:34 4.77368
4 *1770:A2 *538:18 2.48432
5 *538:12 *538:13 3.17185
6 *538:31 *538:32 2.91706
7 *538:29 *538:32 1.39837
8 *538:16 *538:17 4.89809
9 *1784:B1 *538:32 4.95604
10 *538:27 *538:34 11.895
11 *538:10 *538:31 20.6404991
12 *538:23 *538:34 3.11264
13 *538:29 *538:30 5.39004
14 *1478:Z *538:10 4.4685
15 *538:26 *538:33 1.5801
16 *538:25 *538:26 3.54853
17 *538:14 *538:15 2.26417
18 *538:27 *538:28 4.31732
19 *1767:A1 *538:12 1.86229
20 *538:11 *538:33 3.46601
21 *538:19 *538:11 2.32432
22 *538:18 *538:22 1.63207
23 *538:28 *538:30 1.19933
24 *538:13 *538:21 1.17885
25 *538:22 *538:24 4.65715
26 *1049:I *538:23 2.25
27 *538:24 *538:25 0.199993
28 *538:14 *538:21 3.23232
29 *538:19 *538:20 1.69065
30 *1766:S *538:33 4.083
31 *1771:A2 *538:21 0.749894
32 *1768:A3 *538:20 0.749894
33 *1757:C *538:19 0.749894
34 *1612:A2 *538:18 0.749894
*END

*D_NET *539 0.00450508

*CONN
*I *1164:I I *C 148.1 138 *L 0.000968 *D CKBD1
*I *1574:Q[29] O *C 134.265 130.135 *L 0 *D sram00

*CAP
1 *1164:I 7.3006e-05
2 *539:2 0.000234811
3 *539:3 9.23183e-06
4 *539:4 0.000231251
5 *539:5 0.000287449
6 *539:6 0.00135652
7 *539:7 0.00098348
8 *539:8 5.69641e-05
9 *539:9 0.000453436
10 *539:10 2.61223e-05
11 *539:11 0.000481545
12 *539:12 5.45837e-05
13 *539:13 0.000256711

*RES
1 *539:7 *539:8 0.111516
2 *539:2 *539:3 0.199825
3 *539:6 *539:13 2.1508
4 *539:4 *539:7 5.93763
5 *539:5 *539:6 7.43198
6 *539:5 *539:12 1.95926
7 *539:10 *539:11 2.53444
8 *539:8 *539:9 2.05731
9 *539:9 *539:10 0.111516
10 *1164:I *539:2 1.93799
11 *539:11 *539:12 0.111516
12 *539:3 *539:4 0.778275
13 *1164:I *1574:Q[29] 0.0001
*END

*D_NET *540 0.00255069

*CONN
*I *1163:I I *C 142.9 98.4 *L 0.00072 *D BUFFD1
*I *1574:Q[20] O *C 134.265 93.945 *L 0 *D sram00

*CAP
1 *540:2 8.59853e-05
2 *540:3 0.000325916
3 *540:5 8.47097e-05
4 *540:6 0.000608965
5 *540:7 3.74304e-06
6 *540:8 4.81576e-05
7 *540:9 2.27928e-05
8 *540:10 0.00137039

*RES
1 *540:4 *540:6 3.91107
2 *540:2 *540:3 1.36963
3 *540:8 *540:9 0.333479
4 *540:7 *540:8 0.275803
5 *540:6 *540:7 0.199809
6 *540:5 *540:10 1.2044
7 *540:4 *540:5 0.199809
8 *540:2 *540:10 7.68862
9 *1163:I *540:3 1.5
10 *1163:I *1574:Q[20] 0.0001
*END

*D_NET *541 0.00252724

*CONN
*I *1158:I I *C 144.5 139.6 *L 0.000968 *D CKBD1
*I *1574:Q[30] O *C 134.265 135.945 *L 0 *D sram00

*CAP
1 *541:2 0.000507903
2 *541:3 0.00020471
3 *541:4 5.21995e-05
4 *541:5 0.00176244

*RES
1 *541:2 *541:5 9.53063
2 *541:3 *541:5 1.884
3 *541:3 *541:4 0.491163
4 *1158:I *541:2 3.38556
5 *1158:I *1574:Q[30] 0.0001
*END

*D_NET *542 0.00323601

*CONN
*I *1167:I I *C 147.3 123.6 *L 0.000968 *D CKBD1
*I *1574:Q[26] O *C 134.265 119.145 *L 0 *D sram00

*CAP
1 *1167:I 0.000211402
2 *542:2 0.000106901
3 *542:3 0.000301519
4 *542:4 8.75327e-05
5 *542:5 0.000826689
6 *542:6 6.50134e-05
7 *542:7 0.000864054063
8 *542:8 0.000737561
9 *542:9 3.53348e-05

*RES
1 *542:2 *542:3 2.48414
2 *542:8 *542:9 0.489444
3 *542:7 *542:8 5.13711977
4 *542:6 *542:7 4.15808
5 *542:4 *542:5 4.5921
6 *542:3 *542:4 0.267454
7 *1167:I *542:2 2.26764
8 *542:5 *542:6 0.111544
9 *1167:I *1574:Q[26] 7.83862e-05
*END

*D_NET *543 0.00304261

*CONN
*I *1150:I I *C 146.9 114.4 *L 0.000968 *D CKBD1
*I *1574:Q[24] O *C 134.265 110.745 *L 0 *D sram00

*CAP
1 *1150:I 0.00012968
2 *543:2 9.74955e-05
3 *543:3 0.000812793047
4 *543:4 0.000151173
5 *543:5 0.000567448
6 *543:6 0.00010201
7 *543:7 2.69505e-05
8 *543:8 9.41964e-05
9 *543:9 0.000368811
10 *543:10 6.61173e-05
11 *543:11 0.000116707
12 *543:13 8.611e-05
13 *543:14 0.00033809
14 *543:15 1.5379e-06
15 *543:16 6.3302e-05
16 *543:17 2.01787e-05

*RES
1 *543:7 *543:8 0.111545
2 *543:2 *543:3 5.23652983
3 *543:12 *543:14 1.7772
4 *543:12 *543:13 0.199838
5 *543:5 *543:6 0.267196
6 *543:4 *543:5 2.9859
7 *543:6 *543:7 0.355409
8 *543:10 *543:11 0.489007
9 *543:8 *543:9 2.22314
10 *543:9 *543:10 0.111545
11 *543:11 *543:13 1.19543
12 *1150:I *543:2 1.76546
13 *543:16 *543:17 0.333675
14 *543:15 *543:16 0.272549
15 *543:14 *543:15 0.199838
16 *543:3 *543:4 0.422767
17 *1150:I *1574:Q[24] 7.99031e-05
*END

*D_NET *544 0.00213084

*CONN
*I *1166:I I *C 138.1 42.4 *L 0.000968 *D CKBD1
*I *1574:Q[5] O *C 134.265 29.335 *L 0 *D sram00

*CAP
1 *1166:I 0.000107492
2 *544:2 0.000130786
3 *544:3 3.3758e-05
4 *544:4 0.000276838
5 *544:5 6.14836e-05
6 *544:6 0.0015205

*RES
1 *544:4 *544:6 2.92885
2 *544:2 *544:3 0.305105
3 *1166:I *544:3 1.73018
4 *544:5 *544:6 10.8732
5 *544:3 *544:5 0.75
6 *1166:I *1574:Q[5] 0.0001
*END

*D_NET *545 0.00225662

*CONN
*I *1149:I I *C 141.9 132.4 *L 0.000968 *D CKBD1
*I *1574:Q[28] O *C 134.265 127.545 *L 0 *D sram00

*CAP
1 *545:2 0.000197124
2 *545:3 5.44542e-07
3 *545:4 0.000351845
4 *545:5 0.00115118
5 *545:7 0.000103375
6 *545:8 0.000368409
7 *545:9 1.42284e-06
8 *545:10 6.25345e-05
9 *545:11 2.01832e-05

*RES
1 *545:10 *545:11 0.333675
2 *545:9 *545:10 0.269111
3 *545:6 *545:8 1.97713
4 *545:2 *545:3 0.199798
5 *545:8 *545:9 0.199895
6 *545:6 *545:7 0.199895
7 *545:4 *545:5 6.35319996
8 *545:3 *545:4 0.788333
9 *1149:I *545:2 2.19884
10 *545:5 *545:7 1.35515
11 *1149:I *1574:Q[28] 9.69421e-05
*END

*D_NET *546 0.00404203

*CONN
*I *1377:I I *C 143.1 107.2 *L 0.00104 *D DEL0
*I *1574:Q[21] O *C 134.265 96.535 *L 0 *D sram00

*CAP
1 *546:2 4.47003e-05
2 *546:3 8.47673e-05
3 *546:4 0.000688886
4 *546:5 0.000734764
5 *546:6 0.0024889

*RES
1 *546:4 *546:6 14.8224
2 *546:2 *546:3 0.429645
3 *546:3 *546:4 1.99516
4 *546:5 *546:6 6.57625
5 *1377:I *546:3 1.5
6 *1377:I *1574:Q[21] 0.0001
*END

*D_NET *547 0.00114113

*CONN
*I *1142:I I *C 137.5 116.4 *L 0.000968 *D CKBD1
*I *1574:Q[25] O *C 134.265 113.335 *L 0 *D sram00

*CAP
1 *1142:I 0.000314907
2 *547:2 5.93351e-05
3 *547:3 0.000694256016
4 *547:4 7.26302e-05

*RES
1 *547:2 *547:3 4.60236979
2 *547:3 *547:4 0.493623
3 *1142:I *547:2 2.5099
4 *1142:I *1574:Q[25] 7.02266e-05
*END

*D_NET *548 0.00309554

*CONN
*I *1139:I I *C 145.5 116.4 *L 0.000968 *D CKBD1
*I *1574:Q[27] O *C 134.265 121.735 *L 0 *D sram00

*CAP
1 *548:2 0.00135979
2 *548:3 0.000175267
3 *548:4 0.000327317
4 *548:6 0.0011335
5 *548:7 9.96578e-05

*RES
1 *548:2 *548:3 3.28664
2 *548:3 *548:5 1.01073
3 *548:2 *548:7 4.18726
4 *548:5 *548:6 5.82426977
5 *548:4 *548:7 2.01516
6 *1139:I *548:4 1.49997
7 *1139:I *1574:Q[27] 8.88713e-05
*END

*D_NET *549 0.0030397

*CONN
*I *1574:Q[13] O *C 134.265 62.935 *L 0 *D sram00
*I *1489:I I *C 149.1 69.6 *L 0.00287 *D BUFFD8

*CAP
1 *549:2 0.000111507
2 *549:3 4.76836e-05
3 *549:4 0.00117656008
4 *549:5 0.000275581
5 *549:6 0.000454376
6 *549:7 0.000241991
7 *549:8 0.000199442
8 *549:9 8.09687e-06
9 *549:10 0.000255886
10 *549:11 0.000268597

*RES
1 *549:10 *549:11 0.111841
2 *549:9 *549:10 2.07022
3 *549:8 *549:9 0.124768
4 *549:7 *549:8 1.82979
5 *549:6 *549:7 1.41017
6 *549:4 *549:11 9.3444
7 *549:3 *549:5 2.16017
8 *549:5 *549:6 2.94967
9 *1489:I *549:2 0.75
10 *549:2 *549:3 0.75
11 *1489:I *1574:Q[13] 0.0001
*END

*D_NET *550 0.00290867

*CONN
*I *1374:I I *C 145.9 66 *L 0.00104 *D DEL0
*I *1574:Q[15] O *C 134.265 71.335 *L 0 *D sram00

*CAP
1 *1374:I 0.000663323
2 *550:3 0.00025957
3 *550:4 8.83121e-05
4 *550:5 0.000825611016
5 *550:6 5.78123e-05
6 *550:7 0.000167579
7 *550:8 6.47034e-05
8 *550:9 0.000291531
9 *550:10 3.13691e-06
10 *550:11 0.00048709

*RES
1 *550:10 *550:11 3.1349
2 *550:9 *550:10 0.374636
3 *550:2 *550:3 0.1998
4 *550:8 *550:9 0.755979
5 *550:7 *550:8 0.111491
6 *550:6 *550:7 1.02057
7 *550:4 *550:5 5.56484985
8 *550:3 *550:4 1.15634
9 *1374:I *550:2 4.59285
10 *550:5 *550:6 0.267136
11 *1374:I *1574:Q[15] 8.49129e-05
*END

*D_NET *551 0.00362576

*CONN
*I *1143:I I *C 148.3 179.2 *L 0.000968 *D CKBD1
*I *1574:Q[33] O *C 134.195 187.515 *L 0 *D sram00

*CAP
1 *551:2 0.000424799
2 *551:3 8.62108e-05
3 *551:4 0.00023612
4 *551:5 3.08824e-05
5 *551:6 0.000324477
6 *551:7 5.53888e-05
7 *551:8 0.000411201
8 *551:9 7.63599e-05
9 *551:10 0.00198031

*RES
1 *551:9 *551:10 4.90783
2 *551:7 *551:8 3.91271
3 *551:6 *551:7 0.111487
4 *551:4 *551:5 0.111487
5 *551:3 *551:4 1.20912
6 *551:5 *551:6 2.14082
7 *551:3 *551:10 7.3851
8 *551:2 *551:9 3.2412
9 *1143:I *551:2 1.5
10 *1143:I *1574:Q[33] 0.0001
*END

*D_NET *552 0.00346407

*CONN
*I *1136:I I *C 143.7 33.6 *L 0.000968 *D CKBD1
*I *1574:Q[3] O *C 134.265 20.935 *L 0 *D sram00

*CAP
1 *552:2 8.58816e-05
2 *552:3 2.30303e-06
3 *552:4 0.00040694
4 *552:5 0.000174361
5 *552:6 0.00092298
6 *552:7 8.31769e-05
7 *552:8 3.3394e-05
8 *552:9 0.00175499

*RES
1 *552:2 *552:3 0.200636
2 *552:7 *552:8 0.488965
3 *552:6 *552:7 0.216549
4 *552:5 *552:9 10.8036
5 *552:4 *552:5 1.47482
6 *552:3 *552:4 1.45305
7 *1136:I *552:2 1.63362
8 *552:6 *552:9 6.84173
9 *1136:I *1574:Q[3] 0.0001
*END

*D_NET *553 0.00223191

*CONN
*I *1145:I I *C 145.3 37.2 *L 0.00072 *D BUFFD1
*I *1574:Q[6] O *C 134.265 35.145 *L 0 *D sram00

*CAP
1 *553:2 0.000242944
2 *553:3 6.66483e-05
3 *553:4 0.000225108
4 *553:5 0.000105782
5 *553:6 0.000548236016
6 *553:7 0.000381753
7 *553:8 8.3028e-05
8 *553:9 0.000139328
9 *553:10 0.000439074

*RES
1 *553:9 *553:10 2.84265
2 *553:2 *553:4 2.10229
3 *553:2 *553:3 0.956148
4 *553:8 *553:9 0.269692
5 *553:7 *553:8 0.594907
6 *553:6 *553:7 1.95777
7 *553:4 *553:5 0.269692
8 *553:5 *553:6 3.03478003
9 *1145:I *553:3 1.49998
10 *1145:I *1574:Q[6] 9.26141e-05
*END

*D_NET *554 0.00280508

*CONN
*I *1146:I I *C 147.3 78.4 *L 0.000968 *D CKBD1
*I *1574:Q[17] O *C 134.265 79.735 *L 0 *D sram00

*CAP
1 *554:2 0.000127905
2 *554:3 0.00139867
3 *554:5 2.68487e-05
4 *554:6 9.81107e-05
5 *554:7 0.000373128
6 *554:8 1.03724e-05
7 *554:9 0.000545894
8 *554:10 0.000224137

*RES
1 *554:9 *554:10 0.267168
2 *554:8 *554:9 3.57781
3 *554:7 *554:8 0.268862
4 *554:6 *554:7 2.39813
5 *554:4 *554:5 0.333436
6 *554:3 *554:4 1.32258
7 *554:2 *554:6 0.229798
8 *554:3 *554:10 6.53080988
9 *1146:I *554:6 1.49997
10 *1146:I *1574:Q[17] 9.96523e-05
*END

*D_NET *555 0.00238988

*CONN
*I *1137:I I *C 146.9 84 *L 0.000968 *D CKBD1
*I *1574:Q[18] O *C 134.265 85.545 *L 0 *D sram00

*CAP
1 *1137:I 0.000194003
2 *555:2 9.11618e-05
3 *555:3 0.000144443
4 *555:4 4.49607e-06
5 *555:5 0.000846696016
6 *555:6 4.99478e-05
7 *555:7 0.000320423
8 *555:8 6.18598e-05
9 *555:9 0.000541699
10 *555:10 8.37588e-05
11 *555:11 5.13819e-05

*RES
1 *555:10 *555:11 0.644594
2 *555:9 *555:10 0.0686681
3 *555:2 *555:5 5.37661982
4 *555:2 *555:3 0.608742
5 *1137:I *555:4 2.08835
6 *555:8 *555:9 3.6239
7 *555:7 *555:8 0.111493
8 *555:6 *555:7 1.75616
9 *555:3 *555:4 0.199769
10 *555:5 *555:6 0.111493
11 *1137:I *1574:Q[18] 8.20407e-05
*END

*D_NET *556 0.00323068

*CONN
*I *1386:I I *C 145.9 110.8 *L 0.00104 *D DEL0
*I *1574:Q[23] O *C 134.265 104.935 *L 0 *D sram00

*CAP
1 *1386:I 3.34651e-05
2 *556:2 9.21348e-05
3 *556:3 0.000739503
4 *556:4 6.17427e-06
5 *556:5 0.00051176
6 *556:6 0.00184763

*RES
1 *556:2 *556:3 4.53313
2 *556:4 *556:5 2.14391
3 *556:3 *556:4 0.199825
4 *1386:I *556:2 0.406421
5 *556:5 *556:6 10.3593
6 *1386:I *1574:Q[23] 0.0001
*END

*D_NET *557 0.00299918

*CONN
*I *1574:Q[31] O *C 134.265 138.535 *L 0 *D sram00
*I *1497:I I *C 149.1 141.6 *L 0.00287 *D BUFFD8

*CAP
1 *557:2 0.000172759
2 *557:3 9.58658e-05
3 *557:4 0.00168253
4 *557:5 0.000256892
5 *557:6 1.2118e-05
6 *557:8 0.000778993

*RES
1 *557:7 *557:8 1.81213
2 *557:4 *557:5 1.98815
3 *557:5 *557:6 0.333643
4 *557:4 *557:8 11.9678
5 *1497:I *557:2 0.75
6 *557:2 *557:3 0.75
7 *557:3 *557:7 0.75
8 *1497:I *1574:Q[31] 0.0001
*END

*D_NET *558 0.00302457

*CONN
*I *1148:I I *C 144.3 236.8 *L 0.00072 *D BUFFD1
*I *1574:Q[46] O *C 134.195 243.725 *L 0 *D sram00

*CAP
1 *558:2 2.75991e-05
2 *558:3 0.000171341
3 *558:4 0.000153276
4 *558:6 0.00048921
5 *558:8 3.11631e-05
6 *558:9 0.000100796
7 *558:10 0.00145981
8 *558:11 0.000591364

*RES
1 *558:10 *558:11 7.31958
2 *558:2 *558:3 1.90917
3 *558:9 *558:11 3.34627
4 *558:8 *558:9 0.33457
5 *558:5 *558:10 4.15206
6 *558:2 *558:6 4.62152
7 *558:5 *558:6 0.199772
8 *558:4 *558:7 0.415717
9 *1148:I *558:7 0.75
10 *558:7 *558:9 0.75
11 *1148:I *1574:Q[46] 0.0001
*END

*D_NET *559 0.000530891

*CONN
*I *1129:I I *C 139.3 235.2 *L 0.000968 *D CKBD1
*I *1574:Q[44] O *C 134.195 235.325 *L 0 *D sram00

*CAP
1 *559:2 0.000530891016

*RES
1 *1129:I *559:2 4.79552984
2 *1129:I *1574:Q[44] 7.3174e-05
*END

*D_NET *560 0.00139232

*CONN
*I *1132:I I *C 140.9 224.4 *L 0.000968 *D CKBD1
*I *1574:Q[42] O *C 134.195 226.925 *L 0 *D sram00

*CAP
1 *560:2 3.64394e-05
2 *560:3 0.000243418
3 *560:5 0.000170011
4 *560:6 0.000204302
5 *560:7 0.000276504
6 *560:8 0.000461638984

*RES
1 *560:6 *560:8 2.94629002
2 *560:2 *560:3 2.12637
3 *560:7 *560:8 0.949758
4 *560:4 *560:5 1.93544
5 *560:3 *560:4 0.711127
6 *560:2 *560:7 2.13464
7 *1132:I *560:6 1.65562
8 *1132:I *1574:Q[42] 8.99136e-05
*END

*D_NET *561 0.00244154

*CONN
*I *1174:I I *C 137.9 37.2 *L 0.00072 *D BUFFD1
*I *1574:Q[4] O *C 134.265 26.745 *L 0 *D sram00

*CAP
1 *1174:I 1.27898e-05
2 *561:2 4.25011e-05
3 *561:3 0.00199093
4 *561:4 0.000268313
5 *561:5 0.000120638
6 *561:6 6.37973e-06

*RES
1 *561:2 *561:5 1.35434
2 *561:3 *561:6 11.9225
3 *561:3 *561:4 2.86571
4 *1174:I *561:2 0.399025
5 *561:5 *561:6 0.19979
6 *1174:I *1574:Q[4] 0.0001
*END

*D_NET *562 0.00167807

*CONN
*I *1147:I I *C 138.3 19.2 *L 0.000968 *D CKBD1
*I *1574:Q[0] O *C 134.265 9.945 *L 0 *D sram00

*CAP
1 *562:2 0.000124828
2 *562:3 0.000764258984
3 *562:4 9.48108e-06
4 *562:5 8.21344e-05
5 *562:6 1.70263e-06
6 *562:7 0.000173237
7 *562:8 7.3283e-05
8 *562:9 6.30789e-05
9 *562:10 0.000386054

*RES
1 *562:8 *562:10 3.12968
2 *562:7 *562:9 1.37253
3 *562:6 *562:7 0.791516
4 *562:4 *562:5 0.423606
5 *562:3 *562:4 0.19979
6 *562:2 *562:8 0.429453
7 *562:5 *562:6 0.19979
8 *562:3 *562:10 6.7994
9 *1147:I *562:8 1.5
10 *1147:I *1574:Q[0] 0.0001
*END

*D_NET *563 0.00307321

*CONN
*I *1162:I I *C 140.9 56.8 *L 0.000968 *D CKBD1
*I *1574:Q[9] O *C 134.265 46.135 *L 0 *D sram00

*CAP
1 *563:2 0.000146794
2 *563:3 0.000702975
3 *563:4 0.000234011
4 *563:5 4.50887e-05
5 *563:6 0.000227382
6 *563:7 0.00171696

*RES
1 *563:3 *563:7 10.2107
2 *563:2 *563:3 3.29729
3 *563:4 *563:5 0.111497
4 *1162:I *563:2 2.28331
5 *563:5 *563:6 1.88966
6 *563:4 *563:7 2.63966
7 *1162:I *1574:Q[9] 0.0001
*END

*D_NET *564 0.00371516

*CONN
*I *1574:Q[11] O *C 134.265 54.535 *L 0 *D sram00
*I *1504:I I *C 149.1 66 *L 0.00287 *D BUFFD8

*CAP
1 *564:2 0.000174548
2 *564:3 0.000140761
3 *564:4 0.000106957
4 *564:5 0.000209513
5 *564:6 5.00046e-05
6 *564:7 0.000372037
7 *564:8 4.15492e-05
8 *564:9 0.000532984
9 *564:10 4.11334e-05
10 *564:11 0.000374151
11 *564:12 1.51954e-05
12 *564:13 8.15564e-05
13 *564:14 0.000238813
14 *564:15 0.00113549992
15 *564:16 3.97473e-05
16 *564:17 0.000160687

*RES
1 *564:7 *564:8 0.111511
2 *564:2 *564:3 1.86156
3 *564:12 *564:13 0.48899
4 *564:5 *564:6 0.111511
5 *564:4 *564:5 1.13362
6 *564:6 *564:7 2.5344
7 *564:10 *564:11 1.90356
8 *564:8 *564:9 2.84568
9 *564:9 *564:10 0.111511
10 *1504:I *564:2 0.905716
11 *564:16 *564:17 1.03954
12 *564:15 *564:16 0.377146
13 *564:13 *564:15 9.1755
14 *564:11 *564:12 0.111511
15 *564:14 *564:17 2.30862
16 *564:3 *564:4 0.267153
17 *1504:I *1574:Q[11] 0.0001
*END

*D_NET *565 0.00345951

*CONN
*I *1574:Q[12] O *C 134.265 60.345 *L 0 *D sram00
*I *1505:I I *C 149.1 71.2 *L 0.00287 *D BUFFD8

*CAP
1 *565:2 9.97002e-05
2 *565:3 0.00024591
3 *565:4 0.000421867
4 *565:5 0.000202236
5 *565:7 8.91283e-05
6 *565:8 0.000622811
7 *565:9 0.00103252992
8 *565:10 0.000111627
9 *565:11 8.1613e-06
10 *565:12 0.000213029
11 *565:13 0.000412508

*RES
1 *565:10 *565:11 0.333597
2 *565:9 *565:13 9.3444
3 *565:9 *565:10 1.22424
4 *565:6 *565:8 0.199843
5 *565:4 *565:6 1.67511
6 *565:2 *565:3 1.8173
7 *565:12 *565:13 0.579426
8 *565:7 *565:8 3.85053
9 *565:4 *565:12 2.53162
10 *565:3 *565:5 1.82853
11 *565:5 *565:7 0.199843
12 *1505:I *565:2 0.75
13 *1505:I *1574:Q[12] 0.0001
*END

*D_NET *566 0.000443574

*CONN
*I *1135:I I *C 137.7 87.6 *L 0.000968 *D CKBD1
*I *1574:Q[19] O *C 134.265 88.135 *L 0 *D sram00

*CAP
1 *1135:I 0.000341383008
2 *566:2 7.86689e-05
3 *566:4 2.35194e-05

*RES
1 *566:2 *566:3 1.14448
2 *566:3 *566:4 0.333474
3 *1135:I *566:2 2.89081001
4 *1135:I *1574:Q[19] 8.82205e-05
*END

*D_NET *567 0.00279914

*CONN
*I *1358:I I *C 149.1 206.4 *L 0.00104 *D DEL0
*I *1574:Q[40] O *C 134.195 218.525 *L 0 *D sram00

*CAP
1 *1358:I 3.64054e-05
2 *567:2 4.66846e-06
3 *567:3 1.7132e-06
4 *567:4 0.00097209
5 *567:5 0.000369729
6 *567:7 1.1093e-05
7 *567:8 0.00140343

*RES
1 *567:6 *567:8 2.5374
2 *567:2 *567:3 0.33463
3 *567:6 *567:7 0.333368
4 *567:4 *567:5 9.0097
5 *1358:I *567:3 1.35852
6 *567:5 *567:8 11.4904
7 *567:3 *567:4 0.75
8 *1358:I *1574:Q[40] 0.0001
*END

*D_NET *568 0.00259569

*CONN
*I *1157:I I *C 148.3 182.8 *L 0.000968 *D CKBD1
*I *1574:Q[34] O *C 134.195 193.325 *L 0 *D sram00

*CAP
1 *568:2 4.08922e-05
2 *568:3 0.000489577
3 *568:4 0.000313838
4 *568:6 0.000100147
5 *568:7 0.000344274
6 *568:9 3.58294e-06
7 *568:10 2.7242e-05
8 *568:11 0.00127613

*RES
1 *568:9 *568:10 0.33351
2 *568:2 *568:3 1.06125
3 *568:8 *568:11 1.35336
4 *568:7 *568:8 0.199818
5 *568:4 *568:11 11.6511
6 *568:3 *568:4 6.01966
7 *568:6 *568:9 0.369986
8 *568:5 *568:7 2.13619
9 *568:5 *568:6 0.199818
10 *1157:I *568:2 1.5
11 *1157:I *1574:Q[34] 0.0001
*END

*D_NET *569 0.000598996

*CONN
*I *1153:I I *C 137.9 13.6 *L 0.00072 *D BUFFD1
*I *1574:Q[1] O *C 134.265 12.535 *L 0 *D sram00

*CAP
1 *1153:I 0.00023443
2 *569:2 3.49338e-05
3 *569:3 0.000266548984
4 *569:4 6.30835e-05

*RES
1 *569:2 *569:3 1.74874
2 *569:3 *569:4 1.37254
3 *1153:I *569:2 2.68975997
4 *1153:I *1574:Q[1] 8.2085e-05
*END

*D_NET *570 0.00289131

*CONN
*I *1159:I I *C 142.9 51.6 *L 0.00072 *D BUFFD1
*I *1574:Q[8] O *C 134.265 43.545 *L 0 *D sram00

*CAP
1 *1159:I 0.000212944
2 *570:2 8.38557e-05
3 *570:3 0.00158098
4 *570:5 0.000567377
5 *570:6 0.000381355
6 *570:7 1.47158e-06
7 *570:8 4.37854e-05
8 *570:9 1.95406e-05

*RES
1 *570:4 *570:6 2.61581
2 *570:2 *570:3 8.65096
3 *570:8 *570:9 0.333522
4 *570:7 *570:8 0.267401
5 *570:6 *570:7 0.199822
6 *570:4 *570:5 0.199822
7 *570:3 *570:5 4.73355
8 *1159:I *570:2 2.3812
9 *1159:I *1574:Q[8] 0.0001
*END

*D_NET *571 0.00416819

*CONN
*I *1160:I I *C 150.7 58.8 *L 0.000968 *D CKBD1
*I *1574:Q[10] O *C 134.265 51.945 *L 0 *D sram00

*CAP
1 *1160:I 0.000248149
2 *571:2 3.53547e-05
3 *571:3 0.00111823
4 *571:4 0.000911903
5 *571:5 0.000446831
6 *571:6 0.000663942
7 *571:7 0.000135925
8 *571:9 0.000262379
9 *571:10 0.000343685
10 *571:11 1.77456e-06

*RES
1 *571:10 *571:11 0.199843
2 *571:8 *571:10 1.82534
3 *571:2 *571:3 6.85389
4 *571:8 *571:9 0.199843
5 *571:6 *571:7 0.93385
6 *571:5 *571:9 1.9413
7 *571:4 *571:5 2.60159
8 *571:3 *571:4 4.26757
9 *1160:I *571:2 2.7467
10 *571:6 *571:11 4.47134
11 *1160:I *1574:Q[10] 0.0001
*END

*D_NET *572 0.00279974

*CONN
*I *1380:I I *C 149.3 102 *L 0.00104 *D DEL0
*I *1574:Q[22] O *C 134.265 102.345 *L 0 *D sram00

*CAP
1 *1380:I 0.000182682
2 *572:2 5.94768e-05
3 *572:3 0.00105546
4 *572:4 3.57054e-05
5 *572:5 0.000594188
6 *572:6 4.30172e-05
7 *572:7 0.000829229

*RES
1 *572:2 *572:3 6.02159023
2 *572:6 *572:7 4.84706
3 *572:4 *572:5 3.06951
4 *572:3 *572:4 0.111545
5 *1380:I *572:2 2.12303
6 *572:5 *572:6 0.112096
7 *1380:I *1574:Q[22] 9.18822e-05
*END

*D_NET *573 0.0026956

*CONN
*I *1141:I I *C 150.1 217.2 *L 0.000968 *D CKBD1
*I *1574:Q[41] O *C 134.195 221.115 *L 0 *D sram00

*CAP
1 *573:2 0.000291053
2 *573:3 4.8303e-05
3 *573:4 9.9334e-05
4 *573:5 6.05315e-06
5 *573:6 0.000628726
6 *573:7 5.91743e-05
7 *573:8 0.000614245
8 *573:9 5.92421e-05
9 *573:10 0.000889446016

*RES
1 *573:9 *573:10 4.17357
2 *573:7 *573:8 5.00171995
3 *573:6 *573:7 0.111504
4 *573:4 *573:5 0.111504
5 *573:3 *573:4 0.517375
6 *573:5 *573:6 3.62322
7 *573:3 *573:10 2.46217
8 *573:2 *573:9 2.12689
9 *1141:I *573:2 1.5
10 *1141:I *1574:Q[41] 7.63202e-05
*END

*D_NET *574 0.002902

*CONN
*I *1357:I I *C 146.3 204.4 *L 0.00104 *D DEL0
*I *1574:Q[38] O *C 134.195 210.125 *L 0 *D sram00

*CAP
1 *574:2 0.000161196
2 *574:3 5.08019e-05
3 *574:4 7.71548e-05
4 *574:5 0.000225063
5 *574:6 0.000428737
6 *574:7 6.37544e-05
7 *574:8 9.41945e-05
8 *574:9 0.00048497
9 *574:11 9.30374e-05
10 *574:12 0.00122310992

*RES
1 *574:10 *574:11 0.955798
2 *574:9 *574:10 0.267084
3 *574:2 *574:4 0.255175
4 *574:8 *574:9 3.93453
5 *574:7 *574:8 0.267084
6 *574:6 *574:7 0.510996
7 *574:4 *574:12 1.68366
8 *574:3 *574:12 6.05034018
9 *574:3 *574:5 2.12855
10 *574:5 *574:6 2.09882
11 *1357:I *574:4 1.50003
12 *1357:I *1574:Q[38] 9.23209e-05
*END

*D_NET *575 0.0017871

*CONN
*I *1363:I I *C 143.5 195.6 *L 0.00104 *D DEL0
*I *1574:Q[36] O *C 134.195 201.725 *L 0 *D sram00

*CAP
1 *575:2 7.74244e-05
2 *575:3 4.5492e-05
3 *575:4 0.000140315
4 *575:5 4.76193e-05
5 *575:6 0.000778819063
6 *575:7 4.21883e-06
7 *575:8 0.000557111
8 *575:9 3.11361e-05
9 *575:10 7.38116e-05
10 *575:11 3.1148e-05

*RES
1 *575:9 *575:10 1.08926
2 *575:2 *575:3 0.335994
3 *575:9 *575:11 0.949772
4 *575:8 *575:11 5.57743979
5 *575:7 *575:8 0.488928
6 *575:6 *575:7 0.111488
7 *575:4 *575:5 0.111488
8 *575:3 *575:4 1.67427
9 *575:5 *575:6 4.86852
10 *1363:I *575:3 1.49998
11 *1363:I *1574:Q[36] 8.5105e-05
*END

*D_NET *576 0.00325925

*CONN
*I *1364:I I *C 149.5 192 *L 0.00104 *D DEL0
*I *1574:Q[37] O *C 134.195 204.315 *L 0 *D sram00

*CAP
1 *576:2 0.000167099
2 *576:3 0.000108035
3 *576:4 7.10827e-05
4 *576:5 0.000275079
5 *576:6 7.95467e-05
6 *576:7 0.00120062008
7 *576:8 0.00111629
8 *576:9 3.11995e-05
9 *576:10 8.52626e-05
10 *576:11 0.000125036

*RES
1 *576:9 *576:10 2.1786
2 *576:2 *576:3 1.70582
3 *576:9 *576:11 0.949778
4 *576:8 *576:11 10.2326
5 *576:7 *576:8 0.155625
6 *576:6 *576:7 7.00322
7 *576:4 *576:5 1.91164
8 *576:3 *576:4 0.111487
9 *1364:I *576:2 1.6557
10 *576:5 *576:6 0.111487
11 *1364:I *1574:Q[37] 0.0001
*END

*D_NET *577 0.00235897

*CONN
*I *1155:I I *C 145.5 177.6 *L 0.00072 *D BUFFD1
*I *1574:Q[32] O *C 134.195 184.925 *L 0 *D sram00

*CAP
1 *577:2 0.000534464
2 *577:3 1.89675e-05
3 *577:4 1.90639e-05
4 *577:6 0.000123614
5 *577:7 8.34377e-05
6 *577:8 0.00157946

*RES
1 *577:7 *577:8 8.20972
2 *577:4 *577:5 0.053137
3 *577:3 *577:4 0.33332
4 *577:2 *577:7 2.88058
5 *577:5 *577:6 1.26707
6 *577:3 *577:8 4.79909
7 *1155:I *577:2 0.75
8 *1155:I *1574:Q[32] 0.0001
*END

*D_NET *578 0.0040461

*CONN
*I *1154:I I *C 148.3 184.8 *L 0.000968 *D CKBD1
*I *1574:Q[35] O *C 134.195 195.915 *L 0 *D sram00

*CAP
1 *1154:I 0.000476796
2 *578:3 0.000480857
3 *578:4 6.96173e-05
4 *578:5 6.0774e-05
5 *578:6 0.000168336
6 *578:7 3.00145e-05
7 *578:8 0.00016377
8 *578:9 9.65558e-05
9 *578:10 0.000641335
10 *578:11 2.74192e-05
11 *578:12 0.000179895
12 *578:13 3.17447e-05
13 *578:14 4.40966e-05
14 *578:15 0.00157486

*RES
1 *578:7 *578:8 1.44477
2 *578:2 *578:3 0.199801
3 *578:12 *578:13 0.111487
4 *578:5 *578:6 1.86145
5 *578:5 *578:15 7.08454
6 *578:6 *578:7 0.111487
7 *578:4 *578:15 2.92876
8 *578:10 *578:11 0.111487
9 *578:8 *578:9 0.111487
10 *578:9 *578:10 4.24603
11 *578:13 *578:14 0.488946
12 *1154:I *578:2 3.93497
13 *578:11 *578:12 1.60039
14 *578:3 *578:4 2.15363
15 *1154:I *1574:Q[35] 0.0001
*END

*D_NET *579 0.00109324

*CONN
*I *1184:I I *C 141.3 290.8 *L 0.00072 *D BUFFD1
*I *1574:Q[58] O *C 134.195 294.125 *L 0 *D sram00

*CAP
1 *579:2 9.97476e-05
2 *579:3 4.64396e-05
3 *579:4 5.30079e-05
4 *579:5 8.62648e-05
5 *579:6 5.12879e-05
6 *579:7 0.000756505

*RES
1 *579:6 *579:7 3.11212
2 *579:4 *579:5 0.905623
3 *579:3 *579:6 1.2168
4 *579:5 *579:7 5.73328018
5 *1184:I *579:2 0.749991
6 *579:2 *579:4 0.749991
7 *1184:I *1574:Q[58] 8.74829e-05
*END

*D_NET *580 0.0028544

*CONN
*I *1179:I I *C 148.3 269.2 *L 0.000643 *D CKBD0
*I *1574:Q[55] O *C 134.195 279.915 *L 0 *D sram00

*CAP
1 *1179:I 0.00016173
2 *580:2 0.000142146
3 *580:3 0.000702572
4 *580:4 8.205e-05
5 *580:5 2.48371e-05
6 *580:6 0.000341484
7 *580:7 0.00139957

*RES
1 *580:2 *580:3 6.21856
2 *580:3 *580:4 0.422698
3 *1179:I *580:2 2.09899
4 *580:5 *580:7 9.15363
5 *580:5 *580:6 2.80105
6 *580:4 *580:7 3.41751
7 *1179:I *1574:Q[55] 0.0001
*END

*D_NET *581 0.00303969

*CONN
*I *1183:I I *C 148.9 256.8 *L 0.000643 *D CKBD0
*I *1574:Q[51] O *C 134.195 263.115 *L 0 *D sram00

*CAP
1 *1183:I 0.000274965
2 *581:2 7.01334e-05
3 *581:3 3.39489e-05
4 *581:4 0.00130403
5 *581:5 0.00135661

*RES
1 *581:2 *581:5 3.23982
2 *581:3 *581:5 5.11132
3 *581:3 *581:4 9.88716
4 *1183:I *581:2 2.63105
5 *1183:I *1574:Q[51] 0.0001
*END

*D_NET *582 0.00103253

*CONN
*I *1134:I I *C 140.9 236.8 *L 0.000968 *D CKBD1
*I *1574:Q[45] O *C 134.195 237.915 *L 0 *D sram00

*CAP
1 *582:2 0.000329642
2 *582:4 2.75629e-05
3 *582:5 6.83305e-05
4 *582:6 7.08258e-05
5 *582:7 0.000536163984

*RES
1 *582:2 *582:5 3.06726
2 *582:2 *582:3 0.902036
3 *582:6 *582:7 3.97256994
4 *582:3 *582:4 0.408132
5 *1134:I *582:6 1.50002
6 *582:5 *582:7 0.750009
7 *1134:I *1574:Q[45] 0.000121233
*END

*D_NET *583 0.000591344

*CONN
*I *1130:I I *C 137.5 233.2 *L 0.000968 *D CKBD1
*I *1574:Q[43] O *C 134.195 229.515 *L 0 *D sram00

*CAP
1 *1130:I 5.19209e-05
2 *583:2 0.00032280002
3 *583:3 0.000185065
4 *583:4 3.15535e-05

*RES
1 *583:2 *583:4 3.55155993
2 *583:2 *583:3 2.29099
3 *1130:I *583:4 1.54091
4 *1130:I *1574:Q[43] 0.000108385
*END

*D_NET *584 0.000939523

*CONN
*I *1161:I I *C 138.3 40.8 *L 0.00182 *D DEL005
*I *1574:Q[7] O *C 134.265 37.735 *L 0 *D sram00

*CAP
1 *584:2 0.000113722
2 *584:3 0.000267179
3 *584:4 0.000248476
4 *584:5 0.000310145

*RES
1 *584:2 *584:4 2.08626
2 *584:4 *584:5 1.99541
3 *584:3 *584:5 2.77322006
4 *1161:I *584:3 1.52841
5 *1161:I *1574:Q[7] 8.4632e-05
*END

*D_NET *585 0.00134127

*CONN
*I *1152:I I *C 138.3 22.8 *L 0.000968 *D CKBD1
*I *1574:Q[2] O *C 134.265 18.345 *L 0 *D sram00

*CAP
1 *585:2 0.000137338
2 *585:4 0.000444233
3 *585:5 5.93828e-05
4 *585:6 0.000700315

*RES
1 *585:4 *585:6 3.86264
2 *585:2 *585:3 0.422053
3 *585:5 *585:6 4.17630005
4 *1152:I *585:3 1.50003
5 *585:3 *585:5 0.749983
6 *1152:I *1574:Q[2] 0.000127451
*END

*D_NET *586 0.00360535

*CONN
*I *1574:Q[14] O *C 134.265 68.745 *L 0 *D sram00
*I *1526:I I *C 149.1 76.8 *L 0.00287 *D BUFFD8

*CAP
1 *586:2 0.000226937
2 *586:3 0.000196433
3 *586:4 2.8747e-05
4 *586:5 0.00034348
5 *586:6 4.49639e-05
6 *586:7 0.00021252
7 *586:8 4.27172e-05
8 *586:9 0.000356485
9 *586:10 1.70235e-05
10 *586:11 0.000171531
11 *586:12 8.46855e-06
12 *586:13 0.000408982
13 *586:14 6.78348e-05
14 *586:15 0.000943853984
15 *586:16 0.000254157
16 *586:17 1.10898e-06
17 *586:18 2.17907e-05
18 *586:19 0.000258291

*RES
1 *586:7 *586:8 0.111511
2 *586:2 *586:3 1.86156
3 *586:12 *586:13 2.22311
4 *586:5 *586:6 0.111511
5 *586:4 *586:5 2.22311
6 *586:6 *586:7 1.28926
7 *586:10 *586:11 0.69985
8 *586:8 *586:9 1.91183
9 *586:9 *586:10 0.112101
10 *586:13 *586:14 0.111511
11 *586:17 *586:18 0.333349
12 *586:15 *586:19 6.82555
13 *586:14 *586:19 1.95924
14 *1526:I *586:2 0.949795
15 *586:16 *586:17 0.068813
16 *586:15 *586:16 1.34662
17 *586:11 *586:12 0.118164
18 *586:3 *586:4 0.111511
19 *1526:I *1574:Q[14] 0.0001
*END

*D_NET *587 0.00122523

*CONN
*I *1140:I I *C 137.9 82 *L 0.000968 *D CKBD1
*I *1574:Q[16] O *C 134.265 77.145 *L 0 *D sram00

*CAP
1 *1140:I 0.000346323
2 *587:2 4.26169e-05
3 *587:3 0.000789847031
4 *587:4 4.64375e-05

*RES
1 *587:2 *587:3 5.1923399
2 *587:3 *587:4 0.489159
3 *1140:I *587:2 2.89027
4 *1140:I *1574:Q[16] 7.92288e-05
*END

*D_NET *588 0.00256909

*CONN
*I *1200:I I *C 148.3 289.2 *L 0.000643 *D CKBD0
*I *1574:Q[60] O *C 134.195 302.525 *L 0 *D sram00

*CAP
1 *1200:I 0.00132242
2 *588:2 5.27677e-05
3 *588:3 0.000102872
4 *588:5 8.12602e-05
5 *588:6 0.000970219
6 *588:7 1.74951e-05
7 *588:9 2.20756e-05

*RES
1 *588:4 *588:6 8.82585
2 *588:3 *588:7 1.35038
3 *588:2 *588:3 0.546136
4 *588:8 *588:9 0.3333
5 *588:6 *588:7 0.355372
6 *588:4 *588:5 0.355372
7 *1200:I *588:2 13.021
8 *588:5 *588:8 0.364342
9 *1200:I *1574:Q[60] 0.0001
*END

*D_NET *589 0.00211984

*CONN
*I *1192:I I *C 148.3 294.4 *L 0.000643 *D CKBD0
*I *1574:Q[61] O *C 134.195 305.115 *L 0 *D sram00

*CAP
1 *589:2 0.000105166
2 *589:3 0.000689216
3 *589:4 0.00101742992
4 *589:5 1.92199e-05
5 *589:6 2.65167e-05
6 *589:7 0.000262279

*RES
1 *589:4 *589:6 10.5537
2 *589:2 *589:3 1.06123
3 *589:6 *589:7 2.15057
4 *589:3 *589:5 7.59734
5 *589:5 *589:7 2.15257
6 *1192:I *589:2 0.75
7 *1192:I *1574:Q[61] 0.0001
*END

*D_NET *590 0.00334672

*CONN
*I *1177:I I *C 146.9 267.6 *L 0.00072 *D BUFFD1
*I *1574:Q[54] O *C 134.195 277.325 *L 0 *D sram00

*CAP
1 *1177:I 0.00032504
2 *590:3 0.000126921
3 *590:4 9.09549e-06
4 *590:5 0.000596402
5 *590:6 5.33741e-05
6 *590:7 6.85279e-05
7 *590:8 0.000212106
8 *590:10 0.000522887
9 *590:11 2.65352e-06
10 *590:12 0.00104758
11 *590:13 0.000382123

*RES
1 *590:7 *590:8 1.06723
2 *590:2 *590:3 0.199758
3 *590:6 *590:13 1.34899
4 *590:7 *590:12 9.77561
5 *590:9 *590:13 1.90679
6 *590:5 *590:6 2.58675
7 *590:4 *590:5 0.199758
8 *590:10 *590:11 2.57596
9 *590:9 *590:10 0.199758
10 *1177:I *590:2 3.06304
11 *590:8 *590:11 0.199758
12 *590:3 *590:4 0.489388
13 *1177:I *1574:Q[54] 0.0001
*END

*D_NET *591 0.00288559

*CONN
*I *1199:I I *C 143.9 253.2 *L 0.000643 *D CKBD0
*I *1574:Q[50] O *C 134.195 260.525 *L 0 *D sram00

*CAP
1 *591:2 0.000207471
2 *591:3 7.95282e-06
3 *591:4 0.000340492
4 *591:5 0.00182873
5 *591:6 8.58625e-05
6 *591:7 0.000372332
7 *591:9 4.27499e-05

*RES
1 *591:2 *591:3 0.200067
2 *591:8 *591:9 0.199763
3 *591:6 *591:7 2.95666
4 *591:4 *591:5 5.69916
5 *591:3 *591:4 1.42268
6 *1199:I *591:2 2.20936
7 *591:6 *591:9 0.883553
8 *591:5 *591:8 7.88827
9 *1199:I *1574:Q[50] 0.0001
*END

*D_NET *592 0.00146839

*CONN
*I *1171:I I *C 142.9 254.8 *L 0.00072 *D BUFFD1
*I *1574:Q[48] O *C 134.195 252.125 *L 0 *D sram00

*CAP
1 *592:2 0.000146095
2 *592:4 7.38294e-05
3 *592:5 0.000747937969
4 *592:6 0.000271328
5 *592:7 1.52817e-05
6 *592:9 0.000213922

*RES
1 *592:2 *592:3 0.295837
2 *592:8 *592:9 1.52811
3 *592:6 *592:7 0.333315
4 *592:5 *592:9 7.13483
5 *592:5 *592:6 1.41191
6 *1171:I *592:3 1.5
7 *592:3 *592:4 0.75
8 *592:4 *592:8 0.75
9 *1171:I *1574:Q[48] 0.0001
*END

*D_NET *593 0.00348632

*CONN
*I *1144:I I *C 151.1 247.6 *L 0.000968 *D CKBD1
*I *1574:Q[49] O *C 134.195 254.715 *L 0 *D sram00

*CAP
1 *593:2 7.46717e-06
2 *593:3 0.000182063
3 *593:4 0.000662002
4 *593:5 8.9525e-05
5 *593:6 0.000707405
6 *593:7 4.82531e-05
7 *593:8 4.19684e-05
8 *593:9 4.86257e-05
9 *593:10 0.000332815
10 *593:11 0.000304664
11 *593:12 0.00106152

*RES
1 *593:10 *593:11 1.50814
2 *593:7 *593:10 2.19754
3 *593:7 *593:8 0.778052
4 *593:4 *593:5 0.111489
5 *593:3 *593:12 2.6171
6 *593:3 *593:4 4.84607
7 *593:9 *593:12 4.85807991
8 *593:6 *593:11 1.7077
9 *593:5 *593:6 3.60116
10 *1144:I *593:2 1.49999
11 *593:2 *593:9 0.750031
12 *1144:I *1574:Q[49] 7.41284e-05
*END

*D_NET *594 0.0010336

*CONN
*I *1169:I I *C 141.7 267.6 *L 0.00072 *D BUFFD1
*I *1574:Q[52] O *C 134.195 268.925 *L 0 *D sram00

*CAP
1 *1169:I 0.000226262
2 *594:2 7.76298e-05
3 *594:3 0.000453348008
4 *594:5 0.00027636

*RES
1 *594:2 *594:3 4.03995991
2 *594:4 *594:5 2.51191
3 *594:3 *594:4 0.267107
4 *1169:I *594:2 1.52805
5 *1169:I *1574:Q[52] 0.00012329
*END

*D_NET *595 0.0031073

*CONN
*I *1202:I I *C 148.3 235.2 *L 0.000643 *D CKBD0
*I *1574:Q[47] O *C 134.195 246.315 *L 0 *D sram00

*CAP
1 *1202:I 1.1719e-05
2 *595:2 0.000285213
3 *595:3 0.00125285992
4 *595:4 2.87335e-05
5 *595:5 0.000385637
6 *595:6 6.47507e-05
7 *595:7 7.34682e-05
8 *595:8 0.000131241
9 *595:9 0.000873704

*RES
1 *595:7 *595:9 8.37726
2 *595:2 *595:4 2.12871
3 *595:3 *595:6 7.89866
4 *595:3 *595:4 0.355414
5 *1202:I *595:2 0.401329
6 *595:5 *595:8 4.01789
7 *595:6 *595:7 0.75
8 *595:8 *595:9 0.75
9 *1202:I *1574:Q[47] 0.0001
*END

*D_NET *596 0.00363106

*CONN
*I *1133:I I *C 150.7 262 *L 0.00072 *D BUFFD1
*I *1574:Q[53] O *C 134.195 271.515 *L 0 *D sram00

*CAP
1 *1133:I 5.45482e-05
2 *596:2 0.000133371
3 *596:3 2.69963e-05
4 *596:4 0.00159598
5 *596:5 0.00182017

*RES
1 *596:2 *596:5 2.81117
2 *596:3 *596:5 8.1096
3 *596:3 *596:4 12.0874
4 *1133:I *596:2 1.67012
5 *1133:I *1574:Q[53] 0.0001
*END

*D_NET *597 0.00231883

*CONN
*I *1352:I I *C 143.1 206.4 *L 0.00104 *D DEL0
*I *1574:Q[39] O *C 134.195 212.715 *L 0 *D sram00

*CAP
1 *1352:I 0.000153436
2 *597:2 0.000145411
3 *597:3 0.000928309
4 *597:4 2.8411e-06
5 *597:5 0.00108884

*RES
1 *597:2 *597:5 8.12208
2 *597:2 *597:3 5.16087
3 *1352:I *597:4 2.00254
4 *597:3 *597:4 0.199772
5 *1352:I *1574:Q[39] 0.0001
*END

*D_NET *598 0.00227382

*CONN
*I *1178:I I *C 148.3 278.4 *L 0.000643 *D CKBD0
*I *1574:Q[57] O *C 134.195 288.315 *L 0 *D sram00

*CAP
1 *1178:I 7.0315e-05
2 *598:2 0.000154371
3 *598:3 8.55221e-05
4 *598:5 5.55103e-05
5 *598:6 1.37985e-06
6 *598:7 2.27963e-05
7 *598:8 0.00188393

*RES
1 *598:2 *598:3 1.37246
2 *598:6 *598:7 0.3333
3 *598:4 *598:5 0.355372
4 *1178:I *598:2 0.973543
5 *598:5 *598:6 0.267084
6 *598:4 *598:8 7.41933
7 *598:3 *598:8 10.2424
8 *1178:I *1574:Q[57] 0.0001
*END

*D_NET *599 0.00167369

*CONN
*I *1185:I I *C 143.5 303.6 *L 0.00072 *D BUFFD1
*I *1574:Q[62] O *C 134.195 310.925 *L 0 *D sram00

*CAP
1 *599:3 0.000573134
2 *599:4 3.28576e-05
3 *599:5 6.36388e-05
4 *599:6 0.000302653
5 *599:7 0.000701407031

*RES
1 *599:4 *599:6 3.55101
2 *599:2 *599:3 0.199768
3 *599:3 *599:4 4.17948
4 *599:2 *599:7 2.29023
5 *599:5 *599:7 4.95158005
6 *1185:I *599:5 0.750036
7 *1185:I *1574:Q[62] 7.55551e-05
*END

*D_NET *600 0.000686533

*CONN
*I *1195:I I *C 141.3 312.4 *L 0.00072 *D BUFFD1
*I *1574:Q[63] O *C 134.195 313.515 *L 0 *D sram00

*CAP
1 *600:2 0.000101122
2 *600:3 1.51557e-06
3 *600:5 1.77097e-05
4 *600:6 0.000106357
5 *600:7 0.000459828984

*RES
1 *600:6 *600:7 5.58106995
2 *600:4 *600:5 0.333318
3 *600:3 *600:6 1.06127
4 *600:4 *600:7 1.35039
5 *1195:I *600:2 0.750007
6 *600:2 *600:3 0.750007
7 *1195:I *1574:Q[63] 8.51604e-05
*END

*D_NET *601 0.000958662

*CONN
*I *1198:I I *C 140.9 294.4 *L 0.00072 *D BUFFD1
*I *1574:Q[59] O *C 134.195 296.715 *L 0 *D sram00

*CAP
1 *601:2 6.61453e-05
2 *601:3 8.91445e-05
3 *601:4 0.000153443
4 *601:6 2.26929e-05
5 *601:7 0.000627237031

*RES
1 *601:2 *601:3 1.06124
2 *601:3 *601:4 0.949708
3 *601:5 *601:7 2.61224
4 *601:5 *601:6 0.33331
5 *601:4 *601:7 5.26609993
6 *1198:I *601:2 0.750027
7 *1198:I *1574:Q[59] 8.03543e-05
*END

*D_NET *602 0.00352311

*CONN
*I *1331:I I *C 149.1 272.8 *L 0.00104 *D DEL0
*I *1574:Q[56] O *C 134.195 285.725 *L 0 *D sram00

*CAP
1 *1331:I 0.000262584
2 *602:2 0.000584399
3 *602:3 0.000699192
4 *602:4 0.00195351
5 *602:5 2.34296e-05

*RES
1 *602:2 *602:3 6.85597
2 *1331:I *602:4 3.07549
3 *602:4 *602:5 12.0792
4 *602:3 *602:5 5.50766
5 *1331:I *1574:Q[56] 0.0001
*END

*D_NET *603 0.000872753

*CONN
*I *1543:Z O *C 143.7 16.8 *L 0 *D DEL2
*I *1606:D I *C 140.1 19.2 *L 0.000971 *D DFCNQD1

*CAP
1 *1606:D 0.000693653984
2 *603:2 0.0001791

*RES
1 *1606:D *603:2 5.25765991
2 *1543:Z *603:2 2.2561
*END

*D_NET *604 0.000875234

*CONN
*I *1544:Z O *C 151.9 37.6 *L 0 *D DEL2
*I *1607:D I *C 149.3 40.8 *L 0.000971 *D DFCNQD1

*CAP
1 *1607:D 8.69293e-05
2 *1544:Z 0.000153197
3 *604:2 0.000635106992

*RES
1 *1544:Z *604:2 4.27397013
2 *1607:D *604:2 3.21422
*END

*D_NET *605 0.00106192

*CONN
*I *1545:Z O *C 143.7 30.4 *L 0 *D DEL2
*I *1600:D I *C 140.3 31.6 *L 0.000971 *D DFCNQD1

*CAP
1 *1600:D 0.00076577
2 *1545:Z 7.61739e-05
3 *605:2 0.00021998

*RES
1 *1545:Z *605:2 2.11295
2 *1600:D *605:2 5.72468996
*END

*D_NET *606 0.000844867

*CONN
*I *1546:Z O *C 151.9 16.8 *L 0 *D DEL2
*I *1609:D I *C 149.3 19.2 *L 0.000971 *D DFCNQD1

*CAP
1 *1609:D 0.000744242031
2 *606:2 0.000100629

*RES
1 *1609:D *606:2 5.5985198
2 *1546:Z *606:2 0.74996
*END

*D_NET *607 0.00106127

*CONN
*I *1547:Z O *C 151.9 38.4 *L 0 *D DEL2
*I *1601:D I *C 149.7 42.4 *L 0.000971 *D DFCNQD1

*CAP
1 *607:3 9.0087e-05
2 *607:4 0.000971188047

*RES
1 *607:2 *607:4 3.56648993
2 *607:3 *607:4 2.54404
3 *1547:Z *607:3 0.750021
4 *1601:D *607:2 0.750021
*END

*D_NET *608 0.00148319

*CONN
*I *1548:Z O *C 151.9 56.4 *L 0 *D DEL2
*I *1604:D I *C 149.9 53.2 *L 0.000971 *D DFCNQD1

*CAP
1 *1604:D 0.000397375
2 *608:2 7.1217e-05
3 *608:3 0.00101461008

*RES
1 *608:2 *608:3 2.61851
2 *1604:D *608:3 8.26381969
3 *1548:Z *608:2 0.750018
*END

*D_NET *609 0.0005433

*CONN
*I *1549:Z O *C 151.9 30.4 *L 0 *D DEL2
*I *1595:D I *C 149.7 31.6 *L 0.000971 *D DFCNQD1

*CAP
1 *609:2 6.97262e-05
2 *609:3 0.000473573008

*RES
1 *1595:D *609:3 2.58975005
2 *609:2 *609:3 2.46263
3 *1549:Z *609:2 0.749983
*END

*D_NET *610 0.000586829

*CONN
*I *1550:Z O *C 151.9 9.6 *L 0 *D DEL2
*I *1610:D I *C 149.3 8.4 *L 0.000971 *D DFCNQD1

*CAP
1 *1610:D 6.44989e-05
2 *610:2 0.000451113984
3 *610:3 7.12104e-05

*RES
1 *610:2 *610:3 4.45828009
2 *1610:D *610:2 0.949806
3 *1550:Z *610:3 0.750008
*END

*D_NET *611 0.0013208

*CONN
*I *1551:Z O *C 143.7 12.4 *L 0 *D DEL2
*I *1598:D I *C 140.1 8.4 *L 0.000971 *D DFCNQD1

*CAP
1 *1598:D 0.000193929
2 *611:2 0.000518597
3 *611:3 0.000608265977

*RES
1 *611:2 *611:3 4.0422802
2 *1551:Z *611:2 2.97762
3 *1598:D *611:3 1.96705
*END

*D_NET *612 0.00664489

*CONN
*I *1230:I I *C 138.5 87.6 *L 0.000968 *D CKBD1
*I *1552:Z O *C 140.7 48.4 *L 0 *D DEL1

*CAP
1 *1230:I 0.000494122
2 *612:2 0.00122225
3 *612:3 7.8406e-05
4 *612:4 0.000644873
5 *612:5 9.13307e-05
6 *612:6 0.000242529
7 *612:7 1.11902e-07
8 *612:8 0.000186466
9 *612:9 0.000377669
10 *612:10 5.2594e-06
11 *612:4 *846:8 0.000262546992
12 *612:2 *838:10 0.000768428047
13 *612:3 *839:18 0.0012613
14 *612:4 *1619:CDN 0.000685361953
15 *612:3 *476:11 0.000324235996

*RES
1 *612:8 *612:9 0.199812
2 *612:6 *612:7 4.08609
3 *612:5 *612:10 2.60421
4 *612:5 *612:6 0.199812
5 *612:2 *612:8 9.13984
6 *1552:Z *612:2 2.27809
7 *1230:I *612:3 4.34884
8 *612:9 *612:10 5.33994
9 *612:4 *612:7 2.83021
10 *612:3 *612:4 9.4821701
*END

*D_NET *613 0.0224574

*CONN
*I *1553:Z O *C 149.3 114 *L 0 *D CKBD1
*I *1576:C1 I *C 144.5 38.6 *L 0.000684 *D AO222D0
*I *1581:C1 I *C 144.5 20.8 *L 0.00102 *D AO222D1
*I *1583:C1 I *C 144.7 12 *L 0.00102 *D AO222D1
*I *1578:C1 I *C 144.3 15.6 *L 0.00102 *D AO222D1
*I *1579:C1 I *C 144.7 17.2 *L 0.00102 *D AO222D1
*I *1582:C1 I *C 144.7 27.8 *L 0.000684 *D AO222D0
*I *1575:C1 I *C 144.7 30 *L 0.00102 *D AO222D1
*I *1580:C1 I *C 146.1 48.2 *L 0.000684 *D AO222D0
*I *1577:C1 I *C 146.9 55.4 *L 0.000684 *D AO222D0
*I *1585:B1 I *C 149.7 87.6 *L 0.000931 *D INR2D1
*I *1584:A1 I *C 150.3 89.2 *L 0.00172 *D NR2D2

*CAP
1 *1585:B1 0.000346784
2 *1577:C1 0.000171417
3 *1580:C1 0.000270769
4 *1583:C1 0.000731386
5 *613:12 0.000338184
6 *613:13 0.000438008
7 *613:14 0.000427737
8 *613:15 0.000338579
9 *613:16 0.000532939
10 *613:17 0.000264023
11 *613:18 0.000114166
12 *613:19 0.000172982
13 *613:20 0.000471693
14 *613:21 0.000652408
15 *613:22 0.000568417
16 *613:23 0.000501123
17 *613:24 0.000295383
18 *613:25 0.000495775
19 *613:26 0.000173164
20 *613:27 8.42498e-05
21 *613:28 0.00022101
22 *613:29 0.000957394
23 *613:30 0.000599473
24 *613:31 9.47336e-05
25 *613:32 0.000531344
26 *613:33 0.000995728047
27 *613:15 *1683:E 0.000719265
28 *613:28 *536:8 0.00386523
29 *613:26 *1318:I 0.00178576
30 *1580:C1 *739:3 0.00504844
31 *613:12 *1234:I 0.000249891992

*RES
1 *613:25 *613:27 0.599072
2 *613:16 *613:27 3.72736
3 *1585:B1 *613:26 3.06038
4 *1584:A1 *613:26 1.96714
5 *613:16 *613:17 2.43472
6 *613:30 *613:31 2.01396
7 *613:19 *613:21 1.80357
8 *613:14 *613:20 4.55994
9 *613:14 *613:21 5.47545
10 *613:17 *613:20 7.10505
11 *613:31 *613:33 18.9391003
12 *613:25 *613:33 6.44905
13 *613:12 *613:28 8.1298
14 *613:22 *613:24 1.77901
15 *1577:C1 *613:33 3.40196
16 *1583:C1 *613:24 5.19455
17 *1580:C1 *613:27 3.65512
18 *613:28 *613:29 12.0459
19 *613:15 *613:23 2.62574
20 *613:29 *613:32 1.35969
21 *613:22 *613:23 3.06934
22 *613:30 *613:32 14.1384
23 *613:26 *613:32 3.78314
24 *613:18 *613:12 3.43
25 *613:13 *613:15 1.70907
26 *613:13 *613:19 2.94825
27 *1578:C1 *613:24 1.50014
28 *1581:C1 *613:23 1.50014
29 *1579:C1 *613:22 1.50014
30 *1575:C1 *613:21 1.50014
31 *1576:C1 *613:20 0.749923
32 *1582:C1 *613:19 0.749923
33 *1553:Z *613:18 0.749923
*END

*D_NET *614 0.0150536

*CONN
*I *986:I I *C 143.3 134.4 *L 0.00182 *D DEL005
*I *994:I I *C 145.3 138 *L 0.00182 *D DEL005
*I *1017:Z O *C 138.3 73.6 *L 0 *D CKBD1

*CAP
1 *986:I 0.000887058
2 *1017:Z 0.000343705
3 *614:3 0.0025142
4 *614:4 0.000666003
5 *614:5 1.99494e-06
6 *614:6 0.000572663
7 *614:7 7.55392e-05
8 *614:8 0.000843208
9 *614:9 0.000111218
10 *614:10 0.000499349
11 *614:11 0.000400408
12 *614:4 *865:4 0.00215736
13 *1017:Z *620:23 0.00115646992
14 *614:3 *801:3 0.000701502969
15 *614:3 *943:Z 0.00412287

*RES
1 *614:10 *614:11 2.63785
2 *614:7 *614:3 51.0102997
3 *614:4 *614:5 0.200037
4 *986:I *614:11 6.04393
5 *614:3 *614:8 2.79741
6 *614:6 *614:7 2.38255
7 *614:5 *614:6 10.802
8 *1017:Z *614:8 5.3652
9 *614:9 *614:11 2.62617
10 *614:4 *614:10 3.66683
11 *994:I *614:9 0.750335
*END

*D_NET *615 0.0151197

*CONN
*I *975:I I *C 138.3 139.6 *L 0.00182 *D DEL005
*I *1003:I I *C 147.7 127.2 *L 0.00182 *D DEL005
*I *1029:Z O *C 141.1 70.8 *L 0 *D DEL0

*CAP
1 *1003:I 0.000147853
2 *1029:Z 0.000145813
3 *615:3 0.000793242
4 *615:4 0.000486829
5 *615:5 6.72185e-05
6 *615:6 0.000913947
7 *615:7 0.001114
8 *615:8 0.00102887
9 *615:9 0.00110349
10 *615:10 0.00115228
11 *615:11 0.00050566
12 *615:13 0.000227326
13 *615:14 0.000517704
14 *615:15 1.49453e-06
15 *615:16 0.000388964
16 *615:17 0.00020788
17 *615:18 0.000385131
18 *615:19 0.00037532
19 *615:20 6.83966e-05
20 *615:21 0.000268575
21 *615:22 4.37808e-05
22 *615:10 *781:2 0.00126124
23 *615:3 *733:3 0.000586377031
24 *615:4 *801:2 0.000674037969
25 *615:5 *716:7 0.000783408984
26 *615:6 *1441:I 0.000778253047
27 *615:7 *803:6 0.0010926

*RES
1 *615:12 *615:14 5.45188
2 *615:13 *615:6 15.8304996
3 *615:12 *615:6 0.199765
4 *615:21 *615:22 0.341075
5 *975:I *615:9 2.34259
6 *615:7 *615:20 5.56058
7 *615:5 *615:3 5.37362
8 *615:8 *615:22 6.43863
9 *615:10 *615:11 6.09079
10 *1003:I *615:8 0.99472
11 *615:10 *615:19 6.4751
12 *615:3 *615:21 4.62842
13 *615:19 *615:22 3.81849
14 *615:9 *615:5 3.904
15 *615:4 *615:18 3.32113
16 *615:11 *615:13 0.356534
17 *615:18 *615:7 3.60351
18 *615:15 *615:16 3.85955
19 *615:14 *615:15 0.199765
20 *615:4 *615:17 4.63422
21 *615:16 *615:17 2.07109
22 *1029:Z *615:20 1.81142
*END

*D_NET *616 0.0165372

*CONN
*I *1031:I I *C 137.7 172 *L 0.00104 *D DEL0
*I *1556:Z O *C 138.1 70 *L 0 *D BUFFD2

*CAP
1 *1031:I 0.000109329
2 *1556:Z 3.81783e-05
3 *616:2 0.00192891
4 *616:3 0.00132305
5 *616:4 0.000622723
6 *616:5 0.00038692
7 *616:6 0.00454912
8 *616:7 0.000660971
9 *616:8 0.000156601
10 *616:9 0.000579061
11 *616:10 1.66596e-06
12 *616:12 0.000116964
13 *616:14 0.000216922
14 *616:6 *4:3 0.00231741
15 *616:6 *105:3 0.000701676016
16 *616:6 *783:4 0.000833043984
17 *616:5 *865:3 0.000538528984
18 *616:2 *331:16 0.000311327012
19 *616:3 *871:3 0.000582015977
20 *616:4 *264:2 0.000275891016
21 *616:5 *369:5 0.000286873008

*RES
1 *616:6 *616:15 1.10713
2 *616:3 *616:14 15.5012
3 *616:11 *616:4 7.6416
4 *616:5 *616:6 31.2609005
5 *616:2 *616:13 15.0013
6 *616:9 *616:10 10.6133
7 *616:8 *616:9 0.199864
8 *616:4 *616:14 0.199864
9 *616:7 *616:15 9.34688
10 *616:13 *616:3 0.199864
11 *616:11 *616:12 2.02583
12 *1031:I *616:5 1.88846
13 *1556:Z *616:2 1.65568
14 *616:7 *616:10 0.20368
15 *616:8 *616:12 2.99749
*END

*D_NET *617 0.016862

*CONN
*I *965:I I *C 137.9 146.8 *L 0.00182 *D DEL005
*I *998:I I *C 138.9 69.6 *L 0.00103 *D DEL01
*I *1016:Z O *C 139.3 62.8 *L 0 *D CKBD1

*CAP
1 *965:I 7.77175e-05
2 *998:I 6.17281e-05
3 *1016:Z 3.24248e-05
4 *617:3 0.000398398
5 *617:4 0.000340301
6 *617:5 0.00228107
7 *617:6 0.000418146
8 *617:7 0.000489875
9 *617:8 0.000609
10 *617:9 0.00417477
11 *617:11 1.84738e-06
12 *617:12 0.000542112
13 *617:13 0.000152123
14 *617:14 7.82272e-05
15 *998:I *803:6 0.0006387
16 *617:8 *2:2 0.000989350938
17 *617:3 *619:3 0.000978253984
18 *617:3 *1557:I 0.000319700977
19 *617:3 *484:3 0.000587688984
20 *617:3 *801:2 0.000742658984
21 *617:4 *3:2 0.00251077016
22 *617:5 *266:2 0.000437177969

*RES
1 *1016:Z *617:13 1.49974
2 *617:8 *617:5 27.5447
3 *617:4 *617:8 6.81758
4 *617:10 *617:12 0.199539
5 *965:I *617:4 0.949728
6 *617:6 *617:10 4.36939
7 *617:6 *617:14 2.7104
8 *617:3 *617:6 6.71077
9 *617:7 *617:5 0.199539
10 *617:7 *617:9 41.9133987
11 *617:9 *617:11 0.199539
12 *617:3 *617:13 3.10756
13 *998:I *617:14 1.49974
14 *617:11 *617:12 3.74967
*END

*D_NET *618 0.0336249

*CONN
*I *1558:Z O *C 138.1 78 *L 0 *D BUFFD2
*I *1697:B1 I *C 142.9 265.4 *L 0.000863 *D AO22D0
*I *1731:B1 I *C 142.7 243.8 *L 0.000863 *D AO22D0
*I *1779:I I *C 142.7 164.6 *L 0.000942 *D CKND1
*I *1713:B1 I *C 141.5 141.8 *L 0.000863 *D AO22D0

*CAP
1 *1713:B1 0.000143533
2 *1779:I 0.000119084
3 *1731:B1 0.000336582
4 *618:5 0.00138736
5 *618:6 0.000943958
6 *618:7 0.00115451
7 *618:8 2.4912e-05
8 *618:10 0.000273261
9 *618:12 0.00100666
10 *618:14 0.000377614
11 *618:15 2.59147e-05
12 *618:16 2.69945e-06
13 *618:17 0.000274032
14 *618:18 0.000550687
15 *618:19 0.000686816
16 *618:20 0.000107052
17 *618:21 1.8202e-05
18 *618:22 0.000173921
19 *618:23 2.09014e-05
20 *618:24 0.000305577
21 *618:25 0.000162738
22 *618:26 5.59942e-05
23 *618:27 0.000628123
24 *618:28 0.00029208
25 *618:29 0.000475951
26 *618:30 0.00217251
27 *618:31 2.77657e-06
28 *618:32 0.00111364
29 *618:33 0.000320848
30 *618:34 0.000454432
31 *618:35 0.000974886
32 *618:36 0.00505452
33 *618:27 *716:3 0.000469150977
34 *618:30 *12:2 0.0018641
35 *618:30 *16:3 0.000386527969
36 *618:5 *166:3 0.000272172012
37 *618:18 *474:3 0.000493945977
38 *1731:B1 *620:6 0.00239229984
39 *1731:B1 *91:6 0.00434688
40 *618:18 *1749:A1 0.00030603998
41 *618:5 *73:8 0.00112776008
42 *618:6 *839:18 0.000963466016
43 *618:7 *1666:CDN 0.00136056

*RES
1 *618:18 *618:19 3.15189
2 *618:8 *618:23 0.429341
3 *618:23 *618:29 3.41133
4 *618:14 *618:16 0.19941
5 *618:12 *618:15 5.40339
6 *618:11 *618:12 0.510733
7 *618:20 *618:22 1.02147
8 *1731:B1 *618:9 1.34093
9 *618:34 *618:35 9.91046
10 *618:21 *618:22 3.52833
11 *618:26 *618:36 1.14966
12 *1779:I *618:26 1.49964
13 *618:25 *618:36 66.6761017
14 *618:27 *618:34 3.57208
15 *618:19 *618:28 2.61064
16 *618:9 *618:10 0.19941
17 *1731:B1 *618:25 3.05117
18 *618:5 *618:21 0.355071
19 *618:10 *618:11 1.50168
20 *618:16 *618:17 1.51185
21 *618:30 *618:31 0.19941
22 *618:27 *618:31 7.58978
23 *618:15 *618:17 0.19941
24 *618:30 *618:36 19.6001
25 *618:7 *618:29 7.46362
26 *618:18 *618:6 7.2927
27 *618:13 *618:7 0.19941
28 *1713:B1 *618:27 1.49964
29 *618:20 *618:6 3.13053
30 *618:32 *618:33 2.34103
31 *618:13 *618:14 1.99308
32 *618:32 *618:35 10.4446
33 *618:24 *618:28 2.77342
34 *618:5 *618:33 14.2965
35 *1558:Z *618:24 0.749821
36 *1697:B1 *618:23 0.749821
*END

*D_NET *619 0.0239785

*CONN
*I *1019:I I *C 138.3 179.2 *L 0.00105 *D DEL1
*I *1079:I I *C 143.5 109.2 *L 0.00182 *D DEL005
*I *1559:Z O *C 138.1 55.6 *L 0 *D BUFFD2

*CAP
1 *1019:I 7.29536e-05
2 *1079:I 0.00024562
3 *1559:Z 0.000214161
4 *619:3 0.00277482
5 *619:4 0.00117657
6 *619:5 0.000189646
7 *619:6 0.000603487
8 *619:7 0.00166163
9 *619:8 0.0011308
10 *619:9 0.00232668
11 *619:10 0.00199409
12 *619:12 0.000225762
13 *619:13 1.77832e-06
14 *619:14 0.000505933
15 *619:15 3.15441e-05
16 *619:16 0.000118936
17 *619:17 0.000217633
18 *619:18 0.000390765
19 *619:19 0.000482942
20 *619:20 2.07471e-06
21 *619:3 *8:3 0.000702728984
22 *619:4 *841:4 0.00138009
23 *619:5 *733:5 0.000558826992
24 *619:3 *801:4 0.00105503
25 *619:6 *153:3 0.000415833008
26 *619:4 *233:3 0.000250687012
27 *619:3 *617:3 0.000978253984
28 *619:7 *803:16 0.00328177
29 *619:8 *58:8 0.000662281953
30 *619:9 *338:2 0.000325118008

*RES
1 *619:9 *619:10 11.5839
2 *619:4 *619:7 7.39403
3 *619:11 *619:3 0.19992
4 *1559:Z *619:14 4.27951
5 *1019:I *619:10 12.2085
6 *619:13 *619:14 4.18258
7 *619:5 *619:18 2.95519
8 *619:7 *619:16 7.76782
9 *619:15 *619:17 2.07069
10 *619:7 *619:3 39.7029991
11 *619:19 *619:20 0.19992
12 *619:18 *619:8 6.67068
13 *619:17 *619:19 4.29344
14 *619:9 *619:15 3.34594
15 *619:20 *619:6 4.25043
16 *619:8 *619:6 13.2941
17 *619:12 *619:13 0.19992
18 *619:4 *619:5 7.0057
19 *619:11 *619:12 3.98932
20 *1079:I *619:16 2.27849
*END

*D_NET *620 0.0380556

*CONN
*I *1012:I I *C 149.7 174 *L 0.00103 *D DEL015
*I *1030:Z O *C 139.3 66.4 *L 0 *D BUFFD2
*I *1692:B1 I *C 145.3 253.4 *L 0.000863 *D AO22D0
*I *1723:B1 I *C 144.5 225.8 *L 0.000863 *D AO22D0
*I *1708:B1 I *C 140.9 117.8 *L 0.000863 *D AO22D0

*CAP
1 *1708:B1 8.19369e-06
2 *1723:B1 0.00015689
3 *620:5 0.00312708
4 *620:6 0.000942935
5 *620:7 0.000237947
6 *620:8 5.0042e-05
7 *620:9 0.000803752
8 *620:10 0.000509439
9 *620:11 0.000384334
10 *620:13 2.47461e-06
11 *620:14 0.000591981
12 *620:15 0.0010786
13 *620:16 3.84939e-06
14 *620:17 0.000512848
15 *620:18 7.84725e-05
16 *620:19 0.000337426
17 *620:20 0.000429756
18 *620:21 0.000792534
19 *620:22 0.000273966
20 *620:23 0.000892673
21 *620:24 0.00227922
22 *620:25 0.000266433
23 *620:26 0.000467865
24 *620:27 0.00116493
25 *620:28 0.000572239
26 *620:29 0.000497506
27 *620:30 0.000120816
28 *620:32 0.000107178
29 *620:33 0.000599789
30 *620:34 0.00360385
31 *620:35 0.000412049
32 *620:36 0.00104709
33 *620:34 *12:3 0.0016994
34 *620:34 *16:2 0.000219408008
35 *620:23 *1017:Z 0.00115646992
36 *620:19 *734:3 0.000672550938
37 *620:8 *841:8 0.00330387
38 *620:33 *36:2 0.000426996992
39 *620:10 *58:3 0.000570407969
40 *620:10 *780:2 0.00112456
41 *620:20 *783:2 0.00169977
42 *620:20 *865:2 0.000858908984
43 *620:5 *992:Z 0.00157658
44 *620:6 *1731:B1 0.00239229984

*RES
1 *1692:B1 *620:7 1.36671
2 *620:21 *620:22 2.82487
3 *620:5 *620:29 17.4132
4 *620:15 *620:16 0.200024
5 *620:26 *620:6 7.26481
6 *620:12 *620:15 8.36829
7 *620:5 *620:13 0.200024
8 *620:8 *620:9 6.05946
9 *620:12 *620:14 0.200024
10 *620:22 *620:23 5.71518
11 *1708:B1 *620:10 0.947326
12 *620:21 *620:25 9.06057
13 *620:24 *620:25 2.00693
14 *620:10 *620:11 2.89775
15 *620:11 *620:17 1.28119
16 *620:32 *620:33 8.83972
17 *620:20 *620:24 26.2217
18 *620:31 *620:35 4.80355
19 *620:27 *620:34 12.7658
20 *620:18 *620:19 3.14536
21 *620:16 *620:17 4.77381
22 *620:34 *620:35 48.7314987
23 *620:7 *620:26 3.86217
24 *620:13 *620:14 5.14709
25 *620:19 *620:23 2.20175
26 *620:11 *620:20 4.65855
27 *620:29 *620:36 1.10571
28 *620:31 *620:33 0.200024
29 *1012:I *620:30 2.5267
30 *1723:B1 *620:35 4.28527
31 *620:8 *620:27 2.3066
32 *620:9 *620:28 4.24289
33 *620:28 *620:36 5.90405
34 *620:6 *620:32 0.200024
35 *620:30 *620:34 7.49012
36 *1030:Z *620:18 0.750276
*END

*D_NET *621 0.000116407

*CONN
*I *1024:I I *C 139.5 6.4 *L 0.000975 *D CKBD2
*I *1232:Z O *C 138.9 6 *L 0 *D BUFFD2

*CAP
1 *1232:Z 0.000116407002

*RES
1 *1024:I *1232:Z 2.76252
*END

*D_NET *622 0.00170373

*CONN
*I *1562:Z O *C 151.9 95.2 *L 0 *D DEL1
*I *1585:A1 I *C 150.3 87.6 *L 0.000708 *D INR2D1
*I *1584:A2 I *C 150.7 89.2 *L 0.00217 *D NR2D2

*CAP
1 *1585:A1 0.00038831
2 *622:3 0.000575210977
3 *622:4 0.000293526
4 *622:5 0.000446678

*RES
1 *622:3 *622:5 3.75142002
2 *622:3 *622:4 1.29854
3 *1562:Z *622:5 3.13859
4 *1585:A1 *622:4 2.536
5 *1584:A2 *622:4 0.749986
*END

*D_NET *623 0.000481629

*CONN
*I *1569:I I *C 142.1 312.4 *L 0.00352 *D CKND4
*I *1570:ZN O *C 139.3 312.2 *L 0 *D CKND1

*CAP
1 *1569:I 0.000156794
2 *623:2 0.000324833984

*RES
1 *1569:I *623:2 5.33420992
2 *1570:ZN *623:2 0.74996
*END

*D_NET *624 0.00409848

*CONN
*I *1568:I I *C 144.5 265.4 *L 0.0054 *D CKND6
*I *1569:ZN O *C 142.7 312 *L 0 *D CKND4

*CAP
1 *1568:I 6.46307e-05
2 *624:2 4.853e-05
3 *624:3 0.000256816
4 *624:4 0.0037285

*RES
1 *624:2 *624:4 2.17961
2 *624:3 *624:4 37.1213989
3 *1568:I *624:2 1.4999
4 *1569:ZN *624:3 1.4999
*END

*D_NET *625 0.0302552

*CONN
*I *1567:I I *C 144.1 74.8 *L 0.00178 *D CKND2
*I *1568:ZN O *C 145.5 265.2 *L 0 *D CKND6
*I *1566:I I *C 145.3 74.6 *L 0.00267 *D CKND3
*I *1565:I I *C 144.7 112.8 *L 0.00178 *D CKND2
*I *1564:I I *C 145.1 213.6 *L 0.00178 *D CKND2
*I *1563:I I *C 145.1 192.2 *L 0.0054 *D CKND6

*CAP
1 *1564:I 0.000102894
2 *1566:I 7.46371e-05
3 *625:6 0.00444954
4 *625:7 0.000206132
5 *625:8 0.000192132
6 *625:9 0.000539294
7 *625:10 0.000116379
8 *625:11 0.000281371
9 *625:12 0.00313055
10 *625:13 0.00153826
11 *625:14 0.0056287
12 *625:9 *732:2 0.000511713984
13 *1564:I *70:4 0.00146082
14 *625:12 *867:2 0.00055756
15 *625:13 *867:3 6.502e-06
16 *625:13 *867:2 0.000605931
17 *625:14 *867:3 0.00148075
18 *625:14 *867:2 0.00338249999
19 *625:12 *934:2 0.000168681
20 *625:12 *934:3 6.317e-05
21 *625:12 *934:4 0.000129991
22 *625:13 *934:3 0.000335714
23 *625:14 *934:5 0.00113241
24 *625:14 *934:2 0.000179824
25 *625:14 *934:3 0.00300099
26 *625:14 *934:4 0.000105766052
27 *625:6 *180:13 0.000873041953

*RES
1 *625:13 *625:14 89.3035965
2 *1564:I *625:10 1.50029
3 *1566:I *625:9 1.50029
4 *1567:I *625:9 3.97353
5 *625:12 *625:14 34.0939
6 *625:7 *625:13 1.89955
7 *625:10 *625:6 1.14873
8 *625:13 *625:6 16.6586
9 *625:11 *625:6 40.9958
10 *625:8 *625:14 2.19662
11 *1568:ZN *625:11 1.50029
12 *1565:I *625:8 1.50029
13 *1563:I *625:7 0.749466
14 *625:9 *625:12 0.749466
*END

*D_NET *626 0.0239385

*CONN
*I *1673:CP I *C 150.3 195.6 *L 0.000642 *D DFCNQD1
*I *1563:ZN O *C 144.1 192.4 *L 0 *D CKND6
*I *1672:CP I *C 150.3 190 *L 0.000642 *D DFCNQD1
*I *1671:CP I *C 145.7 184.8 *L 0.000642 *D DFCNQD1
*I *1670:CP I *C 146.1 175.6 *L 0.000642 *D DFCNQD1
*I *1653:CP I *C 143.3 204.4 *L 0.000642 *D DFCNQD1
*I *1652:CP I *C 150.9 202.8 *L 0.000642 *D DFCNQD1
*I *1651:CP I *C 150.5 197.2 *L 0.000642 *D DFCNQD1
*I *1650:CP I *C 142.5 199.2 *L 0.000642 *D DFCNQD1
*I *1649:CP I *C 143.3 195.6 *L 0.000642 *D DFCNQD1
*I *1648:CP I *C 143.1 190 *L 0.000642 *D DFCNQD1
*I *1647:CP I *C 145.9 179.2 *L 0.000642 *D DFCNQD1
*I *1646:CP I *C 146.1 170.4 *L 0.000642 *D DFCNQD1
*I *1645:CP I *C 143.9 143.2 *L 0.000642 *D DFCNQD1
*I *1644:CP I *C 144.1 139.6 *L 0.000642 *D DFCNQD1
*I *1643:CP I *C 142.7 134.4 *L 0.000642 *D DFCNQD1
*I *1642:CP I *C 143.7 127.2 *L 0.000642 *D DFCNQD1
*I *1641:CP I *C 142.7 121.6 *L 0.000642 *D DFCNQD1
*I *1574:CLK I *C 134.195 180.925 *L 0.031 *D sram00

*CAP
1 *1641:CP 0.000579337
2 *1673:CP 6.64971e-05
3 *626:19 3.6916e-05
4 *626:20 4.59111e-05
5 *626:21 4.26511e-05
6 *626:22 0.000895945
7 *626:23 0.00021241
8 *626:24 0.000409336
9 *626:25 5.7985e-05
10 *626:26 5.36685e-05
11 *626:27 5.78944e-05
12 *626:28 1.91372e-05
13 *626:29 0.00118729
14 *626:30 8.14687e-05
15 *626:31 8.17102e-05
16 *626:32 5.52683e-05
17 *626:33 0.000176038
18 *626:34 9.20938e-05
19 *626:35 3.99948e-05
20 *626:36 6.65876e-05
21 *626:38 0.000185757
22 *626:39 0.00109124
23 *626:40 0.00020574
24 *626:41 3.83347e-06
25 *626:42 5.1948e-05
26 *626:43 6.45653e-05
27 *626:44 5.95546e-05
28 *626:45 3.07885e-05
29 *626:46 7.73032e-05
30 *626:47 3.80932e-05
31 *626:48 5.96451e-05
32 *626:49 9.81911e-05
33 *626:50 5.35478e-05
34 *626:51 7.47073e-05
35 *626:52 0.000107971
36 *626:53 0.000251741
37 *626:55 7.39225e-05
38 *626:58 0.000327716
39 *626:59 5.46043e-05
40 *626:60 8.84414e-06
41 *626:61 8.30082e-06
42 *626:62 4.5247e-05
43 *626:63 9.86741e-05
44 *626:64 0.000659809
45 *626:65 0.000991993
46 *626:66 3.37768e-05
47 *626:67 0.00012735
48 *626:68 0.000171148
49 *626:69 0.000216395
50 *626:74 0.000129976
51 *626:75 7.00891e-05
52 *626:76 0.000596602
53 *626:77 5.51778e-05
54 *626:78 0.000244527
55 *626:79 0.000323762
56 *626:80 2.95811e-06
57 *626:81 4.52772e-06
58 *626:82 1.49113e-05
59 *626:83 0.000114431
60 *626:84 7.05117e-05
61 *626:85 0.00030218
62 *626:86 0.000312141
63 *626:87 0.000279451
64 *626:88 0.000660654
65 *626:89 0.000134171
66 *626:90 0.000135107
67 *626:91 0.000174498
68 *626:92 0.00197816
69 *626:93 0.000301335
70 *626:32 *868:2 0.00223739
71 *626:26 *913:2 0.00284371
72 *626:29 *181:9 0.000692933047
73 *626:29 *182:9 0.000377308008
74 *626:30 *375:2 0.000260697012
75 *626:29 *840:4 0.000933633984
76 *626:28 *864:9 0.000571763984
77 *626:25 *936:9 0.000585326016

*RES
1 *626:71 *626:87 2.41782
2 *626:61 *626:77 0.202338
3 *626:29 *626:54 9.61846
4 *626:67 *626:90 1.54268
5 *626:21 *626:50 0.334999
6 *626:39 *626:53 6.54576
7 *626:42 *626:45 0.334755
8 *626:32 *626:52 0.429645
9 *626:62 *626:63 0.822453
10 *626:37 *626:40 0.746681
11 *626:83 *626:91 1.86881
12 *626:36 *626:49 0.348528
13 *626:87 *626:88 4.20482
14 *626:43 *626:74 1.52827
15 *626:22 *626:70 1.21708
16 *626:83 *626:85 4.04909
17 *626:68 *626:83 1.74839
18 *626:90 *626:91 2.33601
19 *626:81 *626:82 0.356535
20 *626:62 *626:79 3.46859
21 *626:30 *626:57 0.334858
22 *626:75 *626:88 2.30625
23 *626:66 *626:92 0.927709
24 *626:81 *626:93 0.188917
25 *626:33 *626:48 0.429353
26 *626:85 *626:86 4.54135
27 *626:80 *626:89 1.06799
28 *626:34 *626:35 0.412605
29 *626:22 *626:23 1.37925
30 *626:89 *626:90 2.95895
31 *626:53 *626:64 1.74851
32 *626:23 *626:24 2.36399
33 *626:69 *626:89 2.10657
34 *626:50 *626:58 1.21698
35 *626:25 *626:55 0.334755
36 *626:86 *626:87 2.80321
37 *626:52 *626:78 1.74851
38 *626:27 *626:46 0.334755
39 *626:28 *626:51 0.429513
40 *626:64 *626:82 5.90304
41 *626:37 *626:38 0.199825
42 *626:31 *626:47 0.429645
43 *626:60 *626:77 0.202338
44 *626:58 *626:84 2.46307
45 *626:19 *626:43 0.334799
46 *626:29 *626:65 8.36398
47 *626:88 *626:92 32.4674
48 *626:79 *626:80 0.199778
49 *626:73 *626:85 1.995
50 *626:72 *626:86 2.26219
51 *626:59 *626:76 4.59151
52 *626:20 *626:44 0.334999
53 *626:48 *626:63 1.03916
54 *1641:CP *626:41 4.26527
55 *626:26 *626:56 0.46561
56 *1673:CP *626:23 1.10567
57 *626:22 *626:74 5.25402
58 *626:38 *626:39 0.97944
59 *626:92 *626:93 3.59846
60 *626:40 *626:41 0.199825
61 *1644:CP *626:57 1.5
62 *1646:CP *626:56 1.5
63 *1670:CP *626:55 1.5
64 *1563:ZN *626:54 0.75
65 *1643:CP *626:53 0.75
66 *1642:CP *626:52 0.75
67 *1671:CP *626:51 0.75
68 *1672:CP *626:50 0.75
69 *1648:CP *626:49 0.75
70 *1649:CP *626:34 0.75
71 *1653:CP *626:48 0.75
72 *1645:CP *626:47 0.75
73 *1647:CP *626:46 0.75
74 *1650:CP *626:45 0.75
75 *1651:CP *626:44 0.75
76 *1652:CP *626:43 0.75
77 *626:24 *626:59 0.75
78 *626:34 *626:67 0.75
79 *626:39 *626:78 0.75
80 *626:44 *626:70 0.75
81 *626:45 *626:69 0.75
82 *626:46 *626:72 0.75
83 *626:47 *626:66 0.75
84 *626:49 *626:68 0.75
85 *626:51 *626:73 0.75
86 *626:54 *626:76 0.75
87 *626:55 *626:71 0.75
88 *626:56 *626:75 0.75
89 *626:57 *626:77 0.75
90 *626:59 *626:84 0.75
91 *626:76 *626:91 0.75
92 *626:77 *626:93 0.75
93 *1563:ZN *1574:CLK 0.0001
*END

*D_NET *627 0.0170235

*CONN
*I *1677:CP I *C 150.3 213.6 *L 0.000642 *D DFCNQD1
*I *1564:ZN O *C 144.83 213.305 *L 0 *D CKND2
*I *1676:CP I *C 143.3 211.6 *L 0.000642 *D DFCNQD1
*I *1675:CP I *C 143.1 213.6 *L 0.000642 *D DFCNQD1
*I *1674:CP I *C 150.9 210 *L 0.000642 *D DFCNQD1
*I *1669:CP I *C 144.9 271.2 *L 0.000642 *D DFCNQD1
*I *1668:CP I *C 145.3 260.4 *L 0.000642 *D DFCNQD1
*I *1667:CP I *C 146.7 267.6 *L 0.000642 *D DFCNQD1
*I *1666:CP I *C 144.3 262 *L 0.000642 *D DFCNQD1
*I *1665:CP I *C 142.7 254.8 *L 0.000642 *D DFCNQD1
*I *1664:CP I *C 145.7 254.8 *L 0.000642 *D DFCNQD1
*I *1663:CP I *C 144.7 249.6 *L 0.000642 *D DFCNQD1
*I *1662:CP I *C 144.9 222.4 *L 0.000642 *D DFCNQD1
*I *1661:CP I *C 143.1 246 *L 0.000642 *D DFCNQD1
*I *1660:CP I *C 150.3 246 *L 0.000642 *D DFCNQD1
*I *1659:CP I *C 144.5 240.4 *L 0.000642 *D DFCNQD1
*I *1658:CP I *C 145.9 233.2 *L 0.000642 *D DFCNQD1
*I *1657:CP I *C 145.7 229.6 *L 0.000642 *D DFCNQD1
*I *1656:CP I *C 146.9 228 *L 0.000642 *D DFCNQD1
*I *1655:CP I *C 149.7 224.4 *L 0.000642 *D DFCNQD1
*I *1654:CP I *C 149.9 217.2 *L 0.000642 *D DFCNQD1

*CAP
1 *1655:CP 0.000104539
2 *1659:CP 1.35465e-05
3 *1663:CP 7.89222e-05
4 *1666:CP 0.000108306
5 *1668:CP 1.3943e-05
6 *1674:CP 4.74238e-05
7 *1676:CP 0.000420162
8 *627:21 0.000775345
9 *627:22 0.000800104
10 *627:23 0.000817725
11 *627:24 0.000430383
12 *627:25 0.000755565
13 *627:26 0.000294675
14 *627:27 0.00127941
15 *627:28 0.0007742
16 *627:29 0.0006527
17 *627:30 0.000631752
18 *627:31 8.96053e-05
19 *627:32 0.000425581
20 *627:33 0.00014584
21 *627:34 0.0002217
22 *627:35 0.00144353
23 *627:36 0.000288111
24 *627:37 0.000140443
25 *627:38 0.00028701
26 *627:39 0.000205951
27 *627:40 0.000436308
28 *627:41 0.0005562
29 *627:42 0.000251128
30 *627:43 0.000172911
31 *627:44 0.00117747
32 *627:45 0.000834179
33 *627:46 0.000682502
34 *627:47 8.26007e-05
35 *627:48 4.53313e-05
36 *627:49 0.000517785
37 *627:50 0.000560099
38 *627:21 *1692:B2 0.000460451992

*RES
1 *627:25 *627:26 1.34632
2 *627:42 *627:46 4.20219
3 *1661:CP *627:44 3.08802
4 *1669:CP *627:22 3.3954
5 *627:26 *627:32 3.14755
6 *627:22 *627:23 4.35718
7 *627:24 *627:29 2.81306
8 *627:36 *627:46 1.99497
9 *1663:CP *627:29 0.949812
10 *1664:CP *627:43 2.1225
11 *627:21 *627:29 4.48088
12 *1677:CP *627:42 2.56126
13 *627:27 *627:48 4.57396
14 *627:42 *627:49 3.40251
15 *627:24 *627:35 4.55939
16 *627:31 *627:44 5.36653
17 *1676:CP *627:36 2.43214
18 *627:27 *627:38 1.40077
19 *627:26 *627:27 2.89078
20 *627:28 *627:30 2.95517
21 *627:40 *627:43 2.55798
22 *627:25 *627:41 4.20592
23 *627:25 *627:33 2.29862
24 *627:47 *627:49 1.60049
25 *1655:CP *627:48 1.49995
26 *627:23 *627:34 1.40054
27 *1658:CP *627:41 2.56081
28 *627:37 *627:45 5.16624
29 *627:22 *627:39 2.9005
30 *627:35 *627:50 7.40328979
31 *1668:CP *627:34 1.13632
32 *627:21 *627:34 4.49161
33 *627:28 *627:38 4.31392
34 *1674:CP *627:47 1.49995
35 *1666:CP *627:23 2.71681
36 *1659:CP *627:35 1.13903
37 *1665:CP *627:40 1.49995
38 *1667:CP *627:39 1.49995
39 *1662:CP *627:38 0.749976
40 *1654:CP *627:37 0.749976
41 *1675:CP *627:36 0.749976
42 *1564:ZN *627:30 0.749976
43 *1657:CP *627:33 0.749976
44 *1656:CP *627:32 0.749976
45 *1660:CP *627:31 0.749976
46 *627:21 *627:43 0.749976
47 *627:24 *627:44 0.749976
48 *627:28 *627:45 0.749976
49 *627:30 *627:46 0.749976
50 *627:41 *627:50 0.749976
*END

*D_NET *628 0.0203009

*CONN
*I *1680:CP I *C 146.1 109.4 *L 0.000705 *D EDFCNQD1
*I *1565:ZN O *C 144.43 112.505 *L 0 *D CKND2
*I *1679:CP I *C 146.1 113 *L 0.0011 *D EDFCNQD4
*I *1678:CP I *C 146.1 103.4 *L 0.000705 *D EDFCNQD1
*I *1640:CP I *C 142.3 120 *L 0.000642 *D DFCNQD1
*I *1639:CP I *C 142.9 114.4 *L 0.000642 *D DFCNQD1
*I *1638:CP I *C 142.9 109.2 *L 0.000642 *D DFCNQD1
*I *1637:CP I *C 143.5 105.6 *L 0.000642 *D DFCNQD1
*I *1636:CP I *C 142.9 103.6 *L 0.000642 *D DFCNQD1
*I *1635:CP I *C 143.5 100 *L 0.000642 *D DFCNQD1
*I *1634:CP I *C 142.5 92.8 *L 0.000642 *D DFCNQD1
*I *1633:CP I *C 146.7 96.4 *L 0.000642 *D DFCNQD1
*I *1632:CP I *C 148.1 89.2 *L 0.000642 *D DFCNQD1
*I *1631:CP I *C 142.7 91.2 *L 0.000642 *D DFCNQD1
*I *1630:CP I *C 142.9 82 *L 0.000642 *D DFCNQD1
*I *1629:CP I *C 150.3 82 *L 0.000642 *D DFCNQD1
*I *1621:CP I *C 146.7 84 *L 0.000642 *D DFCNQD1
*I *1620:CP I *C 142.5 76.8 *L 0.000642 *D DFCNQD1
*I *1596:CP I *C 146.5 100 *L 0.000642 *D DFCNQD1
*I *1588:CP I *C 146.5 116.4 *L 0.000642 *D DFCNQD1
*I *1586:CP I *C 146.9 98.4 *L 0.000642 *D DFCNQD1

*CAP
1 *1586:CP 9.07287e-05
2 *1588:CP 0.000239391
3 *1596:CP 8.51034e-05
4 *1631:CP 0.000347789
5 *1635:CP 0.000142827
6 *1636:CP 0.000289482
7 *1637:CP 4.66365e-05
8 *1638:CP 0.000391812
9 *1639:CP 6.46095e-05
10 *1640:CP 0.000544932
11 *1678:CP 0.000481046
12 *1680:CP 0.000318729
13 *628:21 5.36623e-05
14 *628:22 0.000269362
15 *628:23 0.000441669
16 *628:24 0.000180244
17 *628:25 0.000784464
18 *628:26 0.00083229
19 *628:27 0.00152969
20 *628:28 5.72102e-05
21 *628:29 0.00044349
22 *628:30 0.00016052
23 *628:31 0.000877666
24 *628:32 0.000984781
25 *628:33 0.000944587
26 *628:34 0.00103132
27 *628:35 0.000447084
28 *628:36 0.000127118
29 *628:37 0.000117525
30 *628:38 0.000538303
31 *628:39 0.00020865
32 *628:40 0.000281336
33 *628:41 0.000274427
34 *628:42 6.15284e-05
35 *628:43 0.000295761
36 *628:44 0.000257458
37 *628:45 5.2822e-05
38 *628:46 0.00090598
39 *628:47 0.000316955
40 *628:48 0.000705452
41 *628:49 0.00112301
42 *628:50 0.000293427
43 *1640:CP *869:2 0.00119797
44 *1631:CP *858:11 0.00029462502
45 *1636:CP *860:10 0.000309873008
46 *1636:CP *842:13 0.000857456016

*RES
1 *628:30 *628:31 7.26194
2 *1638:CP *628:35 3.64743
3 *628:48 *628:50 2.42269
4 *628:36 *628:46 3.55174
5 *628:34 *628:39 2.58945
6 *628:34 *628:49 4.8177
7 *628:21 *628:42 1.06133
8 *1596:CP *628:27 1.17187
9 *628:29 *628:45 4.89722
10 *628:34 *628:50 4.79862
11 *628:43 *628:44 0.62264
12 *1636:CP *628:44 4.21793
13 *1640:CP *628:45 3.57941
14 *628:22 *628:27 2.06105
15 *628:31 *628:32 4.20584
16 *628:33 *628:40 2.90084
17 *628:35 *628:47 1.83952
18 *628:25 *628:37 2.63023
19 *628:32 *628:33 6.07303
20 *1639:CP *628:35 2.30748
21 *628:21 *628:27 9.54510021
22 *1679:CP *628:28 1.81155
23 *628:33 *628:48 4.59879
24 *628:22 *628:41 1.35757
25 *1637:CP *628:44 1.50002
26 *1631:CP *628:40 2.15703
27 *1620:CP *628:49 2.90084
28 *628:30 *628:38 0.259979
29 *1680:CP *628:28 3.99203
30 *628:26 *628:46 2.38016
31 *628:42 *628:47 1.64566
32 *628:23 *628:41 2.94672
33 *628:24 *628:25 2.40302
34 *628:23 *628:24 0.98195
35 *1678:CP *628:43 5.84902
36 *628:29 *628:38 4.41572
37 *1586:CP *628:22 1.11624
38 *1588:CP *628:29 4.31682
39 *628:25 *628:26 4.63695
40 *1635:CP *628:32 3.1917
41 *1621:CP *628:26 0.749935
42 *1633:CP *628:41 0.749935
43 *1634:CP *628:40 0.749935
44 *1630:CP *628:39 0.749935
45 *1565:ZN *628:38 0.749935
46 *1632:CP *628:37 0.749935
47 *1629:CP *628:36 0.749935
48 *628:28 *628:42 0.749935
49 *628:30 *628:47 0.749935
50 *628:31 *628:43 0.749935
*END

*D_NET *629 0.0224147

*CONN
*I *1687:CP I *C 140.5 37.4 *L 0.000705 *D EDFCNQD1
*I *1566:ZN O *C 145.7 74.4 *L 0 *D CKND3
*I *1686:CP I *C 146.1 33.8 *L 0.000705 *D EDFCNQD1
*I *1685:CP I *C 139.5 35 *L 0.000705 *D EDFCNQD1
*I *1684:CP I *C 140.7 26.6 *L 0.000705 *D EDFCNQD1
*I *1683:CP I *C 145.5 24.2 *L 0.000705 *D EDFCNQD1
*I *1682:CP I *C 144.9 6.2 *L 0.000705 *D EDFCNQD1
*I *1681:CP I *C 144.5 9.8 *L 0.000705 *D EDFCNQD1
*I *1610:CP I *C 150.3 8.4 *L 0.000642 *D DFCNQD1
*I *1609:CP I *C 150.3 19.2 *L 0.000642 *D DFCNQD1
*I *1608:CP I *C 150.5 22.8 *L 0.000642 *D DFCNQD1
*I *1607:CP I *C 150.3 40.8 *L 0.000642 *D DFCNQD1
*I *1606:CP I *C 139.1 19.2 *L 0.000642 *D DFCNQD1
*I *1605:CP I *C 139.1 22.8 *L 0.000642 *D DFCNQD1
*I *1603:CP I *C 138.5 33.6 *L 0.000642 *D DFCNQD1
*I *1600:CP I *C 139.3 31.6 *L 0.000642 *D DFCNQD1
*I *1598:CP I *C 139.1 8.4 *L 0.000642 *D DFCNQD1
*I *1597:CP I *C 138.7 13.6 *L 0.000642 *D DFCNQD1
*I *1595:CP I *C 150.7 31.6 *L 0.000642 *D DFCNQD1
*I *1594:CP I *C 150.3 35.2 *L 0.000642 *D DFCNQD1
*I *1592:CP I *C 150.1 13.6 *L 0.000642 *D DFCNQD1

*CAP
1 *1594:CP 0.000464741
2 *1595:CP 3.44548e-05
3 *1600:CP 0.000261538
4 *1607:CP 3.20668e-05
5 *1608:CP 6.0836e-05
6 *1566:ZN 0.000119853
7 *1687:CP 6.22574e-05
8 *629:21 6.73175e-05
9 *629:22 0.000800135
10 *629:23 0.000123889
11 *629:24 0.000146859
12 *629:25 7.3856e-05
13 *629:26 0.00131764
14 *629:27 0.00026313
15 *629:28 0.000137478
16 *629:29 0.000375818
17 *629:30 0.000285019
18 *629:31 0.000790128
19 *629:32 0.000143732
20 *629:33 0.000802921
21 *629:34 0.000783135
22 *629:35 0.000443477
23 *629:36 0.000445694
24 *629:37 0.000187341
25 *629:38 0.00037144
26 *629:39 0.00022805
27 *629:40 0.000729577
28 *629:41 3.0418e-05
29 *629:42 8.92071e-05
30 *629:43 4.47457e-05
31 *629:44 0.000710985
32 *629:45 0.000436939
33 *629:46 0.000275524
34 *629:47 0.00026131
35 *629:48 0.00372606
36 *629:49 0.000189785
37 *629:50 0.000360695
38 *629:51 0.000684831
39 *629:52 0.000477704
40 *629:53 0.000396173
41 *629:54 0.000239591
42 *629:45 *538:10 0.000691227031
43 *1687:CP *633:57 0.00112100992
44 *629:22 *935:10 0.00151196
45 *629:26 *84:4 0.000245829004
46 *1607:CP *1020:I 0.000383588984
47 *629:21 *450:2 0.000217462012
48 *1600:CP *476:4 0.000375208008
49 *1600:CP *529:3 0.000391739023

*RES
1 *629:41 *629:51 4.67889
2 *1681:CP *629:39 3.33963
3 *629:36 *629:40 4.38802
4 *1566:ZN *629:45 1.50007
5 *629:22 *629:29 1.24535
6 *629:43 *629:48 4.50811
7 *629:40 *629:47 3.08574
8 *629:24 *629:44 4.60659
9 *1600:CP *629:54 3.96293
10 *629:37 *629:52 5.11063
11 *1595:CP *629:41 1.50007
12 *629:22 *629:44 4.00822
13 *629:49 *629:50 2.959
14 *629:48 *629:49 2.64777
15 *629:26 *629:37 5.83116
16 *629:32 *629:47 1.50007
17 *629:34 *629:38 5.81952
18 *629:30 *629:53 3.05748
19 *629:52 *629:53 4.04936
20 *629:33 *629:39 5.30593
21 *1607:CP *629:43 2.25011
22 *629:50 *629:51 1.55741
23 *1687:CP *629:40 2.25011
24 *629:22 *629:42 4.57459
25 *1608:CP *629:42 2.25011
26 *629:46 *629:51 5.05453
27 *629:21 *629:36 4.43539
28 *629:47 *629:54 1.24576
29 *1605:CP *629:26 4.26045
30 *629:45 *629:48 27.2322998
31 *629:29 *629:46 2.59874
32 *629:23 *629:38 4.90286
33 *629:31 *629:46 4.84302
34 *629:35 *629:39 0.467058
35 *1594:CP *629:21 2.78531
36 *629:27 *629:54 2.51812
37 *629:28 *629:50 1.96671
38 *629:25 *629:35 4.79648
39 *629:37 *629:44 0.473706
40 *1597:CP *629:34 1.50007
41 *1598:CP *629:33 1.50007
42 *1685:CP *629:32 1.50007
43 *1684:CP *629:31 1.50007
44 *1682:CP *629:30 1.50007
45 *1683:CP *629:29 1.50007
46 *1686:CP *629:28 1.50007
47 *1603:CP *629:27 0.750035
48 *1606:CP *629:26 0.750035
49 *1610:CP *629:25 0.750035
50 *1609:CP *629:24 0.750035
51 *1592:CP *629:23 0.750035
52 *629:35 *629:53 0.750035
53 *629:36 *629:49 0.750035
54 *629:38 *629:52 0.750035
*END

*D_NET *630 0.0168399

*CONN
*I *1689:CP I *C 145.7 51.8 *L 0.000705 *D EDFCNQD1
*I *1567:ZN O *C 143.83 75.095 *L 0 *D CKND2
*I *1688:CP I *C 145.1 44.6 *L 0.000705 *D EDFCNQD1
*I *1628:CP I *C 150.1 80.4 *L 0.000642 *D DFCNQD1
*I *1627:CP I *C 151.5 74.8 *L 0.000642 *D DFCNQD1
*I *1626:CP I *C 150.5 73.2 *L 0.000642 *D DFCNQD1
*I *1625:CP I *C 150.7 67.6 *L 0.000642 *D DFCNQD1
*I *1624:CP I *C 150.9 62.4 *L 0.000642 *D DFCNQD1
*I *1623:CP I *C 150.5 58.8 *L 0.000642 *D DFCNQD1
*I *1622:CP I *C 143.3 58.8 *L 0.000642 *D DFCNQD1
*I *1619:CP I *C 143.3 74.8 *L 0.000642 *D DFCNQD1
*I *1618:CP I *C 143.3 67.6 *L 0.000642 *D DFCNQD1
*I *1617:CP I *C 145.5 66 *L 0.000642 *D DFCNQD1
*I *1616:CP I *C 143.9 53.2 *L 0.000642 *D DFCNQD1
*I *1615:CP I *C 142.7 51.6 *L 0.000642 *D DFCNQD1
*I *1614:CP I *C 143.5 42.4 *L 0.000642 *D DFCNQD1
*I *1604:CP I *C 150.9 53.2 *L 0.000642 *D DFCNQD1
*I *1602:CP I *C 139.1 40.8 *L 0.000642 *D DFCNQD1
*I *1601:CP I *C 150.7 42.4 *L 0.000642 *D DFCNQD1
*I *1599:CP I *C 150.7 49.6 *L 0.000642 *D DFCNQD1
*I *1593:CP I *C 150.5 46 *L 0.000642 *D DFCNQD1

*CAP
1 *1599:CP 3.62822e-05
2 *1602:CP 0.000283015
3 *1604:CP 0.000294487
4 *1614:CP 8.82121e-05
5 *1615:CP 0.000355227
6 *1617:CP 5.58066e-05
7 *1619:CP 1.7075e-05
8 *1624:CP 0.000294399
9 *1626:CP 0.00028876
10 *1628:CP 0.00012275
11 *1567:ZN 9.1983e-06
12 *630:21 3.85906e-06
13 *630:22 0.00067789
14 *630:23 0.00115480992
15 *630:24 0.000709573
16 *630:25 0.00054922
17 *630:26 0.000873398
18 *630:27 0.000737714
19 *630:28 0.000579017
20 *630:29 0.00106136
21 *630:30 0.000885116
22 *630:31 0.000128829
23 *630:32 0.000114697
24 *630:33 0.000375351
25 *630:34 0.00068663
26 *630:35 9.64236e-05
27 *630:36 0.000121569
28 *630:37 0.000403192
29 *630:38 0.000828587
30 *630:39 0.000430223
31 *630:40 0.000641855
32 *630:41 0.000105551
33 *630:42 0.000164318
34 *630:43 0.000744358
35 *630:44 0.0011124
36 *630:45 0.000303121
37 *630:46 6.34366e-05
38 *630:47 0.000508656
39 *630:48 0.000691
40 *630:49 0.00024261

*RES
1 *630:41 *630:44 5.6364
2 *630:30 *630:42 5.58586
3 *630:24 *630:25 2.94311
4 *630:26 *630:27 3.67246
5 *630:27 *630:46 1.37282
6 *1602:CP *630:34 2.08469
7 *630:40 *630:45 1.24503
8 *1601:CP *630:43 2.12277
9 *630:22 *630:23 5.99955988
10 *1626:CP *630:49 2.95556
11 *630:29 *630:37 2.2448
12 *1599:CP *630:46 1.49998
13 *630:31 *630:33 2.18319
14 *630:39 *630:40 3.05745
15 *630:38 *630:48 2.23565
16 *1614:CP *630:45 1.49998
17 *630:31 *630:38 4.28261
18 *630:29 *630:47 3.29273
19 *630:27 *630:28 2.80863
20 *630:40 *630:43 3.73517
21 *1615:CP *630:48 3.44918
22 *630:28 *630:43 3.76831
23 *630:25 *630:26 4.50196
24 *1628:CP *630:21 1.98948
25 *1617:CP *630:47 1.49998
26 *630:23 *630:24 4.05521
27 *630:34 *630:45 4.17395
28 *1623:CP *630:42 1.96714
29 *1688:CP *630:39 2.40565
30 *1689:CP *630:48 3.76236
31 *630:23 *630:36 2.12286
32 *1567:ZN *1619:CP 0.443724
33 *1624:CP *630:24 3.24897
34 *1604:CP *630:26 3.24897
35 *630:41 *630:49 0.594134
36 *630:28 *630:35 1.96714
37 *630:29 *630:32 5.86371
38 *630:30 *630:31 0.199753
39 *1627:CP *630:49 2.39722
40 *630:21 *630:22 3.7337
41 *1567:ZN *630:32 0.750037
42 *1616:CP *630:38 0.750037
43 *1622:CP *630:33 0.750037
44 *1618:CP *630:37 0.750037
45 *1625:CP *630:36 0.750037
46 *1593:CP *630:35 0.750037
47 *630:22 *630:41 0.750037
48 *630:25 *630:42 0.750037
49 *630:32 *630:44 0.750037
*END

*D_NET *631 0.00139526

*CONN
*I *1571:ZN O *C 137.9 175.2 *L 0 *D TIEL
*I *1574:EMA[0] I *C 134.195 170.78 *L 0.00755 *D sram00
*I *1574:EMA[2] I *C 134.195 179.915 *L 0.00755 *D sram00

*CAP
1 *631:3 5.65073e-05
2 *631:4 3.95469e-05
3 *631:6 4.22063e-05
4 *631:7 0.000223422
5 *631:8 1.15367e-06
6 *631:9 7.65392e-05
7 *631:10 1.22109e-06
8 *631:11 1.62787e-05
9 *631:12 1.24806e-05
10 *631:13 0.000490945977
11 *631:14 1.77096e-05
12 *631:15 0.000417254

*RES
1 *631:11 *631:12 0.489241
2 *631:10 *631:15 0.516702
3 *631:6 *631:12 0.434074
4 *631:5 *631:7 2.15023
5 *631:13 *631:14 0.333529
6 *631:9 *631:10 0.199797
7 *631:8 *631:9 0.424346
8 *631:7 *631:8 0.199797
9 *631:5 *631:6 0.199797
10 *631:4 *631:15 3.24004
11 *631:13 *631:15 4.03509998
12 *1571:ZN *631:3 0.749993
13 *631:3 *631:4 0.749993
14 *1571:ZN *1574:EMA[2] 0.000123141
15 *1574:EMA[2] *1574:EMA[0] 0.000123141
*END

*D_NET *632 0.0020876

*CONN
*I *1572:Z O *C 137.9 173.8 *L 0 *D TIEH
*I *1574:RETN I *C 134.195 178.555 *L 0.00453 *D sram00
*I *1574:EMA[1] I *C 134.195 169.62 *L 0.00755 *D sram00

*CAP
1 *632:3 0.000727022969
2 *632:4 6.98013e-05
3 *632:5 3.08626e-05
4 *632:6 0.000230693
5 *632:7 1.26135e-05
6 *632:8 2.97865e-05
7 *632:9 0.000515877
8 *632:10 0.0002473
9 *632:11 0.000223659

*RES
1 *632:8 *632:11 3.24003
2 *632:7 *632:9 0.35708
3 *632:3 *632:4 0.828083
4 *632:8 *632:9 3.04785
5 *632:5 *632:6 2.69959
6 *632:4 *632:5 0.120416
7 *632:7 *632:10 1.22972
8 *632:3 *632:10 4.47876978
9 *1572:Z *632:10 0.74997
10 *1572:Z *1574:EMA[1] 6.83406e-05
11 *1574:EMA[1] *1574:RETN 6.83406e-05
*END

*D_NET *633 0.0485925

*CONN
*I *1637:CDN I *C 140.1 105.6 *L 0.00163 *D DFCNQD1
*I *1638:CDN I *C 139.5 109.2 *L 0.00163 *D DFCNQD1
*I *1636:CDN I *C 139.5 103.6 *L 0.00163 *D DFCNQD1
*I *1678:CDN I *C 149.9 103.4 *L 0.00157 *D EDFCNQD1
*I *1596:CDN I *C 149.9 100 *L 0.00163 *D DFCNQD1
*I *1635:CDN I *C 140.1 100 *L 0.00163 *D DFCNQD1
*I *1633:CDN I *C 150.1 96.4 *L 0.00163 *D DFCNQD1
*I *1634:CDN I *C 139.1 92.8 *L 0.00163 *D DFCNQD1
*I *1630:CDN I *C 139.5 82 *L 0.00163 *D DFCNQD1
*I *1620:CDN I *C 139.1 76.8 *L 0.00163 *D DFCNQD1
*I *1631:CDN I *C 139.3 91.2 *L 0.00163 *D DFCNQD1
*I *1621:CDN I *C 143.3 84 *L 0.00163 *D DFCNQD1
*I *1632:CDN I *C 144.7 89.2 *L 0.00163 *D DFCNQD1
*I *1629:CDN I *C 146.9 82 *L 0.00163 *D DFCNQD1
*I *1586:CDN I *C 150.3 98.4 *L 0.00163 *D DFCNQD1
*I *1619:CDN I *C 139.9 74.8 *L 0.00163 *D DFCNQD1
*I *1628:CDN I *C 146.7 80.4 *L 0.00163 *D DFCNQD1
*I *1627:CDN I *C 148.1 74.8 *L 0.00163 *D DFCNQD1
*I *1618:CDN I *C 139.9 67.6 *L 0.00163 *D DFCNQD1
*I *1626:CDN I *C 147.1 73.2 *L 0.00163 *D DFCNQD1
*I *1617:CDN I *C 142.1 66 *L 0.00163 *D DFCNQD1
*I *1625:CDN I *C 147.3 67.6 *L 0.00163 *D DFCNQD1
*I *1604:CDN I *C 147.5 53.2 *L 0.00163 *D DFCNQD1
*I *1622:CDN I *C 139.9 58.8 *L 0.00163 *D DFCNQD1
*I *1624:CDN I *C 147.5 62.4 *L 0.00163 *D DFCNQD1
*I *1623:CDN I *C 147.1 58.8 *L 0.00163 *D DFCNQD1
*I *1689:CDN I *C 149.5 51.8 *L 0.00157 *D EDFCNQD1
*I *1616:CDN I *C 140.5 53.2 *L 0.00163 *D DFCNQD1
*I *1615:CDN I *C 139.3 51.6 *L 0.00163 *D DFCNQD1
*I *1593:CDN I *C 147.1 46 *L 0.00163 *D DFCNQD1
*I *1614:CDN I *C 140.1 42.4 *L 0.00163 *D DFCNQD1
*I *1688:CDN I *C 148.9 44.6 *L 0.00157 *D EDFCNQD1
*I *1599:CDN I *C 147.3 49.6 *L 0.00163 *D DFCNQD1
*I *1601:CDN I *C 147.3 42.4 *L 0.00163 *D DFCNQD1
*I *1602:CDN I *C 142.5 40.8 *L 0.00163 *D DFCNQD1
*I *1687:CDN I *C 144.3 37.4 *L 0.00157 *D EDFCNQD1
*I *1607:CDN I *C 146.9 40.8 *L 0.00163 *D DFCNQD1
*I *1594:CDN I *C 146.9 35.2 *L 0.00163 *D DFCNQD1
*I *1686:CDN I *C 149.9 33.8 *L 0.00157 *D EDFCNQD1
*I *1603:CDN I *C 141.9 33.6 *L 0.00163 *D DFCNQD1
*I *1685:CDN I *C 143.3 35 *L 0.00157 *D EDFCNQD1
*I *1595:CDN I *C 147.3 31.6 *L 0.00163 *D DFCNQD1
*I *1600:CDN I *C 142.7 31.6 *L 0.00163 *D DFCNQD1
*I *1605:CDN I *C 142.5 22.8 *L 0.00163 *D DFCNQD1
*I *1597:CDN I *C 142.1 13.6 *L 0.00163 *D DFCNQD1
*I *1606:CDN I *C 142.5 19.2 *L 0.00163 *D DFCNQD1
*I *1608:CDN I *C 147.1 22.8 *L 0.00163 *D DFCNQD1
*I *1684:CDN I *C 144.5 26.6 *L 0.00157 *D EDFCNQD1
*I *1609:CDN I *C 146.9 19.2 *L 0.00163 *D DFCNQD1
*I *1681:CDN I *C 140.7 9.8 *L 0.00157 *D EDFCNQD1
*I *1683:CDN I *C 149.3 24.2 *L 0.00157 *D EDFCNQD1
*I *1598:CDN I *C 142.5 8.4 *L 0.00163 *D DFCNQD1
*I *1592:CDN I *C 146.7 13.6 *L 0.00163 *D DFCNQD1
*I *1610:CDN I *C 146.9 8.4 *L 0.00163 *D DFCNQD1
*I *1682:CDN I *C 148.7 6.2 *L 0.00157 *D EDFCNQD1
*I *1573:Z O *C 148.7 110.4 *L 0 *D CKBD3

*CAP
1 *1682:CDN 0.000266215
2 *1598:CDN 0.00011287
3 *1681:CDN 0.000596446
4 *1609:CDN 0.000460772
5 *1684:CDN 9.28309e-05
6 *1597:CDN 4.43758e-05
7 *1603:CDN 0.000222476
8 *1686:CDN 0.00028689
9 *1607:CDN 0.000131257
10 *1687:CDN 0.000175971
11 *1602:CDN 0.000282055
12 *1601:CDN 0.000476194
13 *1688:CDN 0.000227729
14 *1614:CDN 5.49623e-05
15 *1616:CDN 0.000158002
16 *1623:CDN 0.000111238
17 *1617:CDN 6.72601e-06
18 *1626:CDN 0.000294512
19 *1618:CDN 0.000293039
20 *1628:CDN 0.000397949
21 *1619:CDN 7.90605e-05
22 *1586:CDN 0.000219292
23 *1634:CDN 7.17574e-05
24 *1633:CDN 0.000445091
25 *1636:CDN 0.000182697
26 *633:56 0.000195253
27 *633:57 0.000543016
28 *633:58 2.66653e-05
29 *633:59 0.000787302
30 *633:60 5.24151e-05
31 *633:61 0.000202616
32 *633:62 0.000498501
33 *633:63 0.000126023
34 *633:64 0.000696978
35 *633:65 0.000137843
36 *633:66 0.000379423
37 *633:67 0.000927235
38 *633:68 0.000374985
39 *633:69 0.000481427
40 *633:70 0.000105069
41 *633:71 0.000676621
42 *633:72 3.06252e-05
43 *633:73 0.000516808
44 *633:74 0.000323167
45 *633:75 0.000315187
46 *633:76 0.000717196
47 *633:77 0.000747781
48 *633:78 0.000352996
49 *633:79 0.00013251
50 *633:80 0.000344002
51 *633:81 0.000343843
52 *633:82 0.000409152
53 *633:83 3.62369e-05
54 *633:84 0.000379602
55 *633:85 0.000859994
56 *633:86 0.000255429
57 *633:87 0.000700918
58 *633:88 0.000250136
59 *633:89 0.00081936
60 *633:90 4.62861e-05
61 *633:91 0.000252604
62 *633:92 0.000341654
63 *633:93 0.000614594
64 *633:94 0.00121779
65 *633:95 3.26749e-05
66 *633:96 0.000208029
67 *633:97 0.000206397
68 *633:98 5.18779e-05
69 *633:99 0.000343066
70 *633:100 0.000112969
71 *633:101 0.000274513
72 *633:102 0.000514639
73 *633:103 0.000469129
74 *633:104 9.81839e-05
75 *633:105 0.00029481
76 *633:106 0.00107063
77 *633:107 6.13102e-05
78 *633:108 0.000459717
79 *633:109 0.000432355
80 *633:110 0.000621101
81 *633:111 0.000588267
82 *633:112 0.000658313
83 *633:113 7.08818e-05
84 *633:114 0.000275229
85 *633:115 0.000201482
86 *633:116 0.000477825
87 *633:117 0.000261081
88 *633:118 0.000390168
89 *633:119 0.000207293
90 *633:120 0.000266513
91 *633:121 0.00112633
92 *633:122 0.00130411008
93 *633:123 0.00069666
94 *633:124 0.000488253
95 *633:125 0.000833687
96 *633:126 0.000523833
97 *633:127 0.000582974
98 *633:128 0.000468891
99 *633:129 0.000606834
100 *633:130 0.000559174
101 *633:131 0.000657318
102 *633:132 8.86321e-05
103 *633:133 3.91024e-05
104 *633:134 0.000661617
105 *633:135 0.0006174
106 *633:136 0.000108611
107 *633:137 0.000259827
108 *633:138 0.000447101
109 *633:139 0.000825489
110 *1633:CDN *853:11 0.000981056953
111 *633:88 *58:5 0.000821186016
112 *1619:CDN *612:4 0.000685361953
113 *633:91 *1637:Q 0.000376390977
114 *1636:CDN *798:3 0.000513145039
115 *633:56 *1417:Z 0.000277925996
116 *633:57 *1687:CP 0.00112100992
117 *1609:CDN *299:6 0.000174085
118 *1598:CDN *316:5 0.000365871992
119 *1616:CDN *330:5 0.00108754
120 *1626:CDN *837:12 0.00073494

*RES
1 *633:78 *633:81 2.16503
2 *633:60 *633:67 4.16858
3 *1636:CDN *633:91 1.8623
4 *633:70 *633:100 0.622725
5 *633:94 *633:117 1.5906
6 *1616:CDN *633:89 2.71689
7 *633:85 *633:128 3.70791
8 *633:89 *633:118 2.05797
9 *633:76 *633:103 2.80221
10 *633:68 *633:111 0.778436
11 *1681:CDN *633:79 4.84619
12 *1601:CDN *633:68 3.00293
13 *633:66 *633:56 3.42857
14 *1637:CDN *633:90 0.938848
15 *633:77 *633:80 2.0508
16 *633:88 *633:122 7.70163012
17 *633:125 *633:126 1.08951
18 *1586:CDN *633:58 2.17454
19 *1630:CDN *633:135 1.49999
20 *633:71 *633:137 2.88482
21 *633:96 *633:135 1.0613
22 *1614:CDN *633:57 1.11818
23 *633:130 *633:134 3.54327
24 *633:64 *633:109 3.18614
25 *633:75 *633:115 1.79814
26 *633:64 *633:99 1.86959
27 *633:88 *633:90 2.00932
28 *1685:CDN *633:130 2.24999
29 *1619:CDN *633:129 1.49999
30 *1617:CDN *633:127 1.6557
31 *633:71 *633:102 2.2809
32 *1573:Z *633:61 1.96008
33 *1687:CDN *633:137 1.89944
34 *633:75 *633:76 3.1356
35 *633:120 *633:126 0.644584
36 *633:106 *633:129 3.20341
37 *633:95 *633:117 1.44641
38 *1598:CDN *633:79 1.21701
39 *1607:CDN *633:71 3.76091
40 *633:122 *633:131 1.69014
41 *1604:CDN *633:64 1.85337
42 *1688:CDN *633:68 4.1177
43 *633:56 *633:98 3.64222
44 *633:77 *633:103 0.622725
45 *633:84 *633:115 0.944489
46 *633:101 *633:125 3.25817
47 *633:92 *633:116 2.57481
48 *633:105 *633:123 3.99054
49 *1638:CDN *633:91 5.36902
50 *633:62 *633:131 2.15986
51 *633:65 *633:119 1.8616
52 *1603:CDN *633:84 1.86183
53 *633:74 *633:114 1.46286
54 *633:107 *633:108 2.65413
55 *633:58 *633:108 0.289328
56 *633:65 *633:97 3.32622
57 *1623:CDN *633:67 1.23922
58 *633:72 *633:113 0.155711
59 *633:119 *633:127 3.09083
60 *633:121 *633:132 6.12642
61 *633:86 *633:118 3.68782
62 *633:88 *633:116 2.99752
63 *633:96 *633:106 5.2206
64 *633:90 *633:91 0.511319
65 *633:93 *633:95 1.00713
66 *633:87 *633:57 3.27298
67 *633:84 *633:130 3.84811
68 *633:81 *633:104 2.0488
69 *1609:CDN *633:70 3.16275
70 *633:78 *633:83 0.600632
71 *633:123 *633:139 5.74132
72 *633:121 *633:129 1.06741
73 *633:59 *633:60 4.00852
74 *633:79 *633:82 0.8057
75 *633:73 *633:113 3.10094
76 *1634:CDN *633:95 0.949777
77 *633:65 *633:98 1.40868
78 *1628:CDN *633:101 2.49725
79 *1633:CDN *633:58 3.42587
80 *1684:CDN *633:76 4.00606
81 *1683:CDN *633:69 4.429
82 *1626:CDN *633:66 1.97359
83 *633:57 *633:128 2.30005
84 *633:124 *633:134 0.311304
85 *1618:CDN *633:139 4.85865
86 *633:82 *633:83 2.80467
87 *633:67 *633:97 2.4694
88 *633:99 *633:111 2.94182
89 *633:86 *633:87 3.21493
90 *633:61 *633:62 3.44985
91 *1621:CDN *633:126 2.77341
92 *633:73 *633:112 2.38478
93 *633:89 *633:105 5.3608
94 *1602:CDN *633:128 4.15566
95 *633:120 *633:135 2.78199
96 *633:94 *633:136 5.1978
97 *633:85 *633:137 3.24008
98 *633:74 *633:125 5.05913
99 *1597:CDN *633:83 1.39482
100 *633:59 *633:109 1.66123
101 *1682:CDN *633:112 5.29558
102 *1686:CDN *633:124 5.10003
103 *633:77 *633:133 4.71868
104 *633:92 *633:93 3.81156
105 *633:63 *633:66 1.14368
106 *633:69 *633:100 0.778436
107 *633:80 *633:104 0.444921
108 *633:127 *633:139 3.0155
109 *633:107 *633:131 1.68391
110 *633:72 *633:138 4.35297
111 *633:110 *633:124 3.71978
112 *1615:CDN *633:118 0.749997
113 *1631:CDN *633:117 0.749997
114 *1635:CDN *633:116 0.749997
115 *1600:CDN *633:115 0.749997
116 *1632:CDN *633:114 0.749997
117 *1592:CDN *633:113 0.749997
118 *1610:CDN *633:112 0.749997
119 *1593:CDN *633:111 0.749997
120 *1595:CDN *633:110 0.749997
121 *1689:CDN *633:109 0.749997
122 *1596:CDN *633:108 0.749997
123 *1678:CDN *633:107 0.749997
124 *1620:CDN *633:106 0.749997
125 *1622:CDN *633:105 0.749997
126 *1606:CDN *633:104 0.749997
127 *1605:CDN *633:103 0.749997
128 *1594:CDN *633:102 0.749997
129 *1629:CDN *633:101 0.749997
130 *1608:CDN *633:100 0.749997
131 *1599:CDN *633:99 0.749997
132 *1625:CDN *633:98 0.749997
133 *1624:CDN *633:97 0.749997
134 *1627:CDN *633:63 0.749997
135 *633:63 *633:132 0.749997
136 *633:70 *633:133 0.749997
137 *633:78 *633:138 0.749997
138 *633:102 *633:134 0.749997
139 *633:114 *633:136 0.749997
*END

*D_NET *634 0.00943636

*CONN
*I *1570:I I *C 138.9 312.2 *L 0.000942 *D CKND1
*P *634 I *C 10 324 *L 0.5

*CAP
1 *1570:I 0.000957446
2 *634 4.36833e-05
3 *634:2 2.39554e-05
4 *634:3 0.00839527063
5 *634:4 1.6013e-05

*RES
1 *634:2 *634:3 31.0168
2 *634:3 *634:4 69.7928009
3 *1570:I *634:2 9.30876
4 *634 *634:4 1.16186
*END

*D_NET *635 0.0100176

*CONN
*I *1025:I I *C 141.5 316 *L 0.00072 *D BUFFD1
*P *635 I *C 15 324 *L 0.5

*CAP
1 *1025:I 0.000265438
2 *635 0.000395463
3 *635:2 2.59482e-05
4 *635:3 0.00929245
5 *635:4 3.78589e-05
6 *635:5 4.25381e-07

*RES
1 *635:2 *635:3 33.0397
2 *635:4 *635:5 1.02772
3 *635:3 *635:4 65.9024963
4 *1025:I *635:2 2.61756
5 *635 *635:5 3.777
*END

*D_NET *636 0.0176395

*CONN
*I *989:I I *C 151.3 40.8 *L 0.000697 *D BUFFD0
*P *636 I *C 0 5 *L 0.5

*CAP
1 *989:I 0.000257221
2 *636 7.10644e-05
3 *636:2 0.000398315
4 *636:3 0.00968233938
5 *636:4 0.00230006
6 *636:5 0.00272985
7 *636:4 *326:2 0.00034902
8 *636:4 *475:3 0.00185156

*RES
1 *636:2 *636:4 12.8057
2 *636:4 *636:5 32.1452
3 *636:3 *636:5 29.9306
4 *989:I *636:2 1.72217
5 *636 *636:3 78.3235016
*END

*D_NET *637 0.008439

*CONN
*I *1056:I I *C 137.5 49.6 *L 0.000643 *D CKBD0
*P *637 I *C 0 48.2 *L 0.5

*CAP
1 *1056:I 0.000256029
2 *637 7.56263e-05
3 *637:2 0.00035062
4 *637:3 8.46406e-05
5 *637:4 0.00767209

*RES
1 *637 *637:4 78.4496994
2 *637:3 *637:4 27.9546
3 *1056:I *637:2 5.3927
4 *637:2 *637:3 0.750549
*END

*D_NET *638 0.0116766

*CONN
*I *1256:I I *C 140.9 6.4 *L 0.00104 *D DEL0
*P *638 I *C 0 44.6 *L 0.5

*CAP
1 *1256:I 0.000114067
2 *638 0.000297715
3 *638:2 0.000350526
4 *638:3 2.36697e-05
5 *638:4 0.00304709
6 *638:5 4.86478e-05
7 *638:6 0.00779495

*RES
1 *638:4 *638:6 77.2027969
2 *1256:I *638:2 2.25002
3 *638:4 *638:5 27.5433
4 *638:2 *638:3 2.77424
5 *638:3 *638:6 32.6312
6 *638 *638:5 3.03576
*END

*D_NET *639 0.0134672

*CONN
*I *1069:I I *C 150.7 24.4 *L 0.00182 *D DEL005
*P *639 I *C 0 41 *L 0.5

*CAP
1 *1069:I 0.000126189
2 *639 4.13851e-05
3 *639:2 0.000587792
4 *639:3 0.000230359
5 *639:4 0.00164373
6 *639:5 3.09504e-06
7 *639:8 0.000561971
8 *639:9 1.42372e-05
9 *639:10 0.00579524
10 *639:11 0.000805152
11 *639:4 *642:2 0.00365792

*RES
1 *639:8 *639:9 5.55826
2 *639:6 *639:11 4.64705
3 *639 *639:11 2.44013
4 *639:7 *639:10 74.5530014
5 *639:7 *639:8 0.955574
6 *639:3 *639:4 12.4452
7 *639:2 *639:3 2.89175
8 *1069:I *639:2 1.8884
9 *639:6 *639:9 0.955574
10 *639:5 *639:10 27.7981
11 *639:4 *639:5 1.84062
*END

*D_NET *640 0.01265

*CONN
*I *1323:I I *C 143.1 64 *L 0.00103 *D DEL015
*P *640 I *C 0 37.4 *L 0.5

*CAP
1 *640 0.000109791
2 *640:2 0.000182231
3 *640:3 0.00118435
4 *640:4 0.000593532
5 *640:5 7.0031e-06
6 *640:6 0.000561679
7 *640:7 0.000354372
8 *640:8 0.00493493
9 *640:4 *654:2 0.002078
10 *640:4 *655:2 0.00209255
11 *640:3 *322:2 0.000551594961

*RES
1 *640:6 *640:7 3.16827
2 *640:2 *640:3 7.29012
3 *640:5 *640:6 12.5575
4 *640:4 *640:8 28.2594
5 *640:3 *640:4 7.21264
6 *1323:I *640:2 1.69618
7 *640:5 *640:8 78.1173019
8 *640 *640:7 0.429111
*END

*D_NET *641 0.0147445

*CONN
*I *1074:I I *C 150.7 13.6 *L 0.00182 *D DEL005
*P *641 I *C 0 33.8 *L 0.5

*CAP
1 *641 0.000370228
2 *641:2 0.00033995
3 *641:3 0.000459318
4 *641:4 1.78337e-05
5 *641:5 0.00519436969
6 *641:6 0.00082265
7 *641:7 3.64601e-06
8 *641:8 0.000314349
9 *641:9 1.50596e-06
10 *641:2 *644:2 0.00374208
11 *641:3 *648:2 0.00347853

*RES
1 *641:8 *641:9 0.15619
2 *641:7 *641:8 4.2529
3 *641:6 *641:7 0.112075
4 *1074:I *641:2 3.67703
5 *641:5 *641:9 27.1819
6 *641:2 *641:6 8.34485
7 *641 *641:4 3.10234
8 *641:3 *641:5 78.1380005
9 *641:3 *641:4 12.4189
*END

*D_NET *642 0.0117618

*CONN
*I *1068:I I *C 138.7 26.4 *L 0.00182 *D DEL005
*P *642 I *C 0 30.2 *L 0.5

*CAP
1 *1068:I 0.000349784
2 *642 0.000132152
3 *642:2 0.000467983
4 *642:4 9.39307e-05
5 *642:6 0.00643907
6 *1068:I *472:3 0.000620885
7 *642:2 *639:4 0.00365792

*RES
1 *642:4 *642:6 32.6316
2 *642:3 *642:4 0.403007
3 *642:5 *642:6 78.6055984
4 *642:2 *642:3 4.8001
5 *1068:I *642:2 4.05166
6 *642 *642:5 0.534944
*END

*D_NET *643 0.0134428

*CONN
*I *1070:I I *C 138.3 8.4 *L 0.00182 *D DEL005
*P *643 I *C 0 26.6 *L 0.5

*CAP
1 *1070:I 0.000572591
2 *643 0.000172937
3 *643:2 0.000374879
4 *643:3 0.000574162
5 *643:4 2.93667e-05
6 *643:5 0.000455003
7 *643:6 1.84902e-05
8 *643:7 0.00791995
9 *643:4 *645:2 0.00332558

*RES
1 *643:2 *643:3 3.01859
2 *643:3 *643:4 5.73379
3 *1070:I *643:2 3.39666
4 *643 *643:6 2.32291
5 *643:5 *643:7 77.6704025
6 *643:5 *643:6 6.67124
7 *643:4 *643:7 32.7873
*END

*D_NET *644 0.0139024

*CONN
*I *1073:I I *C 150.9 19.2 *L 0.00182 *D DEL005
*P *644 I *C 0 23 *L 0.5

*CAP
1 *644 2.75846e-05
2 *644:2 0.0057027
3 *644:3 0.000178473
4 *644:4 0.000143927
5 *644:9 0.000757836
6 *644:4 *646:2 0.00334977
7 *644:2 *641:2 0.00374208

*RES
1 *644:7 *644:8 2.91223
2 *644:5 *644:9 4.64705
3 *644 *644:9 2.44013
4 *644:5 *644:8 0.799725
5 *644:4 *644:2 39.6472
6 *644:3 *644:4 3.40366
7 *1073:I *644:3 2.41169
8 *644:6 *644:2 74.5530014
9 *644:6 *644:7 0.955574
*END

*D_NET *645 0.0144082

*CONN
*I *1066:I I *C 150.9 8.4 *L 0.00182 *D DEL005
*P *645 I *C 0 19.4 *L 0.5

*CAP
1 *645 4.72222e-05
2 *645:2 0.0053821
3 *645:3 5.5599e-05
4 *645:4 0.000229869
5 *645:5 0.00171963
6 *645:6 5.17391e-05
7 *645:7 0.000103725
8 *645:8 0.000101836
9 *645:6 *646:2 0.00339099
10 *645:2 *643:4 0.00332558

*RES
1 *645:8 *645:2 27.7979
2 *645:6 *645:2 78.6055984
3 *645:4 *645:7 2.62554
4 *645:3 *645:8 2.61235
5 *645:3 *645:5 9.30155
6 *645:5 *645:7 12.4225
7 *1066:I *645:4 2.27891
8 *645 *645:6 1.68999
*END

*D_NET *646 0.0114899

*CONN
*I *1477:I I *C 137.5 15.6 *L 0.00105 *D DEL1
*P *646 I *C 0 15.8 *L 0.5

*CAP
1 *1477:I 0.00012514
2 *646 8.83417e-05
3 *646:2 0.00439262
4 *646:3 0.000130033
5 *646:4 1.30033e-05
6 *646:2 *644:4 0.00334977
7 *646:2 *645:6 0.00339099

*RES
1 *646:4 *646:2 78.6055984
2 *646 *646:4 0.444987
3 *646:3 *646:2 29.669
4 *1477:I *646:3 3.28043
*END

*D_NET *647 0.00932981

*CONN
*I *1476:I I *C 146.3 12 *L 0.00103 *D BUFFD2
*P *647 I *C 0 12.2 *L 0.5

*CAP
1 *1476:I 0.000137175
2 *647 9.40463e-06
3 *647:2 0.000180208
4 *647:3 9.83211e-05
5 *647:4 0.00622558
6 *647:7 0.000741351
7 *647 *648 0.00193769

*RES
1 *647:6 *647:7 7.81518
2 *647:5 *647:6 0.112287
3 *647:4 *647:5 70.084198
4 *647:3 *647:4 36.8408
5 *1476:I *647:2 2.25002
6 *647 *647:7 0.749649
7 *647:2 *647:3 0.749649
*END

*D_NET *648 0.0120194

*CONN
*I *1062:I I *C 137.5 22.8 *L 0.000643 *D CKBD0
*P *648 I *C 0 8.6 *L 0.5

*CAP
1 *1062:I 0.000717395
2 *648 0.000438028
3 *648:2 0.00467527
4 *648:3 8.4966e-05
5 *648:4 0.000441096
6 *648:6 2.84647e-05
7 *648:7 0.000218015
8 *648:2 *641:3 0.00347853
9 *648 *647 0.00193769

*RES
1 *648:4 *648:6 1.35206
2 *648 *648:5 4.55932
3 *648:6 *648:7 3.16196
4 *648:2 *648:7 27.1819
5 *648:3 *648:4 6.51229
6 *1062:I *648:3 5.23058
7 *648:5 *648:2 78.1380005
*END

*D_NET *649 0.010713

*CONN
*I *1558:I I *C 137.5 78.4 *L 0.00103 *D BUFFD2
*P *649 I *C 0 77 *L 0.5

*CAP
1 *1558:I 5.03505e-05
2 *649 4.46989e-05
3 *649:2 0.000469981
4 *649:4 8.75996e-05
5 *649:5 0.00841765
6 *649:3 *650:2 0.00164266

*RES
1 *649:3 *649:5 78.4290009
2 *1558:I *649:2 3.87262
3 *649:4 *649:5 29.6622
4 *649 *649:3 0.756334
5 *649:2 *649:4 0.750351
*END

*D_NET *650 0.0084836

*CONN
*I *1554:I I *C 137.5 71.2 *L 0.00103 *D BUFFD2
*P *650 I *C 0 73.4 *L 0.5

*CAP
1 *1554:I 0.000432094
2 *650:2 0.00628714
3 *650:3 3.91417e-05
4 *650:4 8.26006e-05
5 *650:2 *649:3 0.00164266

*RES
1 *650 *650:2 78.4290009
2 *650:4 *650:2 29.6622
3 *1554:I *650:3 4.40158
4 *650:3 *650:4 0.750351
*END

*D_NET *651 0.00807301

*CONN
*I *1556:I I *C 137.5 69.6 *L 0.00103 *D BUFFD2
*P *651 I *C 0 69.8 *L 0.5

*CAP
1 *1556:I 0.00028673
2 *651 0.000869093
3 *651:2 7.45292e-05
4 *651:3 4.90651e-05
5 *651:4 0.00678371
6 *651:5 9.83371e-06

*RES
1 *651:2 *651:3 1.49952
2 *651:5 *651:6 0.111508
3 *651:3 *651:4 27.7921
4 *1556:I *651:2 3.44082
5 *651:4 *651:5 69.5980988
6 *651 *651:6 8.87499
*END

*D_NET *652 0.0131248

*CONN
*I *948:I I *C 150.9 51.6 *L 0.00182 *D DEL005
*P *652 I *C 0 66.2 *L 0.5

*CAP
1 *948:I 0.000178554
2 *652 5.28151e-05
3 *652:2 7.76624e-05
4 *652:3 0.00254113
5 *652:4 0.000231369
6 *652:5 0.000777549
7 *652:6 0.0003422
8 *652:7 2.27671e-05
9 *652:8 0.00757382
10 *652:2 *75:19 0.000498101992
11 *652:3 *801:2 0.000828876953

*RES
1 *652:2 *652:5 6.80342
2 *652:7 *652:8 27.7917
3 *652:4 *652:7 2.7465
4 *652:3 *652:4 11.0159
5 *948:I *652:2 1.52942
6 *652 *652:8 78.4290009
7 *652:5 *652:6 1.89443
8 *652:3 *652:6 8.98147
*END

*D_NET *653 0.00819617

*CONN
*I *1555:I I *C 137.5 62.4 *L 0.00103 *D BUFFD2
*P *653 I *C 0 62.6 *L 0.5

*CAP
1 *1555:I 0.000287299
2 *653 0.000868662
3 *653:2 0.000104056
4 *653:3 0.00010697
5 *653:4 0.00681933
6 *653:5 9.78129e-06

*RES
1 *653:2 *653:3 1.49952
2 *653:5 *653:6 0.111508
3 *653:3 *653:4 27.7921
4 *1555:I *653:2 3.44082
5 *653:4 *653:5 69.5980988
6 *653 *653:6 8.87499
*END

*D_NET *654 0.00878912

*CONN
*I *1560:I I *C 137.5 56.8 *L 0.00103 *D BUFFD2
*P *654 I *C 0 59 *L 0.5

*CAP
1 *1560:I 0.000148454
2 *654:2 0.0064345
3 *654:3 4.25138e-05
4 *654:4 8.57148e-05
5 *654:2 *640:4 0.002078

*RES
1 *654 *654:2 78.4290009
2 *654:4 *654:2 29.6622
3 *1560:I *654:3 3.61293
4 *654:3 *654:4 0.750351
*END

*D_NET *655 0.00879235

*CONN
*I *1559:I I *C 137.5 55.2 *L 0.00103 *D BUFFD2
*P *655 I *C 0 55.4 *L 0.5

*CAP
1 *1559:I 0.000124777
2 *655:2 0.00640348
3 *655:3 3.08766e-05
4 *655:4 0.000140704
5 *655:2 *640:4 0.00209255

*RES
1 *655:3 *655:4 1.65628
2 *655 *655:2 78.4290009
3 *655:4 *655:2 27.8838
4 *1559:I *655:3 3.4406
*END

*D_NET *656 0.00862884

*CONN
*I *1552:I I *C 137.5 48 *L 0.00105 *D DEL1
*P *656 I *C 0 51.8 *L 0.5

*CAP
1 *1552:I 0.000173006
2 *656 7.56976e-05
3 *656:2 0.00047711
4 *656:3 7.84437e-05
5 *656:4 0.00782467

*RES
1 *1552:I *656:2 1.90759
2 *656:2 *656:3 3.70987
3 *656 *656:4 78.4290009
4 *656:3 *656:4 29.6622
*END

*D_NET *657 0.0177383

*CONN
*I *1330:I I *C 145.9 174 *L 0.00104 *D DEL0
*P *657 I *C 155 5 *L 0.5

*CAP
1 *657 6.02498e-05
2 *657:2 0.000269189
3 *657:3 0.000873345
4 *657:4 0.000856072
5 *657:5 0.000308573
6 *657:6 0.00015021
7 *657:7 0.000162923
8 *657:8 0.00905612
9 *657:5 *718:2 0.00154888
10 *657:5 *848:4 0.000246135
11 *657:4 *184:2 0.00114855
12 *657:4 *784:3 0.000944527969
13 *657:3 *1120:I 0.000892982031
14 *657:2 *863:25 0.00122058

*RES
1 *657:7 *657:8 35.3522
2 *657:5 *657:7 2.84479
3 *657:4 *657:5 3.38432
4 *657 *657:6 6.6751
5 *657:6 *657:8 74.7537994
6 *657:2 *657:3 11.1442
7 *1330:I *657:2 2.87216
8 *657:3 *657:4 11.1088
*END

*D_NET *658 0.00378686

*CONN
*P *658 I *C 155 37.4 *L 0.5
*I *1577:B2 I *C 148.3 55.4 *L 0.000899 *D AO222D0

*CAP
1 *1577:B2 5.54037e-06
2 *658 0.000149378
3 *658:2 0.000443139
4 *658:3 0.000664936
5 *658:4 0.00050593
6 *658:5 0.00198409
7 *658:6 3.3878e-05

*RES
1 *658:5 *658:6 5.9764
2 *658:4 *658:5 6.82778978
3 *658:2 *658:3 3.11437
4 *658 *658:6 1.51379
5 *658:3 *658:4 2.95799
6 *1577:B2 *658:2 2.81921
*END

*D_NET *659 0.00415027

*CONN
*P *659 I *C 155 33.8 *L 0.5
*I *1580:B2 I *C 147.5 48.2 *L 0.000899 *D AO222D0

*CAP
1 *659 0.000458762
2 *659:2 0.00102443
3 *659:3 0.000317016
4 *659:4 0.000516458
5 *659:5 0.00109093
6 *659:6 0.000742685

*RES
1 *659:5 *659:6 7.69016981
2 *659:2 *659:3 3.13774
3 *659:4 *659:5 2.33711
4 *1580:B2 *659:2 3.77456
5 *659 *659:6 3.37489
6 *659:3 *659:4 2.70979
*END

*D_NET *660 0.00257576

*CONN
*P *660 I *C 155 30.2 *L 0.5
*I *1576:B2 I *C 145.9 38.6 *L 0.000899 *D AO222D0

*CAP
1 *1576:B2 4.86363e-05
2 *660 0.000400114
3 *660:2 9.57721e-05
4 *660:3 0.00131114
5 *660:4 0.000347317
6 *660:5 0.000372785

*RES
1 *660:3 *660:5 5.12265015
2 *660:2 *660:3 4.94436
3 *660:4 *660:5 2.80333
4 *1576:B2 *660:2 0.572718
5 *660 *660:4 3.98472
*END

*D_NET *661 0.00136382

*CONN
*P *661 I *C 155 26.6 *L 0.5
*I *1582:B2 I *C 146.1 27.8 *L 0.000899 *D AO222D0

*CAP
1 *661 5.56336e-05
2 *661:2 0.000621221016
3 *661:3 0.000350902
4 *661:4 0.000336067

*RES
1 *661:2 *661:4 3.10655
2 *661:3 *661:4 1.67532
3 *1582:B2 *661:2 1.6937
4 *661 *661:3 3.57471991
*END

*D_NET *662 0.00215719

*CONN
*P *662 I *C 155 23 *L 0.5
*I *1575:B1 I *C 145.5 30 *L 0.00104 *D AO222D1

*CAP
1 *662 6.62366e-05
2 *662:2 0.000565756
3 *662:3 0.000353496
4 *662:4 0.00104598
5 *662:5 0.000125706

*RES
1 *662:4 *662:5 4.16089
2 *662:3 *662:4 6.38717985
3 *662:2 *662:5 4.61876
4 *662 *662:3 0.74996
5 *1575:B1 *662:2 0.74996
*END

*D_NET *663 0.00164912

*CONN
*P *663 I *C 155 19.4 *L 0.5
*I *1581:B2 I *C 144.9 20.8 *L 0.00101 *D AO222D1

*CAP
1 *663 0.000171328
2 *663:2 0.00144728
3 *663:3 3.04981e-05

*RES
1 *663:2 *663:3 8.97914982
2 *663 *663:3 1.51274
3 *1581:B2 *663:2 1.06142
*END

*D_NET *664 0.00184754

*CONN
*P *664 I *C 155 15.8 *L 0.5
*I *1579:B2 I *C 145.1 17.2 *L 0.00101 *D AO222D1

*CAP
1 *1579:B2 0.000234741
2 *664 0.000305972
3 *664:2 0.000559653984
4 *664:3 2.40992e-05
5 *664:4 0.000435776
6 *664:5 0.000287295

*RES
1 *664:2 *664:5 3.68558002
2 *664 *664:3 3.0776
3 *664:4 *664:5 1.47174
4 *664:3 *664:4 3.52542
5 *1579:B2 *664:2 1.68409
*END

*D_NET *665 0.00135481

*CONN
*P *665 I *C 155 12.2 *L 0.5
*I *1583:B1 I *C 145.5 12 *L 0.00104 *D AO222D1

*CAP
1 *1583:B1 7.53518e-05
2 *665 5.67459e-05
3 *665:2 0.000790235
4 *665:3 0.000324269
5 *665:4 0.00010821

*RES
1 *665:3 *665:4 3.55912
2 *665:2 *665:4 5.10931015
3 *1583:B1 *665:2 1.65568
4 *665 *665:3 0.749993
*END

*D_NET *666 0.00228562

*CONN
*P *666 I *C 155 8.6 *L 0.5
*I *1578:B2 I *C 144.7 15.6 *L 0.00101 *D AO222D1

*CAP
1 *666 6.62498e-05
2 *666:2 0.000900843
3 *666:3 0.00117311
4 *666:5 0.000145442

*RES
1 *666:3 *666:5 7.89074993
2 *666:2 *666:4 2.46273
3 *666:2 *666:5 6.0593
4 *666 *666:4 0.749992
5 *1578:B2 *666:3 0.749992
*END

*D_NET *667 0.00337038

*CONN
*I *1540:Z O *C 150.1 290.4 *L 0 *D CKBD12
*P *667 O *C 155 267.8 *L 0.5

*CAP
1 *667 6.60912e-05
2 *667:2 0.000282618
3 *667:3 0.00242649
4 *667:4 0.000595191

*RES
1 *667:3 *667:4 13.5969
2 *667:2 *667:4 5.86358
3 *1540:Z *667:2 2.57162
4 *667 *667:3 5.00091
*END

*D_NET *668 0.00314155

*CONN
*I *1539:Z O *C 150.1 286.8 *L 0 *D CKBD12
*P *668 O *C 155 264.2 *L 0.5

*CAP
1 *668 0.000238005
2 *668:2 7.25842e-05
3 *668:3 0.000393245
4 *668:4 0.000231686
5 *668:5 0.000437721
6 *668:6 0.00143797
7 *668:7 0.000330359

*RES
1 *668:6 *668:7 2.33445
2 *668:5 *668:7 2.18435
3 *668:4 *668:6 14.1134996
4 *668:3 *668:5 4.39539
5 *668:2 *668:4 2.46172
6 *668 *668:3 2.28405
7 *1539:Z *668:2 0.750081
*END

*D_NET *669 0.00348357

*CONN
*I *1529:Z O *C 150.1 283.2 *L 0 *D CKBD12
*P *669 O *C 155 260.6 *L 0.5

*CAP
1 *669 0.000295406
2 *669:2 0.000224655
3 *669:3 0.000535107
4 *669:4 0.000261151
5 *669:5 0.00132363
6 *669:6 0.000468759
7 *669:7 0.000374842

*RES
1 *669:2 *669:3 2.02307
2 *1529:Z *669:4 2.74499
3 *669:6 *669:7 2.81344
4 *669:5 *669:6 3.24559
5 *669:4 *669:5 10.2650995
6 *669 *669:2 2.75095
7 *669:3 *669:7 3.92914
*END

*D_NET *670 0.00339302

*CONN
*I *1528:Z O *C 150.1 279.6 *L 0 *D CKBD12
*P *670 O *C 155 257 *L 0.5

*CAP
1 *670 0.000886647969
2 *670:2 0.000151231
3 *670:3 0.000336395
4 *670:4 0.00042696
5 *670:5 0.000396911
6 *670:6 0.000235262
7 *670:7 0.00063373
8 *670:8 0.000325882

*RES
1 *1528:Z *670:2 2.12242
2 *670:7 *670:8 2.22353
3 *670:6 *670:7 4.09861
4 *670:4 *670:5 3.13676
5 *670:3 *670:4 2.92601
6 *670:2 *670:3 3.11326
7 *670 *670:8 7.66025019
8 *670:5 *670:6 2.06795
*END

*D_NET *671 0.00436888

*CONN
*I *1541:Z O *C 150.1 276 *L 0 *D CKBD12
*P *671 O *C 155 253.4 *L 0.5

*CAP
1 *671 5.56408e-05
2 *671:2 0.00012211
3 *671:3 0.00140987
4 *671:4 0.000325789
5 *671:5 0.00245549984

*RES
1 *1541:Z *671:2 1.23896
2 *671 *671:5 4.48482
3 *671:4 *671:5 10.8958998
4 *671:2 *671:3 7.87515
5 *671:3 *671:4 2.09402
*END

*D_NET *672 0.00358589

*CONN
*I *1519:Z O *C 150.1 271.6 *L 0 *D CKBD12
*P *672 O *C 155 249.8 *L 0.5

*CAP
1 *672 0.00031178
2 *672:2 9.50316e-05
3 *672:3 0.000394264
4 *672:4 4.36258e-05
5 *672:5 0.00274115

*RES
1 *672:2 *672:3 2.95167
2 *672:4 *672:5 6.28033
3 *672:3 *672:5 15.4900999
4 *672 *672:4 2.29128
5 *1519:Z *672:2 0.749971
*END

*D_NET *673 0.00384223

*CONN
*I *1538:Z O *C 150.1 268 *L 0 *D CKBD12
*P *673 O *C 155 246.2 *L 0.5

*CAP
1 *673 0.00033498
2 *673:2 0.000631302
3 *673:3 0.000890543
4 *673:4 0.00198543

*RES
1 *673:3 *673:4 6.7489
2 *673 *673:3 3.22625
3 *673:2 *673:4 18.7675991
4 *1538:Z *673:2 0.750005
*END

*D_NET *674 0.00393411

*CONN
*I *1238:Z O *C 139.9 257.2 *L 0 *D CKBD12
*P *674 O *C 155 242.6 *L 0.5

*CAP
1 *674 7.07862e-05
2 *674:2 0.000581228
3 *674:3 0.000428916
4 *674:4 4.45047e-05
5 *674:5 0.000528665
6 *674:6 0.000965447031
7 *674:7 0.000815198
8 *674:8 0.000285075
9 *674:9 0.000214288

*RES
1 *674:6 *674:9 2.47471
2 *674:8 *674:9 1.55681
3 *674:5 *674:7 4.79151
4 *674:3 *674:5 2.68964
5 *674:2 *674:4 3.97358
6 *674:7 *674:8 2.03865
7 *674:6 *674:10 5.57616997
8 *674:3 *674:4 2.80102
9 *674 *674:10 0.75003
10 *1238:Z *674:2 0.75003
*END

*D_NET *675 0.00495004

*CONN
*I *1520:Z O *C 146.9 264.4 *L 0 *D CKBD12
*P *675 O *C 155 239 *L 0.5

*CAP
1 *1520:Z 0.000691856
2 *675 7.64101e-05
3 *675:2 0.00205227
4 *675:3 4.05224e-05
5 *675:4 0.000551969
6 *675:5 0.000545017
7 *675:6 0.000557387
8 *675:7 0.00043463

*RES
1 *675:5 *675:6 3.42504
2 *1520:Z *675:3 4.25141
3 *675:2 *675:6 9.75629997
4 *675:4 *675:7 3.8642
5 *675:4 *675:5 3.40047
6 *675:3 *675:7 3.62035
7 *675 *675:2 4.7528
*END

*D_NET *676 0.00456401

*CONN
*I *1530:Z O *C 144.3 257.2 *L 0 *D CKBD12
*P *676 O *C 155 235.4 *L 0.5

*CAP
1 *1530:Z 0.000350328
2 *676 8.17012e-05
3 *676:2 0.000442292
4 *676:3 0.000136445
5 *676:4 0.000480662
6 *676:5 0.00123626992
7 *676:6 0.000687414
8 *676:7 0.00114889

*RES
1 *676:3 *676:4 1.16746
2 *676:3 *676:7 7.43763018
3 *676:2 *676:5 5.28599
4 *676:6 *676:7 3.70383
5 *676:5 *676:6 7.17638
6 *1530:Z *676:4 4.59019
7 *676 *676:2 0.75005
*END

*D_NET *677 0.00223251

*CONN
*I *1536:Z O *C 150.7 250.8 *L 0 *D BUFFD8
*P *677 O *C 155 231.8 *L 0.5

*CAP
1 *677 0.000309855
2 *677:2 0.00136193
3 *677:3 0.000478665
4 *677:4 5.72744e-05
5 *677:5 2.47926e-05

*RES
1 *677:2 *677:4 13.0839996
2 *677 *677:5 3.22608
3 *677:3 *677:4 3.95099
4 *1536:Z *677:3 0.75007
5 *677:2 *677:5 0.75007
*END

*D_NET *678 0.00450932

*CONN
*I *1534:Z O *C 142.7 250 *L 0 *D CKBD12
*P *678 O *C 155 228.2 *L 0.5

*CAP
1 *678 0.000856564
2 *678:2 0.00110491
3 *678:3 8.31528e-05
4 *678:4 0.000794807
5 *678:5 4.10537e-05
6 *678:6 0.000984632
7 *678:7 0.000176691
8 *678:8 0.000467507

*RES
1 *678:6 *678:7 7.18056
2 *678:3 *678:4 5.58218
3 *678:2 *678:3 6.62781
4 *678:5 *678:8 3.2246
5 *678:5 *678:6 0.35542
6 *678 *678:8 7.38984013
7 *678:4 *678:7 0.985974
8 *1534:Z *678:2 0.749967
*END

*D_NET *679 0.00313404

*CONN
*I *1521:Z O *C 150.1 243.6 *L 0 *D CKBD12
*P *679 O *C 155 224.6 *L 0.5

*CAP
1 *679 6.02262e-05
2 *679:2 0.000179465
3 *679:3 0.000499229
4 *679:4 0.000297674
5 *679:5 0.00150016
6 *679:6 0.000597294

*RES
1 *679 *679:6 4.33093
2 *679:5 *679:6 0.94981
3 *679:4 *679:5 11.2950001
4 *679:2 *679:3 3.75719
5 *1521:Z *679:2 2.12264
6 *679:3 *679:4 1.87135
*END

*D_NET *680 0.00326499

*CONN
*I *1531:Z O *C 150.1 240 *L 0 *D CKBD12
*P *680 O *C 155 221 *L 0.5

*CAP
1 *680 6.61125e-05
2 *680:2 7.27777e-05
3 *680:3 0.000699058
4 *680:4 0.000366572
5 *680:5 0.00110584
6 *680:6 0.000685103
7 *680:7 4.73148e-05
8 *680:8 0.000222231

*RES
1 *680:7 *680:8 0.199811
2 *680:4 *680:6 6.25273
3 *680:2 *680:4 2.61747
4 *680:3 *680:5 0.949766
5 *680:6 *680:8 1.8709
6 *680:5 *680:7 7.91704988
7 *680 *680:3 5.57501
8 *1531:Z *680:2 0.749955
*END

*D_NET *681 0.0027722

*CONN
*I *1533:Z O *C 150.7 236.4 *L 0 *D BUFFD8
*P *681 O *C 155 217.4 *L 0.5

*CAP
1 *1533:Z 5.50095e-06
2 *681 6.11217e-05
3 *681:2 0.000480213
4 *681:3 0.00222533984

*RES
1 *681:2 *681:3 15.0081997
2 *1533:Z *681:2 3.3151
3 *681 *681:3 2.61778
*END

*D_NET *682 0.00356461

*CONN
*I *1532:Z O *C 147.1 232 *L 0 *D CKBD12
*P *682 O *C 155 213.8 *L 0.5

*CAP
1 *682 5.56337e-05
2 *682:2 0.00166634
3 *682:3 0.000480845
4 *682:5 0.000582348
5 *682:6 0.000688123
6 *682:7 9.13073e-05

*RES
1 *682:3 *682:5 4.4021
2 *1532:Z *682:3 2.8976
3 *682:2 *682:7 6.57720995
4 *682:6 *682:7 0.852059
5 *682:4 *682:6 5.0988
6 *682:4 *682:5 0.199817
7 *682 *682:2 5.41935
*END

*D_NET *683 0.00328615

*CONN
*I *1535:Z O *C 150.1 228.4 *L 0 *D CKBD12
*P *683 O *C 155 210.2 *L 0.5

*CAP
1 *683 7.42728e-05
2 *683:2 8.86352e-05
3 *683:3 0.00105402008
4 *683:4 9.22217e-05
5 *683:5 0.000452697
6 *683:6 0.000634632
7 *683:7 0.000889665

*RES
1 *683:4 *683:6 0.199824
2 *683:3 *683:4 8.05393028
3 *683 *683:7 5.73186
4 *683:5 *683:6 4.78976
5 *683:3 *683:7 1.10542
6 *683:2 *683:5 4.34636
7 *1535:Z *683:2 0.750017
*END

*D_NET *684 0.00304997

*CONN
*I *1498:Z O *C 150.7 222 *L 0 *D BUFFD8
*P *684 O *C 155 206.6 *L 0.5

*CAP
1 *684 0.000321792
2 *684:2 0.00020001
3 *684:3 0.000779563
4 *684:4 0.00108319
5 *684:5 0.000611056
6 *684:6 5.43785e-05

*RES
1 *684:3 *684:5 1.04287
2 *684:2 *684:4 6.04827976
3 *1498:Z *684:2 1.70625
4 *684:4 *684:5 2.80818
5 *684:3 *684:6 4.91321
6 *684 *684:6 3.07038
*END

*D_NET *685 0.00292412

*CONN
*I *1522:Z O *C 150.7 221.2 *L 0 *D BUFFD8
*P *685 O *C 155 203 *L 0.5

*CAP
1 *685 6.67631e-05
2 *685:2 0.000318277
3 *685:3 0.000341216
4 *685:4 0.000335837
5 *685:5 0.00112274
6 *685:6 0.000739311

*RES
1 *685 *685:6 4.95357
2 *685:5 *685:6 0.949793
3 *685:4 *685:5 8.5844202
4 *685:2 *685:3 3.27064
5 *1522:Z *685:2 2.76804
6 *685:3 *685:4 2.64609
*END

*D_NET *686 0.00209961

*CONN
*I *1499:Z O *C 150.7 214.8 *L 0 *D BUFFD8
*P *686 O *C 155 199.4 *L 0.5

*CAP
1 *686 7.13528e-05
2 *686:2 0.000284426
3 *686:3 0.000242196
4 *686:4 0.00150164

*RES
1 *1499:Z *686:3 2.58958
2 *686:3 *686:4 12.7679005
3 *686 *686:2 2.61842
4 *686:2 *686:4 0.750067
*END

*D_NET *687 0.00198881

*CONN
*I *1523:Z O *C 150.7 211.2 *L 0 *D BUFFD8
*P *687 O *C 155 195.8 *L 0.5

*CAP
1 *687 0.000310553
2 *687:2 0.00110447
3 *687:3 0.000497808
4 *687:4 2.892e-05
5 *687:5 4.70708e-05

*RES
1 *687:2 *687:4 10.2754002
2 *687 *687:5 3.22815
3 *687:3 *687:4 3.95174
4 *1523:Z *687:3 0.749927
5 *687:2 *687:5 0.749927
*END

*D_NET *688 0.0025639

*CONN
*I *1500:Z O *C 150.7 207.6 *L 0 *D BUFFD8
*P *688 O *C 155 192.2 *L 0.5

*CAP
1 *688 0.000181321
2 *688:2 0.000195863
3 *688:3 2.43109e-05
4 *688:4 0.00183974
5 *688:5 0.000322639

*RES
1 *688:3 *688:4 4.60894
2 *688:2 *688:5 3.10691
3 *1500:Z *688:2 2.43386
4 *688:4 *688:5 9.94112968
5 *688 *688:3 1.51371
*END

*D_NET *689 0.00282204

*CONN
*I *1513:Z O *C 150.7 204 *L 0 *D BUFFD8
*P *689 O *C 155 188.6 *L 0.5

*CAP
1 *689 6.61121e-05
2 *689:2 7.58733e-05
3 *689:3 0.000688401
4 *689:4 0.000446492
5 *689:5 0.00154517

*RES
1 *689:2 *689:4 2.92875
2 *689:4 *689:5 12.7627001
3 *689:3 *689:5 0.949763
4 *689 *689:3 5.88729
5 *1513:Z *689:2 0.749957
*END

*D_NET *690 0.00214668

*CONN
*I *1507:Z O *C 150.7 200.4 *L 0 *D CKBD8
*P *690 O *C 155 185 *L 0.5

*CAP
1 *690 6.66331e-05
2 *690:3 0.00183402
3 *690:4 0.000246019

*RES
1 *690:2 *690:3 12.7798996
2 *690 *690:3 2.46253
3 *1507:Z *690:4 2.74529
4 *690:2 *690:4 0.749992
*END

*D_NET *691 0.00220711

*CONN
*I *1537:Z O *C 150.7 199.6 *L 0 *D CKBD8
*P *691 O *C 155 181.4 *L 0.5

*CAP
1 *691 6.61082e-05
2 *691:2 0.000235462
3 *691:3 0.00022239
4 *691:4 0.00168314

*RES
1 *1537:Z *691:3 2.58989
2 *691:3 *691:4 14.3389997
3 *691 *691:2 2.61833
4 *691:2 *691:4 0.750032
*END

*D_NET *692 0.00317647

*CONN
*I *1514:Z O *C 150.1 193.2 *L 0 *D CKBD12
*P *692 O *C 155 177.8 *L 0.5

*CAP
1 *1514:Z 0.000217339
2 *692 0.000287332
3 *692:2 0.000413882
4 *692:3 0.000992635
5 *692:4 0.000697018
6 *692:5 7.06591e-05
7 *692:6 0.000497613

*RES
1 *692:5 *692:6 4.31647
2 *692:2 *692:4 5.05829
3 *1514:Z *692:2 3.76204
4 *692:4 *692:5 0.355515
5 *692:3 *692:6 8.30327988
6 *692 *692:3 2.16654
*END

*D_NET *693 0.00258539

*CONN
*I *1516:Z O *C 150.7 188.8 *L 0 *D CKBD8
*P *693 O *C 155 174.2 *L 0.5

*CAP
1 *1516:Z 7.46981e-05
2 *693 6.60949e-05
3 *693:2 8.28422e-05
4 *693:3 0.00158374
5 *693:4 0.000778011

*RES
1 *693:3 *693:4 2.48591
2 *693:2 *693:3 9.4411602
3 *1516:Z *693:2 1.43787
4 *693 *693:4 4.3309
*END

*D_NET *694 0.00218859

*CONN
*I *1515:Z O *C 150.7 186 *L 0 *D CKBD8
*P *694 O *C 155 170.6 *L 0.5

*CAP
1 *694 6.98361e-05
2 *694:2 0.000537148
3 *694:3 0.000214993
4 *694:4 0.00136659

*RES
1 *1515:Z *694:3 2.43407
2 *694:3 *694:4 12.7728004
3 *694:2 *694:4 0.949735
4 *694 *694:2 4.64226
*END

*D_NET *695 0.00231361

*CONN
*I *1518:Z O *C 150.7 181.6 *L 0 *D BUFFD8
*P *695 O *C 155 167 *L 0.5

*CAP
1 *695 5.66325e-05
2 *695:2 0.000702918984
3 *695:3 0.000277489
4 *695:4 0.000553969
5 *695:5 0.000278443
6 *695:6 0.000444147

*RES
1 *1518:Z *695:3 2.64099
2 *695:5 *695:6 3.14368
3 *695:3 *695:4 4.57882977
4 *695:4 *695:5 2.02622
5 *695:2 *695:6 3.55003
6 *695 *695:2 2.61835
*END

*D_NET *696 0.00237994

*CONN
*I *1508:Z O *C 150.7 178 *L 0 *D BUFFD8
*P *696 O *C 155 163.4 *L 0.5

*CAP
1 *696 8.23347e-05
2 *696:2 0.00109604
3 *696:3 0.000337735
4 *696:4 0.000398662
5 *696:5 0.000465158

*RES
1 *1508:Z *696:3 2.79664
2 *696:4 *696:5 2.94552
3 *696:3 *696:4 3.34516
4 *696:2 *696:5 6.99917984
5 *696 *696:2 2.46268
*END

*D_NET *697 0.00170471

*CONN
*I *1491:Z O *C 150.7 171.6 *L 0 *D BUFFD8
*P *697 O *C 155 159.8 *L 0.5

*CAP
1 *697 0.000306636
2 *697:2 0.000805362969
3 *697:3 0.000521928
4 *697:4 2.37179e-05
5 *697:5 4.70671e-05

*RES
1 *697:2 *697:4 7.46823978
2 *697 *697:5 3.22713
3 *697:3 *697:4 3.95257
4 *1491:Z *697:3 0.749946
5 *697:2 *697:5 0.749946
*END

*D_NET *698 0.00252183

*CONN
*I *1517:Z O *C 150.7 170.8 *L 0 *D BUFFD8
*P *698 O *C 155 156.2 *L 0.5

*CAP
1 *698 4.81976e-05
2 *698:2 4.18675e-05
3 *698:3 0.000615308
4 *698:4 0.000260423
5 *698:5 0.000100438
6 *698:6 0.00145559

*RES
1 *698:5 *698:6 10.2680998
2 *698:4 *698:5 0.199765
3 *698:2 *698:3 4.14243
4 *1517:Z *698:4 3.81152
5 *698:3 *698:6 0.949787
6 *698 *698:2 1.03972
*END

*D_NET *699 0.000493911

*CONN
*I *1252:Z O *C 150.7 152.8 *L 0 *D BUFFD8
*P *699 O *C 155 152.6 *L 0.5

*CAP
1 *699 5.5641e-05
2 *699:2 0.000438273008

*RES
1 *1252:Z *699:2 1.49999
2 *699 *699:2 3.70816994
*END

*D_NET *700 0.00198314

*CONN
*I *1481:Z O *C 146.9 142.8 *L 0 *D BUFFD8
*P *700 O *C 155 149 *L 0.5

*CAP
1 *1481:Z 0.000630399
2 *700 4.32024e-05
3 *700:2 0.000838148984
4 *700:3 0.000448829
5 *700:4 2.25732e-05

*RES
1 *700:2 *700:4 5.05297995
2 *700 *700:3 2.59966
3 *700:3 *700:4 2.62534
4 *1481:Z *700:2 3.72034
*END

*D_NET *701 0.00126145

*CONN
*I *1479:Z O *C 150.7 138.4 *L 0 *D BUFFD8
*P *701 O *C 155 145.4 *L 0.5

*CAP
1 *1479:Z 0.000271836
2 *701 0.000431203984
3 *701:2 0.000315782
4 *701:3 0.000242628

*RES
1 *701:2 *701:3 3.39732
2 *701 *701:3 5.54110003
3 *1479:Z *701:2 1.99708
*END

*D_NET *702 0.00134275

*CONN
*I *1485:Z O *C 150.7 134.8 *L 0 *D BUFFD8
*P *702 O *C 155 141.8 *L 0.5

*CAP
1 *1485:Z 0.000241368
2 *702 0.000502895
3 *702:2 0.00035863
4 *702:3 0.000239856

*RES
1 *702:2 *702:3 3.62874
2 *702 *702:3 5.54110003
3 *1485:Z *702:2 1.99708
*END

*D_NET *703 0.0014879

*CONN
*I *1488:Z O *C 150.7 128.4 *L 0 *D BUFFD8
*P *703 O *C 155 138.2 *L 0.5

*CAP
1 *703 0.000151847
2 *703:2 0.000203939
3 *703:3 0.000252474
4 *703:4 0.000879632031

*RES
1 *703:2 *703:4 7.47508001
2 *703:3 *703:4 1.89124
3 *1488:Z *703:3 1.50001
4 *703 *703:2 2.75274
*END

*D_NET *704 0.0011805

*CONN
*I *1482:Z O *C 150.7 127.6 *L 0 *D BUFFD8
*P *704 O *C 155 134.6 *L 0.5

*CAP
1 *1482:Z 0.000164837
2 *704 0.00043337
3 *704:2 0.000278802
4 *704:3 0.000303488

*RES
1 *704:2 *704:3 3.39731
2 *704 *704:3 6.00901985
3 *1482:Z *704:2 1.5294
*END

*D_NET *705 0.00374402

*CONN
*I *1487:Z O *C 150.7 121.2 *L 0 *D BUFFD8
*P *705 O *C 155 131 *L 0.5

*CAP
1 *705 8.5593e-05
2 *705:2 0.000128821
3 *705:3 0.00138059
4 *705:4 0.000131434
5 *705:5 0.000264258
6 *705:6 0.000636418
7 *705:7 0.0011169

*RES
1 *705:2 *705:3 3.90239
2 *705:3 *705:6 5.05743
3 *705:5 *705:7 1.89163
4 *705:5 *705:6 2.99733
5 *705:4 *705:7 6.98304987
6 *705 *705:4 0.133937
7 *1487:Z *705:2 0.750026
*END

*D_NET *706 0.00118872

*CONN
*I *1483:Z O *C 150.7 120.4 *L 0 *D BUFFD8
*P *706 O *C 155 127.4 *L 0.5

*CAP
1 *1483:Z 0.000258864
2 *706 0.000416556016
3 *706:2 0.000271125
4 *706:3 0.000242173

*RES
1 *706:2 *706:3 3.39732
2 *706 *706:3 5.54110003
3 *1483:Z *706:2 2.0271
*END

*D_NET *707 0.00111912

*CONN
*I *1496:Z O *C 150.7 117.6 *L 0 *D BUFFD8
*P *707 O *C 155 123.8 *L 0.5

*CAP
1 *707 0.0004948
2 *707:2 0.000392888
3 *707:3 0.000231435

*RES
1 *707:2 *707:3 3.44845
2 *707 *707:3 5.38512993
3 *1496:Z *707:2 0.749971
*END

*D_NET *708 0.00350695

*CONN
*I *1512:Z O *C 150.7 106.8 *L 0 *D CKBD8
*P *708 O *C 155 120.2 *L 0.5

*CAP
1 *708 0.000101898
2 *708:2 0.00010092
3 *708:3 0.000129716
4 *708:4 0.00246690016
5 *708:5 0.00070749

*RES
1 *708:3 *708:5 4.88576
2 *708:2 *708:4 1.70712
3 *1512:Z *708:2 1.50006
4 *708:4 *708:5 13.1745005
5 *708 *708:3 0.601875
*END

*D_NET *709 0.00295545

*CONN
*I *1486:Z O *C 147.5 106.8 *L 0 *D CKBD8
*P *709 O *C 155 116.6 *L 0.5

*CAP
1 *1486:Z 0.000344869
2 *709 0.000540171
3 *709:2 0.00101838
4 *709:3 0.00105204

*RES
1 *709:2 *709:3 2.41394
2 *1486:Z *709:2 6.6728
3 *709 *709:3 7.85890007
*END

*D_NET *710 0.00194145

*CONN
*I *1480:Z O *C 147.9 106 *L 0 *D BUFFD8
*P *710 O *C 155 113 *L 0.5

*CAP
1 *1480:Z 0.000311509
2 *710 4.31947e-05
3 *710:2 0.000598223
4 *710:3 0.000208054
5 *710:4 0.00078047

*RES
1 *1480:Z *710:2 3.74184
2 *710:3 *710:4 5.16025019
3 *710:2 *710:4 2.01612
4 *710 *710:3 2.59965
*END

*D_NET *711 0.00286552

*CONN
*I *1506:Z O *C 145.5 98.8 *L 0 *D BUFFD8
*P *711 O *C 155 109.4 *L 0.5

*CAP
1 *1506:Z 0.00144136
2 *711 4.31957e-05
3 *711:2 0.00044313
4 *711:3 0.000937835

*RES
1 *711:2 *711:3 8.22283
2 *711 *711:3 2.59968
3 *1506:Z *711:2 8.5118103
*END

*D_NET *712 0.00198949

*CONN
*I *1495:Z O *C 150.7 92.4 *L 0 *D BUFFD8
*P *712 O *C 155 105.8 *L 0.5

*CAP
1 *712 0.00011024
2 *712:2 0.000674372969
3 *712:3 0.000541083
4 *712:4 0.00042718
5 *712:5 0.000236625

*RES
1 *712:3 *712:5 3.83325
2 *712:2 *712:4 6.73699999
3 *712:4 *712:5 1.2968
4 *1495:Z *712:3 2.6412
5 *712 *712:2 3.06463
*END

*D_NET *713 0.00185281

*CONN
*I *1494:Z O *C 150.7 91.6 *L 0 *D BUFFD8
*P *713 O *C 155 102.2 *L 0.5

*CAP
1 *713 0.000153114
2 *713:2 0.000547301
3 *713:3 0.000881673984
4 *713:4 0.000269164
5 *713:5 1.5606e-06

*RES
1 *713:2 *713:4 2.94397
2 *713:3 *713:5 4.66591978
3 *713:4 *713:5 2.0271
4 *1494:Z *713:3 2.78
5 *713 *713:2 3.37684
*END

*D_NET *714 0.00321843

*CONN
*I *1527:Z O *C 150.7 85.2 *L 0 *D BUFFD8
*P *714 O *C 155 98.6 *L 0.5

*CAP
1 *714 6.66377e-05
2 *714:2 0.000110766
3 *714:3 0.00071414
4 *714:4 0.00079025
5 *714:5 0.00153663

*RES
1 *714:3 *714:4 5.24564
2 *714:2 *714:5 4.75575
3 *714:4 *714:5 4.31147
4 *714 *714:3 5.57673979
5 *1527:Z *714:2 0.750021
*END

*D_NET *715 0.00253591

*CONN
*I *1490:Z O *C 147.5 85.2 *L 0 *D BUFFD8
*P *715 O *C 155 95 *L 0.5

*CAP
1 *1490:Z 0.00068317
2 *715 4.82063e-05
3 *715:2 0.000377045
4 *715:3 0.000131082
5 *715:4 0.00124771
6 *715:5 4.87013e-05

*RES
1 *715:2 *715:4 2.43062
2 *715 *715:5 1.03987
3 *715:4 *715:5 6.3768301
4 *715:2 *715:3 1.75914
5 *1490:Z *715:3 4.34875
*END

*D_NET *716 0.0120241

*CONN
*I *1248:Z O *C 141.9 146.4 *L 0 *D CKBD12
*P *716 O *C 155 91.4 *L 0.5

*CAP
1 *716 6.66332e-05
2 *716:2 0.00261956
3 *716:3 0.000226001
4 *716:4 0.000182552
5 *716:5 0.000344478
6 *716:6 0.000261976
7 *716:7 0.000511281
8 *716:8 0.000549534
9 *716:9 0.000234715
10 *716:10 8.84579e-05
11 *716:11 1.63085e-05
12 *716:12 0.00180917
13 *716:2 *169:3 0.000335873984
14 *716:3 *775:3 0.000635206992
15 *716:7 *615:5 0.000783408984
16 *716:2 *842:10 0.000959508984
17 *716:3 *618:27 0.000469150977
18 *716:2 *733:2 0.000494581016
19 *716:2 *468:15 0.00143568

*RES
1 *716:6 *716:7 4.29913
2 *716 *716:4 2.17363
3 *716:10 *716:12 0.199817
4 *716:9 *716:11 1.00978
5 *716:5 *716:2 6.64901
6 *716:3 *716:6 6.38484
7 *716:2 *716:10 10.3744
8 *716:7 *716:8 10.4218
9 *716:8 *716:9 5.87391
10 *716:11 *716:12 12.9784002
11 *1248:Z *716:3 2.03916
12 *716:4 *716:5 1.99837
*END

*D_NET *717 0.0112905

*CONN
*I *1249:Z O *C 146.1 149.2 *L 0 *D CKBD12
*P *717 O *C 155 87.8 *L 0.5

*CAP
1 *717 6.66373e-05
2 *717:2 0.00185664
3 *717:3 0.000577998
4 *717:4 0.000406076
5 *717:5 0.000430729
6 *717:7 0.000272575
7 *717:8 0.000110889
8 *717:9 5.46186e-05
9 *717:10 0.00212303
10 *717:12 0.000624097
11 *717:13 1.32821e-06
12 *717:2 *719:2 0.000562773008
13 *717:3 *179:2 0.00138024
14 *717:2 *538:11 0.00049445
15 *717:2 *940:13 0.000385135
16 *717:8 *784:4 0.00171847
17 *717:3 *937:4 0.000224795996

*RES
1 *717:5 *717:7 3.48466
2 *717 *717:2 7.27684
3 *717:9 *717:10 25.8045998
4 *717:3 *717:4 2.89168
5 *717:10 *717:13 0.200023
6 *1249:Z *717:3 3.3689
7 *717:6 *717:7 0.200023
8 *717:2 *717:11 4.66393
9 *717:4 *717:5 5.67429
10 *717:12 *717:13 6.23892
11 *717:6 *717:8 5.72193
12 *717:8 *717:9 0.200023
13 *717:11 *717:12 0.200023
*END

*D_NET *718 0.00772807

*CONN
*I *1250:Z O *C 146.3 146.4 *L 0 *D CKBD12
*P *718 O *C 155 84.2 *L 0.5

*CAP
1 *718 6.02228e-05
2 *718:2 0.000300482
3 *718:3 0.00036121
4 *718:5 0.00275993
5 *718:3 *940:14 0.00159525
6 *718:2 *308:4 0.000277094004
7 *718:3 *784:4 0.000825015
8 *718:2 *657:5 0.00154888

*RES
1 *718:3 *718:5 49.4686012
2 *718:4 *718:5 6.20622
3 *718:2 *718:3 2.43508
4 *1250:Z *718:2 1.49985
5 *718 *718:4 0.750302
*END

*D_NET *719 0.0114396

*CONN
*I *1251:Z O *C 143.7 145.6 *L 0 *D CKBD12
*P *719 O *C 155 80.6 *L 0.5

*CAP
1 *719 0.00115384
2 *719:2 0.00328354
3 *719:3 0.000997112
4 *719:4 5.76693e-05
5 *719:6 0.000718987
6 *719:7 0.000428386
7 *719:8 0.000379886
8 *719:9 0.000225717
9 *719 *75:21 0.000633373008
10 *719:2 *167:2 0.000323775
11 *719:3 *179:2 0.0015478
12 *719 *309:2 0.000894468047
13 *719:6 *248:2 0.00023226
14 *719:2 *717:2 0.000562773008

*RES
1 *719:2 *719:9 1.83664
2 *719:7 *719:8 0.200076
3 *719:4 *719:6 8.6195
4 *719:3 *719:4 5.10976
5 *719 *719:9 8.75695
6 *719:2 *719:8 38.0063019
7 *719:5 *719:7 4.9497
8 *719:5 *719:6 0.200076
9 *1251:Z *719:3 0.74985
*END

*D_NET *720 0.00247764

*CONN
*I *1511:Z O *C 150.7 63.6 *L 0 *D BUFFD8
*P *720 O *C 155 77 *L 0.5

*CAP
1 *720 5.25842e-05
2 *720:2 0.000152799
3 *720:3 0.00013824
4 *720:4 0.000494571
5 *720:5 0.00163944

*RES
1 *720:4 *720:5 11.0397997
2 *720:2 *720:4 2.61424
3 *1511:Z *720:2 1.50008
4 *720:3 *720:5 5.17305
5 *720 *720:3 0.445729
*END

*D_NET *721 0.00191819

*CONN
*I *1503:Z O *C 150.7 60 *L 0 *D BUFFD8
*P *721 O *C 155 73.4 *L 0.5

*CAP
1 *721 0.000110247
2 *721:2 0.000674983984
3 *721:3 0.000482505
4 *721:4 0.000428257
5 *721:5 0.000222193

*RES
1 *721:3 *721:5 3.55696
2 *721:2 *721:4 6.58816004
3 *721:4 *721:5 1.29952
4 *1503:Z *721:3 2.64116
5 *721 *721:2 3.06448
*END

*D_NET *722 0.00197636

*CONN
*I *1510:Z O *C 150.7 55.6 *L 0 *D BUFFD8
*P *722 O *C 155 69.8 *L 0.5

*CAP
1 *722 4.31972e-05
2 *722:2 0.000557661
3 *722:3 0.000685621016
4 *722:4 0.000442371
5 *722:5 0.000245959
6 *722:6 1.54836e-06

*RES
1 *722:5 *722:6 1.8869
2 *722:3 *722:6 4.48320007
3 *722 *722:2 2.2873
4 *722:2 *722:4 3.90036
5 *722:4 *722:5 3.13186
6 *1510:Z *722:3 2.74577
*END

*D_NET *723 0.0026798

*CONN
*I *1524:Z O *C 150.1 48.4 *L 0 *D CKBD12
*P *723 O *C 155 66.2 *L 0.5

*CAP
1 *723 5.23118e-05
2 *723:2 0.000107774
3 *723:3 0.00082515
4 *723:4 2.95477e-05
5 *723:5 0.00166501

*RES
1 *723 *723:3 5.09782
2 *723:4 *723:5 1.68551
3 *723:2 *723:4 1.5
4 *1524:Z *723:2 1.5
5 *723:3 *723:5 14.8629999
*END

*D_NET *724 0.00368178

*CONN
*I *1493:Z O *C 145.1 49.2 *L 0 *D BUFFD8
*P *724 O *C 155 62.6 *L 0.5

*CAP
1 *724 8.45947e-05
2 *724:2 0.000682257
3 *724:3 0.000582249
4 *724:4 0.00033856
5 *724:5 0.00118561008
6 *724:6 0.000808498

*RES
1 *724:4 *724:6 1.96031
2 *724:2 *724:3 3.78898
3 *724:4 *724:5 5.62777996
4 *724:3 *724:5 4.19919
5 *724 *724:6 5.58252
6 *1493:Z *724:2 0.750016
*END

*D_NET *725 0.00423225

*CONN
*I *1484:Z O *C 142.5 44.8 *L 0 *D BUFFD8
*P *725 O *C 155 59 *L 0.5

*CAP
1 *1484:Z 0.000473851
2 *725 8.63337e-05
3 *725:2 0.00159332
4 *725:3 0.000550168
5 *725:4 0.00152858

*RES
1 *1484:Z *725:2 5.04828
2 *725:2 *725:3 8.58934
3 *725 *725:4 10.5700998
4 *725:3 *725:4 1.86254
*END

*D_NET *726 0.00520575

*CONN
*I *1501:Z O *C 142.3 38.4 *L 0 *D BUFFD8
*P *726 O *C 155 55.4 *L 0.5

*CAP
1 *1501:Z 0.000159703
2 *726 0.000426532
3 *726:2 0.000943235
4 *726:3 7.9722e-05
5 *726:4 0.000732466
6 *726:5 0.000923373
7 *726:3 *8:2 0.000833225
8 *726:4 *468:3 0.000544197031
9 *726:4 *735:2 0.000563301992

*RES
1 *726:3 *726:5 11.8894997
2 *726:2 *726:4 5.87091
3 *1501:Z *726:2 1.55785
4 *726:4 *726:5 8.40099
5 *726 *726:3 4.76008
*END

*D_NET *727 0.00193722

*CONN
*I *1492:Z O *C 144.9 45.6 *L 0 *D BUFFD8
*P *727 O *C 155 51.8 *L 0.5

*CAP
1 *727 0.000492582
2 *727:2 0.00122152992
3 *727:3 0.000223113

*RES
1 *727:2 *727:3 8.08370972
2 *727 *727:3 5.38227
3 *1492:Z *727:2 0.749954
*END

*D_NET *728 0.00355133

*CONN
*I *1525:Z O *C 150.7 27.6 *L 0 *D BUFFD8
*P *728 O *C 155 48.2 *L 0.5

*CAP
1 *1525:Z 0.000103927
2 *728 0.000101933
3 *728:2 0.000140779
4 *728:3 0.000495907
5 *728:4 0.000557114
6 *728:5 0.000449046
7 *728:6 0.00030766
8 *728:7 0.000171763
9 *728:8 0.000549715
10 *728:9 0.000673476016

*RES
1 *728:6 *728:7 2.0262
2 *728:5 *728:6 3.13947
3 *728:2 *728:9 4.57625008
4 *728:7 *728:8 2.94339
5 *728:4 *728:9 4.3218
6 *728:3 *728:5 3.12976
7 *728:3 *728:4 0.199848
8 *1525:Z *728:8 3.85877
9 *728 *728:2 0.601429
*END

*D_NET *729 0.00292144

*CONN
*I *1509:Z O *C 150.7 26.8 *L 0 *D BUFFD8
*P *729 O *C 155 44.6 *L 0.5

*CAP
1 *729 6.66253e-05
2 *729:2 0.000595378
3 *729:3 8.39206e-05
4 *729:4 0.00217553

*RES
1 *1509:Z *729:3 1.49997
2 *729:3 *729:4 1.70976
3 *729:2 *729:4 14.6108999
4 *729 *729:2 5.0031
*END

*D_NET *730 0.00298351

*CONN
*I *1502:Z O *C 147.5 26.8 *L 0 *D BUFFD8
*P *730 O *C 155 41 *L 0.5

*CAP
1 *1502:Z 0.000650195
2 *730 4.58037e-05
3 *730:2 0.000114589
4 *730:3 0.00116753992
5 *730:4 3.52747e-06
6 *730:5 7.06207e-05
7 *730:6 0.000931217

*RES
1 *730:2 *730:3 6.14928007
2 *730:5 *730:6 3.91452
3 *730:2 *730:6 3.88421
4 *1502:Z *730:4 4.31893
5 *730:3 *730:4 0.199765
6 *730 *730:5 1.19559
*END

*D_NET *731 0.00406641

*CONN
*I *1253:I I *C 146.5 74.8 *L 0.00072 *D BUFFD1
*I *1577:Z O *C 146.1 55.6 *L 0 *D AO222D0

*CAP
1 *1577:Z 0.000602662
2 *731:2 0.00146949
3 *731:3 0.000580239
4 *731:5 0.00141402

*RES
1 *731:4 *731:5 6.57524
2 *731:2 *731:5 10.1168003
3 *731:2 *731:3 2.99355
4 *1577:Z *731:3 4.6416
5 *1253:I *731:4 0.74993
*END

*D_NET *732 0.0135285

*CONN
*I *1315:I I *C 144.5 134.4 *L 0.00182 *D DEL005
*I *1580:Z O *C 145.3 48.4 *L 0 *D AO222D0

*CAP
1 *1315:I 3.66925e-05
2 *1580:Z 0.00126162
3 *732:2 0.000658487
4 *732:3 0.000141304
5 *732:4 3.56458e-05
6 *732:5 0.000293481
7 *732:6 0.000482061
8 *732:7 0.00381084
9 *732:8 0.000220329
10 *732:6 *537:10 0.000568377969
11 *1315:I *869:3 0.00153148
12 *732:5 *230:2 0.000344056016
13 *1580:Z *736:3 0.00160565
14 *732:4 *796:2 0.000663963984
15 *732:5 *867:3 0.00136271
16 *732:2 *625:9 0.000511713984

*RES
1 *732:7 *732:8 1.67853
2 *732:3 *732:2 1.06136
3 *1580:Z *732:3 6.97873
4 *732:6 *732:7 39.4989014
5 *732:5 *732:6 8.75008
6 *732:4 *732:5 13.3282
7 *732:2 *732:8 5.44785
8 *1315:I *732:4 1.89912
*END

*D_NET *733 0.0162367

*CONN
*I *1392:I I *C 142.9 132.4 *L 0.00105 *D DEL1
*I *1576:Z O *C 143.7 38.4 *L 0 *D AO222D0

*CAP
1 *1576:Z 9.91106e-05
2 *733:2 0.00405951031
3 *733:3 0.000356427
4 *733:4 0.000707464
5 *733:5 0.000280421
6 *733:6 0.000834945
7 *733:7 0.00037885
8 *733:8 0.000587293
9 *733:9 0.00057639
10 *733:10 0.000275528
11 *733:11 0.000224795
12 *733:12 0.000682625
13 *733:2 *716:2 0.000494581016
14 *733:4 *738:2 0.00111709
15 *733:2 *800:2 0.000342566992
16 *733:2 *1749:A2 0.00096196
17 *733:4 *472:5 0.00190639
18 *733:3 *615:3 0.000586377031
19 *733:5 *619:5 0.000558826992
20 *733:2 *53:6 0.00120551

*RES
1 *733:9 *733:10 4.30822
2 *733:2 *733:7 13.9306
3 *733:11 *733:12 9.99817
4 *733:7 *733:8 4.48469
5 *733:3 *733:9 5.03917
6 *733:5 *733:10 2.06968
7 *733:4 *733:12 5.91166
8 *733:2 *733:6 29.3526993
9 *733:8 *733:11 6.39269
10 *1576:Z *733:4 3.28346
11 *733:5 *733:6 3.04608
12 *1392:I *733:3 3.18403
*END

*D_NET *734 0.0197361

*CONN
*I *1391:I I *C 137.7 128.8 *L 0.00105 *D DEL1
*I *1582:Z O *C 143.9 27.6 *L 0 *D AO222D0

*CAP
1 *1391:I 3.10586e-05
2 *1582:Z 0.000285481
3 *734:2 0.00100976
4 *734:3 0.00120889
5 *734:4 0.00030105
6 *734:5 0.000407713
7 *734:6 0.000559898
8 *734:7 0.000583212
9 *734:8 0.000394173
10 *734:9 0.000760396
11 *734:10 0.00019162
12 *734:11 0.000258216
13 *734:12 0.00166428
14 *734:13 0.00035047
15 *734:14 0.000671356
16 *734:15 0.0017264
17 *734:16 1.73865e-06
18 *734:17 0.00165807
19 *734:18 0.00075273
20 *734:19 0.000502733
21 *734:20 0.000495462
22 *734:21 0.000361903
23 *734:22 0.00160351
24 *734:23 8.17956e-05
25 *734:24 0.000403288
26 *734:25 0.000923855
27 *734:26 3.55369e-05
28 *1391:I *776:2 0.000467649023
29 *734:7 *783:3 0.00086
30 *734:2 *84:9 0.000511361016
31 *734:3 *620:19 0.000672550938

*RES
1 *734:2 *734:18 0.19973
2 *734:17 *734:19 2.95874
3 *1582:Z *734:26 2.74597
4 *734:20 *734:25 6.03405
5 *734:22 *734:24 2.02513
6 *734:14 *734:15 10.4216003
7 *734:9 *734:25 7.4433
8 *1391:I *734:7 6.11324
9 *734:23 *734:24 0.19973
10 *734:10 *734:12 8.92649
11 *734:10 *734:11 0.199889
12 *734:8 *734:21 1.73762
13 *734:16 *734:22 9.3358
14 *734:18 *734:19 6.46977
15 *734:2 *734:26 5.85484
16 *734:20 *734:21 2.579
17 *734:3 *734:16 0.19973
18 *734:6 *734:3 6.80848
19 *734:7 *734:8 2.34174
20 *734:4 *734:5 2.13597
21 *734:12 *734:13 2.93855
22 *734:5 *734:14 3.62695
23 *734:6 *734:15 2.84743
24 *734:17 *734:23 9.31847
25 *734:4 *734:13 1.72458
26 *734:9 *734:11 2.90849
*END

*D_NET *735 0.0159249

*CONN
*I *1399:I I *C 143.9 123.6 *L 0.00105 *D DEL1
*I *1575:Z O *C 143.9 30.4 *L 0 *D AO222D1

*CAP
1 *1399:I 0.00203209
2 *1575:Z 0.000142338
3 *735:2 0.00334581
4 *735:3 0.00017537
5 *735:4 0.000252155
6 *735:5 9.70022e-07
7 *735:6 0.00113314
8 *1399:I *869:2 0.00138554
9 *1399:I *796:4 0.0014827
10 *735:2 *726:4 0.000563301992
11 *735:2 *1739:A1 0.000481726992
12 *735:3 *468:5 0.00264514
13 *735:2 *473:10 0.0022846

*RES
1 *735:5 *735:6 4.59854
2 *1575:Z *735:6 5.77152
3 *735:2 *735:5 0.199639
4 *735:3 *735:2 56.152401
5 *735:4 *735:3 4.05103
6 *1399:I *735:4 20.7316
*END

*D_NET *736 0.0170747

*CONN
*I *1397:I I *C 143.9 127.2 *L 0.00105 *D DEL1
*I *1581:Z O *C 143.7 20.4 *L 0 *D AO222D1

*CAP
1 *736:2 0.00392628
2 *736:3 0.000237368
3 *736:4 0.000398709
4 *736:5 0.00033077
5 *736:6 0.000599591
6 *736:7 0.000432858
7 *736:8 0.000456583
8 *736:9 0.000853735
9 *736:10 0.000424291
10 *736:11 0.000380137
11 *736:12 0.000457362
12 *736:13 0.00041129
13 *736:8 *537:12 0.000572383984
14 *736:8 *869:2 0.00160416
15 *736:5 *913:3 0.000735135938
16 *736:2 *482:5 0.00232375
17 *736:3 *1580:Z 0.00160565
18 *736:4 *857:35 0.00132478

*RES
1 *736:7 *736:13 3.77513
2 *736:9 *736:10 3.31931
3 *736:6 *736:12 0.993277
4 *1581:Z *736:13 4.10441
5 *736:5 *736:4 6.82776
6 *736:10 *736:11 3.31455
7 *736:3 *736:9 6.74136
8 *1397:I *736:5 6.11206
9 *736:8 *736:2 44.5858994
10 *736:2 *736:3 1.8362
11 *736:11 *736:12 2.99208
12 *736:6 *736:7 5.00721
13 *736:4 *736:8 8.75036
*END

*D_NET *737 0.0184335

*CONN
*I *1396:I I *C 143.7 128.8 *L 0.00105 *D DEL1
*I *1579:Z O *C 143.9 16.8 *L 0 *D AO222D1

*CAP
1 *1396:I 5.70324e-05
2 *1579:Z 0.000338292
3 *737:2 0.00188471
4 *737:3 0.000115641
5 *737:4 0.000411997
6 *737:6 0.00033908
7 *737:7 0.00258301
8 *737:8 1.89188e-06
9 *737:9 0.000130422
10 *737:10 0.000421614
11 *737:11 0.00154634
12 *737:12 0.000833886
13 *1396:I *868:2 0.0033229
14 *737:7 *473:3 0.00304373
15 *1579:Z *316:3 0.00198445
16 *1579:Z *482:3 0.000904473984
17 *737:2 *39:5 0.000513984023

*RES
1 *737:5 *737:2 14.1801
2 *1396:I *737:3 1.4999
3 *737:3 *737:4 4.70363
4 *737:2 *737:8 0.199742
5 *737:11 *737:12 10.8338
6 *737:10 *737:11 21.2953
7 *737:9 *737:10 3.98068
8 *737:4 *737:6 3.99536
9 *737:5 *737:7 0.199742
10 *737:6 *737:7 34.3577003
11 *1579:Z *737:12 4.05198
12 *737:8 *737:9 4.98516
*END

*D_NET *738 0.0137269

*CONN
*I *1398:I I *C 142.9 125.2 *L 0.00105 *D DEL1
*I *1583:Z O *C 143.9 12.4 *L 0 *D AO222D1

*CAP
1 *1398:I 6.39899e-05
2 *1583:Z 0.000130142
3 *738:2 0.000669631
4 *738:3 0.00172293
5 *738:4 0.000456072
6 *738:6 0.00143768
7 *738:8 0.00042857
8 *738:10 0.000495297
9 *738:12 0.000330288
10 *738:13 0.00034164
11 *738:14 0.00221414
12 *738:14 *82:3 0.000991095
13 *738:14 *233:3 0.00101732
14 *738:3 *537:9 0.000418868008
15 *738:13 *800:3 0.000643724023
16 *738:13 *279:2 0.0005195
17 *738:3 *472:6 0.000728967031
18 *738:2 *733:4 0.00111709

*RES
1 *738:5 *738:6 0.199427
2 *738:5 *738:2 5.88224
3 *738:3 *738:11 12.0977
4 *738:7 *738:10 3.39282
5 *738:12 *738:14 1.37383
6 *738:4 *738:13 3.94593
7 *738:2 *738:9 0.199427
8 *738:6 *738:12 10.0821
9 *738:7 *738:8 0.199427
10 *1583:Z *738:3 3.13544
11 *738:10 *738:11 0.199427
12 *738:13 *738:14 55.853199
13 *738:8 *738:9 5.09562
14 *1398:I *738:4 2.24995
*END

*D_NET *739 0.0196832

*CONN
*I *1395:I I *C 148.7 125.2 *L 0.00105 *D DEL1
*I *1578:Z O *C 143.5 16 *L 0 *D AO222D1

*CAP
1 *739:2 0.000338268
2 *739:3 0.00257204016
3 *739:4 7.02518e-05
4 *739:5 0.000380812
5 *739:6 0.000102748
6 *739:7 0.000358598
7 *739:8 0.000104946
8 *739:9 0.000671552
9 *739:10 0.000299257
10 *739:11 0.000427437
11 *739:12 0.000176179
12 *739:13 0.00126065
13 *739:14 0.000507226
14 *739:15 0.000160676
15 *739:9 *536:9 0.00103811
16 *739:5 *1767:A1 0.00388755
17 *739:11 *847:7 0.00104779008
18 *739:5 *455:2 0.000238646992
19 *739:2 *935:14 0.000992096016
20 *739:3 *1580:C1 0.00504844

*RES
1 *739:5 *739:9 9.99673
2 *739:9 *739:10 7.92739
3 *739:3 *739:6 1.99895
4 *739:6 *739:13 16.1969
5 *739:3 *739:12 32.2588997
6 *739:10 *739:11 20.0171
7 *739:14 *739:15 2.34991
8 *739:7 *739:8 2.02455
9 *739:13 *739:15 0.199846
10 *739:2 *739:8 4.59794
11 *739:4 *739:5 3.61101
12 *739:7 *739:14 3.22658
13 *739:11 *739:12 4.64618
14 *1395:I *739:4 1.49983
15 *1578:Z *739:2 0.750161
*END

*D_NET *740 0.00116879

*CONN
*I *1403:I I *C 142.3 215.2 *L 0.00105 *D DEL1
*I *1677:Q O *C 146.1 214 *L 0 *D DFCNQD1

*CAP
1 *1677:Q 0.000232389
2 *740:2 0.0009364

*RES
1 *1677:Q *740:2 5.08514023
2 *1403:I *740:2 3.53033
*END

*D_NET *741 0.000374329

*CONN
*I *1406:I I *C 139.1 210 *L 0.00105 *D DEL1
*I *1676:Q O *C 139.1 211.2 *L 0 *D DFCNQD1

*CAP
1 *1406:I 0.000374328984

*RES
1 *1676:Q *1406:I 2.69819
*END

*D_NET *742 0.000329256

*CONN
*I *1405:I I *C 138.9 215.2 *L 0.00105 *D DEL1
*I *1675:Q O *C 138.9 214 *L 0 *D DFCNQD1

*CAP
1 *1675:Q 0.000329256016

*RES
1 *1405:I *1675:Q 3.44819
*END

*D_NET *743 0.000878589

*CONN
*I *1407:I I *C 145.5 211.6 *L 0.00105 *D DEL1
*I *1674:Q O *C 146.7 210.4 *L 0 *D DFCNQD1

*CAP
1 *1407:I 9.27727e-05
2 *1674:Q 0.000785816016

*RES
1 *1674:Q *1407:I 5.79503
*END

*D_NET *744 0.000955716

*CONN
*I *1404:I I *C 146.1 192 *L 0.00105 *D DEL1
*I *1673:Q O *C 146.1 196 *L 0 *D DFCNQD1

*CAP
1 *1404:I 2.72947e-05
2 *1673:Q 9.06032e-05
3 *744:2 0.000837827031

*RES
1 *1404:I *744:2 0.405867
2 *1673:Q *744:2 6.03972006
*END

*D_NET *745 0.000664662

*CONN
*I *1402:I I *C 145.5 186.4 *L 0.00105 *D DEL1
*I *1672:Q O *C 146.1 189.6 *L 0 *D DFCNQD1

*CAP
1 *1672:Q 6.9908e-05
2 *745:2 0.000594757969

*RES
1 *1672:Q *745:2 4.00409985
2 *1402:I *745:2 1.50001
*END

*D_NET *746 0.00039101

*CONN
*I *1235:Z O *C 141.3 185.2 *L 0 *D DEL015
*I *1401:I I *C 141.5 186.4 *L 0.00105 *D DEL1

*CAP
1 *1235:Z 0.000311006992
2 *1401:I 8.00024e-05

*RES
1 *1235:Z *1401:I 2.74067
*END

*D_NET *747 0.00122637

*CONN
*I *1236:Z O *C 143.5 174.4 *L 0 *D DEL015
*I *1400:I I *C 138.5 175.6 *L 0.00105 *D DEL1

*CAP
1 *747:2 0.000805762969
2 *747:3 0.000420605

*RES
1 *1236:Z *747:3 3.09207
2 *747:2 *747:3 4.5625701
3 *1400:I *747:2 1.50002
*END

*D_NET *748 0.000504504

*CONN
*I *1205:I I *C 138.7 272.8 *L 0.00103 *D DEL01
*I *1669:Q O *C 140.7 271.6 *L 0 *D DFCNQD1

*CAP
1 *1205:I 0.000290801992
2 *1669:Q 0.000213703

*RES
1 *1669:Q *1205:I 4.46084
*END

*D_NET *749 0.000543967

*CONN
*I *1201:I I *C 149.1 258.4 *L 0.00103 *D DEL01
*I *1668:Q O *C 149.5 260.8 *L 0 *D DFCNQD1

*CAP
1 *1201:I 0.000415304023
2 *1668:Q 0.000128663

*RES
1 *1201:I *1668:Q 3.64128
*END

*D_NET *750 0.000719816

*CONN
*I *1193:I I *C 140.5 269.2 *L 0.00103 *D DEL01
*I *1667:Q O *C 142.5 268 *L 0 *D DFCNQD1

*CAP
1 *1667:Q 7.83453e-05
2 *750:2 0.000641474023

*RES
1 *1667:Q *750:2 3.05613995
2 *1193:I *750:2 2.5893
*END

*D_NET *751 0.000274071

*CONN
*I *1181:I I *C 139.5 264 *L 0.00104 *D DEL0
*I *1666:Q O *C 140.1 261.6 *L 0 *D DFCNQD1

*CAP
1 *1666:Q 3.89993e-06
2 *751:2 0.000270170996

*RES
1 *1666:Q *751:2 0.405438
2 *1181:I *751:2 3.33929992
*END

*D_NET *752 0.000243583

*CONN
*I *1438:I I *C 138.5 253.2 *L 0.00105 *D DEL1
*I *1665:Q O *C 138.5 254.4 *L 0 *D DFCNQD1

*CAP
1 *1438:I 0.000243582988

*RES
1 *1665:Q *1438:I 2.43368
*END

*D_NET *753 0.000791998

*CONN
*I *1434:I I *C 147.5 253.2 *L 0.00105 *D DEL1
*I *1664:Q O *C 149.9 254.4 *L 0 *D DFCNQD1

*CAP
1 *1664:Q 0.000138505
2 *753:2 0.000653487969

*RES
1 *1434:I *753:2 2.43367
2 *1664:Q *753:2 4.08484983
*END

*D_NET *754 0.00186701

*CONN
*I *1194:Z O *C 150.9 247.2 *L 0 *D DEL01
*I *1435:I I *C 145.5 251.2 *L 0.00105 *D DEL1

*CAP
1 *1194:Z 9.35033e-05
2 *1435:I 0.000424567
3 *754:2 0.000928022969
4 *754:3 0.000420913

*RES
1 *754:2 *754:3 5.1764698
2 *1194:Z *754:3 3.11452
3 *1435:I *754:2 3.39477
*END

*D_NET *755 0.000279928

*CONN
*I *1229:Z O *C 140.5 222 *L 0 *D DEL01
*I *1418:I I *C 140.7 220.8 *L 0.00105 *D DEL1

*CAP
1 *1229:Z 1.02069e-05
2 *1418:I 0.000269722012

*RES
1 *1418:I *1229:Z 3.34015
*END

*D_NET *756 0.000497334

*CONN
*I *1217:I I *C 138.3 249.6 *L 0.00103 *D DEL01
*I *1661:Q O *C 138.9 246.4 *L 0 *D DFCNQD1

*CAP
1 *1661:Q 0.000497333984

*RES
1 *1661:Q *1217:I 4.44311
*END

*D_NET *757 0.0005785

*CONN
*I *1186:Z O *C 145.9 246.4 *L 0 *D DEL01
*I *1450:I I *C 146.1 242.4 *L 0.00105 *D DEL1

*CAP
1 *1186:Z 9.04969e-05
2 *1450:I 0.000488003984

*RES
1 *1186:Z *1450:I 5.85017
*END

*D_NET *758 0.00089999

*CONN
*I *1210:Z O *C 142.3 242.8 *L 0 *D DEL01
*I *1457:I I *C 140.3 238.8 *L 0.00105 *D DEL1

*CAP
1 *1457:I 0.00036306
2 *758:2 0.000536933008

*RES
1 *1457:I *758:2 3.45238
2 *1210:Z *758:2 4.42874002
*END

*D_NET *759 0.00194647

*CONN
*I *1180:Z O *C 147.5 235.6 *L 0 *D DEL015
*I *1461:I I *C 138.3 233.2 *L 0.00105 *D DEL1

*CAP
1 *1180:Z 0.000379523
2 *759:2 0.00156694

*RES
1 *1180:Z *759:2 11.9583998
2 *1461:I *759:2 1.49991
*END

*D_NET *760 0.000548368

*CONN
*I *1207:Z O *C 140.1 232 *L 0 *D DEL01
*I *1462:I I *C 138.1 229.6 *L 0.00105 *D DEL1

*CAP
1 *760:2 0.000548367969

*RES
1 *1207:Z *760:2 2.58951
2 *1462:I *760:2 3.6505301
*END

*D_NET *761 0.000553517

*CONN
*I *1208:Z O *C 140.7 225.6 *L 0 *D DEL01
*I *1454:I I *C 139.3 228 *L 0.00105 *D DEL1

*CAP
1 *1208:Z 0.000104116
2 *1454:I 0.0004494

*RES
1 *1454:I *1208:Z 4.5487
*END

*D_NET *762 0.00120111

*CONN
*I *1209:I I *C 150.1 224.4 *L 0.00103 *D DEL01
*I *1655:Q O *C 145.5 224.8 *L 0 *D DFCNQD1

*CAP
1 *1209:I 0.000217263
2 *1655:Q 0.000421711
3 *762:2 0.000562135977

*RES
1 *1655:Q *762:2 2.74472
2 *1209:I *762:2 4.88004017
*END

*D_NET *763 0.000708911

*CONN
*I *1182:I I *C 143.7 217.2 *L 0.00103 *D DEL01
*I *1654:Q O *C 145.7 217.6 *L 0 *D DFCNQD1

*CAP
1 *1182:I 9.80629e-05
2 *1654:Q 3.28111e-05
3 *763:2 0.000578031016

*RES
1 *1654:Q *763:2 3.24136996
2 *1182:I *763:2 1.5
*END

*D_NET *764 0.000650669

*CONN
*I *1214:I I *C 138.3 208 *L 0.00103 *D DEL01
*I *1653:Q O *C 139.1 204 *L 0 *D DFCNQD1

*CAP
1 *1214:I 0.000332228984
2 *1653:Q 0.00031844

*RES
1 *1653:Q *1214:I 5.11671
*END

*D_NET *765 0.00174858

*CONN
*I *1212:I I *C 139.1 202.8 *L 0.00103 *D DEL01
*I *1652:Q O *C 146.7 203.2 *L 0 *D DFCNQD1

*CAP
1 *1212:I 3.65098e-05
2 *765:2 0.000947216953
3 *765:3 0.000725036
4 *765:4 3.98197e-05

*RES
1 *1212:I *765:2 1.54583
2 *765:3 *765:4 4.5559
3 *765:2 *765:4 5.37470007
4 *1652:Q *765:3 0.749994
*END

*D_NET *766 0.00100266

*CONN
*I *1216:I I *C 141.7 197.2 *L 0.00103 *D DEL01
*I *1651:Q O *C 146.3 196.8 *L 0 *D DFCNQD1

*CAP
1 *1216:I 0.000106196
2 *766:2 0.00013892
3 *766:3 0.000757543047

*RES
1 *766:2 *766:3 4.46827984
2 *1216:I *766:3 1.49997
3 *1651:Q *766:2 0.749986
*END

*D_NET *767 0.000919681

*CONN
*I *1225:Z O *C 140.3 196.8 *L 0 *D DEL01
*I *1467:I I *C 137.5 200.8 *L 0.00105 *D DEL1

*CAP
1 *1225:Z 0.000176161
2 *767:2 2.83527e-07
3 *767:3 0.000743238984

*RES
1 *767:2 *767:3 3.08536
2 *1225:Z *767:3 4.24010992
3 *1467:I *767:2 1.49998
*END

*D_NET *768 0.000588916

*CONN
*I *1226:I I *C 139.3 192 *L 0.00103 *D DEL01
*I *1649:Q O *C 139.1 196 *L 0 *D DFCNQD1

*CAP
1 *1226:I 0.000588916016

*RES
1 *1226:I *1649:Q 4.1695
*END

*D_NET *769 0.000751752

*CONN
*I *1224:Z O *C 140.9 186 *L 0 *D DEL01
*I *1455:I I *C 138.9 188.4 *L 0.00105 *D DEL1

*CAP
1 *1224:Z 0.000387493984
2 *769:2 0.000364257

*RES
1 *1455:I *769:2 3.0562501
2 *1224:Z *769:2 2.89839
*END

*D_NET *770 0.000855837

*CONN
*I *1215:I I *C 139.7 181.2 *L 0.00103 *D DEL01
*I *1647:Q O *C 141.7 178.8 *L 0 *D DFCNQD1

*CAP
1 *1647:Q 0.00022938
2 *770:2 0.000626453984

*RES
1 *1647:Q *770:2 1.2171
2 *1215:I *770:2 4.71388006
*END

*D_NET *771 0.00116472

*CONN
*I *1221:Z O *C 143.9 168 *L 0 *D DEL01
*I *1433:I I *C 140.3 172 *L 0.00105 *D DEL1

*CAP
1 *771:2 0.000145438
2 *771:4 0.00101927992

*RES
1 *771:2 *771:4 3.55125999
2 *771:3 *771:4 3.3241
3 *1433:I *771:3 1.49998
4 *1221:Z *771:2 0.750015
*END

*D_NET *772 0.00282026

*CONN
*I *1211:Z O *C 141.9 152.8 *L 0 *D DEL015
*I *1458:I I *C 137.7 141.6 *L 0.00105 *D DEL1

*CAP
1 *1211:Z 7.51691e-05
2 *1458:I 0.000297226
3 *772:2 0.000402909
4 *772:3 0.00147801
5 *772:4 0.00056696

*RES
1 *1211:Z *772:2 2.92005
2 *772:2 *772:3 7.21545982
3 *772:3 *772:4 3.4188
4 *1458:I *772:4 3.44897
*END

*D_NET *773 0.00228515

*CONN
*I *1220:Z O *C 139.5 142.8 *L 0 *D DEL01
*I *1456:I I *C 137.7 138 *L 0.00105 *D DEL1

*CAP
1 *1220:Z 0.000445448
2 *1456:I 0.000651473
3 *773:2 0.00118823

*RES
1 *1220:Z *773:2 9.6476202
2 *1456:I *773:2 4.33463
*END

*D_NET *774 0.00340088

*CONN
*I *1218:I I *C 138.7 148.8 *L 0.00103 *D DEL01
*I *1643:Q O *C 138.5 134.8 *L 0 *D DFCNQD1

*CAP
1 *1218:I 1.19128e-05
2 *774:2 8.58821e-05
3 *774:3 0.00150453
4 *774:4 0.000159923
5 *774:5 6.78092e-05
6 *774:6 0.00157083

*RES
1 *774:3 *774:5 0.945284
2 *774:2 *774:3 8.13527966
3 *774:4 *774:6 2.25006
4 *1218:I *774:2 0.329701
5 *774:5 *774:6 7.57531
6 *1643:Q *774:4 0.750021
*END

*D_NET *775 0.00696249

*CONN
*I *1213:Z O *C 141.5 150 *L 0 *D DEL01
*I *1463:I I *C 139.5 125.2 *L 0.00105 *D DEL1

*CAP
1 *1463:I 0.000442007
2 *775:2 0.000246691
3 *775:3 0.00115304992
4 *775:4 8.64589e-05
5 *775:5 0.000167147
6 *775:6 0.000180976
7 *775:7 0.000193451
8 *775:8 0.00026191
9 *775:9 0.00031626
10 *775:7 *855:10 0.000325479004
11 *1463:I *73:9 0.000342058008
12 *775:2 *842:31 0.000674695
13 *775:3 *716:3 0.000635206992
14 *775:4 *168:3 0.000546876016
15 *775:5 *169:2 0.00139022

*RES
1 *775:5 *775:9 12.7483997
2 *775:2 *775:4 8.18484
3 *775:8 *775:2 1.99524
4 *775:6 *775:3 5.6566
5 *1213:Z *775:6 2.04718
6 *775:3 *775:5 2.67919
7 *775:7 *775:8 4.73143
8 *1463:I *775:7 4.35503
9 *775:4 *775:9 0.750089
*END

*D_NET *776 0.00623125

*CONN
*I *1206:Z O *C 139.5 152.8 *L 0 *D DEL01
*I *1464:I I *C 137.7 123.6 *L 0.00105 *D DEL1

*CAP
1 *1206:Z 4.72492e-05
2 *1464:I 0.000221181
3 *776:2 0.00134688
4 *776:3 0.00029597
5 *776:4 2.45803e-05
6 *776:5 0.00123269
7 *776:2 *4:3 0.00018734
8 *1464:I *105:2 0.000535361992
9 *776:3 *338:3 0.000887668047
10 *1464:I *783:3 0.000756477031
11 *1464:I *865:5 0.000228217012
12 *776:2 *1391:I 0.000467649023

*RES
1 *776:4 *776:5 0.983143
2 *776:2 *776:4 15.3554001
3 *1464:I *776:2 4.18609
4 *1206:Z *776:3 2.90069
5 *776:3 *776:5 13.1417
*END

*D_NET *777 0.00217477

*CONN
*I *1172:I I *C 143.1 123.6 *L 0.00182 *D DEL005
*I *1640:Q O *C 138.1 120.4 *L 0 *D DFCNQD1

*CAP
1 *1172:I 6.32585e-05
2 *1640:Q 0.000263243
3 *777:2 0.00184826

*RES
1 *777:2 *777:3 4.82391
2 *1172:I *777:3 0.949802
3 *1640:Q *777:2 7.29391003
*END

*D_NET *778 0.000689506

*CONN
*I *1227:Z O *C 138.5 114 *L 0 *D CKBD0
*I *1449:I I *C 138.7 110.8 *L 0.00105 *D DEL1

*CAP
1 *1449:I 0.000689506016

*RES
1 *1449:I *1227:Z 5.43891
*END

*D_NET *779 0.0102261

*CONN
*I *1187:I I *C 142.9 154 *L 0.00103 *D DEL01
*I *1638:Q O *C 138.7 109.6 *L 0 *D DFCNQD1

*CAP
1 *779:2 0.00182833
2 *779:3 0.000119238
3 *779:4 0.000841224
4 *779:5 0.000504489
5 *779:4 *796:5 0.000559924023
6 *779:2 *842:11 0.000340613008
7 *779:3 *69:4 0.000510110977
8 *779:2 *91:8 0.00161428
9 *779:2 *843:26 0.002412
10 *779:2 *39:17 0.000459208984
11 *779:2 *168:3 0.00026875002
12 *779:2 *291:4 0.000767895

*RES
1 *779:4 *779:2 4.32261
2 *779:3 *779:5 7.88127
3 *779:2 *779:5 47.2775002
4 *1187:I *779:3 1.49979
5 *1638:Q *779:4 0.750253
*END

*D_NET *780 0.010738

*CONN
*I *1204:I I *C 138.3 154 *L 0.00103 *D DEL01
*I *1637:Q O *C 139.3 106 *L 0 *D DFCNQD1

*CAP
1 *1637:Q 0.000233477
2 *780:2 0.00217714
3 *780:3 0.00207555
4 *780:4 0.00059758
5 *780:5 3.13274e-05
6 *780:2 *838:9 0.00168351
7 *780:3 *839:16 0.000505086016
8 *780:2 *1640:CDN 0.000471555
9 *780:2 *620:10 0.00112456
10 *1637:Q *633:91 0.000376390977
11 *780:2 *273:2 0.000900093047
12 *1637:Q *58:5 0.000561723008

*RES
1 *1637:Q *780:2 2.64963
2 *780:2 *780:5 33.2463989
3 *780:4 *780:3 22.0143
4 *1204:I *780:4 2.59078
5 *780:5 *780:3 0.749789
*END

*D_NET *781 0.0113964

*CONN
*I *1190:Z O *C 140.7 157.2 *L 0 *D DEL01
*I *1444:I I *C 137.7 102 *L 0.00105 *D DEL1

*CAP
1 *1190:Z 9.45549e-05
2 *1444:I 0.000258255
3 *781:2 0.00230960016
4 *781:3 0.000290608
5 *781:4 9.28633e-05
6 *781:5 1.0185e-05
7 *781:6 0.000604404
8 *781:7 0.00110153
9 *781:2 *1237:I 0.00139418
10 *781:2 *782:3 0.00204108
11 *1190:Z *799:6 0.000436133008
12 *781:3 *803:16 0.000890521016
13 *781:2 *165:3 0.000611225
14 *781:2 *615:10 0.00126124

*RES
1 *781:5 *781:2 32.3040009
2 *781:4 *781:6 5.86525
3 *1444:I *781:3 3.06695
4 *781:7 *781:8 13.1733
5 *1190:Z *781:4 1.09083
6 *781:3 *781:7 11.9577
7 *781:5 *781:6 0.750224
8 *781:2 *781:8 0.750224
*END

*D_NET *782 0.0119115

*CONN
*I *1189:Z O *C 142.5 156.4 *L 0 *D DEL01
*I *1441:I I *C 137.7 98.4 *L 0.00105 *D DEL1

*CAP
1 *1441:I 0.000355838
2 *782:2 0.00045747
3 *782:3 3.46175e-05
4 *782:4 0.000538315
5 *782:5 0.00127668
6 *782:6 3.60591e-05
7 *782:7 0.00113784
8 *782:8 0.000170146
9 *782:9 0.000843776
10 *782:10 0.00045747
11 *782:12 4.66178e-05
12 *1441:I *803:7 0.00174232
13 *782:9 *165:3 0.00101756
14 *782:4 *249:3 0.000600846992
15 *1441:I *615:6 0.000778253047
16 *782:3 *781:2 0.00204108
17 *782:2 *263:2 0.000376610977

*RES
1 *1441:I *782:7 5.65202
2 *782:6 *782:7 10.7037
3 *782:5 *782:6 0.764031
4 *782:5 *782:12 8.85379
5 *782:3 *782:9 1.51381
6 *782:4 *782:11 6.66841
7 *782:10 *782:11 2.26394
8 *782:9 *782:2 9.34113
9 *782:3 *782:10 22.7805004
10 *782:4 *782:12 1.51381
11 *782:8 *782:2 9.48434
12 *1189:Z *782:8 0.750127
*END

*D_NET *783 0.0138151

*CONN
*I *1203:I I *C 138.5 156 *L 0.00103 *D DEL01
*I *1634:Q O *C 138.3 92.4 *L 0 *D DFCNQD1

*CAP
1 *1203:I 0.000316754
2 *1634:Q 0.000266941
3 *783:2 0.00151345
4 *783:3 0.00143366
5 *783:4 0.00111954
6 *783:5 0.000289734
7 *783:7 0.000211493
8 *783:8 5.92817e-05
9 *783:9 0.000417327
10 *783:10 0.000229506
11 *783:11 0.000314422
12 *783:12 0.000316038
13 *783:3 *865:2 0.00131217
14 *783:2 *620:20 0.00169977
15 *783:3 *734:7 0.00086
16 *783:3 *336:7 0.000460248008
17 *1634:Q *943:Z 0.000727067969
18 *783:4 *616:6 0.000833043984
19 *783:3 *1464:I 0.000756477031
20 *783:3 *942:Z 0.000337226992
21 *783:5 *105:2 0.000340908008

*RES
1 *783:3 *783:10 1.55714
2 *1634:Q *783:2 2.81122
3 *783:7 *783:9 2.69831
4 *783:9 *783:12 15.8053
5 *783:11 *783:5 4.31563
6 *783:6 *783:4 0.19976
7 *783:10 *783:5 9.18432
8 *783:4 *783:7 8.32448
9 *783:3 *783:6 9.35523
10 *783:8 *783:2 20.3283997
11 *1203:I *783:12 4.03677
12 *783:8 *783:11 1.11419
*END

*D_NET *784 0.0144845

*CONN
*I *1219:Z O *C 151.9 156.4 *L 0 *D DEL01
*I *1421:I I *C 146.1 87.6 *L 0.00105 *D DEL1

*CAP
1 *1421:I 0.000840326
2 *784:2 0.000391078
3 *784:3 0.000397568
4 *784:4 0.0031505
5 *784:5 0.000233637
6 *784:6 0.000658896
7 *784:7 0.000140855
8 *784:8 0.000422422
9 *784:9 5.11503e-05
10 *784:10 0.000189121
11 *784:2 *858:9 0.000317450996
12 *784:3 *657:4 0.000944527969
13 *784:4 *717:8 0.00171847
14 *784:4 *718:3 0.000825015
15 *784:4 *184:7 0.000261402012
16 *784:5 *308:8 0.00394213

*RES
1 *1219:Z *784:7 1.50022
2 *784:10 *784:5 1.21735
3 *784:3 *784:5 19.6617
4 *784:9 *784:3 4.41348
5 *784:4 *784:10 42.3238983
6 *784:8 *784:4 2.72339
7 *784:2 *784:8 3.35305
8 *1421:I *784:6 6.61634
9 *784:2 *784:6 3.41957
10 *784:7 *784:9 0.749787
*END

*D_NET *785 0.000564172

*CONN
*I *1223:I I *C 143.1 89.2 *L 0.00182 *D DEL005
*I *1632:Q O *C 143.9 88.8 *L 0 *D DFCNQD1

*CAP
1 *1223:I 5.41007e-05
2 *1632:Q 0.000510069023

*RES
1 *1632:Q *1223:I 3.99859
*END

*D_NET *786 0.00175609

*CONN
*I *1222:Z O *C 138.9 96.2 *L 0 *D DEL005
*I *1430:I I *C 137.5 89.2 *L 0.00105 *D DEL1

*CAP
1 *1430:I 0.000575463
2 *786:2 0.000254391
3 *786:4 0.000926245

*RES
1 *786:2 *786:4 1.68389
2 *1430:I *786:2 4.42996
3 *786:3 *786:4 4.96692991
4 *1222:Z *786:3 0.750011
*END

*D_NET *787 0.00184256

*CONN
*I *1060:I I *C 137.5 76.8 *L 0.000968 *D CKBD1
*I *1630:Q O *C 138.7 81.6 *L 0 *D DFCNQD1

*CAP
1 *1060:I 0.000106042
2 *1630:Q 9.06301e-05
3 *787:2 0.00132725
4 *787:3 0.000318653

*RES
1 *787:2 *787:3 7.66278982
2 *1630:Q *787:3 3.85057
3 *1060:I *787:2 0.981935
*END

*D_NET *788 0.00152251

*CONN
*I *1319:I I *C 141.5 78.4 *L 0.00182 *D DEL005
*I *1629:Q O *C 146.1 81.6 *L 0 *D DFCNQD1

*CAP
1 *1319:I 0.000756811953
2 *1629:Q 0.000415331
3 *788:2 0.000350373

*RES
1 *1629:Q *788:2 4.80518
2 *1319:I *788:2 4.94663
*END

*D_NET *789 0.0011758

*CONN
*I *1156:I I *C 150.9 82 *L 0.00182 *D DEL005
*I *1628:Q O *C 145.9 80.8 *L 0 *D DFCNQD1

*CAP
1 *1628:Q 0.0002043
2 *789:2 0.000198342
3 *789:3 0.00077316

*RES
1 *789:2 *789:3 4.64139986
2 *1156:I *789:2 1.37338
3 *1628:Q *789:3 1.99775
*END

*D_NET *790 0.000526394

*CONN
*I *1196:Z O *C 144.9 74.4 *L 0 *D CKBD1
*I *1425:I I *C 143.9 76.8 *L 0.00105 *D DEL1

*CAP
1 *1196:Z 0.000228786
2 *1425:I 0.000297607988

*RES
1 *1425:I *1196:Z 4.11006
*END

*D_NET *791 0.00177106

*CONN
*I *1191:Z O *C 151.3 73.6 *L 0 *D CKBD1
*I *1424:I I *C 142.9 73.2 *L 0.00105 *D DEL1

*CAP
1 *791:2 0.000201662
2 *791:3 0.0015694

*RES
1 *791:2 *791:3 8.43426037
2 *1424:I *791:3 2.44974
3 *1191:Z *791:2 0.750044
*END

*D_NET *792 0.00193908

*CONN
*I *1197:Z O *C 151.9 67.4 *L 0 *D DEL005
*I *1422:I I *C 142.9 69.6 *L 0.00105 *D DEL1

*CAP
1 *1422:I 0.000588876
2 *792:2 0.000155541
3 *792:3 0.00114945992
4 *792:4 4.51996e-05

*RES
1 *792:2 *792:3 6.06544018
2 *1197:Z *792:2 1.06166
3 *1422:I *792:4 5.16362
4 *792:3 *792:4 2.59616
*END

*D_NET *793 0.00143329

*CONN
*I *1165:Z O *C 146.5 62.8 *L 0 *D CKBD0
*I *1429:I I *C 141.1 60.4 *L 0.00105 *D DEL1

*CAP
1 *1429:I 0.000252483
2 *793:2 0.000262641
3 *793:3 0.000918177031

*RES
1 *793:2 *793:3 5.2920599
2 *1165:Z *793:2 0.949786
3 *1429:I *793:3 3.27362
*END

*D_NET *794 0.00318994

*CONN
*I *1064:Z O *C 141.7 55.6 *L 0 *D CKBD0
*I *1423:I I *C 137.7 60.4 *L 0.00105 *D DEL1

*CAP
1 *794:2 5.68473e-05
2 *794:3 0.00142958
3 *794:4 0.000616049
4 *794:5 0.00108747

*RES
1 *794:2 *794:3 7.40599012
2 *794:2 *794:5 6.28564
3 *794:4 *794:5 2.93918
4 *1423:I *794:3 2.03073
5 *1064:Z *794:4 0.750024
*END

*D_NET *795 0.00172205

*CONN
*I *1071:I I *C 138.3 67.6 *L 0.00182 *D DEL005
*I *1622:Q O *C 139.1 59.2 *L 0 *D DFCNQD1

*CAP
1 *1071:I 0.000479979
2 *1622:Q 0.00124206992

*RES
1 *1622:Q *1071:I 10.7241
*END

*D_NET *796 0.0147547

*CONN
*I *1231:I I *C 142.7 150.4 *L 0.00103 *D DEL015
*I *1621:Q O *C 142.5 84.4 *L 0 *D DFCNQD1

*CAP
1 *1621:Q 0.000594114
2 *796:2 0.00202134984
3 *796:3 0.00162433
4 *796:4 0.00124819
5 *796:5 0.000386596
6 *796:6 1.69641e-06
7 *796:7 0.000453497
8 *796:8 0.000391069
9 *796:9 0.000568729
10 *796:10 0.000104561
11 *1621:Q *39:5 0.000561848984
12 *796:2 *732:4 0.000663963984
13 *796:3 *473:3 0.000630921016
14 *796:4 *1399:I 0.0014827
15 *796:4 *882:3 0.00131898
16 *796:2 *913:3 0.00167003
17 *796:2 *455:4 0.000472178984
18 *796:5 *779:4 0.000559924023

*RES
1 *796:10 *796:5 0.200009
2 *796:3 *796:10 18.79
3 *796:7 *796:8 2.53861
4 *796:6 *796:4 5.37853
5 *1231:I *796:2 5.92687
6 *796:4 *796:2 33.8702011
7 *796:8 *796:3 3.59861
8 *1621:Q *796:7 3.79035
9 *796:9 *796:5 6.25815
10 *796:6 *796:9 4.92269
*END

*D_NET *797 0.0158514

*CONN
*I *1168:I I *C 145.5 157.6 *L 0.00103 *D DEL015
*I *1620:Q O *C 138.3 77.2 *L 0 *D DFCNQD1

*CAP
1 *797:2 0.00415401969
2 *797:3 0.000851214
3 *797:4 8.42404e-05
4 *797:5 0.000353822
5 *797:6 5.94563e-05
6 *797:7 0.00191072
7 *797:2 *263:3 0.00243695
8 *797:3 *335:4 0.000811795
9 *797:2 *249:3 0.00518921

*RES
1 *797:6 *797:7 9.7188
2 *797:4 *797:2 2.73912
3 *797:3 *797:5 7.21226
4 *1168:I *797:5 5.45748
5 *797:2 *797:7 68.0482025
6 *1620:Q *797:4 0.749677
7 *797:3 *797:6 0.749677
*END

*D_NET *798 0.0146691

*CONN
*I *1233:I I *C 138.9 145.2 *L 0.00103 *D DEL015
*I *1619:Q O *C 139.1 74.4 *L 0 *D DFCNQD1

*CAP
1 *1619:Q 4.85644e-05
2 *798:2 0.00168974
3 *798:3 0.000292074
4 *798:4 0.000488885
5 *798:5 0.000372016
6 *798:6 0.00146508
7 *798:7 0.00321807
8 *798:8 0.000170589
9 *798:9 6.8059e-05
10 *798:2 *838:9 0.00331742
11 *798:3 *1636:CDN 0.000513145039
12 *798:4 *469:3 0.000754031016
13 *798:2 *846:24 0.00227145

*RES
1 *798:2 *798:8 41.1460991
2 *798:6 *798:9 11.4556
3 *798:4 *798:2 4.49408
4 *798:7 *798:9 1.06105
5 *798:5 *798:7 19.4888
6 *798:4 *798:3 0.357241
7 *1619:Q *798:6 6.26521
8 *1233:I *798:8 3.3558
9 *798:3 *798:5 2.67146
*END

*D_NET *799 0.0147591

*CONN
*I *1173:I I *C 141.7 157.6 *L 0.00103 *D DEL015
*I *1618:Q O *C 139.1 67.2 *L 0 *D DFCNQD1

*CAP
1 *799:2 0.00260687
2 *799:3 0.00362513
3 *799:4 0.000246377
4 *799:5 0.000129495
5 *799:6 0.00135259
6 *799:7 0.000462607
7 *799:6 *1190:Z 0.000436133008
8 *799:2 *331:16 0.000416121992
9 *799:3 *336:8 0.000385001992
10 *799:2 *263:3 0.00509876

*RES
1 *799:6 *799:3 47.8656006
2 *1173:I *799:4 2.00487
3 *799:7 *799:3 0.200122
4 *799:5 *799:2 2.61765
5 *799:4 *799:6 6.05478
6 *799:2 *799:7 36.2936
7 *1618:Q *799:5 0.750091
*END

*D_NET *800 0.00768216

*CONN
*I *1234:I I *C 149.5 114.4 *L 0.00103 *D DEL015
*I *1617:Q O *C 141.3 66.4 *L 0 *D DFCNQD1

*CAP
1 *1234:I 0.00025521
2 *800:2 0.000600588
3 *800:3 0.00156034
4 *800:4 0.000135934
5 *800:5 0.000236648
6 *800:6 0.000149351
7 *800:7 0.00186291
8 *800:8 0.00037082
9 *800:9 0.000101766
10 *800:10 3.1752e-05
11 *800:2 *169:2 0.000314049004
12 *800:7 *536:8 0.000557545
13 *800:5 *308:2 0.000269046016
14 *1234:I *613:12 0.000249891992
15 *800:2 *733:2 0.000342566992
16 *800:3 *738:13 0.000643724023

*RES
1 *800:9 *800:2 4.95813
2 *800:6 *800:10 1.96686
3 *800:5 *800:8 5.75899
4 *1234:I *800:5 5.18355
5 *1617:Q *800:6 1.50016
6 *800:2 *800:3 24.7457008
7 *800:4 *800:8 1.50016
8 *800:4 *800:7 10.3788
9 *800:7 *800:9 0.749893
10 *800:10 *800:3 0.749893
*END

*D_NET *801 0.00694582

*CONN
*I *943:I I *C 137.5 92.8 *L 0.00072 *D BUFFD1
*I *1616:Q O *C 139.7 52.8 *L 0 *D DFCNQD1

*CAP
1 *943:I 5.78196e-05
2 *801:2 0.00138748
3 *801:3 0.00017926
4 *801:4 7.87795e-05
5 *801:5 2.84546e-05
6 *801:6 0.000228568
7 *801:7 0.000111595
8 *801:8 4.32324e-05
9 *801:9 0.00082855
10 *801:3 *614:3 0.000701502969
11 *801:2 *617:3 0.000742658984
12 *801:2 *615:4 0.000674037969
13 *801:4 *619:3 0.00105503
14 *801:2 *652:3 0.000828876953

*RES
1 *801:7 *801:9 4.01997
2 *801:6 *801:9 3.11299
3 *801:2 *801:5 0.199737
4 *801:3 *801:4 1.1456
5 *943:I *801:8 1.53172
6 *801:5 *801:6 5.17269
7 *801:4 *801:2 19.4501991
8 *801:3 *801:8 10.3035
9 *1616:Q *801:7 0.749979
*END

*D_NET *802 0.0050514

*CONN
*I *1075:I I *C 142.1 69.6 *L 0.000643 *D CKBD0
*I *1615:Q O *C 138.5 52 *L 0 *D DFCNQD1

*CAP
1 *1075:I 0.000430283
2 *1615:Q 0.00284863
3 *802:2 7.87193e-05
4 *802:3 0.00106191
5 *802:4 3.91206e-06
6 *802:5 0.000627929

*RES
1 *802:2 *802:5 3.83697
2 *1615:Q *802:4 15.6829004
3 *1075:I *802:2 3.45911
4 *802:3 *802:5 6.00481
5 *802:3 *802:4 0.199817
*END

*D_NET *803 0.0250893

*CONN
*I *1175:I I *C 142.7 156 *L 0.00103 *D DEL015
*I *1614:Q O *C 139.3 42 *L 0 *D DFCNQD1

*CAP
1 *1614:Q 0.00127116
2 *803:2 0.000926622
3 *803:3 0.000401326
4 *803:4 0.000754428
5 *803:5 0.000855288
6 *803:6 0.000732119
7 *803:7 0.00238882
8 *803:8 3.55033e-05
9 *803:9 0.000268899
10 *803:10 6.8127e-05
11 *803:11 0.000493511
12 *803:12 3.09469e-05
13 *803:14 0.000975175
14 *803:15 6.18939e-05
15 *803:16 0.000313333
16 *803:17 0.000180907
17 *803:18 0.000150543
18 *803:19 0.000753553
19 *803:3 *846:8 0.000900435
20 *803:6 *615:7 0.0010926
21 *803:16 *619:7 0.00328177
22 *803:16 *781:3 0.000890521016
23 *803:2 *474:3 0.000760327969
24 *803:3 *469:4 0.0015085
25 *803:4 *263:2 0.000400676016
26 *803:5 *266:2 0.00321127
27 *803:6 *998:I 0.0006387
28 *803:7 *1441:I 0.00174232

*RES
1 *803:11 *803:12 0.355354
2 *803:5 *803:4 35.1677
3 *803:13 *803:14 1.44563
4 *803:8 *803:15 6.15985
5 *803:14 *803:18 4.33746
6 *803:3 *803:11 4.29748
7 *803:2 *803:10 5.61077
8 *803:3 *803:2 2.67107
9 *803:16 *803:7 36.907299
10 *803:10 *803:7 3.64083
11 *803:6 *803:12 4.36787
12 *803:9 *803:4 8.11852
13 *1175:I *803:9 2.29882
14 *1614:Q *803:13 7.10596
15 *803:8 *803:5 1.13195
16 *803:17 *803:19 18.1709
17 *803:15 *803:16 0.355354
18 *803:6 *803:17 0.949489
19 *803:18 *803:19 0.75013
*END

*D_NET *804 0.000610292

*CONN
*I *1604:Q O *C 146.7 52.8 *L 0 *D DFCNQD1
*I *1577:A2 I *C 147.7 55.2 *L 0.000715 *D AO222D0

*CAP
1 *1604:Q 0.000346697969
2 *1577:A2 0.000263593

*RES
1 *1577:A2 *1604:Q 4.46035
*END

*D_NET *805 0.000989918

*CONN
*I *1601:Q O *C 146.5 42 *L 0 *D DFCNQD1
*I *1580:A2 I *C 146.9 48 *L 0.000715 *D AO222D0

*CAP
1 *1601:Q 0.00046339
2 *1580:A2 0.000526531992

*RES
1 *1580:A2 *1601:Q 6.82628
*END

*D_NET *806 0.000563822

*CONN
*I *1607:Q O *C 146.1 41.2 *L 0 *D DFCNQD1
*I *1576:A2 I *C 145.3 38.8 *L 0.000715 *D AO222D0

*CAP
1 *1576:A2 0.000563821953

*RES
1 *1576:A2 *1607:Q 4.55314
*END

*D_NET *807 0.000771677

*CONN
*I *1595:Q O *C 146.5 31.2 *L 0 *D DFCNQD1
*I *1582:A2 I *C 145.5 28 *L 0.000715 *D AO222D0

*CAP
1 *1582:A2 0.000771677031

*RES
1 *1582:A2 *1595:Q 5.83384
*END

*D_NET *808 0.000755524

*CONN
*I *1600:Q O *C 143.5 31.2 *L 0 *D DFCNQD1
*I *1575:A2 I *C 146.1 30 *L 0.00102 *D AO222D1

*CAP
1 *808:2 0.000755523984

*RES
1 *1600:Q *808:2 1.21703
2 *1575:A2 *808:2 4.85181999
*END

*D_NET *809 0.000828921

*CONN
*I *1606:Q O *C 143.3 19.6 *L 0 *D DFCNQD1
*I *1581:A2 I *C 145.9 20.8 *L 0.00102 *D AO222D1

*CAP
1 *809:2 0.000491609023
2 *809:3 0.000337311

*RES
1 *1581:A2 *809:3 2.69848
2 *809:2 *809:3 3.00505996
3 *1606:Q *809:2 0.749981
*END

*D_NET *810 0.000419217

*CONN
*I *1609:Q O *C 146.1 19.6 *L 0 *D DFCNQD1
*I *1579:A2 I *C 146.1 17.2 *L 0.00102 *D AO222D1

*CAP
1 *1609:Q 0.000419216992

*RES
1 *1579:A2 *1609:Q 3.25719
*END

*D_NET *811 0.000538519

*CONN
*I *1610:Q O *C 146.1 8.8 *L 0 *D DFCNQD1
*I *1583:A2 I *C 146.1 12 *L 0.00102 *D AO222D1

*CAP
1 *811:2 0.000538519023

*RES
1 *1583:A2 *811:2 3.4017601
2 *1610:Q *811:2 0.75
*END

*D_NET *812 0.00164997

*CONN
*I *1598:Q O *C 143.3 8.8 *L 0 *D DFCNQD1
*I *1578:A2 I *C 145.7 15.6 *L 0.00102 *D AO222D1

*CAP
1 *1598:Q 0.00114404
2 *1578:A2 0.000153656
3 *812:2 0.000352281

*RES
1 *1598:Q *812:2 6.27116013
2 *1578:A2 *812:2 4.66806
*END

*D_NET *813 0.00100193

*CONN
*I *1599:Q O *C 146.5 49.2 *L 0 *D DFCNQD1
*I *1577:C2 I *C 146.7 55.2 *L 0.000693 *D AO222D0

*CAP
1 *1599:Q 0.000879005
2 *1577:C2 0.000122928

*RES
1 *1599:Q *1577:C2 5.89263
*END

*D_NET *814 0.000419662

*CONN
*I *1593:Q O *C 146.3 45.6 *L 0 *D DFCNQD1
*I *1580:C2 I *C 145.9 48 *L 0.000693 *D AO222D0

*CAP
1 *1593:Q 0.000212888008
2 *1580:C2 0.000206774

*RES
1 *1580:C2 *1593:Q 2.90364
*END

*D_NET *815 0.000594557

*CONN
*I *1602:Q O *C 143.3 41.2 *L 0 *D DFCNQD1
*I *1576:C2 I *C 144.3 38.8 *L 0.000693 *D AO222D0

*CAP
1 *815:2 0.000594556992

*RES
1 *1602:Q *815:2 4.0710001
2 *1576:C2 *815:2 0.750019
*END

*D_NET *816 0.00165502

*CONN
*I *1594:Q O *C 146.1 34.8 *L 0 *D DFCNQD1
*I *1582:C2 I *C 144.5 28 *L 0.000693 *D AO222D0

*CAP
1 *816:2 0.000710950938
2 *816:3 0.000679491
3 *816:4 0.000264571

*RES
1 *816:2 *816:4 2.14782
2 *1594:Q *816:2 3.48786
3 *816:3 *816:4 4.03126001
4 *1582:C2 *816:3 0.750018
*END

*D_NET *817 0.0014519

*CONN
*I *1603:Q O *C 142.7 34 *L 0 *D DFCNQD1
*I *1575:C2 I *C 144.5 30 *L 0.0011 *D AO222D1

*CAP
1 *1603:Q 0.000314478
2 *817:2 0.000205975
3 *817:3 0.000931451016

*RES
1 *1603:Q *817:3 6.14999008
2 *817:2 *817:3 3.41977
3 *1575:C2 *817:2 1.49996
*END

*D_NET *818 0.000674152

*CONN
*I *1605:Q O *C 143.3 23.2 *L 0 *D DFCNQD1
*I *1581:C2 I *C 144.3 20.8 *L 0.0011 *D AO222D1

*CAP
1 *1581:C2 0.000298554
2 *818:2 0.0003756

*RES
1 *1605:Q *818:2 2.49843
2 *1581:C2 *818:2 3.44847012
*END

*D_NET *819 0.00138367

*CONN
*I *1608:Q O *C 146.3 23.2 *L 0 *D DFCNQD1
*I *1579:C2 I *C 144.5 17.2 *L 0.0011 *D AO222D1

*CAP
1 *819:2 0.00119342992
2 *819:3 0.000190228

*RES
1 *819:2 *819:3 5.81557989
2 *1608:Q *819:3 1.50004
3 *1579:C2 *819:2 3.65124
*END

*D_NET *820 0.000600093

*CONN
*I *1592:Q O *C 145.9 13.2 *L 0 *D DFCNQD1
*I *1583:C2 I *C 144.5 12 *L 0.0011 *D AO222D1

*CAP
1 *1592:Q 5.32283e-05
2 *1583:C2 0.000272906
3 *820:2 0.000273959004

*RES
1 *1583:C2 *820:2 3.44847012
2 *1592:Q *820:2 2.5894
*END

*D_NET *821 0.00088252

*CONN
*I *1597:Q O *C 142.9 13.2 *L 0 *D DFCNQD1
*I *1578:C2 I *C 144.1 15.6 *L 0.0011 *D AO222D1

*CAP
1 *1597:Q 0.000226805
2 *821:2 0.000655712031

*RES
1 *1578:C2 *821:2 4.91228008
2 *1597:Q *821:2 1.70479
*END

*D_NET *822 0.000858702

*CONN
*I *1680:Q O *C 150.5 109.4 *L 0 *D EDFCNQD1
*I *1591:A2 I *C 149.7 105.6 *L 0.000668 *D AN3D0

*CAP
1 *1591:A2 0.000858702031

*RES
1 *1591:A2 *1680:Q 6.0485
*END

*D_NET *823 0.00176509

*CONN
*I *1679:Q O *C 151.1 113 *L 0 *D EDFCNQD4
*I *1591:A1 I *C 149.5 105.6 *L 0.00061 *D AN3D0

*CAP
1 *1591:A1 0.000685802969
2 *823:2 0.00042135
3 *823:3 0.000657936

*RES
1 *1591:A1 *823:2 4.86724997
2 *1679:Q *823:3 2.90122
3 *823:2 *823:3 3.96066
*END

*D_NET *824 0.000523866

*CONN
*I *1678:Q O *C 150.5 103.4 *L 0 *D EDFCNQD1
*I *1591:A3 I *C 150.1 105.6 *L 0.00066 *D AN3D0

*CAP
1 *1678:Q 0.000523866016

*RES
1 *1678:Q *1591:A3 3.4306
*END

*D_NET *825 0.00184008

*CONN
*I *1548:I I *C 146.7 56.8 *L 0.00103 *D DEL2
*I *1689:Q O *C 150.1 51.8 *L 0 *D EDFCNQD1

*CAP
1 *825:2 0.00127089
2 *825:3 0.00041023
3 *825:4 0.000158961

*RES
1 *1548:I *825:3 2.25655
2 *825:2 *825:4 5.2723999
3 *825:2 *825:3 3.33009
4 *1689:Q *825:4 0.750039
*END

*D_NET *826 0.00160843

*CONN
*I *1547:I I *C 146.7 38.8 *L 0.00103 *D DEL2
*I *1688:Q O *C 149.5 44.6 *L 0 *D EDFCNQD1

*CAP
1 *1688:Q 0.000123168
2 *826:2 0.00103075
3 *826:3 0.000454515

*RES
1 *1688:Q *826:3 3.92383
2 *826:2 *826:3 5.63089991
3 *1547:I *826:2 1.5
*END

*D_NET *827 0.000781508

*CONN
*I *1544:I I *C 146.7 37.2 *L 0.00103 *D DEL2
*I *1687:Q O *C 144.9 37.4 *L 0 *D EDFCNQD1

*CAP
1 *1687:Q 0.000144539
2 *827:2 0.000636966992

*RES
1 *1687:Q *827:2 1.50003
2 *1544:I *827:2 4.04718018
*END

*D_NET *828 0.00130759

*CONN
*I *1549:I I *C 146.7 30 *L 0.00103 *D DEL2
*I *1686:Q O *C 150.5 33.8 *L 0 *D EDFCNQD1

*CAP
1 *1549:I 0.000535312
2 *1686:Q 0.000128672
3 *828:2 0.000643606016

*RES
1 *1549:I *828:2 4.1666
2 *1686:Q *828:2 5.7291398
*END

*D_NET *829 0.00248991

*CONN
*I *1545:I I *C 138.5 30 *L 0.00103 *D DEL2
*I *1685:Q O *C 143.9 35 *L 0 *D EDFCNQD1

*CAP
1 *1545:I 0.000298138
2 *1685:Q 6.23143e-05
3 *829:2 0.000459
4 *829:3 0.000192094
5 *829:4 0.00050558
6 *829:5 0.000972788984

*RES
1 *829:3 *829:4 2.62456
2 *1685:Q *829:3 1.99449
3 *829:2 *829:5 5.00999022
4 *829:2 *829:4 2.74473
5 *1545:I *829:5 3.59589
*END

*D_NET *830 0.00294589

*CONN
*I *1543:I I *C 138.5 17.2 *L 0.00103 *D DEL2
*I *1684:Q O *C 145.1 26.6 *L 0 *D EDFCNQD1

*CAP
1 *1543:I 0.000763392
2 *830:2 0.000913686016
3 *830:3 0.000847531
4 *830:4 0.00042127

*RES
1 *830:2 *830:4 3.12645
2 *1543:I *830:3 5.77364016
3 *830:3 *830:4 4.89838
4 *1684:Q *830:2 4.98005
*END

*D_NET *831 0.00231241

*CONN
*I *1546:I I *C 146.7 17.2 *L 0.00103 *D DEL2
*I *1683:Q O *C 149.9 24.2 *L 0 *D EDFCNQD1

*CAP
1 *1546:I 0.00013376
2 *831:2 0.00180444
3 *831:3 0.000374214

*RES
1 *831:2 *831:3 5.93928
2 *1683:Q *831:2 6.40845013
3 *1546:I *831:3 2.44971
*END

*D_NET *832 0.00109493

*CONN
*I *1550:I I *C 146.7 10 *L 0.00103 *D DEL2
*I *1682:Q O *C 149.3 6.2 *L 0 *D EDFCNQD1

*CAP
1 *1682:Q 0.000196833
2 *832:3 0.000898100938

*RES
1 *1682:Q *832:3 3.92383003
2 *832:2 *832:3 3.59219
3 *1550:I *832:2 1.5
*END

*D_NET *833 0.000710481

*CONN
*I *1551:I I *C 138.5 12 *L 0.00103 *D DEL2
*I *1681:Q O *C 140.1 9.8 *L 0 *D EDFCNQD1

*CAP
1 *833:2 0.000710481016

*RES
1 *1681:Q *833:2 2.90109
2 *1551:I *833:2 3.58431005
*END

*D_NET *834 0.000750494

*CONN
*I *1553:I I *C 148.7 114.4 *L 0.000968 *D CKBD1
*I *1588:Q O *C 150.7 116.8 *L 0 *D DFCNQD1

*CAP
1 *1553:I 0.000636795
2 *1588:Q 3.01709e-05
3 *834:2 8.35262e-05

*RES
1 *1553:I *834:2 4.85356998
2 *1588:Q *834:2 1.5
*END

*D_NET *835 0.00067944

*CONN
*I *1596:Q O *C 150.7 99.6 *L 0 *D DFCNQD1
*I *1587:A1 I *C 149.1 102 *L 0.000718 *D INR3D0

*CAP
1 *835:2 0.00067944

*RES
1 *1587:A1 *835:2 2.69902
2 *1596:Q *835:2 2.76842999
*END

*D_NET *836 0.00108108

*CONN
*I *1562:I I *C 148.7 94.8 *L 0.00105 *D DEL1
*I *1586:Q O *C 151.1 98.8 *L 0 *D DFCNQD1

*CAP
1 *836:2 8.07214e-05
2 *836:3 0.000609245
3 *836:4 0.000391112

*RES
1 *836:2 *836:4 2.66059
2 *836:3 *836:4 3.72089005
3 *1562:I *836:3 1.49997
4 *1586:Q *836:2 0.750015
*END

*D_NET *837 0.00701399

*CONN
*I *1784:ZN O *C 148.3 78 *L 0 *D IND2D0
*I *1735:A1 I *C 149.1 84 *L 0.000721 *D MOAI22D0
*I *1734:A1 I *C 146.1 78.4 *L 0.000721 *D MOAI22D0
*I *1733:A1 I *C 148.3 76.8 *L 0.000721 *D MOAI22D0
*I *1732:A1 I *C 148.1 71.2 *L 0.000721 *D MOAI22D0
*I *1729:A1 I *C 147.3 69.6 *L 0.000721 *D MOAI22D0
*I *1726:A1 I *C 145.1 62.4 *L 0.000721 *D MOAI22D0
*I *1725:A1 I *C 144.9 60.4 *L 0.000721 *D MOAI22D0
*I *1719:A1 I *C 141.9 62.4 *L 0.000721 *D MOAI22D0

*CAP
1 *1735:A1 8.40101e-05
2 *1734:A1 0.000751154
3 *1726:A1 0.000106124
4 *1725:A1 0.000402115
5 *1719:A1 0.000629916
6 *837:9 1.32921e-05
7 *837:10 0.000871967031
8 *837:11 0.000103968
9 *837:12 0.000542726
10 *837:13 0.000314472
11 *837:14 0.000587472
12 *837:15 7.4856e-05
13 *837:16 0.000131098
14 *837:17 0.000282646
15 *837:18 0.000607829
16 *837:12 *1626:CDN 0.00073494
17 *837:12 *838:6 0.000273175
18 *837:11 *1733:B2 0.000502210977

*RES
1 *837:16 *837:17 2.04627
2 *837:13 *837:14 2.8029
3 *837:11 *837:15 0.756536
4 *1734:A1 *837:10 6.09095001
5 *837:13 *837:17 2.47454
6 *1725:A1 *837:18 5.73183
7 *1719:A1 *837:18 5.25718
8 *1726:A1 *837:18 2.40577
9 *837:14 *837:18 4.13427
10 *837:12 *837:15 4.37406
11 *1735:A1 *837:9 2.04432
12 *1784:ZN *837:11 1.09633
13 *837:10 *837:11 1.45786
14 *837:9 *837:10 3.97888
15 *837:12 *837:16 1.22821
16 *1729:A1 *837:17 1.49997
17 *1732:A1 *837:16 1.49997
18 *1733:A1 *837:15 1.49997
*END

*D_NET *838 0.0283926

*CONN
*I *1061:Z O *C 141.7 167.2 *L 0 *D DEL0
*I *1754:A2 I *C 142.3 98.4 *L 0.001 *D MOAI22D1
*I *1748:A2 I *C 141.9 73.2 *L 0.000697 *D MOAI22D0
*I *1733:A2 I *C 148.5 76.8 *L 0.000697 *D MOAI22D0
*I *1717:A2 I *C 144.9 197.2 *L 0.000697 *D MOAI22D0
*I *1703:A2 I *C 142.7 206.4 *L 0.000697 *D MOAI22D0

*CAP
1 *1061:Z 0.000105879
2 *1748:A2 0.000232591
3 *1717:A2 0.000300571
4 *838:6 0.000378075
5 *838:7 0.000103101
6 *838:8 0.000266919
7 *838:9 0.000644398
8 *838:10 0.000183224
9 *838:11 0.000217432
10 *838:12 0.000873458
11 *838:13 0.000103101
12 *838:14 0.000147309
13 *838:15 0.000447484
14 *838:16 0.00260073
15 *838:17 0.000305492
16 *838:18 0.000158461
17 *838:19 0.00151881
18 *838:20 0.000612611
19 *838:21 0.00256835
20 *838:22 0.000380734
21 *838:23 0.00147829
22 *838:9 *11:2 0.000838392031
23 *838:8 *69:4 0.00239476984
24 *838:19 *293:2 0.000405863984
25 *838:8 *846:6 0.00168266
26 *838:10 *58:2 0.000589191992
27 *838:7 *91:5 0.0028122
28 *838:10 *612:2 0.000768428047
29 *838:9 *780:2 0.00168351
30 *838:9 *798:2 0.00331742
31 *838:6 *837:12 0.000273175

*RES
1 *838:18 *838:19 17.3039
2 *838:15 *838:21 26.1581
3 *838:11 *838:23 2.92883
4 *838:9 *838:22 3.21858
5 *1061:Z *838:13 1.49991
6 *1748:A2 *838:12 3.20372
7 *838:6 *838:12 6.06486
8 *838:18 *838:23 0.981506
9 *838:13 *838:21 1.684
10 *1703:A2 *838:7 2.56149
11 *1733:A2 *838:6 4.52945
12 *838:7 *838:14 3.88475
13 *1717:A2 *838:20 5.19975
14 *838:8 *838:22 4.06883
15 *838:17 *838:23 7.42197
16 *838:8 *838:21 5.81061
17 *838:16 *838:17 1.84166
18 *838:10 *838:19 3.00313
19 *838:10 *838:12 0.912165
20 *838:15 *838:20 0.988109
21 *838:14 *838:20 3.58097
22 *838:9 *838:16 54.0992012
23 *1754:A2 *838:11 2.25028
*END

*D_NET *839 0.0260641

*CONN
*I *1782:ZN O *C 144.5 157.2 *L 0 *D INVD1
*I *1751:A2 I *C 146.1 92.8 *L 0.000697 *D MOAI22D0
*I *1739:A2 I *C 142.9 56.8 *L 0.000697 *D MOAI22D0
*I *1726:A2 I *C 145.3 62.4 *L 0.000697 *D MOAI22D0
*I *1716:A2 I *C 143.5 188.4 *L 0.000697 *D MOAI22D0
*I *1700:A2 I *C 147.1 188.4 *L 0.000697 *D MOAI22D0

*CAP
1 *1751:A2 0.000225801
2 *1739:A2 0.000316997
3 *1716:A2 0.000433822
4 *839:6 0.000554606
5 *839:7 0.00080187
6 *839:8 0.000712341
7 *839:9 0.000215244
8 *839:10 0.000258863
9 *839:11 0.000228163
10 *839:12 0.000347975
11 *839:13 0.000462508
12 *839:14 0.000985442
13 *839:15 0.000805065
14 *839:16 0.000314358
15 *839:17 0.000313524
16 *839:18 0.0005669
17 *839:19 0.000204409
18 *839:20 0.000268239
19 *839:21 0.000171695
20 *839:22 0.000498486
21 *839:23 0.00149671
22 *839:24 0.000242679
23 *839:25 3.12552e-06
24 *839:26 0.00116005
25 *839:27 0.00455179969
26 *839:27 *83:2 0.000333298008
27 *839:15 *180:9 0.000956520938
28 *839:22 *537:9 0.000827468984
29 *839:18 *618:6 0.000963466016
30 *839:20 *58:2 0.00169525
31 *839:17 *476:5 0.00165189
32 *839:18 *612:3 0.0012613
33 *839:16 *780:3 0.000505086016
34 *839:8 *854:2 0.000544403008
35 *839:8 *936:10 0.000359508984
36 *839:6 *73:20 0.000825327969

*RES
1 *839:23 *839:25 0.199592
2 *839:16 *839:23 15.6395
3 *839:14 *839:15 8.2099
4 *1716:A2 *839:9 4.31705
5 *1700:A2 *839:9 3.02795
6 *839:24 *839:27 34.8813019
7 *839:19 *839:20 4.20102
8 *1726:A2 *839:7 5.13777
9 *1782:ZN *839:12 1.49987
10 *1739:A2 *839:13 3.46386
11 *839:13 *839:22 4.23775
12 *839:11 *839:27 6.01492
13 *839:10 *839:6 4.61511
14 *839:6 *839:16 0.199592
15 *1751:A2 *839:11 4.21273
16 *839:8 *839:15 7.27208
17 *839:25 *839:26 9.45589
18 *839:24 *839:26 0.199592
19 *839:21 *839:22 3.71189
20 *839:18 *839:19 2.81931
21 *839:17 *839:27 3.71668
22 *839:7 *839:13 3.05882
23 *839:8 *839:12 1.08951
24 *839:17 *839:18 9.0599
25 *839:10 *839:12 1.49189
26 *839:20 *839:21 3.004
27 *839:9 *839:14 10.8946
*END

*D_NET *840 0.0224621

*CONN
*I *990:I I *C 137.7 238.8 *L 0.00104 *D DEL0
*I *993:I I *C 137.7 134.4 *L 0.000968 *D CKBD1
*I *997:Z O *C 142.7 149.2 *L 0 *D CKBD1
*I *1702:A2 I *C 146.9 206.4 *L 0.000697 *D MOAI22D0

*CAP
1 *993:I 0.000303292
2 *840:4 0.000728634
3 *840:5 4.54153e-05
4 *840:6 0.000352196
5 *840:7 0.00161329
6 *840:8 0.00228594
7 *840:9 0.000930526
8 *840:10 8.81797e-05
9 *840:11 0.000702124
10 *840:12 0.000331337
11 *840:13 0.000683741
12 *840:14 0.00103179
13 *840:15 2.72073e-06
14 *840:16 0.000100737
15 *840:17 0.000163488
16 *840:18 0.00021874
17 *840:19 0.000191707
18 *840:20 5.55658e-05
19 *840:21 0.00124585
20 *840:22 0.000864461
21 *840:23 0.00103629
22 *840:24 0.000104295
23 *840:25 0.00124243
24 *840:26 0.000158291
25 *840:27 0.000153582
26 *840:28 0.00023925
27 *840:29 1.8487e-06
28 *840:22 *154:2 0.000263208984
29 *840:11 *909:2 0.000260275996
30 *840:22 *4:2 0.00094473
31 *840:12 *61:2 0.000536234961
32 *840:4 *626:29 0.000933633984
33 *840:5 *936:22 0.000409363008
34 *840:6 *69:4 0.00253966
35 *840:7 *180:19 0.00117771008
36 *840:8 *863:10 0.000521636016

*RES
1 *840:13 *840:15 0.199648
2 *840:21 *840:28 17.146
3 *840:8 *840:30 21.8798008
4 *840:17 *840:25 1.01527
5 *993:I *840:23 2.30263
6 *840:10 *840:25 7.95353
7 *840:5 *840:8 0.90576
8 *840:26 *840:27 2.75835
9 *840:5 *840:16 0.265084
10 *840:12 *840:21 2.27592
11 *840:9 *840:16 6.02115
12 *840:12 *840:13 5.55909
13 *840:19 *840:26 1.95975
14 *840:18 *840:20 0.111509
15 *840:10 *840:7 9.56039
16 *840:23 *840:29 12.2827
17 *840:6 *840:24 3.08519
18 *840:14 *840:24 1.61721
19 *840:14 *840:15 4.79121
20 *840:22 *840:29 3.31823
21 *840:4 *840:28 4.03836
22 *840:11 *840:22 5.89061
23 *840:27 *840:4 8.43429
24 *840:19 *840:20 0.533841
25 *840:9 *840:18 3.22809
26 *997:Z *840:11 3.54759
27 *990:I *840:17 1.50003
28 *1702:A2 *840:16 1.50003
29 *997:Z *840:6 0.749848
30 *840:7 *840:30 0.749848
*END

*D_NET *841 0.0315279

*CONN
*I *984:I I *C 137.9 240.4 *L 0.00103 *D DEL015
*I *985:I I *C 142.9 91.2 *L 0.000643 *D CKBD0
*I *1008:Z O *C 144.9 152.8 *L 0 *D CKBD1
*I *1752:A2 I *C 146.3 94.8 *L 0.001 *D MOAI22D1

*CAP
1 *1752:A2 0.000402501
2 *841:4 0.00231309
3 *841:5 0.001276
4 *841:6 0.000440541
5 *841:7 0.000986929
6 *841:8 0.000769517
7 *841:9 0.00112098
8 *841:10 1.48651e-06
9 *841:12 0.00051094
10 *841:13 6.86082e-05
11 *841:14 3.17503e-05
12 *841:15 4.95504e-07
13 *841:16 0.000765782
14 *841:17 4.26895e-06
15 *841:18 0.000770318
16 *841:19 0.000309575
17 *841:20 0.00147721
18 *841:21 7.383e-05
19 *841:22 0.000334922
20 *841:23 0.000336447
21 *841:24 0.00062483
22 *841:25 0.000443819
23 *841:26 0.000202127
24 *841:27 0.000319485
25 *841:28 1.67709e-06
26 *841:29 0.000468632
27 *841:30 8.37782e-05
28 *841:31 0.00249791
29 *841:20 *82:2 0.000391586016
30 *841:14 *50:2 0.000244261992
31 *841:8 *64:2 0.00162588
32 *841:20 *472:4 0.000854511953
33 *841:4 *619:4 0.00138009
34 *1752:A2 *858:9 0.000312029004
35 *841:4 *73:7 0.00206172984
36 *841:5 *182:9 0.000905952969
37 *841:6 *992:Z 0.00270302
38 *841:7 *1662:CDN 0.00110753
39 *841:8 *620:8 0.00330387

*RES
1 *841:22 *841:6 4.396
2 *841:20 *841:27 10.2542
3 *841:16 *841:17 5.00146
4 *841:8 *841:10 6.87611
5 *841:13 *841:31 3.24504
6 *841:7 *841:31 36.0391006
7 *841:21 *841:22 0.778127
8 *841:9 *841:11 9.76371
9 *1752:A2 *841:23 6.07874
10 *841:14 *841:7 13.5993
11 *841:18 *841:23 4.57748
12 *1008:Z *841:21 1.50016
13 *841:4 *841:28 28.0626
14 *841:17 *841:25 3.05202
15 *841:14 *841:24 1.68383
16 *841:5 *841:12 1.40063
17 *841:8 *841:9 0.199618
18 *841:19 *841:25 2.46196
19 *841:15 *841:24 4.17494
20 *841:29 *841:30 8.62649
21 *841:4 *841:26 2.65993
22 *841:6 *841:30 0.199618
23 *841:20 *841:23 2.23925
24 *841:10 *841:22 5.10319
25 *841:5 *841:13 10.1294
26 *841:26 *841:27 1.83671
27 *841:11 *841:12 4.20518
28 *841:28 *841:29 0.199618
29 *841:15 *841:16 0.356894
30 *984:I *841:19 1.50016
31 *985:I *841:18 1.50016
*END

*D_NET *842 0.0274994

*CONN
*I *1779:ZN O *C 142.3 164.6 *L 0 *D CKND1
*I *1756:A2 I *C 142.7 107.2 *L 0.000697 *D MOAI22D0
*I *1741:A2 I *C 144.3 87.6 *L 0.000697 *D MOAI22D0
*I *1735:A2 I *C 149.3 84 *L 0.000697 *D MOAI22D0
*I *1720:A2 I *C 142.3 202.8 *L 0.000697 *D MOAI22D0
*I *1705:A2 I *C 146.9 208 *L 0.000697 *D MOAI22D0

*CAP
1 *1779:ZN 1.29426e-05
2 *1756:A2 0.000183578
3 *1741:A2 0.000108754
4 *1735:A2 0.000563317
5 *1705:A2 0.000303926
6 *842:6 5.84663e-05
7 *842:7 0.000216204
8 *842:8 0.000639579
9 *842:9 0.000691394
10 *842:10 0.00221709
11 *842:11 0.00209957
12 *842:12 0.000263031
13 *842:13 0.000784644
14 *842:14 0.000341585
15 *842:15 0.000698315
16 *842:16 0.000224248
17 *842:17 0.00052759
18 *842:18 0.00294511
19 *842:19 2.69637e-06
20 *842:20 1.9324e-06
21 *842:21 4.08949e-06
22 *842:22 0.00130095
23 *842:23 2.66491e-05
24 *842:24 0.00109697
25 *842:25 0.000905935
26 *842:26 0.000918474
27 *842:27 0.00211912
28 *842:28 0.000567945
29 *842:29 9.83726e-05
30 *842:30 0.00041605
31 *842:31 0.000797811
32 *842:32 0.0005013
33 *842:10 *716:2 0.000959508984
34 *842:15 *69:4 0.00113610008
35 *842:24 *291:2 0.000574522969
36 *842:13 *1636:CP 0.000857456016
37 *842:31 *775:2 0.000674695
38 *842:26 *1718:A2 0.000379709023
39 *1779:ZN *61:2 0.000479796992
40 *842:11 *779:2 0.000340613008
41 *842:10 *866:2 0.00045925

*RES
1 *1735:A2 *842:6 4.47632
2 *842:13 *842:14 3.26428
3 *842:15 *842:24 1.61951
4 *842:21 *842:22 5.24581
5 *842:28 *842:29 4.37186
6 *842:12 *842:13 1.70935
7 *842:8 *842:26 5.8707
8 *842:17 *842:26 1.94884
9 *842:18 *842:19 15.4291
10 *842:15 *842:16 4.92313
11 *842:9 *842:25 2.91927
12 *842:7 *842:8 2.92804
13 *842:16 *842:27 1.94804
14 *842:23 *842:25 5.56158
15 *842:6 *842:9 4.55154
16 *842:11 *842:31 15.6606
17 *842:28 *842:30 2.99821
18 *842:24 *842:29 17.4193993
19 *842:11 *842:14 14.1392
20 *842:30 *842:32 3.5221
21 *842:10 *842:23 0.9497
22 *1741:A2 *842:25 2.45146
23 *842:17 *842:21 2.43498
24 *842:31 *842:32 0.199881
25 *842:10 *842:12 12.0327
26 *1779:ZN *842:16 2.0307
27 *842:18 *842:20 1.09562
28 *1720:A2 *842:26 2.24999
29 *842:19 *842:22 1.97994
30 *1705:A2 *842:7 3.99177
31 *842:20 *842:27 10.5259
32 *1756:A2 *842:14 2.24414
*END

*D_NET *843 0.0277581

*CONN
*I *976:I I *C 137.7 242.4 *L 0.00104 *D DEL0
*I *979:I I *C 147.7 114.4 *L 0.000643 *D CKBD0
*I *981:Z O *C 145.3 157.2 *L 0 *D CKBD1
*I *1704:A2 I *C 142.7 208 *L 0.000697 *D MOAI22D0

*CAP
1 *979:I 4.31577e-05
2 *981:Z 0.000235499
3 *843:4 0.00107367
4 *843:5 0.000369693
5 *843:6 0.000848952
6 *843:7 0.000870747
7 *843:8 0.000402976
8 *843:10 0.000314457
9 *843:11 0.0015178
10 *843:12 0.000178886
11 *843:13 6.86904e-05
12 *843:15 0.000494799
13 *843:16 0.00172517
14 *843:18 0.00102194
15 *843:19 0.000150324
16 *843:20 0.000362454
17 *843:21 1.58547e-05
18 *843:22 0.00257825
19 *843:23 0.00193175
20 *843:24 7.47096e-05
21 *843:25 0.000105435
22 *843:26 0.000320437
23 *843:27 8.27353e-05
24 *843:28 0.00138502
25 *843:29 0.00128171
26 *843:30 0.00142747
27 *843:31 8.89906e-05
28 *843:32 0.000532685
29 *843:20 *1110:I 0.00193743
30 *979:I *374:3 0.000829985938
31 *843:26 *779:2 0.002412
32 *843:26 *866:3 0.000896952969
33 *843:4 *864:25 0.000568701016
34 *843:4 *70:8 0.00160877

*RES
1 *843:21 *843:29 0.949779
2 *843:12 *843:16 6.65027
3 *843:4 *843:20 2.26233
4 *843:4 *843:21 6.14895
5 *843:5 *843:6 2.65975
6 *843:25 *843:32 3.86611
7 *843:13 *843:16 2.11877
8 *843:17 *843:23 8.88526
9 *843:7 *843:19 0.945221
10 *843:11 *843:24 3.07903
11 *843:5 *843:24 2.63058
12 *843:7 *843:9 5.66859
13 *843:27 *843:30 1.20409
14 *979:I *843:18 3.97184
15 *843:8 *843:10 2.04357
16 *843:28 *843:31 29.8679008
17 *843:19 *843:29 14.7371
18 *981:Z *843:30 4.39797
19 *843:12 *843:22 2.01076
20 *843:15 *843:23 3.81324
21 *843:14 *843:22 13.3197
22 *843:26 *843:27 9.8592
23 *843:14 *843:15 2.55766
24 *843:6 *843:8 2.07092
25 *843:20 *843:30 5.77661
26 *843:11 *843:13 6.5491
27 *843:26 *843:31 1.0701
28 *843:18 *843:25 11.2825
29 *843:9 *843:10 2.19443
30 *976:I *843:17 1.49987
31 *1704:A2 *843:16 1.49987
32 *843:28 *843:32 0.750161
*END

*D_NET *844 0.00199797

*CONN
*I *1777:ZN O *C 147.7 134.6 *L 0 *D CKND0
*I *1773:A1 I *C 149.3 139.4 *L 0.000617 *D CKND2D0
*I *1766:I1 I *C 149.3 135.8 *L 0.001 *D MUX2ND0
*I *1757:A1 I *C 147.5 132.4 *L 0.000675 *D AOI221D0

*CAP
1 *1773:A1 0.000161836
2 *1757:A1 0.000281989
3 *844:4 0.000831316016
4 *844:5 0.000722821

*RES
1 *1773:A1 *844:4 4.98193979
2 *844:4 *844:5 4.34384
3 *1757:A1 *844:5 3.6596
4 *1777:ZN *844:5 0.749997
5 *1766:I1 *844:4 0.749997
*END

*D_NET *845 0.0024167

*CONN
*I *1776:ZN O *C 148.5 125 *L 0 *D CKND0
*I *1769:A2 I *C 148.7 123.6 *L 0.000606 *D CKND2D0
*I *1768:A2 I *C 146.5 130.8 *L 0.00177 *D NR3D1
*I *1757:B1 I *C 146.7 132.2 *L 0.00072 *D AOI221D0

*CAP
1 *1769:A2 0.000373644
2 *1768:A2 8.85197e-05
3 *1757:B1 8.16275e-05
4 *845:4 0.00040539
5 *845:5 0.000426781
6 *845:6 0.00104075

*RES
1 *845:4 *845:6 4.47745991
2 *1768:A2 *845:4 0.949793
3 *845:5 *845:6 3.54898
4 *1757:B1 *845:4 2.9341
5 *1769:A2 *845:5 2.44595
6 *1776:ZN *845:5 0.750024
*END

*D_NET *846 0.0287353

*CONN
*I *1775:ZN O *C 142.5 153.6 *L 0 *D INVD1
*I *1750:A2 I *C 142.1 89.2 *L 0.001 *D MOAI22D1
*I *1743:A2 I *C 141.9 49.6 *L 0.000697 *D MOAI22D0
*I *1737:A2 I *C 144.3 177.6 *L 0.000697 *D MOAI22D0
*I *1725:A2 I *C 144.7 60.4 *L 0.000697 *D MOAI22D0
*I *1699:A2 I *C 144.5 182.8 *L 0.000697 *D MOAI22D0

*CAP
1 *1743:A2 0.000376418
2 *846:6 0.00168362
3 *846:7 0.000772163
4 *846:8 0.00260602
5 *846:9 2.0161e-05
6 *846:10 7.77412e-05
7 *846:11 0.000146933
8 *846:12 0.00016944
9 *846:13 0.000674102
10 *846:14 1.91669e-05
11 *846:15 0.000325837
12 *846:17 0.00133087
13 *846:18 0.000437697
14 *846:19 0.00103457
15 *846:20 5.26095e-05
16 *846:21 0.000167094
17 *846:22 6.36245e-05
18 *846:23 0.000351724
19 *846:24 0.000585703
20 *846:25 4.50939e-05
21 *846:26 0.000238433
22 *846:27 0.000407594
23 *846:28 0.00014232
24 *846:29 0.000119574
25 *846:30 0.000396102
26 *846:31 0.000288815
27 *846:32 0.000138781
28 *846:33 0.00030671
29 *846:34 0.00166076
30 *846:35 0.000159141
31 *846:36 6.65274e-05
32 *846:37 0.000205388
33 *846:38 0.000170394
34 *846:39 0.00020503
35 *846:40 0.000576001
36 *846:42 8.39446e-05
37 *846:43 0.000190237
38 *846:8 *58:2 0.00175584
39 *846:7 *61:4 0.000355800977
40 *846:15 *64:3 0.000832623984
41 *846:24 *798:2 0.00227145
42 *846:6 *838:8 0.00168266
43 *846:7 *182:9 0.000342397969
44 *846:7 *1737:A1 0.000371010977
45 *846:8 *469:11 0.00108440008
46 *846:9 *509:3 0.000950971016
47 *846:8 *612:4 0.000262546992
48 *846:6 *154:4 0.000337506992
49 *846:6 *168:3 0.00035009
50 *846:10 *169:2 0.000595125977
51 *846:11 *250:2 0.000346053984
52 *846:8 *803:3 0.000900435

*RES
1 *846:36 *846:40 0.819286
2 *846:24 *846:29 2.53833
3 *846:11 *846:33 9.80196
4 *1699:A2 *846:7 5.93105
5 *1743:A2 *846:19 3.37583
6 *846:7 *846:14 0.199689
7 *846:36 *846:37 6.10722
8 *846:17 *846:18 6.27545
9 *846:9 *846:34 21.7028008
10 *846:30 *846:32 3.37649
11 *846:29 *846:30 4.31433
12 *846:19 *846:27 5.75487
13 *846:17 *846:24 3.61923
14 *846:39 *846:10 1.06136
15 *846:12 *846:8 5.51081
16 *846:31 *846:32 2.59562
17 *846:10 *846:43 6.14729
18 *846:23 *846:40 4.93459
19 *846:34 *846:35 2.64861
20 *846:13 *846:21 3.75136
21 *846:37 *846:38 2.92877
22 *846:28 *846:41 0.305328
23 *846:12 *846:21 0.240421
24 *846:35 *846:40 1.13919
25 *846:15 *846:22 4.11332
26 *846:14 *846:22 0.903731
27 *846:15 *846:26 1.83925
28 *846:16 *846:6 13.4589
29 *1775:ZN *846:18 4.07921
30 *846:31 *846:11 3.7762
31 *846:8 *846:38 21.5187
32 *846:9 *846:33 0.20002
33 *846:13 *846:27 2.61781
34 *1750:A2 *846:23 1.50015
35 *1737:A2 *846:22 1.50015
36 *1725:A2 *846:21 1.50015
37 *1775:ZN *846:20 0.750074
38 *846:16 *846:26 0.750074
39 *846:20 *846:25 0.750074
40 *846:6 *846:39 0.750074
41 *846:25 *846:41 0.750074
42 *846:41 *846:42 0.750074
43 *846:42 *846:43 0.750074
*END

*D_NET *847 0.0272739

*CONN
*I *1774:ZN O *C 141.5 157.2 *L 0 *D INVD1
*I *1749:A2 I *C 141.5 85.6 *L 0.000697 *D MOAI22D0
*I *1740:A2 I *C 141.9 46 *L 0.000697 *D MOAI22D0
*I *1736:A2 I *C 144.9 172 *L 0.000697 *D MOAI22D0
*I *1719:A2 I *C 142.1 62.4 *L 0.000697 *D MOAI22D0
*I *1698:A2 I *C 144.9 174 *L 0.000697 *D MOAI22D0

*CAP
1 *1774:ZN 0.000516099
2 *1749:A2 0.000210354
3 *1740:A2 0.000209259
4 *1736:A2 4.70456e-05
5 *1698:A2 4.59507e-05
6 *847:6 0.000903379
7 *847:7 0.000706369
8 *847:8 0.000857462
9 *847:9 0.000199063
10 *847:10 6.3982e-06
11 *847:11 5.22805e-05
12 *847:12 0.000945531
13 *847:13 0.00057252
14 *847:14 0.000683753
15 *847:15 0.000603484
16 *847:16 0.00137582
17 *847:17 0.000332125
18 *847:18 2.36083e-06
19 *847:19 0.000960586
20 *847:20 0.00224228
21 *847:21 0.000118692
22 *847:22 0.000447806
23 *847:23 7.71206e-05
24 *847:24 0.000237418
25 *847:25 0.000770316
26 *847:26 6.88064e-05
27 *847:27 6.61376e-05
28 *847:28 0.0008861
29 *847:29 0.000907416
30 *847:31 0.001542
31 *847:32 0.000203066
32 *847:33 0.000368975
33 *847:34 7.63337e-05
34 *847:35 0.000129367
35 *847:36 0.000811203
36 *847:37 0.00100746
37 *847:12 *1010:I 0.000493322031
38 *847:31 *854:4 0.00066456
39 *847:12 *934:3 0.00158481
40 *1749:A2 *733:2 0.00096196
41 *1740:A2 *1740:A1 0.000900617031
42 *847:6 *472:27 0.00132366
43 *847:7 *739:11 0.00104779008
44 *847:8 *538:12 0.00110689

*RES
1 *1774:ZN *847:13 7.36721
2 *847:17 *847:18 0.19982
3 *847:34 *847:35 3.65398
4 *1698:A2 *847:10 1.70061
5 *1736:A2 *847:11 1.70061
6 *847:32 *847:33 2.9946
7 *847:12 *847:14 5.91733
8 *847:16 *847:24 1.45213
9 *847:9 *847:10 1.07209
10 *847:6 *847:19 7.21852
11 *847:9 *847:11 0.169182
12 *847:7 *847:37 6.89007
13 *847:12 *847:34 4.88962
14 *847:18 *847:20 11.9074
15 *847:30 *847:8 4.24443
16 *847:20 *847:21 0.786214
17 *847:30 *847:31 0.19982
18 *847:22 *847:26 2.56094
19 *847:15 *847:27 3.64519
20 *1749:A2 *847:25 3.24893
21 *847:36 *847:37 8.75603
22 *847:6 *847:24 4.70579
23 *847:16 *847:29 9.0561
24 *847:31 *847:35 10.2046
25 *847:15 *847:17 1.7317
26 *847:19 *847:28 4.41203
27 *847:33 *847:36 14.595
28 *847:29 *847:38 14.7636995
29 *847:8 *847:32 1.21108
30 *847:21 *847:22 0.954045
31 *1740:A2 *847:28 6.69791
32 *847:23 *847:26 0.90561
33 *847:7 *847:25 3.74274
34 *847:13 *847:14 4.10701
35 *1719:A2 *847:24 1.49989
36 *1774:ZN *847:23 0.749944
37 *847:9 *847:27 0.749944
38 *847:25 *847:38 0.749944
*END

*D_NET *848 0.00580688

*CONN
*I *1772:ZN O *C 149.9 145.4 *L 0 *D CKND0
*I *1769:A1 I *C 148.3 123.8 *L 0.000617 *D CKND2D0
*I *1764:A1 I *C 148.3 121.4 *L 0.000989 *D ND2D1
*I *1759:A2 I *C 148.5 145.2 *L 0.00102 *D ND2D1

*CAP
1 *1772:ZN 4.7622e-05
2 *1769:A1 1.05462e-05
3 *1764:A1 0.000208081
4 *848:4 0.000300059
5 *848:5 0.00013582
6 *848:6 0.000151944
7 *848:7 0.000154131
8 *848:8 0.00102392008
9 *848:9 0.000442019
10 *848:10 0.000582213
11 *848:11 0.000227251
12 *848:12 0.000286013
13 *1764:A1 *308:2 0.000189046992
14 *848:4 *374:5 0.00104073
15 *1764:A1 *853:18 0.00021646
16 *848:4 *657:5 0.000246135
17 *848:5 *1757:A2 0.000544901016

*RES
1 *848:4 *848:9 1.44475
2 *1764:A1 *848:6 2.54854
3 *848:8 *848:12 5.90753
4 *1759:A2 *848:9 2.44978
5 *1769:A1 *848:6 0.924396
6 *848:5 *848:12 1.84054
7 *848:4 *848:10 9.66053963
8 *1772:ZN *848:7 1.50003
9 *848:5 *848:11 2.34438
10 *848:7 *848:9 1.29881
11 *848:10 *848:11 2.22689
12 *848:6 *848:8 2.10322
*END

*D_NET *849 0.00343282

*CONN
*I *1128:Z O *C 151.9 157.2 *L 0 *D DEL1
*I *1772:I I *C 149.5 145.4 *L 0.00062 *D CKND0
*I *1770:A1 I *C 148.5 148.8 *L 0.000647 *D NR2D0
*I *1762:A1 I *C 148.5 150.4 *L 0.00093 *D NR2D1

*CAP
1 *1770:A1 0.000120453
2 *1762:A1 7.71469e-05
3 *849:4 0.000181819
4 *849:5 0.0010027
5 *849:6 0.000190449
6 *849:7 0.00114023992
7 *849:8 0.00027887
8 *849:9 0.00044115

*RES
1 *849:7 *849:8 4.95005
2 *849:5 *849:6 0.934501
3 *849:4 *849:9 3.64189
4 *1128:Z *849:4 1.21744
5 *849:6 *849:7 3.0469
6 *849:5 *849:9 5.99897003
7 *1762:A1 *849:5 0.949788
8 *1770:A1 *849:6 2.08
9 *1772:I *849:8 0.749963
*END

*D_NET *850 0.00432971

*CONN
*I *1771:ZN O *C 145.5 120.2 *L 0 *D NR2D0
*I *1764:A2 I *C 147.9 121.6 *L 0.00102 *D ND2D1
*I *1763:A1 I *C 146.5 114.2 *L 0.000617 *D CKND2D0
*I *1761:B1 I *C 146.7 120 *L 0.000658 *D IND2D0
*I *1760:A1 I *C 149.5 130.8 *L 0.000681 *D IND2D0

*CAP
1 *1771:ZN 0.000345659
2 *1764:A2 0.000108882
3 *1763:A1 0.000117176
4 *1760:A1 0.000518814
5 *850:5 0.000121308
6 *850:6 0.000373726
7 *850:7 0.000924301953
8 *850:8 0.000892074
9 *850:9 0.000128529
10 *850:10 0.000264435
11 *850:11 0.000534807

*RES
1 *850:6 *850:7 3.306
2 *850:5 *850:11 3.57757998
3 *1763:A1 *850:8 3.18262
4 *850:9 *850:10 1.21724
5 *850:8 *850:9 3.39056
6 *850:6 *850:11 2.24008
7 *850:7 *850:10 2.32835
8 *1760:A1 *850:5 3.51649
9 *1771:ZN *850:10 3.44929
10 *1764:A2 *850:7 1.56568
11 *1761:B1 *850:9 0.750006
*END

*D_NET *851 0.00480164

*CONN
*I *1770:ZN O *C 148.5 149 *L 0 *D NR2D0
*I *1765:I I *C 146.7 167 *L 0.00062 *D CKND0
*I *1758:A1 I *C 147.1 163.4 *L 0.000617 *D CKND2D0

*CAP
1 *851:3 0.0018782
2 *851:4 0.000324655
3 *851:5 5.70897e-05
4 *851:6 0.000848321
5 *851:7 0.000629706
6 *851:8 0.00106364

*RES
1 *851:5 *851:6 0.358041
2 *851:4 *851:8 5.9128
3 *851:3 *851:7 0.949751
4 *851:3 *851:4 11.7616997
5 *1770:ZN *851:7 2.67876
6 *851:5 *851:8 1.75772
7 *1765:I *851:6 4.80044
8 *1758:A1 *851:5 1.65722
*END

*D_NET *852 0.0102505

*CONN
*I *1765:ZN O *C 147.1 167 *L 0 *D CKND0
*I *1737:B2 I *C 143.5 177.8 *L 0.000739 *D MOAI22D0
*I *1736:B2 I *C 144.1 171.8 *L 0.000739 *D MOAI22D0
*I *1720:B2 I *C 141.5 203 *L 0.000739 *D MOAI22D0
*I *1718:B2 I *C 144.1 203 *L 0.000739 *D MOAI22D0
*I *1717:B2 I *C 144.1 197 *L 0.000739 *D MOAI22D0
*I *1716:B2 I *C 142.7 188.6 *L 0.000739 *D MOAI22D0
*I *1715:B2 I *C 143.3 193.4 *L 0.000739 *D MOAI22D0
*I *1714:B2 I *C 141.3 200.6 *L 0.000739 *D MOAI22D0

*CAP
1 *1737:B2 8.92098e-05
2 *1715:B2 0.000116077
3 *1714:B2 0.000528231
4 *852:9 0.000189889
5 *852:10 0.000783937
6 *852:11 0.00129373
7 *852:12 0.000346337
8 *852:13 0.000252133
9 *852:14 9.25066e-05
10 *852:15 0.00090493
11 *852:16 0.000104983
12 *852:17 0.000181914
13 *852:18 0.000277915
14 *852:19 0.000466501
15 *852:21 0.00125885
16 *852:22 0.000981466
17 *852:19 *1670:CDN 0.000664336953
18 *852:14 *36:2 0.000268690996
19 *852:9 *182:10 0.000676032031
20 *852:9 *1698:B1 0.000365421016
21 *852:11 *1084:Z 0.000407476992

*RES
1 *852:14 *852:15 4.71541
2 *1737:B2 *852:11 2.34245
3 *852:16 *852:21 5.44098
4 *852:11 *852:17 9.80235004
5 *1714:B2 *852:12 4.92032
6 *852:10 *852:22 1.9736
7 *852:12 *852:22 3.11454
8 *852:18 *852:20 3.34563
9 *852:9 *852:16 1.46506
10 *852:9 *852:19 5.21243
11 *852:13 *852:21 3.50776
12 *1715:B2 *852:10 1.2392
13 *852:11 *852:19 4.44917
14 *852:15 *852:22 3.55219
15 *852:10 *852:17 4.00419
16 *1720:B2 *852:18 0.749954
17 *1716:B2 *852:17 0.749954
18 *1736:B2 *852:16 0.749954
19 *1717:B2 *852:15 0.749954
20 *1718:B2 *852:14 0.749954
21 *1765:ZN *852:13 0.749954
22 *852:14 *852:20 0.749954
*END

*D_NET *853 0.0152959

*CONN
*I *1784:A1 I *C 148.9 78.4 *L 0.000681 *D IND2D0
*I *1769:ZN O *C 148.1 124 *L 0 *D CKND2D0
*I *1735:B2 I *C 148.5 84.2 *L 0.000739 *D MOAI22D0
*I *1734:B2 I *C 146.7 78.2 *L 0.000739 *D MOAI22D0
*I *1733:B2 I *C 147.7 77 *L 0.000739 *D MOAI22D0
*I *1732:B2 I *C 147.5 71 *L 0.000739 *D MOAI22D0
*I *1729:B2 I *C 146.7 69.8 *L 0.000739 *D MOAI22D0
*I *1726:B2 I *C 144.5 62.6 *L 0.000739 *D MOAI22D0
*I *1725:B2 I *C 145.5 60.2 *L 0.000739 *D MOAI22D0
*I *1719:B2 I *C 141.3 62.6 *L 0.000739 *D MOAI22D0

*CAP
1 *1769:ZN 4.372e-06
2 *1734:B2 0.000467549
3 *1733:B2 0.000216238
4 *1719:B2 0.000439147
5 *853:10 0.000546628
6 *853:11 0.000598773
7 *853:12 0.000919843
8 *853:13 0.00209137984
9 *853:14 0.00126587
10 *853:15 2.23387e-07
11 *853:16 0.000113927
12 *853:17 0.000156849
13 *853:18 0.000270458
14 *853:19 0.0019061
15 *853:20 0.000514683
16 *853:21 0.000311114
17 *853:22 0.000637163
18 *853:24 0.000838945
19 *853:25 0.000444795
20 *853:26 7.75791e-05
21 *853:27 0.000411511
22 *853:28 0.000230759
23 *853:29 0.000899994
24 *853:18 *1764:A1 0.00021646
25 *853:10 *1417:Z 0.000232185
26 *1733:B2 *837:11 0.000502210977
27 *853:11 *1633:CDN 0.000981056953

*RES
1 *853:26 *853:27 1.21706
2 *1769:ZN *853:18 3.84125
3 *853:22 *853:27 2.61766
4 *853:20 *853:24 2.28778
5 *1719:B2 *853:27 5.29734
6 *853:13 *853:17 11.8851995
7 *1734:B2 *853:28 2.69836
8 *1784:A1 *853:16 1.21398
9 *853:22 *853:23 4.24295
10 *853:16 *853:28 1.88372
11 *853:26 *853:29 4.87461
12 *853:10 *853:25 3.99287
13 *853:15 *853:16 0.693678
14 *853:14 *853:24 8.6493
15 *853:12 *853:15 4.52314
16 *1733:B2 *853:21 1.74898
17 *1725:B2 *853:29 1.49998
18 *853:20 *853:21 4.46819
19 *853:18 *853:19 2.08176
20 *853:12 *853:10 4.0995
21 *853:23 *853:25 1.5649
22 *853:17 *853:19 7.82306
23 *853:11 *853:14 5.51642
24 *853:11 *853:13 0.355453
25 *1726:B2 *853:26 0.750079
26 *1729:B2 *853:25 0.750079
27 *1732:B2 *853:10 0.750079
28 *1735:B2 *853:24 0.750079
29 *853:21 *853:28 0.750079
*END

*D_NET *854 0.00742541

*CONN
*I *1120:I I *C 146.3 168.4 *L 0.00105 *D DEL1
*I *1768:ZN O *C 146.1 131.2 *L 0 *D NR3D1

*CAP
1 *1120:I 0.000409959
2 *1768:ZN 0.000195387
3 *854:2 0.000420078
4 *854:3 0.000381048
5 *854:4 0.00068509
6 *854:5 0.000569432
7 *854:6 8.24802e-05
8 *854:8 7.61928e-05
9 *854:9 0.000919745
10 *854:2 *839:8 0.000544403008
11 *1120:I *657:3 0.000892982031
12 *854:3 *288:2 0.000492785977
13 *854:4 *847:31 0.00066456
14 *1768:ZN *374:8 0.00109128

*RES
1 *854:7 *854:9 0.199855
2 *854:5 *854:7 6.88949
3 *854:2 *854:8 2.79694
4 *1768:ZN *854:4 3.57575
5 *854:8 *854:9 11.2523003
6 *854:3 *854:6 6.16614
7 *854:3 *854:5 0.199855
8 *854:4 *854:6 5.20601
9 *1120:I *854:2 6.97414
*END

*D_NET *855 0.0130828

*CONN
*I *1119:Z O *C 151.1 160.8 *L 0 *D DEL1
*I *1713:B2 I *C 141.1 141.8 *L 0.000698 *D AO22D0
*I *1712:B2 I *C 141.1 138.2 *L 0.000698 *D AO22D0
*I *1711:B2 I *C 140.9 135.8 *L 0.000698 *D AO22D0
*I *1710:B2 I *C 141.1 128.6 *L 0.000698 *D AO22D0
*I *1709:B2 I *C 141.1 123.8 *L 0.000698 *D AO22D0
*I *1708:B2 I *C 140.5 117.8 *L 0.000698 *D AO22D0
*I *1707:B2 I *C 140.5 116.6 *L 0.000698 *D AO22D0
*I *1706:B2 I *C 140.1 113 *L 0.000698 *D AO22D0

*CAP
1 *1711:B2 0.000199843
2 *1706:B2 0.000603726
3 *855:9 0.00259444
4 *855:10 0.00057158
5 *855:11 0.000505072
6 *855:12 0.000842802
7 *855:13 0.00145979
8 *855:14 0.000395411
9 *855:15 0.000178901
10 *855:16 0.000779975
11 *855:17 0.000875977
12 *855:18 0.000200833
13 *855:19 0.000169756
14 *855:20 0.000655192
15 *855:21 0.000696997
16 *855:22 0.000120666
17 *1706:B2 *73:7 0.000528938008
18 *855:9 *288:2 0.000318181992
19 *855:10 *775:7 0.000325479004
20 *855:11 *1272:Z 0.000218831992
21 *855:12 *178:7 0.000840418984

*RES
1 *855:12 *855:9 16.0515003
2 *1119:Z *855:19 1.49993
3 *855:13 *855:15 6.36662
4 *855:12 *855:19 4.83436
5 *855:17 *855:22 6.48712
6 *855:17 *855:18 1.42474
7 *855:16 *855:22 1.41347
8 *855:10 *855:21 4.04398
9 *855:13 *855:14 2.02015
10 *1706:B2 *855:18 4.65826
11 *1711:B2 *855:14 2.66211
12 *1712:B2 *855:13 4.34157
13 *855:10 *855:16 4.73026
14 *855:15 *855:20 1.52883
15 *855:11 *855:20 4.64356
16 *855:14 *855:21 4.25829
17 *855:9 *855:11 5.97033
18 *1707:B2 *855:18 1.49993
19 *1708:B2 *855:17 1.49993
20 *1709:B2 *855:16 1.49993
21 *1710:B2 *855:10 1.49993
22 *1713:B2 *855:15 1.49993
*END

*D_NET *856 0.00278821

*CONN
*I *1766:ZN O *C 148.7 135.8 *L 0 *D MUX2ND0
*I *1746:B2 I *C 146.1 138 *L 0.000657 *D IND3D0
*I *1744:A1 I *C 148.7 143 *L 0.00101 *D ND3D1

*CAP
1 *1766:ZN 0.000331346
2 *1744:A1 0.000100369
3 *856:3 0.0007231
4 *856:4 0.000941011016
5 *856:5 0.000606621
6 *856:6 8.57514e-05

*RES
1 *856:5 *856:6 2.77339
2 *856:3 *856:4 9.49965
3 *1766:ZN *856:3 2.4284
4 *1744:A1 *856:4 1.87468
5 *1746:B2 *856:5 1.49998
6 *856:3 *856:6 0.749988
*END

*D_NET *857 0.0180612

*CONN
*I *1764:ZN O *C 148.5 121.2 *L 0 *D ND2D1
*I *1748:B2 I *C 141.1 73.4 *L 0.000739 *D MOAI22D0
*I *1748:A1 I *C 141.7 73.2 *L 0.000721 *D MOAI22D0
*I *1747:B2 I *C 141.9 71 *L 0.000739 *D MOAI22D0
*I *1747:A1 I *C 142.5 71.2 *L 0.000721 *D MOAI22D0
*I *1743:B2 I *C 141.1 49.4 *L 0.000739 *D MOAI22D0
*I *1743:A1 I *C 141.7 49.6 *L 0.000721 *D MOAI22D0
*I *1742:B2 I *C 140.9 80.6 *L 0.000739 *D MOAI22D0
*I *1742:A1 I *C 141.5 80.4 *L 0.000721 *D MOAI22D0
*I *1741:B2 I *C 143.5 87.8 *L 0.000739 *D MOAI22D0
*I *1741:A1 I *C 144.1 87.6 *L 0.000721 *D MOAI22D0
*I *1740:B2 I *C 141.1 45.8 *L 0.000739 *D MOAI22D0
*I *1740:A1 I *C 141.7 46 *L 0.000721 *D MOAI22D0
*I *1739:B2 I *C 142.1 56.6 *L 0.000739 *D MOAI22D0
*I *1739:A1 I *C 142.7 56.8 *L 0.000721 *D MOAI22D0
*I *1738:B2 I *C 141.9 63.8 *L 0.000739 *D MOAI22D0
*I *1738:A1 I *C 142.5 64 *L 0.000721 *D MOAI22D0

*CAP
1 *1747:B2 0.00015373
2 *1743:A1 0.000178585
3 *1742:A1 6.8442e-05
4 *1741:A1 5.37955e-06
5 *1740:B2 0.000105117
6 *1740:A1 6.78138e-05
7 *1739:A1 7.9476e-05
8 *1738:B2 0.000130719
9 *857:17 0.000937809
10 *857:18 6.31018e-05
11 *857:19 0.000641266
12 *857:20 0.000484945
13 *857:21 0.000146779
14 *857:22 5.57981e-05
15 *857:23 0.000170536
16 *857:24 0.000982534
17 *857:25 0.000508348
18 *857:26 0.000427851
19 *857:27 0.000168729
20 *857:28 0.000934118
21 *857:29 3.40836e-05
22 *857:30 0.000550913
23 *857:31 0.000232813
24 *857:32 0.000434409
25 *857:33 0.000392393
26 *857:34 0.000413244
27 *857:35 0.00257335
28 *857:36 1.86517e-05
29 *857:37 0.000557432
30 *857:38 0.000161701
31 *1740:A1 *1740:A2 0.000900617031
32 *857:35 *868:3 0.00253
33 *857:23 *45:3 0.000380919023
34 *1739:A1 *468:3 0.000520125977
35 *1739:A1 *735:2 0.000481726992
36 *857:35 *736:4 0.00132478
37 *1743:A1 *1743:B1 0.00024287

*RES
1 *1747:B2 *857:21 1.77027
2 *1742:A1 *857:30 2.01223
3 *1739:A1 *857:20 1.86769
4 *1740:A1 *857:25 2.17978
5 *857:31 *857:35 35.0820007
6 *857:19 *857:22 3.65241
7 *857:27 *857:30 0.98818
8 *1743:A1 *857:24 3.46666
9 *1740:B2 *857:25 0.960879
10 *857:19 *857:20 2.58715
11 *857:26 *857:30 2.82697
12 *1738:B2 *857:22 1.51814
13 *857:18 *857:37 3.66044
14 *857:24 *857:32 9.73834
15 *857:26 *857:37 2.94152
16 *1748:A1 *857:23 1.6889
17 *857:36 *857:38 6.80966
18 *857:21 *857:23 0.825982
19 *857:23 *857:28 0.646653
20 *1764:ZN *857:17 2.1498
21 *857:33 *857:36 0.949638
22 *857:24 *857:29 0.210912
23 *857:22 *857:34 0.289602
24 *857:34 *857:38 5.78562
25 *857:17 *857:35 5.19196
26 *857:21 *857:33 1.5615
27 *1741:A1 *857:18 1.79436
28 *857:25 *857:29 2.78307
29 *857:20 *857:32 0.547086
30 *857:18 *857:31 0.561539
31 *857:27 *857:28 5.05653
32 *1738:A1 *857:34 1.49994
33 *1747:A1 *857:33 1.49994
34 *1739:B2 *857:32 0.749968
35 *1741:B2 *857:31 0.749968
36 *1742:B2 *857:30 0.749968
37 *1743:B2 *857:29 0.749968
38 *1748:B2 *857:28 0.749968
*END

*D_NET *858 0.00862441

*CONN
*I *1763:ZN O *C 146.7 114 *L 0 *D CKND2D0
*I *1756:B2 I *C 141.9 107 *L 0.000739 *D MOAI22D0
*I *1755:B2 I *C 141.5 102.2 *L 0.00109 *D MOAI22D1
*I *1754:B2 I *C 141.5 98.6 *L 0.00109 *D MOAI22D1
*I *1753:B2 I *C 142.5 95 *L 0.00109 *D MOAI22D1
*I *1752:B2 I *C 145.5 95 *L 0.00109 *D MOAI22D1
*I *1751:B2 I *C 145.3 92.6 *L 0.000739 *D MOAI22D0
*I *1750:B2 I *C 141.3 89 *L 0.00109 *D MOAI22D1
*I *1749:B2 I *C 140.7 85.4 *L 0.000739 *D MOAI22D0

*CAP
1 *1763:ZN 2.75205e-05
2 *1753:B2 4.68975e-05
3 *1749:B2 6.76995e-05
4 *858:9 0.000102453
5 *858:10 0.00064302
6 *858:11 0.000407227
7 *858:12 0.000257852
8 *858:13 0.000739497
9 *858:14 0.000569584
10 *858:15 0.000520663
11 *858:16 8.59388e-05
12 *858:17 0.00025105
13 *858:18 0.000592194
14 *858:19 0.000301612
15 *858:20 0.000587296
16 *858:21 0.000394581
17 *858:22 0.000784838047
18 *858:23 0.00027305
19 *858:9 *784:2 0.000317450996
20 *1753:B2 *860:11 0.000472245977
21 *858:9 *1752:A2 0.000312029004
22 *858:10 *39:9 0.000345901992
23 *858:11 *1631:CP 0.00029462502
24 *858:11 *45:5 0.000229181016

*RES
1 *858:13 *858:22 4.93535
2 *858:10 *858:21 1.74852
3 *858:19 *858:23 2.76717
4 *858:9 *858:19 2.1855
5 *858:17 *858:20 3.7175
6 *858:11 *858:23 5.20587
7 *858:13 *858:16 0.622983
8 *858:9 *858:21 3.61113
9 *858:15 *858:18 5.6174798
10 *1749:B2 *858:15 1.84426
11 *1753:B2 *858:21 1.65997
12 *858:12 *858:22 4.90827
13 *858:14 *858:17 1.39614
14 *858:14 *858:16 3.20672
15 *1763:ZN *858:12 2.01921
16 *858:10 *858:20 3.29423
17 *858:11 *858:18 2.08607
18 *1754:B2 *858:20 0.750014
19 *1751:B2 *858:19 0.750014
20 *1752:B2 *858:9 0.750014
21 *1750:B2 *858:18 0.750014
22 *1755:B2 *858:17 0.750014
23 *1756:B2 *858:16 0.750014
*END

*D_NET *859 0.0169649

*CONN
*I *1762:ZN O *C 148.5 150.2 *L 0 *D NR2D1
*I *1731:B2 I *C 143.1 243.8 *L 0.000698 *D AO22D0
*I *1730:B2 I *C 144.7 243.8 *L 0.000698 *D AO22D0
*I *1728:B2 I *C 142.7 242.6 *L 0.000698 *D AO22D0
*I *1727:B2 I *C 142.7 235.4 *L 0.000698 *D AO22D0
*I *1724:B2 I *C 142.9 231.8 *L 0.000698 *D AO22D0
*I *1723:B2 I *C 144.9 225.8 *L 0.000698 *D AO22D0
*I *1722:B2 I *C 146.3 222.2 *L 0.000698 *D AO22D0
*I *1721:B2 I *C 147.1 215 *L 0.000698 *D AO22D0

*CAP
1 *1762:ZN 2.39008e-05
2 *1731:B2 4.18504e-05
3 *1730:B2 0.000109553
4 *1723:B2 1.57739e-05
5 *1722:B2 5.50007e-05
6 *1721:B2 6.51753e-05
7 *859:9 0.000620205
8 *859:10 0.000838864
9 *859:11 0.00209683984
10 *859:12 0.000175721
11 *859:13 0.000197702
12 *859:14 0.000693571
13 *859:15 0.000474209
14 *859:17 0.000626764
15 *859:18 9.27876e-07
16 *859:19 0.000842383
17 *859:20 3.90348e-06
18 *859:21 0.00141453
19 *859:22 0.000245855
20 *859:23 0.00138529
21 *859:25 0.00132338
22 *859:26 1.79176e-06
23 *859:27 0.000822674
24 *859:28 0.000560245
25 *859:29 0.000638027
26 *859:30 2.11492e-05
27 *859:31 0.00082389
28 *859:32 0.000279547
29 *859:33 0.000365199
30 *859:34 5.70484e-05
31 *859:35 0.000100083
32 *859:9 *52:4 0.00102619008
33 *859:10 *1677:CDN 0.00101771

*RES
1 *859:17 *859:18 4.1593
2 *859:27 *859:33 2.79991
3 *1722:B2 *859:29 1.71189
4 *859:21 *859:24 6.51939
5 *859:27 *859:35 2.72881
6 *859:12 *859:10 1.7121
7 *859:25 *859:26 7.30424
8 *859:13 *859:34 1.96105
9 *859:16 *859:19 5.25672
10 *1731:B2 *859:9 0.416122
11 *859:31 *859:33 4.18642
12 *859:29 *859:34 2.77301
13 *859:16 *859:17 0.199841
14 *859:23 *859:26 0.199841
15 *859:28 *859:29 2.86909
16 *859:22 *859:32 1.38693
17 *859:24 *859:25 0.199841
18 *859:9 *859:30 4.74858
19 *859:30 *859:31 7.18916
20 *859:19 *859:20 0.199841
21 *1730:B2 *859:9 1.18154
22 *859:11 *859:21 13.9923
23 *1723:B2 *859:28 1.13179
24 *859:28 *859:35 3.17397
25 *859:12 *859:15 3.1349
26 *859:15 *859:18 0.199841
27 *859:20 *859:23 8.3771
28 *859:13 *859:14 3.69962
29 *859:10 *859:22 6.24354
30 *1762:ZN *859:11 0.572835
31 *1721:B2 *859:32 1.37156
32 *859:14 *859:32 1.32502
33 *1724:B2 *859:33 1.50009
34 *1727:B2 *859:31 0.750045
35 *1728:B2 *859:30 0.750045
*END

*D_NET *860 0.00960704

*CONN
*I *1761:ZN O *C 146.7 120.4 *L 0 *D IND2D0
*I *1756:A1 I *C 142.5 107.2 *L 0.000721 *D MOAI22D0
*I *1755:A1 I *C 142.1 102 *L 0.00104 *D MOAI22D1
*I *1754:A1 I *C 142.1 98.4 *L 0.00104 *D MOAI22D1
*I *1753:A1 I *C 141.9 94.8 *L 0.00104 *D MOAI22D1
*I *1752:A1 I *C 146.1 94.8 *L 0.00104 *D MOAI22D1
*I *1751:A1 I *C 145.9 92.8 *L 0.000721 *D MOAI22D0
*I *1750:A1 I *C 141.9 89.2 *L 0.00104 *D MOAI22D1
*I *1749:A1 I *C 141.3 85.6 *L 0.000721 *D MOAI22D0

*CAP
1 *1761:ZN 1.50615e-05
2 *1750:A1 0.000334626
3 *1749:A1 0.000242994
4 *860:9 0.000832279
5 *860:10 0.00056335
6 *860:11 0.000322428
7 *860:12 8.47188e-05
8 *860:13 0.000522765
9 *860:14 0.000998031016
10 *860:15 0.000201616
11 *860:16 0.000305067
12 *860:17 0.000261878
13 *860:18 0.000608474
14 *860:19 0.000158732
15 *860:20 0.000851528
16 *860:21 0.000178042
17 *860:22 0.000856447
18 *1761:ZN *75:20 0.000504473984
19 *1749:A1 *618:18 0.00030603998
20 *860:9 *39:9 0.000676388047
21 *860:10 *1636:CP 0.000309873008
22 *860:11 *1753:B2 0.000472245977

*RES
1 *860:18 *860:20 5.40575
2 *860:15 *860:17 1.67108
3 *860:16 *860:17 2.45097
4 *1761:ZN *860:12 0.588769
5 *860:10 *860:18 0.338592
6 *860:10 *860:19 4.84277
7 *860:21 *860:22 3.37219
8 *860:11 *860:22 1.95162
9 *1750:A1 *860:15 3.42589
10 *860:9 *860:11 3.82722
11 *860:16 *860:22 3.67461
12 *1749:A1 *860:15 3.85178
13 *860:13 *860:21 1.50619
14 *860:19 *860:9 3.46262
15 *860:12 *860:14 4.51121
16 *860:14 *860:20 7.31618023
17 *1752:A1 *860:13 3.75108
18 *1753:A1 *860:11 1.50005
19 *1754:A1 *860:9 1.50005
20 *1755:A1 *860:19 1.50005
21 *1756:A1 *860:18 1.50005
22 *1751:A1 *860:13 1.50005
*END

*D_NET *861 0.00303424

*CONN
*I *1760:ZN O *C 148.9 131.2 *L 0 *D IND2D0
*I *1759:A1 I *C 148.1 145.4 *L 0.000989 *D ND2D1
*I *1744:A2 I *C 148.9 143 *L 0.00104 *D ND3D1

*CAP
1 *1760:ZN 0.000750581
2 *1759:A1 0.000656565
3 *861:3 0.000568411
4 *861:4 0.000236081
5 *861:5 0.000822605

*RES
1 *861:3 *861:4 1.27536
2 *1759:A1 *861:6 5.72283983
3 *861:4 *861:5 4.28401
4 *861:3 *861:6 3.00061
5 *1760:ZN *861:5 4.48808
6 *1744:A2 *861:6 0.750022
*END

*D_NET *862 0.00128797

*CONN
*I *1757:ZN O *C 146.7 132 *L 0 *D AOI221D0
*I *1745:A1 I *C 146.1 134.6 *L 0.000989 *D ND2D1

*CAP
1 *1745:A1 0.000475832
2 *862:2 0.000812138047

*RES
1 *1745:A1 *862:2 9.89877033
2 *1757:ZN *862:2 1.50001
*END

*D_NET *863 0.0169914

*CONN
*I *1759:ZN O *C 147.9 145.6 *L 0 *D ND2D1
*I *1731:A2 I *C 142.5 244 *L 0.000745 *D AO22D0
*I *1730:A2 I *C 145.3 244 *L 0.000745 *D AO22D0
*I *1728:A2 I *C 143.3 242.4 *L 0.000745 *D AO22D0
*I *1727:A2 I *C 143.3 235.2 *L 0.000745 *D AO22D0
*I *1724:A2 I *C 143.5 231.6 *L 0.000745 *D AO22D0
*I *1723:A2 I *C 144.3 226 *L 0.000745 *D AO22D0
*I *1722:A2 I *C 146.9 222.4 *L 0.000745 *D AO22D0
*I *1721:A2 I *C 146.5 215.2 *L 0.000745 *D AO22D0

*CAP
1 *1759:ZN 0.000529162
2 *1730:A2 0.000390085
3 *863:9 0.00043695
4 *863:10 0.000755849
5 *863:11 0.000983294
6 *863:12 0.000492758
7 *863:13 0.00120271
8 *863:14 0.000539989
9 *863:15 0.000642244
10 *863:16 0.000211989
11 *863:17 0.00108461
12 *863:18 0.000348974
13 *863:19 0.000665206
14 *863:20 0.000942052
15 *863:21 0.000151316
16 *863:22 7.96855e-05
17 *863:23 0.000429156
18 *863:25 0.00103827
19 *863:26 0.000223208
20 *863:27 0.00171388
21 *863:28 0.000531647
22 *863:25 *657:2 0.00122058
23 *863:20 *374:2 0.000801362969
24 *863:10 *840:8 0.000521636016
25 *863:9 *180:9 0.00105482992

*RES
1 *863:21 *863:27 19.8381996
2 *863:14 *863:22 3.36459
3 *863:10 *863:14 3.8244
4 *863:11 *863:15 5.10091
5 *863:13 *863:18 4.38077
6 *863:11 *863:21 1.14938
7 *863:17 *863:22 3.75417
8 *863:13 *863:19 2.72194
9 *863:24 *863:25 8.8348
10 *863:20 *863:26 12.9471
11 *863:16 *863:19 3.46418
12 *863:18 *863:23 2.33236
13 *863:12 *863:16 2.46827
14 *863:12 *863:17 3.25198
15 *863:24 *863:9 0.199787
16 *1759:ZN *863:20 4.76854
17 *1731:A2 *863:23 2.87239
18 *863:10 *863:15 3.07187
19 *1730:A2 *863:23 4.4059
20 *863:25 *863:26 2.43255
21 *863:9 *863:28 7.13753
22 *863:27 *863:28 2.65867
23 *1727:A2 *863:19 1.49991
24 *1728:A2 *863:18 1.49991
25 *1723:A2 *863:17 1.49991
26 *1724:A2 *863:16 0.750108
27 *1721:A2 *863:15 0.750108
28 *1722:A2 *863:14 0.750108
*END

*D_NET *864 0.0106236

*CONN
*I *1758:ZN O *C 146.9 163.6 *L 0 *D CKND2D0
*I *1737:A1 I *C 144.1 177.6 *L 0.000721 *D MOAI22D0
*I *1736:A1 I *C 144.7 172 *L 0.000721 *D MOAI22D0
*I *1720:A1 I *C 142.1 202.8 *L 0.000721 *D MOAI22D0
*I *1718:A1 I *C 144.7 202.8 *L 0.000721 *D MOAI22D0
*I *1717:A1 I *C 144.7 197.2 *L 0.000721 *D MOAI22D0
*I *1716:A1 I *C 143.3 188.4 *L 0.000721 *D MOAI22D0
*I *1715:A1 I *C 143.9 193.6 *L 0.000721 *D MOAI22D0
*I *1714:A1 I *C 141.9 200.8 *L 0.000721 *D MOAI22D0

*CAP
1 *1758:ZN 0.000559299
2 *1737:A1 0.000324696
3 *1720:A1 8.9731e-05
4 *1718:A1 0.000443578
5 *1716:A1 0.000166337
6 *864:9 0.000482365
7 *864:10 6.08568e-05
8 *864:11 7.16501e-05
9 *864:12 0.000412321
10 *864:13 0.000566431
11 *864:14 0.000516886
12 *864:15 0.000372619
13 *864:16 0.000505782
14 *864:17 4.17916e-05
15 *864:18 0.000372912
16 *864:19 0.000483332
17 *864:20 6.32745e-05
18 *864:21 0.000166786
19 *864:22 0.00101963
20 *864:23 0.000380735
21 *864:24 6.88007e-05
22 *864:25 0.00113174
23 *1737:A1 *846:7 0.000371010977
24 *864:25 *843:4 0.000568701016
25 *864:9 *626:28 0.000571763984
26 *864:10 *182:12 0.000810605

*RES
1 *1716:A1 *864:23 3.13297
2 *864:18 *864:21 2.98445
3 *864:10 *864:19 2.81459
4 *1720:A1 *864:22 3.54057
5 *864:22 *864:24 3.85658
6 *864:9 *864:12 3.33109
7 *864:13 *864:14 0.799201
8 *864:15 *864:19 0.644855
9 *1718:A1 *864:10 3.63712
10 *864:16 *864:20 0.377664
11 *864:15 *864:21 2.96548
12 *864:14 *864:17 2.06095
13 *864:20 *864:25 6.47582006
14 *864:16 *864:17 4.4046
15 *1758:ZN *864:11 3.0804
16 *1737:A1 *864:13 5.42257
17 *864:18 *864:23 2.2479
18 *864:12 *864:23 1.83941
19 *864:11 *864:25 2.66272
20 *864:9 *864:13 6.3941
21 *1714:A1 *864:22 1.49998
22 *1715:A1 *864:21 1.49998
23 *1736:A1 *864:20 1.49998
24 *1717:A1 *864:19 1.49998
25 *864:10 *864:24 0.749992
*END

*D_NET *865 0.0110367

*CONN
*I *1106:I I *C 137.7 161.2 *L 0.00105 *D DEL1
*I *1756:ZN O *C 142.3 107.8 *L 0 *D MOAI22D0

*CAP
1 *1106:I 3.18194e-05
2 *1756:ZN 0.000197111
3 *865:2 0.00157496
4 *865:3 0.00263626
5 *865:4 0.000111348
6 *865:5 0.000962948
7 *865:6 7.77583e-05
8 *865:8 6.03804e-05
9 *865:2 *620:20 0.000858908984
10 *865:3 *369:5 0.000288919004
11 *865:4 *614:4 0.00215736
12 *865:3 *616:5 0.000538528984
13 *865:5 *1464:I 0.000228217012
14 *865:2 *783:3 0.00131217

*RES
1 *865:4 *865:3 1.82021
2 *865:7 *865:2 22.1543
3 *865:5 *865:7 0.202206
4 *865:6 *865:2 5.08101
5 *865:4 *865:5 11.6773
6 *1756:ZN *865:6 1.01067
7 *1106:I *865:8 1.34828
8 *865:3 *865:8 23.5377998
*END

*D_NET *866 0.013052

*CONN
*I *945:I I *C 137.5 156 *L 0.000643 *D CKBD0
*I *1755:ZN O *C 141.9 101.6 *L 0 *D MOAI22D1

*CAP
1 *945:I 4.48841e-05
2 *866:2 0.000383455
3 *866:3 8.30396e-05
4 *866:4 0.00100065
5 *866:5 0.000300455
6 *866:6 0.00129695
7 *866:7 0.000345319
8 *866:8 0.000788995
9 *866:9 1.63467e-05
10 *866:11 0.000249455
11 *866:2 *842:10 0.00045925
12 *866:3 *843:26 0.000896952969
13 *866:4 *235:2 0.00284513
14 *866:4 *291:2 0.00155699
15 *866:4 *311:2 0.0027841

*RES
1 *866:10 *866:11 0.199923
2 *866:3 *866:4 10.4847
3 *866:2 *866:7 3.25867
4 *945:I *866:5 0.435413
5 *866:7 *866:8 3.6091
6 *866:5 *866:6 4.37809
7 *866:9 *866:11 23.1525
8 *866:8 *866:10 24.5359001
9 *866:4 *866:9 0.949823
10 *866:6 *866:3 6.03776
11 *1755:ZN *866:2 1.50017
*END

*D_NET *867 0.0135133

*CONN
*I *1108:Z O *C 146.1 164.4 *L 0 *D DEL1
*I *1635:D I *C 142.5 100 *L 0.000971 *D DFCNQD1

*CAP
1 *867:2 0.00372664
2 *867:3 0.000575245
3 *867:4 0.000430638
4 *867:2 *625:12 0.00055756
5 *867:3 *625:13 6.502e-06
6 *867:2 *625:13 0.000605931
7 *867:3 *625:14 0.00148075
8 *867:2 *625:14 0.00338249999
9 *867:3 *732:5 0.00136271
10 *867:2 *3:3 0.000637895
11 *867:2 *247:6 0.000294584004
12 *867:2 *869:6 0.000452295977

*RES
1 *867:3 *867:2 67.1490021
2 *1108:Z *867:3 3.42323
3 *867:4 *867:2 4.57387
4 *1635:D *867:4 0.750016
*END

*D_NET *868 0.0157178

*CONN
*I *1110:I I *C 141.1 161.2 *L 0.00105 *D DEL1
*I *1753:ZN O *C 142.1 94.4 *L 0 *D MOAI22D1

*CAP
1 *1110:I 0.000699205
2 *1753:ZN 0.000120956
3 *868:2 0.00043958
4 *868:3 0.00169958
5 *868:4 0.000275263
6 *868:6 0.000100209
7 *868:7 0.000155707
8 *868:8 0.000434212
9 *868:10 0.000624489
10 *868:11 1.91652e-05
11 *868:3 *913:4 0.000445091016
12 *868:2 *455:3 0.000676667969
13 *868:2 *626:32 0.00223739
14 *1110:I *843:20 0.00193743
15 *868:2 *1396:I 0.0033229
16 *868:3 *857:35 0.00253

*RES
1 *868:5 *868:6 5.18871
2 *868:4 *868:8 21.528
3 *868:2 *868:9 9.20609
4 *868:3 *868:7 35.9382019
5 *868:6 *868:7 0.199608
6 *868:5 *868:2 0.199608
7 *868:9 *868:10 0.357539
8 *1753:ZN *868:3 3.14108
9 *868:10 *868:11 11.0722
10 *1110:I *868:4 5.29619
11 *868:8 *868:11 0.355894
*END

*D_NET *869 0.0136345

*CONN
*I *941:I I *C 145.1 152.4 *L 0.000643 *D CKBD0
*I *1752:ZN O *C 145.9 94.4 *L 0 *D MOAI22D1

*CAP
1 *941:I 3.74292e-05
2 *1752:ZN 9.95307e-05
3 *869:2 0.000795036
4 *869:3 0.000188093
5 *869:5 0.000601051
6 *869:6 0.000481951
7 *869:7 0.000126544
8 *869:8 0.000140853
9 *869:9 8.60109e-06
10 *869:10 0.00172377
11 *869:11 0.00143441
12 *869:5 *882:3 0.00153484
13 *869:5 *1394:I 0.000291007988
14 *869:6 *867:2 0.000452295977
15 *869:2 *1640:CP 0.00119797
16 *869:3 *1315:I 0.00153148
17 *869:2 *1399:I 0.00138554
18 *869:2 *736:8 0.00160416

*RES
1 *869:4 *869:5 0.19981
2 *869:5 *869:3 9.77449
3 *869:2 *869:7 1.21684
4 *869:7 *869:11 18.8051
5 *941:I *869:6 4.21193
6 *869:2 *869:4 19.3138008
7 *869:8 *869:3 5.99106
8 *869:9 *869:11 2.54183
9 *1752:ZN *869:9 1.50005
10 *869:8 *869:10 0.960739
11 *869:6 *869:10 17.626
*END

*D_NET *870 0.000857662

*CONN
*I *1751:ZN O *C 145.7 93.4 *L 0 *D MOAI22D0
*I *1632:D I *C 147.1 89.2 *L 0.000971 *D DFCNQD1

*CAP
1 *1751:ZN 3.99901e-06
2 *870:2 0.000853663984

*RES
1 *1632:D *870:2 2.76201
2 *1751:ZN *870:2 4.13881016
*END

*D_NET *871 0.00632069

*CONN
*I *944:I I *C 150.7 105.6 *L 0.000968 *D CKBD1
*I *1750:ZN O *C 141.7 89.6 *L 0 *D MOAI22D1

*CAP
1 *871:2 0.000227634
2 *871:3 0.00034112
3 *871:4 0.00136355
4 *871:5 0.000915696
5 *871:6 0.00144554
6 *871:3 *616:3 0.000582015977
7 *871:2 *53:6 0.000985786953
8 *871:3 *469:15 0.000459331992

*RES
1 *871:2 *871:6 4.50426
2 *871:5 *871:3 6.03452
3 *1750:ZN *871:2 2.29604
4 *944:I *871:4 1.82307
5 *871:3 *871:6 14.1408997
6 *871:4 *871:5 6.84583
*END

*D_NET *872 0.000608066

*CONN
*I *1749:ZN O *C 141.1 86.2 *L 0 *D MOAI22D0
*I *1630:D I *C 141.9 82 *L 0.000971 *D DFCNQD1

*CAP
1 *1630:D 0.000608066016

*RES
1 *1630:D *1749:ZN 4.10862
*END

*D_NET *873 0.000386918

*CONN
*I *1748:ZN O *C 141.5 72.6 *L 0 *D MOAI22D0
*I *1619:D I *C 142.3 74.8 *L 0.000971 *D DFCNQD1

*CAP
1 *1748:ZN 0.000386918008

*RES
1 *1748:ZN *1619:D 2.95815
*END

*D_NET *874 0.000901008

*CONN
*I *1747:ZN O *C 142.3 71.8 *L 0 *D MOAI22D0
*I *1618:D I *C 142.3 67.6 *L 0.000971 *D DFCNQD1

*CAP
1 *874:2 0.000901008047

*RES
1 *1747:ZN *874:2 4.57881021
2 *1618:D *874:2 0.750023
*END

*D_NET *875 0.000365779

*CONN
*I *1743:ZN O *C 141.5 50.2 *L 0 *D MOAI22D0
*I *1615:D I *C 141.7 51.6 *L 0.000971 *D DFCNQD1

*CAP
1 *1743:ZN 0.000365779023

*RES
1 *1743:ZN *1615:D 2.67751
*END

*D_NET *876 0.000931027

*CONN
*I *1742:ZN O *C 141.3 79.8 *L 0 *D MOAI22D0
*I *1620:D I *C 141.5 76.8 *L 0.000971 *D DFCNQD1

*CAP
1 *876:3 0.000931027031

*RES
1 *876:2 *876:3 3.97375989
2 *1620:D *876:3 1.81128
3 *1742:ZN *876:2 0.749991
*END

*D_NET *877 0.00129633

*CONN
*I *1741:ZN O *C 143.9 87 *L 0 *D MOAI22D0
*I *1621:D I *C 145.7 84 *L 0.000971 *D DFCNQD1

*CAP
1 *1741:ZN 0.000127556
2 *1621:D 0.00083955
3 *877:2 0.000329223

*RES
1 *1741:ZN *877:2 2.09321
2 *1621:D *877:2 5.92035007
*END

*D_NET *878 0.000680537

*CONN
*I *1740:ZN O *C 141.5 46.6 *L 0 *D MOAI22D0
*I *1614:D I *C 142.5 42.4 *L 0.000971 *D DFCNQD1

*CAP
1 *1740:ZN 0.000481536016
2 *1614:D 0.000199

*RES
1 *1740:ZN *1614:D 5.30956
*END

*D_NET *879 0.000823398

*CONN
*I *1739:ZN O *C 142.5 57.4 *L 0 *D MOAI22D0
*I *1616:D I *C 142.9 53.2 *L 0.000971 *D DFCNQD1

*CAP
1 *1616:D 0.000823397969

*RES
1 *1616:D *1739:ZN 4.68913
*END

*D_NET *880 0.000747072

*CONN
*I *1738:ZN O *C 142.3 64.6 *L 0 *D MOAI22D0
*I *1617:D I *C 144.5 66 *L 0.000971 *D DFCNQD1

*CAP
1 *880:2 0.000747071953

*RES
1 *1617:D *880:2 2.74571
2 *1738:ZN *880:2 3.09701991
*END

*D_NET *881 0.00681698

*CONN
*I *1746:ZN O *C 146.7 138.4 *L 0 *D IND3D0
*I *1713:A2 I *C 141.7 141.6 *L 0.000745 *D AO22D0
*I *1712:A2 I *C 141.7 138 *L 0.000745 *D AO22D0
*I *1711:A2 I *C 141.5 136 *L 0.000745 *D AO22D0
*I *1710:A2 I *C 141.7 128.8 *L 0.000745 *D AO22D0
*I *1709:A2 I *C 141.7 123.6 *L 0.000745 *D AO22D0
*I *1708:A2 I *C 141.1 118 *L 0.000745 *D AO22D0
*I *1707:A2 I *C 141.1 116.4 *L 0.000745 *D AO22D0
*I *1706:A2 I *C 140.7 112.8 *L 0.000745 *D AO22D0

*CAP
1 *1706:A2 0.000118981
2 *881:9 0.000439867
3 *881:10 0.00127659
4 *881:11 0.000733073
5 *881:12 0.000452061
6 *881:13 0.00011376
7 *881:14 0.000692224
8 *881:15 0.000872916
9 *881:16 0.000183166
10 *881:17 0.000357839
11 *881:18 0.000221015
12 *881:19 0.000652953
13 *881:9 *73:7 0.000702536016

*RES
1 *1713:A2 *881:10 3.17226
2 *881:12 *881:9 2.80664
3 *881:12 *881:15 2.62557
4 *881:14 *881:15 4.58864021
5 *881:11 *881:17 3.75369
6 *1746:ZN *881:18 2.25
7 *1706:A2 *881:19 2.84914
8 *881:16 *881:19 4.28176
9 *881:10 *881:18 4.49069
10 *881:11 *881:14 3.60077
11 *881:9 *881:16 1.92666
12 *881:13 *881:17 1.52175
13 *881:10 *881:13 0.549494
14 *1711:A2 *881:17 0.750023
15 *1707:A2 *881:16 0.750023
16 *1708:A2 *881:9 0.750023
17 *1709:A2 *881:15 0.750023
18 *1710:A2 *881:14 0.750023
19 *1712:A2 *881:13 0.750023
*END

*D_NET *882 0.0100747

*CONN
*I *1121:I I *C 144.9 182.8 *L 0.00105 *D DEL1
*I *1745:ZN O *C 145.9 134.8 *L 0 *D ND2D1

*CAP
1 *1121:I 0.000202118
2 *1745:ZN 2.21032e-05
3 *882:2 9.79362e-05
4 *882:3 0.00290287
5 *882:4 0.000153438
6 *882:5 8.01739e-05
7 *882:6 0.000598469
8 *882:3 *913:5 0.000760222969
9 *882:3 *796:4 0.00131898
10 *1121:I *936:26 0.000897336016
11 *882:2 *70:12 0.00150619
12 *882:3 *869:5 0.00153484

*RES
1 *882:5 *882:6 8.6121
2 *1121:I *882:2 3.18018
3 *1745:ZN *882:4 0.772014
4 *882:3 *882:6 31.4447994
5 *882:2 *882:5 12.7437
6 *882:4 *882:3 4.24775
*END

*D_NET *883 0.00461814

*CONN
*I *1122:I I *C 144.5 161.2 *L 0.00105 *D DEL1
*I *1744:ZN O *C 148.5 143.6 *L 0 *D ND3D1

*CAP
1 *1122:I 0.000790601
2 *1744:ZN 0.000143114
3 *883:2 8.59738e-05
4 *883:3 0.000676322
5 *883:4 0.000256864
6 *883:5 0.00266523

*RES
1 *883:4 *883:5 10.7193003
2 *1744:ZN *883:2 0.915956
3 *883:3 *883:4 3.72451
4 *883:2 *883:5 4.89856
5 *1122:I *883:3 5.56607
*END

*D_NET *884 0.0005893

*CONN
*I *1737:ZN O *C 143.9 177 *L 0 *D MOAI22D0
*I *1647:D I *C 144.9 179.2 *L 0.000971 *D DFCNQD1

*CAP
1 *1737:ZN 0.000480816016
2 *1647:D 0.000108482

*RES
1 *1737:ZN *1647:D 4.48646
*END

*D_NET *885 0.000350529

*CONN
*I *1736:ZN O *C 144.5 172.6 *L 0 *D MOAI22D0
*I *1646:D I *C 145.1 170.4 *L 0.000971 *D DFCNQD1

*CAP
1 *1646:D 0.000350528984

*RES
1 *1736:ZN *1646:D 3.4956
*END

*D_NET *886 0.000380482

*CONN
*I *1735:ZN O *C 148.9 83.4 *L 0 *D MOAI22D0
*I *1629:D I *C 149.3 82 *L 0.000971 *D DFCNQD1

*CAP
1 *1735:ZN 0.000319853984
2 *1629:D 6.06275e-05

*RES
1 *1629:D *1735:ZN 2.99691
*END

*D_NET *887 0.00106533

*CONN
*I *1734:ZN O *C 146.3 79 *L 0 *D MOAI22D0
*I *1628:D I *C 149.1 80.4 *L 0.000971 *D DFCNQD1

*CAP
1 *1734:ZN 0.000791953984
2 *1628:D 0.000273374

*RES
1 *1734:ZN *1628:D 6.70716
*END

*D_NET *888 0.000882698

*CONN
*I *1733:ZN O *C 148.1 76.2 *L 0 *D MOAI22D0
*I *1627:D I *C 150.5 74.8 *L 0.000971 *D DFCNQD1

*CAP
1 *1733:ZN 0.000563916992
2 *1627:D 0.000318783

*RES
1 *1627:D *1733:ZN 7.60931
*END

*D_NET *889 0.000575499

*CONN
*I *1732:ZN O *C 147.9 71.8 *L 0 *D MOAI22D0
*I *1626:D I *C 149.5 73.2 *L 0.000971 *D DFCNQD1

*CAP
1 *1732:ZN 0.000575498984

*RES
1 *1732:ZN *1626:D 3.75579
*END

*D_NET *890 0.000633332

*CONN
*I *1117:I I *C 138.3 244 *L 0.00105 *D DEL1
*I *1731:Z O *C 141.7 244.6 *L 0 *D AO22D0

*CAP
1 *1731:Z 5.96162e-05
2 *890:2 0.000483473008
3 *890:3 9.02468e-05

*RES
1 *890:2 *890:3 3.23982
2 *1731:Z *890:3 1.49998
3 *1117:I *890:2 1.49998
*END

*D_NET *891 0.00222067

*CONN
*I *1111:I I *C 137.5 236.8 *L 0.00105 *D DEL1
*I *1730:Z O *C 146.1 244.6 *L 0 *D AO22D0

*CAP
1 *891:2 0.000201162
2 *891:3 0.00102928992
3 *891:4 0.000990214

*RES
1 *891:2 *891:4 7.44140005
2 *891:3 *891:4 6.93158
3 *1111:I *891:3 1.49995
4 *1730:Z *891:2 0.749976
*END

*D_NET *892 0.000906699

*CONN
*I *1729:ZN O *C 147.1 69 *L 0 *D MOAI22D0
*I *1625:D I *C 149.7 67.6 *L 0.000971 *D DFCNQD1

*CAP
1 *1625:D 0.000221239
2 *892:2 0.000685463047

*RES
1 *1625:D *892:2 1.34941
2 *1729:ZN *892:2 4.82011986
*END

*D_NET *893 0.00130903

*CONN
*I *1115:Z O *C 149.1 239.2 *L 0 *D DEL1
*I *1659:D I *C 143.5 240.4 *L 0.000971 *D DFCNQD1

*CAP
1 *1115:Z 0.00037045
2 *893:2 0.000868757031
3 *893:3 6.98214e-05

*RES
1 *893:2 *893:3 5.57571983
2 *1115:Z *893:3 2.89787
3 *1659:D *893:2 0.749969
*END

*D_NET *894 0.00154316

*CONN
*I *1113:Z O *C 148.3 236.4 *L 0 *D DEL1
*I *1658:D I *C 144.9 233.2 *L 0.000971 *D DFCNQD1

*CAP
1 *1113:Z 6.29572e-05
2 *1658:D 0.000419638
3 *894:2 0.000480853
4 *894:3 0.000579725039

*RES
1 *1658:D *894:3 3.95221996
2 *894:2 *894:3 3.81032
3 *1113:Z *894:2 3.11517
*END

*D_NET *895 0.00159648

*CONN
*I *1726:ZN O *C 144.9 61.8 *L 0 *D MOAI22D0
*I *1624:D I *C 149.9 62.4 *L 0.000971 *D DFCNQD1

*CAP
1 *1726:ZN 0.000420912
2 *1624:D 2.80954e-06
3 *895:2 0.00117276

*RES
1 *1726:ZN *895:2 8.77970028
2 *1624:D *895:2 1.77654
*END

*D_NET *896 0.00154652

*CONN
*I *1725:ZN O *C 145.1 61 *L 0 *D MOAI22D0
*I *1623:D I *C 149.5 58.8 *L 0.000971 *D DFCNQD1

*CAP
1 *1725:ZN 0.000767714063
2 *1623:D 0.000468091
3 *896:2 0.000310717

*RES
1 *1623:D *896:2 3.11549
2 *1725:ZN *896:2 6.02130985
*END

*D_NET *897 0.00121988

*CONN
*I *1116:Z O *C 151.3 229.2 *L 0 *D DEL1
*I *1657:D I *C 144.7 229.6 *L 0.000971 *D DFCNQD1

*CAP
1 *897:2 8.61678e-05
2 *897:3 0.00113371

*RES
1 *897:2 *897:3 6.26480007
2 *1657:D *897:3 1.89944
3 *1116:Z *897:2 0.750025
*END

*D_NET *898 0.00152178

*CONN
*I *1112:I I *C 137.5 224.4 *L 0.00105 *D DEL1
*I *1723:Z O *C 143.5 226.6 *L 0 *D AO22D0

*CAP
1 *898:2 0.00107876
2 *898:3 0.00044301

*RES
1 *1723:Z *898:3 3.07533
2 *898:2 *898:3 5.84288979
3 *1112:I *898:2 1.50004
*END

*D_NET *899 0.00238239

*CONN
*I *1114:I I *C 148.7 233.2 *L 0.00105 *D DEL1
*I *1722:Z O *C 147.7 223 *L 0 *D AO22D0

*CAP
1 *1722:Z 6.22354e-06
2 *899:2 0.00141618
3 *899:3 0.000959981

*RES
1 *1114:I *899:3 6.67851
2 *1722:Z *899:2 1.15566
3 *899:2 *899:3 7.47281981
*END

*D_NET *900 0.00109018

*CONN
*I *1721:Z O *C 145.7 215.8 *L 0 *D AO22D0
*I *1654:D I *C 148.9 217.2 *L 0.000971 *D DFCNQD1

*CAP
1 *1721:Z 0.000283709
2 *1654:D 0.000277126
3 *900:2 0.00052935

*RES
1 *1721:Z *900:2 1.53444
2 *1654:D *900:2 5.65014982
*END

*D_NET *901 0.000390732

*CONN
*I *1720:ZN O *C 141.9 202.2 *L 0 *D MOAI22D0
*I *1653:D I *C 142.3 204.4 *L 0.000971 *D DFCNQD1

*CAP
1 *1720:ZN 0.000390731992

*RES
1 *1720:ZN *1653:D 2.91007
*END

*D_NET *902 0.000833092

*CONN
*I *1719:ZN O *C 141.7 61.8 *L 0 *D MOAI22D0
*I *1622:D I *C 142.3 58.8 *L 0.000971 *D DFCNQD1

*CAP
1 *1622:D 0.000833091953

*RES
1 *1622:D *902:2 4.85474014
2 *1719:ZN *902:2 1.49999
*END

*D_NET *903 0.00134626

*CONN
*I *1718:ZN O *C 144.5 202.2 *L 0 *D MOAI22D0
*I *1652:D I *C 149.9 202.8 *L 0.000971 *D DFCNQD1

*CAP
1 *1718:ZN 0.000130294
2 *1652:D 0.000184096
3 *903:2 0.00103188

*RES
1 *1652:D *903:2 6.9277401
2 *1718:ZN *903:2 2.58289
*END

*D_NET *904 0.000842901

*CONN
*I *1717:ZN O *C 144.5 197.8 *L 0 *D MOAI22D0
*I *1651:D I *C 149.5 197.2 *L 0.000971 *D DFCNQD1

*CAP
1 *1717:ZN 0.000232659
2 *904:2 0.000101546
3 *904:3 0.000508701016

*RES
1 *904:2 *904:3 3.70128012
2 *1717:ZN *904:3 2.26383
3 *1651:D *904:2 0.750015
*END

*D_NET *905 0.000760513

*CONN
*I *1716:ZN O *C 143.1 187.8 *L 0 *D MOAI22D0
*I *1648:D I *C 142.1 190 *L 0.000971 *D DFCNQD1

*CAP
1 *1648:D 0.000474308984
2 *905:2 0.000286207

*RES
1 *1648:D *905:2 5.03040981
2 *1716:ZN *905:2 1.5
*END

*D_NET *906 0.00064527

*CONN
*I *1715:ZN O *C 143.7 194.2 *L 0 *D MOAI22D0
*I *1649:D I *C 142.3 195.6 *L 0.000971 *D DFCNQD1

*CAP
1 *1715:ZN 0.00010189
2 *1649:D 0.000487401016
3 *906:2 5.59728e-05

*RES
1 *1715:ZN *906:2 1.50002
2 *1649:D *906:2 3.36788011
*END

*D_NET *907 0.000564997

*CONN
*I *1714:ZN O *C 141.7 201.4 *L 0 *D MOAI22D0
*I *1650:D I *C 141.5 199.2 *L 0.000971 *D DFCNQD1

*CAP
1 *1714:ZN 2.15042e-05
2 *1650:D 0.000543492031

*RES
1 *1650:D *1714:ZN 3.65066
*END

*D_NET *908 0.00678275

*CONN
*I *1095:I I *C 147.3 166.8 *L 0.00105 *D DEL1
*I *1713:Z O *C 142.5 141 *L 0 *D AO22D0

*CAP
1 *908:2 0.00085396
2 *908:3 0.00169944
3 *908:4 0.000808164
4 *908:5 0.000798232
5 *908:6 5.39122e-05
6 *908:7 3.03143e-05
7 *908:8 0.00037168
8 *908:9 0.00012997
9 *908:10 0.000619122
10 *908:3 *1762:A2 0.000159485
11 *908:2 *153:4 0.000482098008
12 *908:3 *186:3 0.000286747012
13 *908:4 *1128:I 0.000186842988
14 *908:3 *375:4 0.000302770996

*RES
1 *908:2 *908:7 3.70411
2 *908:3 *908:9 8.90867996
3 *908:7 *908:10 5.53408
4 *908:6 *908:4 3.75087
5 *908:5 *908:8 5.24331
6 *908:5 *908:6 0.356695
7 *908:3 *908:2 5.5024
8 *1713:Z *908:10 2.69819
9 *1095:I *908:8 3.44801
10 *908:4 *908:9 1.08422
*END

*D_NET *909 0.00652657

*CONN
*I *1094:I I *C 138.5 168.4 *L 0.00105 *D DEL1
*I *1712:Z O *C 142.5 137.4 *L 0 *D AO22D0

*CAP
1 *1094:I 0.000312216
2 *1712:Z 0.000538121
3 *909:2 0.000677762
4 *909:3 0.00292468
5 *909:4 0.000260537
6 *909:5 1.08892e-05
7 *909:6 4.63682e-05
8 *909:7 0.000180028
9 *909:8 0.000115407
10 *1094:I *910:5 0.000674087969
11 *909:2 *840:11 0.000260275996
12 *909:3 *11:2 0.000526224961

*RES
1 *909:5 *909:8 7.60324
2 *909:2 *909:6 3.40551
3 *909:4 *909:2 1.66116
4 *1712:Z *909:4 3.32786
5 *909:3 *909:7 15.1014004
6 *909:3 *909:6 3.2078
7 *1094:I *909:5 2.93613
8 *909:7 *909:8 0.750047
*END

*D_NET *910 0.00771675

*CONN
*I *1093:I I *C 138.5 170.4 *L 0.00105 *D DEL1
*I *1711:Z O *C 142.3 136.6 *L 0 *D AO22D0

*CAP
1 *910:2 0.000131659
2 *910:3 0.00139693
3 *910:4 0.00214367016
4 *910:5 0.000373454
5 *910:6 0.000102939
6 *910:7 0.00012008
7 *910:8 3.23832e-05
8 *910:2 *11:2 0.000999772031
9 *910:3 *154:4 0.00125993
10 *910:4 *273:2 0.000481826016
11 *910:5 *1094:I 0.000674087969

*RES
1 *910:8 *910:5 0.199887
2 *910:3 *910:8 13.9657001
3 *910:6 *910:3 1.24258
4 *1093:I *910:2 2.42763
5 *910:2 *910:5 13.8278
6 *910:7 *910:4 4.27137
7 *910:6 *910:4 10.333
8 *1711:Z *910:7 0.749898
*END

*D_NET *911 0.000484422

*CONN
*I *1710:Z O *C 142.5 129.4 *L 0 *D AO22D0
*I *1642:D I *C 142.7 127.2 *L 0.000971 *D DFCNQD1

*CAP
1 *1710:Z 0.000274031992
2 *1642:D 0.00021039

*RES
1 *1710:Z *1642:D 4.59809
*END

*D_NET *912 0.000508779

*CONN
*I *1709:Z O *C 142.5 123 *L 0 *D AO22D0
*I *1641:D I *C 141.7 121.6 *L 0.000971 *D DFCNQD1

*CAP
1 *1641:D 0.000508778984

*RES
1 *1641:D *1709:Z 3.18197
*END

*D_NET *913 0.0123725

*CONN
*I *1045:I I *C 146.3 170.4 *L 0.00104 *D DEL0
*I *1708:Z O *C 141.9 118.6 *L 0 *D AO22D0

*CAP
1 *1045:I 0.000124502
2 *913:2 0.000219711
3 *913:3 0.00029692
4 *913:4 0.00061822
5 *913:5 0.000313124
6 *913:6 6.45239e-05
7 *913:7 4.19039e-05
8 *913:8 0.0024026
9 *913:9 0.000338861
10 *913:3 *455:3 0.000729138047
11 *913:3 *796:2 0.00167003
12 *913:2 *626:26 0.00284371
13 *913:3 *736:5 0.000735135938
14 *1045:I *335:4 0.000342548984
15 *913:3 *536:9 0.000426223008
16 *913:4 *868:3 0.000445091016
17 *913:5 *882:3 0.000760222969

*RES
1 *913:4 *913:9 2.72946
2 *913:3 *913:6 7.55092
3 *1708:Z *913:4 2.82733
4 *913:7 *913:9 7.95464
5 *913:5 *913:8 42.198101
6 *913:2 *913:5 2.34763
7 *1045:I *913:2 5.36362
8 *913:3 *913:7 0.750134
9 *913:6 *913:8 0.750134
*END

*D_NET *914 0.00473982

*CONN
*I *942:I I *C 137.5 132.4 *L 0.00072 *D BUFFD1
*I *1707:Z O *C 141.9 115.8 *L 0 *D AO22D0

*CAP
1 *942:I 9.73015e-05
2 *1707:Z 0.000236256
3 *914:2 3.8654e-05
4 *914:3 0.00436757

*RES
1 *942:I *914:2 0.972838
2 *914:2 *914:3 18.5337009
3 *1707:Z *914:3 10.4679
*END

*D_NET *915 0.000710799

*CONN
*I *1706:Z O *C 141.5 112.2 *L 0 *D AO22D0
*I *1638:D I *C 141.9 109.2 *L 0.000971 *D DFCNQD1

*CAP
1 *1638:D 0.000710798984

*RES
1 *1638:D *1706:Z 4.35424
*END

*D_NET *916 0.00122475

*CONN
*I *1705:ZN O *C 146.5 208.6 *L 0 *D MOAI22D0
*I *1677:D I *C 149.3 213.6 *L 0.000971 *D DFCNQD1

*CAP
1 *1705:ZN 0.000379874
2 *916:2 0.000844873047

*RES
1 *1705:ZN *916:2 3.19525
2 *1677:D *916:2 4.59510994
*END

*D_NET *917 0.00143384

*CONN
*I *1104:Z O *C 146.5 210.4 *L 0 *D DEL1
*I *1676:D I *C 142.3 211.6 *L 0.000971 *D DFCNQD1

*CAP
1 *1104:Z 0.000478467
2 *917:2 0.000955373984

*RES
1 *1104:Z *917:2 3.00159
2 *1676:D *917:2 5.95268011
*END

*D_NET *918 0.00128835

*CONN
*I *1102:Z O *C 141.9 217.6 *L 0 *D DEL1
*I *1675:D I *C 142.1 213.6 *L 0.000971 *D DFCNQD1

*CAP
1 *1675:D 0.000661193047
2 *918:2 0.000627162

*RES
1 *1102:Z *918:2 3.07015
2 *1675:D *918:2 4.73424006
*END

*D_NET *919 0.00235473

*CONN
*I *1103:Z O *C 143.7 218.4 *L 0 *D DEL1
*I *1674:D I *C 149.9 210 *L 0.000971 *D DFCNQD1

*CAP
1 *1103:Z 1.99649e-06
2 *919:2 0.000227231
3 *919:3 0.000112571
4 *919:4 0.00201291984

*RES
1 *919:2 *919:4 6.88722992
2 *919:3 *919:4 5.68447
3 *1103:Z *919:2 1.70678
4 *1674:D *919:3 0.750033
*END

*D_NET *920 0.00104316

*CONN
*I *1701:ZN O *C 146.7 194.2 *L 0 *D MOAI22D0
*I *1673:D I *C 149.3 195.6 *L 0.000971 *D DFCNQD1

*CAP
1 *920:2 0.000525753984
2 *920:3 0.000517403

*RES
1 *920:2 *920:3 3.05496001
2 *1673:D *920:2 3.02019
3 *1701:ZN *920:3 1.49998
*END

*D_NET *921 0.000700847

*CONN
*I *1700:ZN O *C 146.7 187.8 *L 0 *D MOAI22D0
*I *1672:D I *C 149.3 190 *L 0.000971 *D DFCNQD1

*CAP
1 *1700:ZN 0.000700847031

*RES
1 *1700:ZN *1672:D 4.98198
*END

*D_NET *922 0.000471868

*CONN
*I *1699:ZN O *C 144.1 183.4 *L 0 *D MOAI22D0
*I *1671:D I *C 144.7 184.8 *L 0.000971 *D DFCNQD1

*CAP
1 *1671:D 0.000471868008

*RES
1 *1699:ZN *1671:D 3.17986
*END

*D_NET *923 0.000319457

*CONN
*I *1698:ZN O *C 144.5 173.4 *L 0 *D MOAI22D0
*I *1670:D I *C 145.1 175.6 *L 0.000971 *D DFCNQD1

*CAP
1 *1670:D 0.000319456992

*RES
1 *1698:ZN *1670:D 3.60722
*END

*D_NET *924 0.0023591

*CONN
*I *1096:I I *C 143.9 278.4 *L 0.00105 *D DEL1
*I *1697:Z O *C 143.9 266.2 *L 0 *D AO22D0

*CAP
1 *1697:Z 0.000521959
2 *924:2 0.00142837
3 *924:3 0.000408775

*RES
1 *924:2 *924:3 2.02295
2 *1096:I *924:2 9.12242031
3 *1697:Z *924:3 3.58433
*END

*D_NET *925 0.00263524

*CONN
*I *1099:I I *C 138.3 267.6 *L 0.00105 *D DEL1
*I *1696:Z O *C 146.1 259 *L 0 *D AO22D0

*CAP
1 *1099:I 0.000199855
2 *1696:Z 0.000364631
3 *925:2 4.35744e-05
4 *925:3 0.000534419
5 *925:4 0.00149276

*RES
1 *925:2 *925:4 7.25980997
2 *1099:I *925:3 3.16166
3 *925:2 *925:3 4.50681
4 *1696:Z *925:4 3.85478
*END

*D_NET *926 0.00351789

*CONN
*I *1092:I I *C 144.3 280 *L 0.00105 *D DEL1
*I *1695:Z O *C 143.5 263.4 *L 0 *D AO22D0

*CAP
1 *1695:Z 0.00069086
2 *926:2 0.00047
3 *926:3 0.000663795
4 *926:4 2.34793e-06
5 *926:5 0.0016909

*RES
1 *926:3 *926:4 0.199727
2 *926:2 *926:5 5.70187
3 *1092:I *926:3 5.21269
4 *1695:Z *926:2 4.95509
5 *926:4 *926:5 6.4830699
*END

*D_NET *927 0.00317062

*CONN
*I *1014:I I *C 141.3 276.4 *L 0.00103 *D DEL01
*I *1694:Z O *C 142.1 259.8 *L 0 *D AO22D0

*CAP
1 *1694:Z 0.000524432
2 *927:2 0.000506982
3 *927:3 0.000774788
4 *927:4 7.2226e-05
5 *927:5 0.0012922

*RES
1 *927:4 *927:5 6.50894022
2 *927:2 *927:3 4.26931
3 *1014:I *927:2 3.32062
4 *927:3 *927:4 0.513775
5 *1694:Z *927:5 4.3718
*END

*D_NET *928 0.00152909

*CONN
*I *1101:I I *C 138.5 258.4 *L 0.00105 *D DEL1
*I *1693:Z O *C 142.3 252.6 *L 0 *D AO22D0

*CAP
1 *1693:Z 0.000651626
2 *928:2 9.17534e-05
3 *928:3 0.000785713047

*RES
1 *1693:Z *928:2 3.87049007
2 *928:2 *928:3 3.36902
3 *1101:I *928:3 3.65055
*END

*D_NET *929 0.00382095

*CONN
*I *1100:I I *C 139.1 265.6 *L 0.00105 *D DEL1
*I *1692:Z O *C 146.3 252.6 *L 0 *D AO22D0

*CAP
1 *1100:I 0.000108974
2 *1692:Z 0.000575199
3 *929:2 0.00209432
4 *929:3 0.00104248

*RES
1 *929:2 *929:3 7.1324
2 *1692:Z *929:2 13.9372997
3 *1100:I *929:3 2.56114
*END

*D_NET *930 0.00514994

*CONN
*I *1098:I I *C 148.5 274.8 *L 0.00105 *D DEL1
*I *1691:Z O *C 146.3 248.2 *L 0 *D AO22D0

*CAP
1 *1098:I 9.01003e-05
2 *930:2 2.75416e-06
3 *930:3 0.000117904
4 *930:4 0.000972895
5 *930:5 0.000842073
6 *930:6 3.20226e-05
7 *930:7 0.00104153
8 *930:8 0.00143249
9 *930:9 7.92367e-05
10 *930:10 0.000538941

*RES
1 *930:9 *930:10 2.75692
2 *930:6 *930:8 7.49450016
3 *1691:Z *930:7 3.84743
4 *930:8 *930:9 0.542624
5 *930:7 *930:10 2.66909
6 *930:5 *930:6 0.355422
7 *930:3 *930:4 4.8771
8 *930:2 *930:5 4.5585
9 *930:2 *930:4 0.357937
10 *1098:I *930:3 2.45868
*END

*D_NET *931 0.000459378

*CONN
*I *1690:Z O *C 144.5 220.2 *L 0 *D AO22D0
*I *1662:D I *C 143.9 222.4 *L 0.000971 *D DFCNQD1

*CAP
1 *1690:Z 0.000459378008

*RES
1 *1690:Z *1662:D 3.43949
*END

*D_NET *932 0.00136381

*CONN
*I *1591:Z O *C 150.5 106 *L 0 *D AN3D0
*I *1587:B2 I *C 148.1 102 *L 0.000774 *D INR3D0

*CAP
1 *1587:B2 0.000617609
2 *932:2 0.000746207031

*RES
1 *1587:B2 *932:2 4.47518
2 *1591:Z *932:2 4.85500002
*END

*D_NET *933 0.00863496

*CONN
*I *1118:I I *C 147.7 163.2 *L 0.00105 *D DEL1
*I *1590:ZN O *C 147.3 128.6 *L 0 *D NR2D0

*CAP
1 *933:2 0.00272684
2 *933:3 0.00019577
3 *933:4 0.00187569
4 *933:5 0.000809793
5 *933:6 0.000337531
6 *933:7 0.0002824
7 *933:8 9.27879e-05
8 *933:9 0.000144757
9 *933:10 0.000122538
10 *933:11 0.000592428
11 *933:4 *248:3 0.000340061992
12 *933:5 *1590:A2 0.000182900996
13 *933:2 *310:4 0.000931438984

*RES
1 *933:4 *933:8 11.9648
2 *933:9 *933:11 1.69551
3 *933:3 *933:2 15.0503998
4 *933:2 *933:10 1.69965
5 *1118:I *933:6 3.49506
6 *933:4 *933:7 2.81253
7 *933:5 *933:7 4.80613
8 *933:10 *933:11 7.74911
9 *1590:ZN *933:5 1.66681
10 *933:3 *933:6 0.75004
11 *933:8 *933:9 0.75004
*END

*D_NET *934 0.0146198

*CONN
*I *1124:Z O *C 151.1 160 *L 0 *D DEL01
*I *1466:I I *C 143.3 96.4 *L 0.00105 *D DEL1

*CAP
1 *1466:I 0.000953007
2 *934:2 8.5058e-05
3 *934:3 0.00292613
4 *934:4 0.000264104
5 *934:5 0.00113567
6 *934:6 0.000435336
7 *934:7 0.000169536
8 *934:2 *625:12 0.000168681
9 *934:3 *625:12 6.317e-05
10 *934:4 *625:12 0.000129991
11 *934:3 *625:13 0.000335714
12 *934:5 *625:14 0.00113241
13 *934:2 *625:14 0.000179824
14 *934:3 *625:14 0.00300099
15 *934:4 *625:14 0.000105766052
16 *934:3 *75:23 0.00118148992
17 *934:3 *170:4 0.000289292988
18 *934:3 *288:4 0.000478873984
19 *934:3 *847:12 0.00158481

*RES
1 *934:8 *934:4 6.18281
2 *934:6 *934:2 2.61748
3 *1466:I *934:6 6.52891
4 *934:8 *934:3 0.200007
5 *934:7 *934:5 6.07672
6 *934:2 *934:4 4.44188
7 *934:5 *934:3 56.9897003
8 *1124:Z *934:7 0.74959
*END

*D_NET *935 0.0147345

*CONN
*I *1585:ZN O *C 149.86 87.905 *L 0 *D INR2D1
*I *1583:A1 I *C 145.7 12 *L 0.00103 *D AO222D1
*I *1582:A1 I *C 145.9 28 *L 0.000665 *D AO222D0
*I *1581:A1 I *C 145.5 20.8 *L 0.00103 *D AO222D1
*I *1580:A1 I *C 147.3 48 *L 0.000665 *D AO222D0
*I *1579:A1 I *C 145.7 17.2 *L 0.00103 *D AO222D1
*I *1578:A1 I *C 145.3 15.6 *L 0.00103 *D AO222D1
*I *1577:A1 I *C 148.1 55.2 *L 0.000665 *D AO222D0
*I *1576:A1 I *C 145.7 38.8 *L 0.000665 *D AO222D0
*I *1575:A1 I *C 145.7 30 *L 0.00103 *D AO222D1

*CAP
1 *1585:ZN 0.000711587
2 *1583:A1 6.9678e-05
3 *1582:A1 8.32247e-05
4 *1580:A1 0.000147753
5 *1575:A1 5.9144e-05
6 *935:10 9.23271e-05
7 *935:11 0.00140029
8 *935:12 0.000287109
9 *935:13 0.000187368
10 *935:14 7.42078e-05
11 *935:15 0.000122455
12 *935:16 0.00110109
13 *935:17 0.000350997
14 *935:18 0.000429756
15 *935:19 0.000598919
16 *935:20 0.000162475
17 *935:22 0.000570842
18 *935:23 0.000915194
19 *935:24 0.000177667
20 *935:25 0.000297835
21 *935:27 0.00014348
22 *935:28 0.000404137
23 *935:29 0.000153223
24 *935:30 0.00027384
25 *935:31 0.000801136
26 *935:32 0.00032245
27 *935:33 0.000109271
28 *935:34 0.000509241
29 *1585:ZN *487:4 0.000561362969
30 *935:14 *739:2 0.000992096016
31 *935:10 *629:22 0.00151196
32 *935:11 *485:3 0.00111240008

*RES
1 *935:10 *935:32 2.78933
2 *1575:A1 *935:31 3.53642
3 *1580:A1 *935:20 1.49995
4 *935:18 *935:34 1.99592
5 *935:15 *935:32 1.49995
6 *935:32 *935:34 2.91496
7 *1582:A1 *935:17 1.49995
8 *935:21 *935:22 3.04445
9 *935:30 *935:31 7.58772
10 *935:11 *935:20 1.41502
11 *935:26 *935:27 2.49254
12 *1583:A1 *935:19 2.24992
13 *935:16 *935:26 10.5022001
14 *935:21 *935:23 4.63429
15 *935:24 *935:25 2.09272
16 *935:19 *935:33 4.01637
17 *935:13 *935:30 1.89384
18 *1578:A1 *935:18 2.46081
19 *935:11 *935:12 6.54849
20 *1585:ZN *935:22 6.22142
21 *935:12 *935:16 1.21695
22 *935:29 *935:10 1.40524
23 *935:28 *935:30 6.46244
24 *935:17 *935:29 3.50597
25 *935:17 *935:31 1.84016
26 *935:14 *935:34 1.69962
27 *935:24 *935:27 3.23114
28 *935:23 *935:25 0.199833
29 *935:20 *935:28 2.40729
30 *935:18 *935:33 1.13826
31 *1581:A1 *935:15 1.49995
32 *1579:A1 *935:14 1.49995
33 *1576:A1 *935:13 0.749974
34 *1577:A1 *935:12 0.749974
*END

*D_NET *936 0.0116892

*CONN
*I *1705:A1 I *C 146.7 208 *L 0.000721 *D MOAI22D0
*I *1704:A1 I *C 142.5 208 *L 0.000721 *D MOAI22D0
*I *1703:A1 I *C 142.5 206.4 *L 0.000721 *D MOAI22D0
*I *1702:A1 I *C 146.7 206.4 *L 0.000721 *D MOAI22D0
*I *1701:A1 I *C 146.9 193.6 *L 0.000721 *D MOAI22D0
*I *1700:A1 I *C 146.9 188.4 *L 0.000721 *D MOAI22D0
*I *1699:A1 I *C 144.3 182.8 *L 0.000721 *D MOAI22D0
*I *1698:A1 I *C 144.7 174 *L 0.000721 *D MOAI22D0
*I *1589:ZN O *C 146.3 159.8 *L 0 *D CKND0

*CAP
1 *1703:A1 0.000369226
2 *1699:A1 0.000112403
3 *1698:A1 0.000253736
4 *936:9 4.35143e-05
5 *936:10 0.0006134
6 *936:11 0.000438394
7 *936:12 0.000733886
8 *936:13 6.7776e-05
9 *936:14 0.000648768
10 *936:16 0.000332113
11 *936:17 0.00078733
12 *936:18 1.88478e-06
13 *936:19 0.000823773
14 *936:20 9.93365e-05
15 *936:21 9.05957e-05
16 *936:22 0.000610351
17 *936:24 0.000828985
18 *936:25 0.000440253
19 *936:26 0.000389592
20 *936:27 0.000193525
21 *936:28 0.000410274
22 *936:29 4.57785e-05
23 *936:11 *1672:CDN 0.000361676992
24 *936:26 *1121:I 0.000897336016
25 *936:22 *840:5 0.000409363008
26 *936:9 *626:25 0.000585326016
27 *936:10 *839:8 0.000359508984
28 *1703:A1 *1703:B2 0.000741131016

*RES
1 *1703:A1 *936:23 3.07743
2 *936:13 *936:14 0.19981
3 *936:14 *936:15 5.70262
4 *936:9 *936:27 2.15069
5 *936:11 *936:20 2.16607
6 *936:12 *936:20 4.28924
7 *936:12 *936:26 3.35549
8 *936:18 *936:24 4.33107
9 *1699:A1 *936:26 2.51537
10 *936:25 *936:27 0.155558
11 *936:9 *936:17 4.27966
12 *936:25 *936:29 8.84183979
13 *1698:A1 *936:27 3.44858
14 *936:21 *936:28 4.57
15 *936:17 *936:18 0.19981
16 *936:11 *936:13 2.21748
17 *936:24 *936:10 6.06824
18 *936:19 *936:10 4.91795
19 *936:15 *936:16 2.81502
20 *936:21 *936:22 1.64692
21 *936:16 *936:22 3.39988
22 *1701:A1 *936:13 1.72706
23 *1704:A1 *936:23 1.49999
24 *1702:A1 *936:22 1.49999
25 *1705:A1 *936:21 1.49999
26 *1700:A1 *936:20 1.49999
27 *1589:ZN *936:19 0.749997
28 *936:23 *936:28 0.749997
29 *936:26 *936:29 0.749997
*END

*D_NET *937 0.0053159

*CONN
*I *1762:A2 I *C 148.9 150.4 *L 0.000996 *D NR2D1
*I *1760:B1 I *C 148.9 130.8 *L 0.000658 *D IND2D0
*I *1612:ZN O *C 148.9 146.4 *L 0 *D CKND2D0
*I *1590:A2 I *C 147.7 128.8 *L 0.000664 *D NR2D0

*CAP
1 *1762:A2 4.02113e-05
2 *1590:A2 2.55065e-05
3 *937:4 0.000627957
4 *937:5 0.000586428
5 *937:6 0.0001061
6 *937:7 9.31588e-05
7 *937:8 2.79031e-06
8 *937:9 6.99119e-05
9 *937:10 0.00112186
10 *937:11 0.000932632
11 *937:13 0.000391448
12 *937:15 0.000143213
13 *937:16 0.000105296
14 *937:17 9.94071e-05
15 *937:4 *717:3 0.000224795996
16 *937:5 *179:3 0.000188659004
17 *937:6 *536:12 0.000214155
18 *1590:A2 *933:5 0.000182900996
19 *1762:A2 *908:3 0.000159485

*RES
1 *937:10 *937:12 7.11974001
2 *1612:ZN *937:5 3.97552
3 *937:5 *937:15 1.34907
4 *937:6 *937:8 0.199786
5 *937:9 *937:10 0.355574
6 *1762:A2 *937:4 3.98139
7 *937:12 *937:13 0.199786
8 *937:13 *937:16 2.57072
9 *937:11 *937:15 4.49786
10 *937:11 *937:14 1.01425
11 *937:7 *937:8 1.09649
12 *1590:A2 *937:7 0.960257
13 *937:6 *937:9 0.999149
14 *937:16 *937:17 1.69965
15 *937:14 *937:17 3.35878
16 *1760:B1 *937:9 0.938855
17 *1612:ZN *937:4 1.49997
*END

*D_NET *938 0.00342717

*CONN
*I *1768:A1 I *C 146.9 130.8 *L 0.00134 *D NR3D1
*I *1767:B2 I *C 147.3 125.2 *L 0.000774 *D INR3D0
*I *1761:A1 I *C 147.3 120 *L 0.000681 *D IND2D0
*I *1611:ZN O *C 147.1 121.2 *L 0 *D CKND2D0
*I *1590:A1 I *C 147.3 128.8 *L 0.000647 *D NR2D0

*CAP
1 *1768:A1 6.98891e-05
2 *1767:B2 0.000176112
3 *1761:A1 0.000266402
4 *1590:A1 7.96339e-05
5 *938:5 0.000963235
6 *938:6 0.000389365
7 *938:7 0.000485726
8 *938:8 0.000437266
9 *938:9 0.000559554

*RES
1 *938:5 *938:6 5.48887014
2 *1767:B2 *938:9 2.4791
3 *938:7 *938:9 3.51581
4 *938:7 *938:8 2.56386
5 *938:5 *938:9 1.54575
6 *1590:A1 *938:6 1.1094
7 *1761:A1 *938:8 2.05037
8 *1768:A1 *938:6 3.27024
9 *1611:ZN *938:8 1.50003
*END

*D_NET *939 0.000357332

*CONN
*I *1411:I I *C 148.7 175.6 *L 0.00105 *D DEL1
*I *1613:ZN O *C 149.3 173.4 *L 0 *D INR2D0

*CAP
1 *1411:I 0.000135286
2 *1613:ZN 0.000222044004

*RES
1 *1411:I *1613:ZN 3.86209
*END

*D_NET *940 0.0246867

*CONN
*I *1318:I I *C 151.1 89.2 *L 0.000968 *D CKBD1
*I *1613:A1 I *C 148.7 174 *L 0.00069 *D INR2D0
*I *1584:ZN O *C 150.015 88.855 *L 0 *D NR2D2
*I *1583:B2 I *C 145.1 12 *L 0.00101 *D AO222D1
*I *1582:B1 I *C 145.1 28 *L 0.000703 *D AO222D0
*I *1581:B1 I *C 145.3 20.8 *L 0.00104 *D AO222D1
*I *1580:B1 I *C 146.5 48 *L 0.000703 *D AO222D0
*I *1579:B1 I *C 145.5 17.2 *L 0.00104 *D AO222D1
*I *1578:B1 I *C 145.1 15.6 *L 0.00104 *D AO222D1
*I *1577:B1 I *C 147.3 55.2 *L 0.000703 *D AO222D0
*I *1576:B1 I *C 144.9 38.8 *L 0.000703 *D AO222D0
*I *1575:B2 I *C 145.1 30 *L 0.00101 *D AO222D1

*CAP
1 *1318:I 9.46999e-05
2 *1583:B2 0.000507391
3 *1580:B1 9.58973e-05
4 *1575:B2 1.09329e-06
5 *940:12 0.000509734
6 *940:13 0.000112297
7 *940:14 0.00341185
8 *940:15 0.0002235
9 *940:16 0.000277644
10 *940:17 0.000355944
11 *940:18 8.06953e-05
12 *940:19 0.000127655
13 *940:20 0.000632391
14 *940:21 0.00107903
15 *940:22 0.000458454
16 *940:23 0.00075484
17 *940:24 0.000176749
18 *940:25 0.000139056
19 *940:26 0.000594126
20 *940:27 0.000831058
21 *940:28 0.000125781
22 *940:29 0.000289306
23 *940:30 0.000264681
24 *940:32 0.000872707
25 *940:33 0.000487348
26 *940:34 2.91544e-06
27 *940:35 0.00105201
28 *940:36 4.0608e-05
29 *940:37 0.00059423
30 *940:38 7.49686e-05
31 *940:13 *308:5 0.000501762969
32 *940:12 *316:9 0.000807551016
33 *1318:I *613:26 0.00178576
34 *940:13 *717:2 0.000385135
35 *940:14 *718:3 0.00159525
36 *940:14 *167:2 0.00314269
37 *940:13 *536:28 0.0022

*RES
1 *940:17 *940:25 1.39795
2 *940:18 *940:35 1.69977
3 *940:36 *940:38 2.46451
4 *940:15 *940:24 1.74463
5 *940:37 *940:14 66.8242035
6 *940:20 *940:21 3.18745
7 *940:12 *940:16 3.05081
8 *1613:A1 *940:28 1.49991
9 *940:15 *940:21 5.42967
10 *940:33 *940:34 0.199853
11 *940:28 *940:37 1.81193
12 *940:26 *940:35 6.32595
13 *940:34 *940:35 13.9938
14 *940:19 *940:36 1.49991
15 *940:23 *940:24 1.79765
16 *940:20 *940:22 2.22999
17 *1318:I *940:19 2.53487
18 *1580:B1 *940:29 1.49991
19 *940:13 *940:32 9.96204
20 *940:27 *940:30 2.69903
21 *940:13 *940:38 1.52948
22 *940:23 *940:30 7.2416
23 *940:16 *940:29 3.7921
24 *940:12 *940:17 2.38498
25 *1583:B2 *940:22 3.5535
26 *1575:B2 *940:23 1.78032
27 *940:25 *940:27 3.91242
28 *940:31 *940:33 3.69523
29 *940:31 *940:32 0.199853
30 *940:26 *940:29 0.998244
31 *1576:B1 *940:25 1.49991
32 *1582:B1 *940:24 1.49991
33 *1578:B1 *940:22 1.49991
34 *1581:B1 *940:21 1.49991
35 *1579:B1 *940:20 1.49991
36 *1584:ZN *940:19 1.49991
37 *1577:B1 *940:18 0.750467
38 *940:38 *940:14 0.750467
*END

