*SPEF "IEEE 1481-1998"
*DESIGN "sram_wrapper"
*DATE "Mon Apr  6 21:25:12 2026"
*VENDOR "Cadence Design Systems, Inc."
*PROGRAM "Innovus"
*VERSION "21.16-s078_1"
*DESIGN_FLOW "COUPLING C" "PIN_CAP NONE" "NAME_SCOPE LOCAL"
*DIVIDER /
*DELIMITER :
*BUS_DELIMITER []
*T_UNIT 1 NS
*C_UNIT 1 PF
*R_UNIT 1 OHM
*L_UNIT 1 HENRY

// MMMC spef file for corner 'RC_BEST'

*NAME_MAP

*1 FE_PDN3_n_32
*2 FE_PDN692_n_77
*3 FE_PDN691_bus_wbuf_2
*4 FE_PDN690_n_34
*5 FE_PDN2_n_29
*6 FE_PHN689_bus_din_4
*7 FE_PHN688_n_6
*8 FE_PHN687_bus_din_4
*9 FE_PHN686_n_6
*10 FE_PHN685_bus_din_4
*11 FE_PHN684_bus_din_4
*12 FE_PHN683_bus_din_4
*13 FE_PHN682_bus_din_4
*14 FE_PHN681_n_6
*15 FE_PHN680_bus_din_3
*16 FE_PHN679_bus_din_4
*17 FE_PHN678_bus_din_4
*18 FE_PHN677_n_6
*19 FE_PHN676_bus_din_3
*20 FE_PHN675_bus_din_4
*21 FE_PHN674_n_6
*22 FE_PHN673_bus_din_4
*23 FE_PHN672_bus_din_3
*24 FE_PHN671_n_6
*25 FE_PHN670_bus_din_4
*26 FE_PHN669_bus_din_3
*27 FE_PHN668_n_6
*28 FE_PHN667_bus_din_4
*29 FE_PHN666_bus_din_3
*30 FE_PHN665_bus_din_4
*31 FE_PHN664_bus_din_3
*32 FE_PHN663_n_6
*33 FE_PHN662_bus_din_3
*34 FE_PHN661_bus_din_4
*35 FE_PHN660_bus_din_3
*36 FE_PHN659_n_6
*37 FE_PHN658_bus_din_3
*38 FE_PHN657_bus_din_3
*39 FE_PHN656_n_6
*40 FE_PHN655_bus_din_4
*41 FE_PHN654_n_6
*42 FE_PHN653_bus_din_3
*43 FE_PHN652_bus_din_4
*44 FE_PHN651_n_4
*45 FE_PHN650_n_4
*46 FE_PHN649_bus_din_6
*47 FE_PHN648_bus_din_3
*48 FE_PHN647_bus_din_4
*49 FE_PHN646_bus_we
*50 FE_PHN645_n_3
*51 FE_PHN644_bus_din_4
*52 FE_PHN643_bus_din_3
*53 FE_PHN642_n_3
*54 FE_PHN641_bus_din_6
*55 FE_PHN640_bus_we
*56 FE_PHN639_bus_din_2
*57 FE_PHN638_n_3
*58 FE_PHN637_bus_din_4
*59 FE_PHN636_bus_we
*60 FE_PHN635_bus_din_3
*61 FE_PHN634_bus_din_6
*62 FE_PHN633_bus_din_2
*63 FE_PHN632_bus_din_3
*64 FE_PHN631_bus_din_6
*65 FE_PHN630_bus_we
*66 FE_PHN629_bus_din_4
*67 FE_PHN628_bus_din_2
*68 FE_PHN627_n_4
*69 FE_PHN626_bus_din_4
*70 FE_PHN625_bus_din_6
*71 FE_PHN624_bus_we
*72 FE_PHN623_bus_din_2
*73 FE_PHN622_bus_din_0
*74 FE_PHN621_n_90
*75 FE_PHN620_bus_we
*76 FE_PHN619_bus_din_4
*77 FE_PHN618_bus_din_6
*78 FE_PHN617_bus_din_0
*79 FE_PHN616_bus_din_1
*80 FE_PHN615_bus_addr_10
*81 FE_PHN614_bus_addr_0
*82 FE_PHN613_n_29
*83 FE_PHN612_n_77
*84 FE_PHN611_bus_we
*85 FE_PHN610_rstn
*86 FE_PHN609_bus_addr_9
*87 FE_PHN608_sram_addr_1
*88 FE_PHN607_sram_wen
*89 FE_PHN606_bus_din_3
*90 FE_PHN605_bus_din_2
*91 FE_PHN604_bus_din_5
*92 FE_PHN603_bus_we
*93 FE_PHN602_bus_we
*94 FE_PHN601_bus_we
*95 FE_PHN600_bus_we
*96 FE_PHN599_bus_we
*97 FE_PHN598_bus_we
*98 FE_PHN597_bus_we
*99 FE_PHN596_bus_we
*100 FE_PHN595_bus_we
*101 FE_PHN594_bus_we
*102 FE_PHN593_bus_we
*103 FE_PHN592_bus_addr_0
*104 FE_PHN591_sram_addr_0
*105 FE_PHN590_n_76
*106 FE_PHN589_bus_we
*107 FE_PHN588_bus_wbuf_15
*108 FE_PHN587_bus_addr_7
*109 FE_PHN586_bus_addr_0
*110 FE_PHN585_bus_addr_4
*111 FE_PHN584_bus_addr_3
*112 FE_PHN583_bus_addr_5
*113 FE_PHN582_bus_addr_9
*114 FE_PHN581_bus_addr_6
*115 FE_PHN580_bus_wbuf_8
*116 FE_PHN579_bus_addr_11
*117 FE_PHN578_bus_wbuf_9
*118 FE_PHN577_bus_wbuf_51
*119 FE_PHN576_bus_we
*120 FE_PHN575_bus_wbuf_16
*121 FE_PHN574_n_1
*122 FE_PHN573_bus_addr_0
*123 FE_PHN572_bus_wbuf_15
*124 FE_PHN571_bus_wbuf_9
*125 FE_PHN570_bus_addr_8
*126 FE_PHN569_bus_addr_3
*127 FE_PHN568_bus_addr_11
*128 FE_PHN567_bus_addr_6
*129 FE_PHN566_bus_addr_9
*130 FE_PHN565_bus_addr_5
*131 FE_PHN564_bus_wbuf_8
*132 FE_PHN563_bus_wbuf_10
*133 FE_PHN562_bus_addr_4
*134 FE_PHN561_bus_addr_7
*135 FE_PHN560_bus_wbuf_1
*136 FE_PHN559_bus_din_4
*137 FE_PHN558_bus_addr_1
*138 FE_PHN557_bus_din_3
*139 FE_PHN556_bus_din_1
*140 FE_PHN555_sram_addr_0
*141 FE_PHN554_bus_wbuf_60
*142 FE_PHN553_bus_wbuf_63
*143 FE_PHN552_bus_wbuf_59
*144 FE_PHN551_bus_wbuf_58
*145 FE_PHN550_sram_addr_3
*146 FE_PHN549_bus_wbuf_61
*147 FE_PHN548_bus_wbuf_1
*148 FE_PHN547_sram_addr_2
*149 FE_PHN546_sram_addr_4
*150 FE_PHN545_sram_addr_1
*151 FE_PHN544_bus_wbuf_62
*152 FE_PHN543_n_89
*153 FE_PHN542_n_73
*154 FE_PHN541_n_72
*155 FE_PHN540_n_71
*156 FE_PHN539_n_87
*157 FE_PHN538_n_90
*158 FE_PHN537_n_93
*159 FE_PHN536_n_88
*160 FE_PHN535_n_92
*161 FE_PHN534_n_91
*162 FE_PHN533_n_81
*163 FE_PHN532_n_82
*164 FE_PHN531_n_80
*165 FE_PHN530_sram_addr_6
*166 FE_PHN529_n_28
*167 FE_PHN528_n_32
*168 FE_PHN527_n_30
*169 FE_PHN526_n_34
*170 FE_PHN525_n_31
*171 FE_PHN524_n_54
*172 FE_PHN523_n_61
*173 FE_PHN522_n_57
*174 FE_PHN521_n_62
*175 FE_PHN520_n_56
*176 FE_PHN519_n_60
*177 FE_PHN518_n_53
*178 FE_PHN517_n_96
*179 FE_PHN516_n_18
*180 FE_PHN515_n_17
*181 FE_PHN514_n_45
*182 FE_PHN513_n_46
*183 FE_PHN512_bus_addr_8
*184 FE_PHN511_n_97
*185 FE_PHN510_rstn
*186 FE_PHN509_bus_addr_2
*187 FE_PHN508_sram_addr_5
*188 FE_PHN507_n_12
*189 FE_PHN506_tpu_dout_44
*190 FE_PHN505_tpu_dout_43
*191 FE_PHN504_tpu_dout_15
*192 FE_PHN503_tpu_dout_42
*193 FE_PHN502_tpu_dout_53
*194 FE_PHN501_tpu_dout_45
*195 FE_PHN500_tpu_dout_19
*196 FE_PHN499_tpu_dout_3
*197 FE_PHN498_tpu_dout_18
*198 FE_PHN497_bus_wbuf_16
*199 FE_PHN496_tpu_dout_27
*200 FE_PHN495_tpu_dout_16
*201 FE_PHN494_tpu_dout_41
*202 FE_PHN493_tpu_dout_25
*203 FE_PHN492_tpu_dout_33
*204 FE_PHN491_tpu_dout_49
*205 FE_PHN490_tpu_dout_6
*206 FE_PHN489_tpu_dout_17
*207 FE_PHN488_tpu_dout_0
*208 FE_PHN487_tpu_dout_46
*209 FE_PHN486_tpu_dout_28
*210 FE_PHN485_tpu_dout_24
*211 FE_PHN484_tpu_dout_23
*212 FE_PHN483_tpu_dout_2
*213 FE_PHN482_tpu_dout_1
*214 FE_PHN481_tpu_dout_35
*215 FE_PHN480_tpu_dout_32
*216 FE_PHN479_bus_wbuf_14
*217 FE_PHN478_tpu_dout_34
*218 FE_PHN477_tpu_dout_30
*219 FE_PHN476_tpu_dout_8
*220 FE_PHN475_tpu_dout_10
*221 FE_PHN474_tpu_dout_7
*222 FE_PHN473_tpu_dout_9
*223 FE_PHN472_tpu_dout_20
*224 FE_PHN471_tpu_dout_29
*225 FE_PHN470_bus_wbuf_10
*226 FE_PHN469_tpu_dout_5
*227 FE_PHN468_tpu_dout_26
*228 FE_PHN467_bus_wbuf_6
*229 FE_PHN466_tpu_dout_52
*230 FE_PHN465_bus_wbuf_2
*231 FE_PHN464_tpu_dout_48
*232 FE_PHN463_bus_wbuf_26
*233 FE_PHN462_bus_wbuf_4
*234 FE_PHN461_tpu_dout_4
*235 FE_PHN460_bus_wbuf_0
*236 FE_PHN459_bus_wbuf_50
*237 FE_PHN458_tpu_dout_54
*238 FE_PHN457_tpu_dout_57
*239 FE_PHN456_tpu_dout_55
*240 FE_PHN455_bus_wbuf_44
*241 FE_PHN454_bus_wbuf_52
*242 FE_PHN453_bus_wbuf_40
*243 FE_PHN452_tpu_dout_51
*244 FE_PHN451_tpu_dout_58
*245 FE_PHN450_tpu_dout_62
*246 FE_PHN449_bus_wbuf_46
*247 FE_PHN448_bus_wbuf_24
*248 FE_PHN447_sram_addr_8
*249 FE_PHN446_bus_wbuf_21
*250 FE_PHN445_bus_wbuf_22
*251 FE_PHN444_bus_wbuf_12
*252 FE_PHN443_tpu_dout_61
*253 FE_PHN442_bus_wbuf_53
*254 FE_PHN441_bus_wbuf_49
*255 FE_PHN440_tpu_dout_63
*256 FE_PHN439_bus_wbuf_13
*257 FE_PHN438_bus_wbuf_11
*258 FE_PHN437_tpu_dout_59
*259 FE_PHN436_tpu_dout_50
*260 FE_PHN435_tpu_dout_60
*261 FE_PHN434_bus_wbuf_54
*262 FE_PHN433_tpu_dout_47
*263 FE_PHN432_bus_wbuf_20
*264 FE_PHN431_bus_wbuf_23
*265 FE_PHN430_bus_wbuf_55
*266 FE_PHN429_bus_wbuf_27
*267 FE_PHN428_bus_wbuf_43
*268 FE_PHN427_bus_wbuf_42
*269 FE_PHN426_bus_wbuf_41
*270 FE_PHN425_bus_wbuf_45
*271 FE_PHN424_bus_wbuf_31
*272 FE_PHN423_bus_wbuf_38
*273 FE_PHN422_bus_wbuf_28
*274 FE_PHN421_bus_wbuf_39
*275 FE_PHN420_bus_wbuf_33
*276 FE_PHN419_bus_wbuf_37
*277 FE_PHN418_bus_wbuf_47
*278 FE_PHN417_bus_wbuf_29
*279 FE_PHN416_bus_wbuf_19
*280 FE_PHN415_bus_wbuf_30
*281 FE_PHN414_bus_wbuf_32
*282 FE_PHN413_bus_wbuf_17
*283 FE_PHN412_bus_wbuf_18
*284 FE_PHN411_bus_wbuf_34
*285 FE_PHN410_bus_wbuf_36
*286 FE_PHN409_bus_wbuf_35
*287 FE_PHN408_bus_wbuf_25
*288 FE_PHN407_sram_addr_7
*289 FE_PHN406_bus_wbuf_48
*290 FE_PHN405_bus_din_0
*291 FE_PHN404_bus_wbuf_7
*292 FE_PHN403_bus_we
*293 FE_PHN402_bus_wbuf_5
*294 FE_PHN401_bus_wbuf_3
*295 FE_PHN400_bus_wbuf_57
*296 FE_PHN399_bus_wbuf_56
*297 FE_PHN398_sram_wen
*298 FE_PDN396_tpu_dout_56
*299 FE_PHN395_bus_addr_10
*300 FE_PHN394_tpu_dout_31
*301 FE_PHN393_tpu_dout_11
*302 FE_PHN392_tpu_dout_12
*303 FE_PHN391_tpu_dout_13
*304 FE_PHN390_tpu_dout_14
*305 FE_PHN389_bus_wbuf_8
*306 FE_PHN388_bus_wbuf_19
*307 FE_PHN387_bus_wbuf_9
*308 FE_PHN385_tpu_dout_14
*309 FE_PHN383_tpu_dout_13
*310 FE_PHN381_tpu_dout_12
*311 FE_PHN379_tpu_dout_11
*312 FE_PHN377_tpu_dout_31
*313 FE_PHN376_sram_addr_8
*314 FE_PHN375_bus_wbuf_15
*315 FE_PHN374_bus_wbuf_48
*316 FE_PHN373_bus_addr_10
*317 FE_PHN372_rstn
*318 FE_PHN371_bus_wbuf_62
*319 FE_PHN370_bus_wbuf_61
*320 FE_PHN369_bus_wbuf_60
*321 FE_PHN368_sram_addr_5
*322 FE_PHN367_bus_wbuf_1
*323 FE_PHN366_bus_wbuf_48
*324 FE_PHN365_bus_wbuf_8
*325 FE_PHN364_bus_wbuf_9
*326 FE_PHN363_bus_wbuf_11
*327 FE_PHN362_bus_wbuf_19
*328 FE_PHN361_bus_wbuf_13
*329 FE_PHN360_bus_wbuf_54
*330 FE_PHN359_bus_wbuf_12
*331 FE_PHN358_bus_wbuf_18
*332 FE_PHN357_sram_addr_6
*333 FE_PHN356_bus_wbuf_10
*334 FE_PHN355_bus_wbuf_17
*335 FE_PHN354_sram_addr_0
*336 FE_PHN353_bus_wbuf_25
*337 FE_PHN352_sram_addr_1
*338 FE_PHN351_sram_addr_2
*339 FE_PHN350_bus_wbuf_24
*340 FE_PHN349_bus_wbuf_50
*341 FE_PHN348_bus_wbuf_55
*342 FE_PHN347_bus_wbuf_49
*343 FE_PHN346_bus_wbuf_26
*344 FE_PHN345_sram_addr_3
*345 FE_PHN344_bus_wbuf_32
*346 FE_PHN343_bus_wbuf_20
*347 FE_PHN342_bus_wbuf_38
*348 FE_PHN341_bus_wbuf_51
*349 FE_PHN340_bus_wbuf_33
*350 FE_PHN339_bus_wbuf_37
*351 FE_PHN338_bus_wbuf_53
*352 FE_PHN337_bus_wbuf_23
*353 FE_PHN336_bus_wbuf_21
*354 FE_PHN335_bus_wbuf_52
*355 FE_PHN334_bus_wbuf_46
*356 FE_PHN333_bus_wbuf_22
*357 FE_PHN332_bus_wbuf_41
*358 FE_PHN331_bus_wbuf_40
*359 FE_PHN330_bus_wbuf_39
*360 FE_PHN329_bus_wbuf_29
*361 FE_PHN328_bus_wbuf_28
*362 FE_PHN327_bus_wbuf_45
*363 FE_PHN326_bus_wbuf_42
*364 FE_PHN325_bus_wbuf_44
*365 FE_PHN324_bus_wbuf_47
*366 FE_PHN323_bus_wbuf_43
*367 FE_PHN322_bus_wbuf_30
*368 FE_PHN321_bus_wbuf_31
*369 FE_PHN320_sram_addr_4
*370 FE_PHN319_bus_wbuf_35
*371 FE_PHN318_bus_wbuf_34
*372 FE_PHN317_bus_wbuf_27
*373 FE_PHN316_bus_wbuf_36
*374 FE_PHN315_sram_addr_8
*375 FE_PHN314_sram_addr_7
*376 FE_PHN312_tpu_dout_31
*377 FE_PHN311_rstn
*378 FE_PHN310_sram_wen
*379 FE_PHN309_bus_wbuf_15
*380 FE_PHN308_bus_wbuf_14
*381 FE_PHN307_bus_wbuf_16
*382 FE_PHN306_bus_addr_7
*383 FE_PHN305_bus_addr_8
*384 FE_PHN304_bus_addr_4
*385 FE_PHN303_bus_addr_3
*386 FE_PHN302_bus_addr_5
*387 FE_PHN301_bus_addr_6
*388 FE_PHN300_bus_addr_9
*389 FE_PHN299_bus_addr_11
*390 FE_PHN298_tpu_re
*391 FE_PHN297_tpu_dout_56
*392 FE_PHN296_tpu_dout_54
*393 FE_PHN295_tpu_dout_58
*394 FE_PHN294_tpu_dout_57
*395 FE_PHN293_tpu_dout_60
*396 FE_PHN292_tpu_dout_61
*397 FE_PHN291_tpu_dout_62
*398 FE_PHN290_tpu_dout_63
*399 FE_PHN289_tpu_dout_50
*400 FE_PHN288_tpu_dout_55
*401 FE_PHN287_tpu_dout_59
*402 FE_PHN286_tpu_dout_5
*403 FE_PHN285_tpu_dout_4
*404 FE_PHN284_tpu_dout_52
*405 FE_PHN283_tpu_dout_48
*406 FE_PHN282_tpu_dout_51
*407 FE_PHN281_tpu_dout_49
*408 FE_PHN280_tpu_dout_7
*409 FE_PHN279_tpu_dout_47
*410 FE_PHN278_tpu_dout_53
*411 FE_PHN277_tpu_dout_45
*412 FE_PHN276_tpu_dout_39
*413 FE_PHN275_tpu_dout_44
*414 FE_PHN274_tpu_dout_46
*415 FE_PHN273_tpu_dout_6
*416 FE_PHN272_tpu_dout_2
*417 FE_PHN271_tpu_dout_38
*418 FE_PHN270_tpu_dout_40
*419 FE_PHN269_tpu_dout_41
*420 FE_PHN268_tpu_dout_42
*421 FE_PHN267_tpu_dout_43
*422 FE_PHN266_tpu_dout_1
*423 FE_PHN265_tpu_dout_36
*424 FE_PHN264_tpu_dout_37
*425 FE_PHN263_tpu_dout_0
*426 FE_PHN262_tpu_dout_19
*427 FE_PHN261_tpu_dout_32
*428 FE_PHN260_tpu_dout_34
*429 FE_PHN259_tpu_dout_35
*430 FE_PHN258_tpu_dout_3
*431 FE_PHN257_tpu_dout_9
*432 FE_PHN256_tpu_dout_10
*433 FE_PHN255_tpu_dout_8
*434 FE_PHN254_tpu_dout_15
*435 FE_PHN253_tpu_dout_16
*436 FE_PHN252_tpu_dout_33
*437 FE_PHN251_tpu_dout_21
*438 FE_PHN250_tpu_dout_18
*439 FE_PHN249_tpu_dout_17
*440 FE_PHN248_tpu_dout_22
*441 FE_PHN247_tpu_dout_25
*442 FE_PHN246_tpu_dout_28
*443 FE_PHN245_tpu_dout_20
*444 FE_PHN244_tpu_dout_27
*445 FE_PHN243_tpu_dout_26
*446 FE_PHN242_tpu_dout_23
*447 FE_PHN241_tpu_dout_24
*448 FE_PHN240_tpu_dout_29
*449 FE_PHN239_tpu_dout_30
*450 FE_PHN238_bus_addr_10
*451 FE_PHN237_sram_addr_5
*452 FE_PHN236_sram_addr_6
*453 FE_PHN235_sram_addr_8
*454 FE_PHN234_sram_addr_7
*455 FE_PHN233_sram_addr_0
*456 FE_PHN232_sram_addr_2
*457 FE_PHN231_sram_addr_3
*458 FE_PHN230_sram_addr_1
*459 FE_PHN229_sram_addr_4
*460 FE_PHN228_bus_wbuf_56
*461 FE_PHN227_bus_wbuf_57
*462 FE_PHN226_bus_wbuf_58
*463 FE_PHN225_bus_wbuf_63
*464 FE_PHN224_bus_wbuf_59
*465 FE_PHN223_bus_wbuf_61
*466 FE_PHN222_bus_wbuf_62
*467 FE_PHN221_bus_wbuf_60
*468 FE_PHN220_bus_wbuf_7
*469 FE_PHN219_bus_wbuf_6
*470 FE_PHN218_rstn
*471 FE_PHN217_sram_cen
*472 FE_PHN216_bus_wbuf_4
*473 FE_PHN215_bus_wbuf_3
*474 FE_PHN214_bus_wbuf_5
*475 FE_PHN213_bus_wbuf_2
*476 FE_PHN212_bus_wbuf_0
*477 FE_PHN211_bus_wbuf_1
*478 FE_PHN210_bus_wbuf_48
*479 FE_PHN209_bus_wbuf_8
*480 FE_PHN208_bus_wbuf_15
*481 FE_PHN207_bus_wbuf_19
*482 FE_PHN206_bus_wbuf_11
*483 FE_PHN205_bus_wbuf_9
*484 FE_PHN204_bus_wbuf_12
*485 FE_PHN203_bus_wbuf_13
*486 FE_PHN202_bus_wbuf_14
*487 FE_PHN201_bus_wbuf_18
*488 FE_PHN200_bus_wbuf_54
*489 FE_PHN199_bus_wbuf_10
*490 FE_PHN198_bus_wbuf_17
*491 FE_PHN197_bus_wbuf_16
*492 FE_PHN196_bus_wbuf_55
*493 FE_PHN195_bus_wbuf_32
*494 FE_PHN194_bus_wbuf_50
*495 FE_PHN193_bus_wbuf_49
*496 FE_PHN192_bus_wbuf_20
*497 FE_PHN191_bus_wbuf_37
*498 FE_PHN190_bus_wbuf_51
*499 FE_PHN189_bus_wbuf_38
*500 FE_PHN188_bus_wbuf_33
*501 FE_PHN187_bus_wbuf_21
*502 FE_PHN186_bus_wbuf_24
*503 FE_PHN185_bus_wbuf_23
*504 FE_PHN184_bus_wbuf_22
*505 FE_PHN183_bus_wbuf_53
*506 FE_PHN182_bus_wbuf_26
*507 FE_PHN181_bus_wbuf_39
*508 FE_PHN180_bus_wbuf_52
*509 FE_PHN179_bus_wbuf_25
*510 FE_PHN178_bus_wbuf_46
*511 FE_PHN177_bus_wbuf_40
*512 FE_PHN176_bus_wbuf_41
*513 FE_PHN175_bus_wbuf_29
*514 FE_PHN174_bus_wbuf_42
*515 FE_PHN173_bus_wbuf_34
*516 FE_PHN172_bus_wbuf_30
*517 FE_PHN171_bus_wbuf_45
*518 FE_PHN170_bus_wbuf_31
*519 FE_PHN169_bus_wbuf_47
*520 FE_PHN168_bus_wbuf_35
*521 FE_PHN167_bus_wbuf_44
*522 FE_PHN166_bus_wbuf_43
*523 FE_PHN165_bus_wbuf_28
*524 FE_PHN164_bus_wbuf_27
*525 FE_PHN163_bus_addr_10
*526 FE_PHN162_n_97
*527 FE_PHN161_bus_wbuf_36
*528 FE_PHN160_bus_addr_8
*529 FE_PHN159_bus_addr_7
*530 FE_PHN158_bus_addr_4
*531 FE_PHN157_bus_addr_5
*532 FE_PHN156_bus_addr_3
*533 FE_PHN155_bus_addr_6
*534 FE_PHN154_bus_addr_9
*535 FE_PHN153_bus_addr_11
*536 FE_PHN152_bus_addr_1
*537 FE_PHN151_bus_addr_2
*538 FE_PHN150_bus_addr_0
*539 FE_PHN148_tpu_dout_29
*540 FE_PHN146_tpu_dout_20
*541 FE_PHN144_tpu_dout_30
*542 FE_PHN142_tpu_dout_26
*543 FE_PHN140_tpu_dout_24
*544 FE_PHN138_tpu_dout_5
*545 FE_PHN136_tpu_dout_28
*546 FE_PHN134_tpu_dout_21
*547 FE_PHN132_tpu_dout_25
*548 FE_PHN130_tpu_dout_27
*549 FE_PHN128_tpu_dout_13
*550 FE_PHN126_tpu_dout_15
*551 FE_PHN124_tpu_dout_33
*552 FE_PHN122_tpu_dout_3
*553 FE_PHN120_tpu_dout_6
*554 FE_PHN118_tpu_dout_17
*555 FE_PHN116_tpu_dout_18
*556 FE_PHN114_tpu_dout_23
*557 FE_PHN112_tpu_dout_31
*558 FE_PHN110_tpu_dout_46
*559 FE_PHN108_tpu_dout_44
*560 FE_PHN106_tpu_dout_42
*561 FE_PHN104_tpu_dout_4
*562 FE_PHN102_tpu_dout_0
*563 FE_PHN100_tpu_dout_9
*564 FE_PHN98_tpu_dout_11
*565 FE_PHN96_tpu_dout_12
*566 FE_PHN94_tpu_dout_19
*567 FE_PHN92_tpu_dout_40
*568 FE_PHN90_tpu_dout_34
*569 FE_PHN88_tpu_dout_1
*570 FE_PHN86_tpu_dout_8
*571 FE_PHN84_tpu_dout_10
*572 FE_PHN82_tpu_dout_22
*573 FE_PHN80_tpu_dout_41
*574 FE_PHN78_tpu_dout_38
*575 FE_PHN76_tpu_dout_36
*576 FE_PHN74_tpu_dout_37
*577 FE_PHN72_tpu_dout_32
*578 FE_PHN70_tpu_dout_35
*579 FE_PHN68_tpu_dout_58
*580 FE_PHN66_tpu_dout_55
*581 FE_PHN64_tpu_dout_51
*582 FE_PHN62_tpu_dout_45
*583 FE_PHN60_tpu_dout_43
*584 FE_PHN58_tpu_dout_7
*585 FE_PHN56_tpu_dout_2
*586 FE_PHN54_tpu_dout_14
*587 FE_PHN52_tpu_dout_16
*588 FE_PHN50_tpu_dout_60
*589 FE_PHN48_tpu_dout_61
*590 FE_PHN46_tpu_dout_54
*591 FE_PHN44_tpu_dout_50
*592 FE_PHN42_tpu_dout_48
*593 FE_PHN40_tpu_dout_49
*594 FE_PHN38_tpu_dout_52
*595 FE_PHN36_tpu_dout_47
*596 FE_PHN34_tpu_dout_53
*597 FE_PHN32_tpu_dout_39
*598 FE_PHN30_tpu_dout_57
*599 FE_PHN28_tpu_dout_62
*600 FE_PHN26_tpu_dout_63
*601 FE_PHN24_tpu_dout_59
*602 FE_PHN22_tpu_dout_56
*603 FE_PHN21_last_word_addr_3
*604 FE_PHN20_last_word_addr_6
*605 FE_PHN19_last_word_addr_4
*606 FE_PHN18_last_word_addr_2
*607 FE_PHN17_last_word_addr_7
*608 FE_PHN16_last_word_addr_8
*609 FE_PHN15_last_word_addr_5
*610 FE_PHN14_last_word_addr_1
*611 FE_PHN13_last_word_addr_0
*612 FE_PHN12_bus_din_0
*613 FE_PHN11_bus_we_d1
*614 FE_PHN10_bus_din_6
*615 FE_PHN9_bus_din_3
*616 FE_PHN8_bus_din_5
*617 FE_PHN7_bus_din_4
*618 FE_PHN6_bus_din_7
*619 FE_PHN5_bus_din_1
*620 FE_PHN4_bus_din_2
*621 FE_PHN3_bus_we
*622 FE_PHN2_flush_d1
*623 CTS_8
*624 CTS_7
*625 CTS_4
*626 CTS_3
*627 CTS_2
*628 CTS_1
*629 CTS_6
*630 CTS_5
*631 LTIELO_NET
*632 LTIEHI_NET
*633 FE_OFN0_rstn
*634 clk
*635 rstn
*636 bus_we
*637 bus_addr[11]
*638 bus_addr[10]
*639 bus_addr[9]
*640 bus_addr[8]
*641 bus_addr[7]
*642 bus_addr[6]
*643 bus_addr[5]
*644 bus_addr[4]
*645 bus_addr[3]
*646 bus_addr[2]
*647 bus_addr[1]
*648 bus_addr[0]
*649 bus_din[7]
*650 bus_din[6]
*651 bus_din[5]
*652 bus_din[4]
*653 bus_din[3]
*654 bus_din[2]
*655 bus_din[1]
*656 bus_din[0]
*657 tpu_re
*658 tpu_addr[8]
*659 tpu_addr[7]
*660 tpu_addr[6]
*661 tpu_addr[5]
*662 tpu_addr[4]
*663 tpu_addr[3]
*664 tpu_addr[2]
*665 tpu_addr[1]
*666 tpu_addr[0]
*667 tpu_dout[63]
*668 tpu_dout[62]
*669 tpu_dout[61]
*670 tpu_dout[60]
*671 tpu_dout[59]
*672 tpu_dout[58]
*673 tpu_dout[57]
*674 tpu_dout[56]
*675 tpu_dout[55]
*676 tpu_dout[54]
*677 tpu_dout[53]
*678 tpu_dout[52]
*679 tpu_dout[51]
*680 tpu_dout[50]
*681 tpu_dout[49]
*682 tpu_dout[48]
*683 tpu_dout[47]
*684 tpu_dout[46]
*685 tpu_dout[45]
*686 tpu_dout[44]
*687 tpu_dout[43]
*688 tpu_dout[42]
*689 tpu_dout[41]
*690 tpu_dout[40]
*691 tpu_dout[39]
*692 tpu_dout[38]
*693 tpu_dout[37]
*694 tpu_dout[36]
*695 tpu_dout[35]
*696 tpu_dout[34]
*697 tpu_dout[33]
*698 tpu_dout[32]
*699 tpu_dout[31]
*700 tpu_dout[30]
*701 tpu_dout[29]
*702 tpu_dout[28]
*703 tpu_dout[27]
*704 tpu_dout[26]
*705 tpu_dout[25]
*706 tpu_dout[24]
*707 tpu_dout[23]
*708 tpu_dout[22]
*709 tpu_dout[21]
*710 tpu_dout[20]
*711 tpu_dout[19]
*712 tpu_dout[18]
*713 tpu_dout[17]
*714 tpu_dout[16]
*715 tpu_dout[15]
*716 tpu_dout[14]
*717 tpu_dout[13]
*718 tpu_dout[12]
*719 tpu_dout[11]
*720 tpu_dout[10]
*721 tpu_dout[9]
*722 tpu_dout[8]
*723 tpu_dout[7]
*724 tpu_dout[6]
*725 tpu_dout[5]
*726 tpu_dout[4]
*727 tpu_dout[3]
*728 tpu_dout[2]
*729 tpu_dout[1]
*730 tpu_dout[0]
*731 sram_addr[8]
*732 sram_addr[7]
*733 sram_addr[6]
*734 sram_addr[5]
*735 sram_addr[4]
*736 sram_addr[3]
*737 sram_addr[2]
*738 sram_addr[1]
*739 sram_addr[0]
*740 bus_wbuf[63]
*741 bus_wbuf[62]
*742 bus_wbuf[61]
*743 bus_wbuf[60]
*744 bus_wbuf[59]
*745 bus_wbuf[58]
*746 bus_wbuf[57]
*747 bus_wbuf[56]
*748 bus_wbuf[55]
*749 bus_wbuf[54]
*750 bus_wbuf[53]
*751 bus_wbuf[52]
*752 bus_wbuf[51]
*753 bus_wbuf[50]
*754 bus_wbuf[49]
*755 bus_wbuf[48]
*756 bus_wbuf[47]
*757 bus_wbuf[46]
*758 bus_wbuf[45]
*759 bus_wbuf[44]
*760 bus_wbuf[43]
*761 bus_wbuf[42]
*762 bus_wbuf[41]
*763 bus_wbuf[40]
*764 bus_wbuf[39]
*765 bus_wbuf[38]
*766 bus_wbuf[37]
*767 bus_wbuf[36]
*768 bus_wbuf[35]
*769 bus_wbuf[34]
*770 bus_wbuf[33]
*771 bus_wbuf[32]
*772 bus_wbuf[31]
*773 bus_wbuf[30]
*774 bus_wbuf[29]
*775 bus_wbuf[28]
*776 bus_wbuf[27]
*777 bus_wbuf[26]
*778 bus_wbuf[25]
*779 bus_wbuf[24]
*780 bus_wbuf[23]
*781 bus_wbuf[22]
*782 bus_wbuf[21]
*783 bus_wbuf[20]
*784 bus_wbuf[19]
*785 bus_wbuf[18]
*786 bus_wbuf[17]
*787 bus_wbuf[16]
*788 bus_wbuf[15]
*789 bus_wbuf[14]
*790 bus_wbuf[13]
*791 bus_wbuf[12]
*792 bus_wbuf[11]
*793 bus_wbuf[10]
*794 bus_wbuf[9]
*795 bus_wbuf[8]
*796 bus_wbuf[7]
*797 bus_wbuf[6]
*798 bus_wbuf[5]
*799 bus_wbuf[4]
*800 bus_wbuf[3]
*801 bus_wbuf[2]
*802 bus_wbuf[1]
*803 bus_wbuf[0]
*804 flush_addr[8]
*805 flush_addr[7]
*806 flush_addr[6]
*807 flush_addr[5]
*808 flush_addr[4]
*809 flush_addr[3]
*810 flush_addr[2]
*811 flush_addr[1]
*812 flush_addr[0]
*813 bus_waddr_d1[8]
*814 bus_waddr_d1[7]
*815 bus_waddr_d1[6]
*816 bus_waddr_d1[5]
*817 bus_waddr_d1[4]
*818 bus_waddr_d1[3]
*819 bus_waddr_d1[2]
*820 bus_waddr_d1[1]
*821 bus_waddr_d1[0]
*822 last_byte_sel[2]
*823 last_byte_sel[1]
*824 last_byte_sel[0]
*825 last_word_addr[8]
*826 last_word_addr[7]
*827 last_word_addr[6]
*828 last_word_addr[5]
*829 last_word_addr[4]
*830 last_word_addr[3]
*831 last_word_addr[2]
*832 last_word_addr[1]
*833 last_word_addr[0]
*834 bus_we_d1
*835 bus_we_prev
*836 flush_d1
*837 n_0
*838 n_1
*839 n_2
*840 n_3
*841 n_4
*842 n_5
*843 n_6
*844 n_7
*845 n_8
*846 n_9
*847 n_10
*848 n_11
*849 n_12
*850 n_13
*851 n_14
*852 n_15
*853 n_16
*854 n_17
*855 n_18
*856 n_19
*857 n_20
*858 n_21
*859 n_22
*860 n_23
*861 n_24
*862 n_25
*863 n_26
*864 n_27
*865 n_28
*866 n_29
*867 n_30
*868 n_31
*869 n_32
*870 n_33
*871 n_34
*872 n_35
*873 n_36
*874 n_37
*875 n_38
*876 n_39
*877 n_40
*878 n_41
*879 n_42
*880 n_43
*881 n_44
*882 n_45
*883 n_46
*884 n_47
*885 n_48
*886 n_49
*887 n_50
*888 n_51
*889 n_52
*890 n_53
*891 n_54
*892 n_55
*893 n_56
*894 n_57
*895 n_58
*896 n_59
*897 n_60
*898 n_61
*899 n_62
*900 n_63
*901 n_64
*902 n_65
*903 n_66
*904 n_67
*905 n_68
*906 n_69
*907 n_70
*908 n_71
*909 n_72
*910 n_73
*911 n_74
*912 n_75
*913 n_76
*914 n_77
*915 n_78
*916 n_79
*917 n_80
*918 n_81
*919 n_82
*920 n_83
*921 n_84
*922 n_85
*923 n_86
*924 n_87
*925 n_88
*926 n_89
*927 n_90
*928 n_91
*929 n_92
*930 n_93
*931 n_94
*932 n_95
*933 n_96
*934 n_97
*935 n_98
*936 n_101
*937 n_102
*938 n_103
*939 sram_cen
*940 sram_wen
*941 FE_PDC3_n_32
*942 FE_PDC692_n_77
*943 FE_PDC691_bus_wbuf_2
*944 FE_PDC690_n_34
*945 FE_PDC2_n_29
*946 FE_PHC689_bus_din_4
*947 FE_PHC688_n_6
*948 FE_PHC687_bus_din_4
*949 FE_PHC686_n_6
*950 FE_PHC685_bus_din_4
*951 FE_PHC684_bus_din_4
*952 FE_PHC683_bus_din_4
*953 FE_PHC682_bus_din_4
*954 FE_PHC681_n_6
*955 FE_PHC680_bus_din_3
*956 FE_PHC679_bus_din_4
*957 FE_PHC678_bus_din_4
*958 FE_PHC677_n_6
*959 FE_PHC676_bus_din_3
*960 FE_PHC675_bus_din_4
*961 FE_PHC674_n_6
*962 FE_PHC673_bus_din_4
*963 FE_PHC672_bus_din_3
*964 FE_PHC671_n_6
*965 FE_PHC670_bus_din_4
*966 FE_PHC669_bus_din_3
*967 FE_PHC668_n_6
*968 FE_PHC667_bus_din_4
*969 FE_PHC666_bus_din_3
*970 FE_PHC665_bus_din_4
*971 FE_PHC664_bus_din_3
*972 FE_PHC663_n_6
*973 FE_PHC662_bus_din_3
*974 FE_PHC661_bus_din_4
*975 FE_PHC660_bus_din_3
*976 FE_PHC659_n_6
*977 FE_PHC658_bus_din_3
*978 FE_PHC657_bus_din_3
*979 FE_PHC656_n_6
*980 FE_PHC655_bus_din_4
*981 FE_PHC654_n_6
*982 FE_PHC653_bus_din_3
*983 FE_PHC652_bus_din_4
*984 FE_PHC651_n_4
*985 FE_PHC650_n_4
*986 FE_PHC649_bus_din_6
*987 FE_PHC648_bus_din_3
*988 FE_PHC647_bus_din_4
*989 FE_PHC646_bus_we
*990 FE_PHC645_n_3
*991 FE_PHC644_bus_din_4
*992 FE_PHC643_bus_din_3
*993 FE_PHC642_n_3
*994 FE_PHC641_bus_din_6
*995 FE_PHC640_bus_we
*996 FE_PHC639_bus_din_2
*997 FE_PHC638_n_3
*998 FE_PHC637_bus_din_4
*999 FE_PHC636_bus_we
*1000 FE_PHC635_bus_din_3
*1001 FE_PHC634_bus_din_6
*1002 FE_PHC633_bus_din_2
*1003 FE_PHC632_bus_din_3
*1004 FE_PHC631_bus_din_6
*1005 FE_PHC630_bus_we
*1006 FE_PHC629_bus_din_4
*1007 FE_PHC628_bus_din_2
*1008 FE_PHC627_n_4
*1009 FE_PHC626_bus_din_4
*1010 FE_PHC625_bus_din_6
*1011 FE_PHC624_bus_we
*1012 FE_PHC623_bus_din_2
*1013 FE_PHC622_bus_din_0
*1014 FE_PHC621_n_90
*1015 FE_PHC620_bus_we
*1016 FE_PHC619_bus_din_4
*1017 FE_PHC618_bus_din_6
*1018 FE_PHC617_bus_din_0
*1019 FE_PHC616_bus_din_1
*1020 FE_PHC615_bus_addr_10
*1021 FE_PHC614_bus_addr_0
*1022 FE_PHC613_n_29
*1023 FE_PHC612_n_77
*1024 FE_PHC611_bus_we
*1025 FE_PHC610_rstn
*1026 FE_PHC609_bus_addr_9
*1027 FE_PHC608_sram_addr_1
*1028 FE_PHC607_sram_wen
*1029 FE_PHC606_bus_din_3
*1030 FE_PHC605_bus_din_2
*1031 FE_PHC604_bus_din_5
*1032 FE_PHC603_bus_we
*1033 FE_PHC602_bus_we
*1034 FE_PHC601_bus_we
*1035 FE_PHC600_bus_we
*1036 FE_PHC599_bus_we
*1037 FE_PHC598_bus_we
*1038 FE_PHC597_bus_we
*1039 FE_PHC596_bus_we
*1040 FE_PHC595_bus_we
*1041 FE_PHC594_bus_we
*1042 FE_PHC593_bus_we
*1043 FE_PHC592_bus_addr_0
*1044 FE_PHC591_sram_addr_0
*1045 FE_PHC590_n_76
*1046 FE_PHC589_bus_we
*1047 FE_PHC588_bus_wbuf_15
*1048 FE_PHC587_bus_addr_7
*1049 FE_PHC586_bus_addr_0
*1050 FE_PHC585_bus_addr_4
*1051 FE_PHC584_bus_addr_3
*1052 FE_PHC583_bus_addr_5
*1053 FE_PHC582_bus_addr_9
*1054 FE_PHC581_bus_addr_6
*1055 FE_PHC580_bus_wbuf_8
*1056 FE_PHC579_bus_addr_11
*1057 FE_PHC578_bus_wbuf_9
*1058 FE_PHC577_bus_wbuf_51
*1059 FE_PHC576_bus_we
*1060 FE_PHC575_bus_wbuf_16
*1061 FE_PHC574_n_1
*1062 FE_PHC573_bus_addr_0
*1063 FE_PHC572_bus_wbuf_15
*1064 FE_PHC571_bus_wbuf_9
*1065 FE_PHC570_bus_addr_8
*1066 FE_PHC569_bus_addr_3
*1067 FE_PHC568_bus_addr_11
*1068 FE_PHC567_bus_addr_6
*1069 FE_PHC566_bus_addr_9
*1070 FE_PHC565_bus_addr_5
*1071 FE_PHC564_bus_wbuf_8
*1072 FE_PHC563_bus_wbuf_10
*1073 FE_PHC562_bus_addr_4
*1074 FE_PHC561_bus_addr_7
*1075 FE_PHC560_bus_wbuf_1
*1076 FE_PHC559_bus_din_4
*1077 FE_PHC558_bus_addr_1
*1078 FE_PHC557_bus_din_3
*1079 FE_PHC556_bus_din_1
*1080 FE_PHC555_sram_addr_0
*1081 FE_PHC554_bus_wbuf_60
*1082 FE_PHC553_bus_wbuf_63
*1083 FE_PHC552_bus_wbuf_59
*1084 FE_PHC551_bus_wbuf_58
*1085 FE_PHC550_sram_addr_3
*1086 FE_PHC549_bus_wbuf_61
*1087 FE_PHC548_bus_wbuf_1
*1088 FE_PHC547_sram_addr_2
*1089 FE_PHC546_sram_addr_4
*1090 FE_PHC545_sram_addr_1
*1091 FE_PHC544_bus_wbuf_62
*1092 FE_PHC543_n_89
*1093 FE_PHC542_n_73
*1094 FE_PHC541_n_72
*1095 FE_PHC540_n_71
*1096 FE_PHC539_n_87
*1097 FE_PHC538_n_90
*1098 FE_PHC537_n_93
*1099 FE_PHC536_n_88
*1100 FE_PHC535_n_92
*1101 FE_PHC534_n_91
*1102 FE_PHC533_n_81
*1103 FE_PHC532_n_82
*1104 FE_PHC531_n_80
*1105 FE_PHC530_sram_addr_6
*1106 FE_PHC529_n_28
*1107 FE_PHC528_n_32
*1108 FE_PHC527_n_30
*1109 FE_PHC526_n_34
*1110 FE_PHC525_n_31
*1111 FE_PHC524_n_54
*1112 FE_PHC523_n_61
*1113 FE_PHC522_n_57
*1114 FE_PHC521_n_62
*1115 FE_PHC520_n_56
*1116 FE_PHC519_n_60
*1117 FE_PHC518_n_53
*1118 FE_PHC517_n_96
*1119 FE_PHC516_n_18
*1120 FE_PHC515_n_17
*1121 FE_PHC514_n_45
*1122 FE_PHC513_n_46
*1123 FE_PHC512_bus_addr_8
*1124 FE_PHC511_n_97
*1125 FE_PHC510_rstn
*1126 FE_PHC509_bus_addr_2
*1127 FE_PHC508_sram_addr_5
*1128 FE_PHC507_n_12
*1129 FE_PHC506_tpu_dout_44
*1130 FE_PHC505_tpu_dout_43
*1131 FE_PHC504_tpu_dout_15
*1132 FE_PHC503_tpu_dout_42
*1133 FE_PHC502_tpu_dout_53
*1134 FE_PHC501_tpu_dout_45
*1135 FE_PHC500_tpu_dout_19
*1136 FE_PHC499_tpu_dout_3
*1137 FE_PHC498_tpu_dout_18
*1138 FE_PHC497_bus_wbuf_16
*1139 FE_PHC496_tpu_dout_27
*1140 FE_PHC495_tpu_dout_16
*1141 FE_PHC494_tpu_dout_41
*1142 FE_PHC493_tpu_dout_25
*1143 FE_PHC492_tpu_dout_33
*1144 FE_PHC491_tpu_dout_49
*1145 FE_PHC490_tpu_dout_6
*1146 FE_PHC489_tpu_dout_17
*1147 FE_PHC488_tpu_dout_0
*1148 FE_PHC487_tpu_dout_46
*1149 FE_PHC486_tpu_dout_28
*1150 FE_PHC485_tpu_dout_24
*1151 FE_PHC484_tpu_dout_23
*1152 FE_PHC483_tpu_dout_2
*1153 FE_PHC482_tpu_dout_1
*1154 FE_PHC481_tpu_dout_35
*1155 FE_PHC480_tpu_dout_32
*1156 FE_PHC479_bus_wbuf_14
*1157 FE_PHC478_tpu_dout_34
*1158 FE_PHC477_tpu_dout_30
*1159 FE_PHC476_tpu_dout_8
*1160 FE_PHC475_tpu_dout_10
*1161 FE_PHC474_tpu_dout_7
*1162 FE_PHC473_tpu_dout_9
*1163 FE_PHC472_tpu_dout_20
*1164 FE_PHC471_tpu_dout_29
*1165 FE_PHC470_bus_wbuf_10
*1166 FE_PHC469_tpu_dout_5
*1167 FE_PHC468_tpu_dout_26
*1168 FE_PHC467_bus_wbuf_6
*1169 FE_PHC466_tpu_dout_52
*1170 FE_PHC465_bus_wbuf_2
*1171 FE_PHC464_tpu_dout_48
*1172 FE_PHC463_bus_wbuf_26
*1173 FE_PHC462_bus_wbuf_4
*1174 FE_PHC461_tpu_dout_4
*1175 FE_PHC460_bus_wbuf_0
*1176 FE_PHC459_bus_wbuf_50
*1177 FE_PHC458_tpu_dout_54
*1178 FE_PHC457_tpu_dout_57
*1179 FE_PHC456_tpu_dout_55
*1180 FE_PHC455_bus_wbuf_44
*1181 FE_PHC454_bus_wbuf_52
*1182 FE_PHC453_bus_wbuf_40
*1183 FE_PHC452_tpu_dout_51
*1184 FE_PHC451_tpu_dout_58
*1185 FE_PHC450_tpu_dout_62
*1186 FE_PHC449_bus_wbuf_46
*1187 FE_PHC448_bus_wbuf_24
*1188 FE_PHC447_sram_addr_8
*1189 FE_PHC446_bus_wbuf_21
*1190 FE_PHC445_bus_wbuf_22
*1191 FE_PHC444_bus_wbuf_12
*1192 FE_PHC443_tpu_dout_61
*1193 FE_PHC442_bus_wbuf_53
*1194 FE_PHC441_bus_wbuf_49
*1195 FE_PHC440_tpu_dout_63
*1196 FE_PHC439_bus_wbuf_13
*1197 FE_PHC438_bus_wbuf_11
*1198 FE_PHC437_tpu_dout_59
*1199 FE_PHC436_tpu_dout_50
*1200 FE_PHC435_tpu_dout_60
*1201 FE_PHC434_bus_wbuf_54
*1202 FE_PHC433_tpu_dout_47
*1203 FE_PHC432_bus_wbuf_20
*1204 FE_PHC431_bus_wbuf_23
*1205 FE_PHC430_bus_wbuf_55
*1206 FE_PHC429_bus_wbuf_27
*1207 FE_PHC428_bus_wbuf_43
*1208 FE_PHC427_bus_wbuf_42
*1209 FE_PHC426_bus_wbuf_41
*1210 FE_PHC425_bus_wbuf_45
*1211 FE_PHC424_bus_wbuf_31
*1212 FE_PHC423_bus_wbuf_38
*1213 FE_PHC422_bus_wbuf_28
*1214 FE_PHC421_bus_wbuf_39
*1215 FE_PHC420_bus_wbuf_33
*1216 FE_PHC419_bus_wbuf_37
*1217 FE_PHC418_bus_wbuf_47
*1218 FE_PHC417_bus_wbuf_29
*1219 FE_PHC416_bus_wbuf_19
*1220 FE_PHC415_bus_wbuf_30
*1221 FE_PHC414_bus_wbuf_32
*1222 FE_PHC413_bus_wbuf_17
*1223 FE_PHC412_bus_wbuf_18
*1224 FE_PHC411_bus_wbuf_34
*1225 FE_PHC410_bus_wbuf_36
*1226 FE_PHC409_bus_wbuf_35
*1227 FE_PHC408_bus_wbuf_25
*1228 FE_PHC407_sram_addr_7
*1229 FE_PHC406_bus_wbuf_48
*1230 FE_PHC405_bus_din_0
*1231 FE_PHC404_bus_wbuf_7
*1232 FE_PHC403_bus_we
*1233 FE_PHC402_bus_wbuf_5
*1234 FE_PHC401_bus_wbuf_3
*1235 FE_PHC400_bus_wbuf_57
*1236 FE_PHC399_bus_wbuf_56
*1237 FE_PHC398_sram_wen
*1238 FE_PDC397_tpu_dout_56
*1239 FE_PHC395_bus_addr_10
*1240 FE_PHC394_tpu_dout_31
*1241 FE_PHC393_tpu_dout_11
*1242 FE_PHC392_tpu_dout_12
*1243 FE_PHC391_tpu_dout_13
*1244 FE_PHC390_tpu_dout_14
*1245 FE_PHC389_bus_wbuf_8
*1246 FE_PHC388_bus_wbuf_19
*1247 FE_PHC387_bus_wbuf_9
*1248 FE_PHC386_tpu_dout_14
*1249 FE_PHC384_tpu_dout_13
*1250 FE_PHC382_tpu_dout_12
*1251 FE_PHC380_tpu_dout_11
*1252 FE_PHC378_tpu_dout_31
*1253 FE_PHC376_sram_addr_8
*1254 FE_PHC375_bus_wbuf_15
*1255 FE_PHC374_bus_wbuf_48
*1256 FE_PHC373_bus_addr_10
*1257 FE_PHC372_rstn
*1258 FE_PHC371_bus_wbuf_62
*1259 FE_PHC370_bus_wbuf_61
*1260 FE_PHC369_bus_wbuf_60
*1261 FE_PHC368_sram_addr_5
*1262 FE_PHC367_bus_wbuf_1
*1263 FE_PHC366_bus_wbuf_48
*1264 FE_PHC365_bus_wbuf_8
*1265 FE_PHC364_bus_wbuf_9
*1266 FE_PHC363_bus_wbuf_11
*1267 FE_PHC362_bus_wbuf_19
*1268 FE_PHC361_bus_wbuf_13
*1269 FE_PHC360_bus_wbuf_54
*1270 FE_PHC359_bus_wbuf_12
*1271 FE_PHC358_bus_wbuf_18
*1272 FE_PHC357_sram_addr_6
*1273 FE_PHC356_bus_wbuf_10
*1274 FE_PHC355_bus_wbuf_17
*1275 FE_PHC354_sram_addr_0
*1276 FE_PHC353_bus_wbuf_25
*1277 FE_PHC352_sram_addr_1
*1278 FE_PHC351_sram_addr_2
*1279 FE_PHC350_bus_wbuf_24
*1280 FE_PHC349_bus_wbuf_50
*1281 FE_PHC348_bus_wbuf_55
*1282 FE_PHC347_bus_wbuf_49
*1283 FE_PHC346_bus_wbuf_26
*1284 FE_PHC345_sram_addr_3
*1285 FE_PHC344_bus_wbuf_32
*1286 FE_PHC343_bus_wbuf_20
*1287 FE_PHC342_bus_wbuf_38
*1288 FE_PHC341_bus_wbuf_51
*1289 FE_PHC340_bus_wbuf_33
*1290 FE_PHC339_bus_wbuf_37
*1291 FE_PHC338_bus_wbuf_53
*1292 FE_PHC337_bus_wbuf_23
*1293 FE_PHC336_bus_wbuf_21
*1294 FE_PHC335_bus_wbuf_52
*1295 FE_PHC334_bus_wbuf_46
*1296 FE_PHC333_bus_wbuf_22
*1297 FE_PHC332_bus_wbuf_41
*1298 FE_PHC331_bus_wbuf_40
*1299 FE_PHC330_bus_wbuf_39
*1300 FE_PHC329_bus_wbuf_29
*1301 FE_PHC328_bus_wbuf_28
*1302 FE_PHC327_bus_wbuf_45
*1303 FE_PHC326_bus_wbuf_42
*1304 FE_PHC325_bus_wbuf_44
*1305 FE_PHC324_bus_wbuf_47
*1306 FE_PHC323_bus_wbuf_43
*1307 FE_PHC322_bus_wbuf_30
*1308 FE_PHC321_bus_wbuf_31
*1309 FE_PHC320_sram_addr_4
*1310 FE_PHC319_bus_wbuf_35
*1311 FE_PHC318_bus_wbuf_34
*1312 FE_PHC317_bus_wbuf_27
*1313 FE_PHC316_bus_wbuf_36
*1314 FE_PHC315_sram_addr_8
*1315 FE_PHC314_sram_addr_7
*1316 FE_PHC313_tpu_dout_31
*1317 FE_PHC311_rstn
*1318 FE_PHC310_sram_wen
*1319 FE_PHC309_bus_wbuf_15
*1320 FE_PHC308_bus_wbuf_14
*1321 FE_PHC307_bus_wbuf_16
*1322 FE_PHC306_bus_addr_7
*1323 FE_PHC305_bus_addr_8
*1324 FE_PHC304_bus_addr_4
*1325 FE_PHC303_bus_addr_3
*1326 FE_PHC302_bus_addr_5
*1327 FE_PHC301_bus_addr_6
*1328 FE_PHC300_bus_addr_9
*1329 FE_PHC299_bus_addr_11
*1330 FE_PHC298_tpu_re
*1331 FE_PHC297_tpu_dout_56
*1332 FE_PHC296_tpu_dout_54
*1333 FE_PHC295_tpu_dout_58
*1334 FE_PHC294_tpu_dout_57
*1335 FE_PHC293_tpu_dout_60
*1336 FE_PHC292_tpu_dout_61
*1337 FE_PHC291_tpu_dout_62
*1338 FE_PHC290_tpu_dout_63
*1339 FE_PHC289_tpu_dout_50
*1340 FE_PHC288_tpu_dout_55
*1341 FE_PHC287_tpu_dout_59
*1342 FE_PHC286_tpu_dout_5
*1343 FE_PHC285_tpu_dout_4
*1344 FE_PHC284_tpu_dout_52
*1345 FE_PHC283_tpu_dout_48
*1346 FE_PHC282_tpu_dout_51
*1347 FE_PHC281_tpu_dout_49
*1348 FE_PHC280_tpu_dout_7
*1349 FE_PHC279_tpu_dout_47
*1350 FE_PHC278_tpu_dout_53
*1351 FE_PHC277_tpu_dout_45
*1352 FE_PHC276_tpu_dout_39
*1353 FE_PHC275_tpu_dout_44
*1354 FE_PHC274_tpu_dout_46
*1355 FE_PHC273_tpu_dout_6
*1356 FE_PHC272_tpu_dout_2
*1357 FE_PHC271_tpu_dout_38
*1358 FE_PHC270_tpu_dout_40
*1359 FE_PHC269_tpu_dout_41
*1360 FE_PHC268_tpu_dout_42
*1361 FE_PHC267_tpu_dout_43
*1362 FE_PHC266_tpu_dout_1
*1363 FE_PHC265_tpu_dout_36
*1364 FE_PHC264_tpu_dout_37
*1365 FE_PHC263_tpu_dout_0
*1366 FE_PHC262_tpu_dout_19
*1367 FE_PHC261_tpu_dout_32
*1368 FE_PHC260_tpu_dout_34
*1369 FE_PHC259_tpu_dout_35
*1370 FE_PHC258_tpu_dout_3
*1371 FE_PHC257_tpu_dout_9
*1372 FE_PHC256_tpu_dout_10
*1373 FE_PHC255_tpu_dout_8
*1374 FE_PHC254_tpu_dout_15
*1375 FE_PHC253_tpu_dout_16
*1376 FE_PHC252_tpu_dout_33
*1377 FE_PHC251_tpu_dout_21
*1378 FE_PHC250_tpu_dout_18
*1379 FE_PHC249_tpu_dout_17
*1380 FE_PHC248_tpu_dout_22
*1381 FE_PHC247_tpu_dout_25
*1382 FE_PHC246_tpu_dout_28
*1383 FE_PHC245_tpu_dout_20
*1384 FE_PHC244_tpu_dout_27
*1385 FE_PHC243_tpu_dout_26
*1386 FE_PHC242_tpu_dout_23
*1387 FE_PHC241_tpu_dout_24
*1388 FE_PHC240_tpu_dout_29
*1389 FE_PHC239_tpu_dout_30
*1390 FE_PHC238_bus_addr_10
*1391 FE_PHC237_sram_addr_5
*1392 FE_PHC236_sram_addr_6
*1393 FE_PHC235_sram_addr_8
*1394 FE_PHC234_sram_addr_7
*1395 FE_PHC233_sram_addr_0
*1396 FE_PHC232_sram_addr_2
*1397 FE_PHC231_sram_addr_3
*1398 FE_PHC230_sram_addr_1
*1399 FE_PHC229_sram_addr_4
*1400 FE_PHC228_bus_wbuf_56
*1401 FE_PHC227_bus_wbuf_57
*1402 FE_PHC226_bus_wbuf_58
*1403 FE_PHC225_bus_wbuf_63
*1404 FE_PHC224_bus_wbuf_59
*1405 FE_PHC223_bus_wbuf_61
*1406 FE_PHC222_bus_wbuf_62
*1407 FE_PHC221_bus_wbuf_60
*1408 FE_PHC220_bus_wbuf_7
*1409 FE_PHC219_bus_wbuf_6
*1410 FE_PHC218_rstn
*1411 FE_PHC217_sram_cen
*1412 FE_PHC216_bus_wbuf_4
*1413 FE_PHC215_bus_wbuf_3
*1414 FE_PHC214_bus_wbuf_5
*1415 FE_PHC213_bus_wbuf_2
*1416 FE_PHC212_bus_wbuf_0
*1417 FE_PHC211_bus_wbuf_1
*1418 FE_PHC210_bus_wbuf_48
*1419 FE_PHC209_bus_wbuf_8
*1420 FE_PHC208_bus_wbuf_15
*1421 FE_PHC207_bus_wbuf_19
*1422 FE_PHC206_bus_wbuf_11
*1423 FE_PHC205_bus_wbuf_9
*1424 FE_PHC204_bus_wbuf_12
*1425 FE_PHC203_bus_wbuf_13
*1426 FE_PHC202_bus_wbuf_14
*1427 FE_PHC201_bus_wbuf_18
*1428 FE_PHC200_bus_wbuf_54
*1429 FE_PHC199_bus_wbuf_10
*1430 FE_PHC198_bus_wbuf_17
*1431 FE_PHC197_bus_wbuf_16
*1432 FE_PHC196_bus_wbuf_55
*1433 FE_PHC195_bus_wbuf_32
*1434 FE_PHC194_bus_wbuf_50
*1435 FE_PHC193_bus_wbuf_49
*1436 FE_PHC192_bus_wbuf_20
*1437 FE_PHC191_bus_wbuf_37
*1438 FE_PHC190_bus_wbuf_51
*1439 FE_PHC189_bus_wbuf_38
*1440 FE_PHC188_bus_wbuf_33
*1441 FE_PHC187_bus_wbuf_21
*1442 FE_PHC186_bus_wbuf_24
*1443 FE_PHC185_bus_wbuf_23
*1444 FE_PHC184_bus_wbuf_22
*1445 FE_PHC183_bus_wbuf_53
*1446 FE_PHC182_bus_wbuf_26
*1447 FE_PHC181_bus_wbuf_39
*1448 FE_PHC180_bus_wbuf_52
*1449 FE_PHC179_bus_wbuf_25
*1450 FE_PHC178_bus_wbuf_46
*1451 FE_PHC177_bus_wbuf_40
*1452 FE_PHC176_bus_wbuf_41
*1453 FE_PHC175_bus_wbuf_29
*1454 FE_PHC174_bus_wbuf_42
*1455 FE_PHC173_bus_wbuf_34
*1456 FE_PHC172_bus_wbuf_30
*1457 FE_PHC171_bus_wbuf_45
*1458 FE_PHC170_bus_wbuf_31
*1459 FE_PHC169_bus_wbuf_47
*1460 FE_PHC168_bus_wbuf_35
*1461 FE_PHC167_bus_wbuf_44
*1462 FE_PHC166_bus_wbuf_43
*1463 FE_PHC165_bus_wbuf_28
*1464 FE_PHC164_bus_wbuf_27
*1465 FE_PHC163_bus_addr_10
*1466 FE_PHC162_n_97
*1467 FE_PHC161_bus_wbuf_36
*1468 FE_PHC160_bus_addr_8
*1469 FE_PHC159_bus_addr_7
*1470 FE_PHC158_bus_addr_4
*1471 FE_PHC157_bus_addr_5
*1472 FE_PHC156_bus_addr_3
*1473 FE_PHC155_bus_addr_6
*1474 FE_PHC154_bus_addr_9
*1475 FE_PHC153_bus_addr_11
*1476 FE_PHC152_bus_addr_1
*1477 FE_PHC151_bus_addr_2
*1478 FE_PHC150_bus_addr_0
*1479 FE_PHC149_tpu_dout_29
*1480 FE_PHC147_tpu_dout_20
*1481 FE_PHC145_tpu_dout_30
*1482 FE_PHC143_tpu_dout_26
*1483 FE_PHC141_tpu_dout_24
*1484 FE_PHC139_tpu_dout_5
*1485 FE_PHC137_tpu_dout_28
*1486 FE_PHC135_tpu_dout_21
*1487 FE_PHC133_tpu_dout_25
*1488 FE_PHC131_tpu_dout_27
*1489 FE_PHC129_tpu_dout_13
*1490 FE_PHC127_tpu_dout_15
*1491 FE_PHC125_tpu_dout_33
*1492 FE_PHC123_tpu_dout_3
*1493 FE_PHC121_tpu_dout_6
*1494 FE_PHC119_tpu_dout_17
*1495 FE_PHC117_tpu_dout_18
*1496 FE_PHC115_tpu_dout_23
*1497 FE_PHC113_tpu_dout_31
*1498 FE_PHC111_tpu_dout_46
*1499 FE_PHC109_tpu_dout_44
*1500 FE_PHC107_tpu_dout_42
*1501 FE_PHC105_tpu_dout_4
*1502 FE_PHC103_tpu_dout_0
*1503 FE_PHC101_tpu_dout_9
*1504 FE_PHC99_tpu_dout_11
*1505 FE_PHC97_tpu_dout_12
*1506 FE_PHC95_tpu_dout_19
*1507 FE_PHC93_tpu_dout_40
*1508 FE_PHC91_tpu_dout_34
*1509 FE_PHC89_tpu_dout_1
*1510 FE_PHC87_tpu_dout_8
*1511 FE_PHC85_tpu_dout_10
*1512 FE_PHC83_tpu_dout_22
*1513 FE_PHC81_tpu_dout_41
*1514 FE_PHC79_tpu_dout_38
*1515 FE_PHC77_tpu_dout_36
*1516 FE_PHC75_tpu_dout_37
*1517 FE_PHC73_tpu_dout_32
*1518 FE_PHC71_tpu_dout_35
*1519 FE_PHC69_tpu_dout_58
*1520 FE_PHC67_tpu_dout_55
*1521 FE_PHC65_tpu_dout_51
*1522 FE_PHC63_tpu_dout_45
*1523 FE_PHC61_tpu_dout_43
*1524 FE_PHC59_tpu_dout_7
*1525 FE_PHC57_tpu_dout_2
*1526 FE_PHC55_tpu_dout_14
*1527 FE_PHC53_tpu_dout_16
*1528 FE_PHC51_tpu_dout_60
*1529 FE_PHC49_tpu_dout_61
*1530 FE_PHC47_tpu_dout_54
*1531 FE_PHC45_tpu_dout_50
*1532 FE_PHC43_tpu_dout_48
*1533 FE_PHC41_tpu_dout_49
*1534 FE_PHC39_tpu_dout_52
*1535 FE_PHC37_tpu_dout_47
*1536 FE_PHC35_tpu_dout_53
*1537 FE_PHC33_tpu_dout_39
*1538 FE_PHC31_tpu_dout_57
*1539 FE_PHC29_tpu_dout_62
*1540 FE_PHC27_tpu_dout_63
*1541 FE_PHC25_tpu_dout_59
*1542 FE_PHC23_tpu_dout_56
*1543 FE_PHC21_last_word_addr_3
*1544 FE_PHC20_last_word_addr_6
*1545 FE_PHC19_last_word_addr_4
*1546 FE_PHC18_last_word_addr_2
*1547 FE_PHC17_last_word_addr_7
*1548 FE_PHC16_last_word_addr_8
*1549 FE_PHC15_last_word_addr_5
*1550 FE_PHC14_last_word_addr_1
*1551 FE_PHC13_last_word_addr_0
*1552 FE_PHC12_bus_din_0
*1553 FE_PHC11_bus_we_d1
*1554 FE_PHC10_bus_din_6
*1555 FE_PHC9_bus_din_3
*1556 FE_PHC8_bus_din_5
*1557 FE_PHC7_bus_din_4
*1558 FE_PHC6_bus_din_7
*1559 FE_PHC5_bus_din_1
*1560 FE_PHC4_bus_din_2
*1561 FE_PHC3_bus_we
*1562 FE_PHC2_flush_d1
*1563 CTS_ccl_a_inv_00005
*1564 CTS_ccl_a_inv_00004
*1565 CTS_ccl_a_inv_00003
*1566 CTS_ccl_a_inv_00002
*1567 CTS_ccl_a_inv_00001
*1568 CTS_ccl_a_inv_00006
*1569 CTS_ccl_a_inv_00007
*1570 CTS_cmf_inv_00053
*1571 LTIELO
*1572 LTIEHI
*1573 FE_OFC0_rstn
*1574 u_sram
*1575 p96110A__2398
*1576 p96116A__5107
*1577 p96116A2176__6260
*1578 p96116A2177__4319
*1579 p96116A2178__8428
*1580 p96116A2179__5526
*1581 p96116A2180__6783
*1582 p96116A2181__3680
*1583 p96110A2182__1617
*1584 p96014A__2802
*1585 p96110A2183__1705
*1586 flush_d1_reg
*1587 p96217A__5122
*1588 bus_we_d1_reg
*1589 Fp96510A
*1590 p96479A__8246
*1591 p96214A__7098
*1592 bus_waddr_d1_reg\[1\]
*1593 bus_waddr_d1_reg\[7\]
*1594 bus_waddr_d1_reg\[5\]
*1595 flush_addr_reg\[5\]
*1596 bus_we_prev_reg
*1597 bus_waddr_d1_reg\[0\]
*1598 flush_addr_reg\[0\]
*1599 bus_waddr_d1_reg\[8\]
*1600 flush_addr_reg\[4\]
*1601 flush_addr_reg\[7\]
*1602 bus_waddr_d1_reg\[6\]
*1603 bus_waddr_d1_reg\[4\]
*1604 flush_addr_reg\[8\]
*1605 bus_waddr_d1_reg\[3\]
*1606 flush_addr_reg\[3\]
*1607 flush_addr_reg\[6\]
*1608 bus_waddr_d1_reg\[2\]
*1609 flush_addr_reg\[2\]
*1610 flush_addr_reg\[1\]
*1611 p96361A__6131
*1612 p96404A__1881
*1613 g2__5115
*1614 bus_wbuf_reg\[0\]
*1615 bus_wbuf_reg\[1\]
*1616 bus_wbuf_reg\[2\]
*1617 bus_wbuf_reg\[3\]
*1618 bus_wbuf_reg\[4\]
*1619 bus_wbuf_reg\[5\]
*1620 bus_wbuf_reg\[6\]
*1621 bus_wbuf_reg\[7\]
*1622 bus_wbuf_reg\[8\]
*1623 bus_wbuf_reg\[9\]
*1624 bus_wbuf_reg\[10\]
*1625 bus_wbuf_reg\[11\]
*1626 bus_wbuf_reg\[12\]
*1627 bus_wbuf_reg\[13\]
*1628 bus_wbuf_reg\[14\]
*1629 bus_wbuf_reg\[15\]
*1630 bus_wbuf_reg\[16\]
*1631 bus_wbuf_reg\[17\]
*1632 bus_wbuf_reg\[18\]
*1633 bus_wbuf_reg\[19\]
*1634 bus_wbuf_reg\[20\]
*1635 bus_wbuf_reg\[21\]
*1636 bus_wbuf_reg\[22\]
*1637 bus_wbuf_reg\[23\]
*1638 bus_wbuf_reg\[24\]
*1639 bus_wbuf_reg\[25\]
*1640 bus_wbuf_reg\[26\]
*1641 bus_wbuf_reg\[27\]
*1642 bus_wbuf_reg\[28\]
*1643 bus_wbuf_reg\[29\]
*1644 bus_wbuf_reg\[30\]
*1645 bus_wbuf_reg\[31\]
*1646 bus_wbuf_reg\[32\]
*1647 bus_wbuf_reg\[33\]
*1648 bus_wbuf_reg\[34\]
*1649 bus_wbuf_reg\[35\]
*1650 bus_wbuf_reg\[36\]
*1651 bus_wbuf_reg\[37\]
*1652 bus_wbuf_reg\[38\]
*1653 bus_wbuf_reg\[39\]
*1654 bus_wbuf_reg\[40\]
*1655 bus_wbuf_reg\[41\]
*1656 bus_wbuf_reg\[42\]
*1657 bus_wbuf_reg\[43\]
*1658 bus_wbuf_reg\[44\]
*1659 bus_wbuf_reg\[45\]
*1660 bus_wbuf_reg\[46\]
*1661 bus_wbuf_reg\[47\]
*1662 bus_wbuf_reg\[48\]
*1663 bus_wbuf_reg\[49\]
*1664 bus_wbuf_reg\[50\]
*1665 bus_wbuf_reg\[51\]
*1666 bus_wbuf_reg\[52\]
*1667 bus_wbuf_reg\[53\]
*1668 bus_wbuf_reg\[54\]
*1669 bus_wbuf_reg\[55\]
*1670 bus_wbuf_reg\[56\]
*1671 bus_wbuf_reg\[57\]
*1672 bus_wbuf_reg\[58\]
*1673 bus_wbuf_reg\[59\]
*1674 bus_wbuf_reg\[60\]
*1675 bus_wbuf_reg\[61\]
*1676 bus_wbuf_reg\[62\]
*1677 bus_wbuf_reg\[63\]
*1678 last_byte_sel_reg\[0\]
*1679 last_byte_sel_reg\[1\]
*1680 last_byte_sel_reg\[2\]
*1681 last_word_addr_reg\[0\]
*1682 last_word_addr_reg\[1\]
*1683 last_word_addr_reg\[2\]
*1684 last_word_addr_reg\[3\]
*1685 last_word_addr_reg\[4\]
*1686 last_word_addr_reg\[5\]
*1687 last_word_addr_reg\[6\]
*1688 last_word_addr_reg\[7\]
*1689 last_word_addr_reg\[8\]
*1690 p96178A__7482
*1691 p96178A3140__4733
*1692 p96178A3141__6161
*1693 p96178A3142__9315
*1694 p96178A3143__9945
*1695 p96178A3144__2883
*1696 p96178A3145__2346
*1697 p96178A3146__1666
*1698 p96186A__7410
*1699 p96186A3147__6417
*1700 p96186A3148__5477
*1701 p96186A3149__2398
*1702 p96186A3150__5107
*1703 p96186A3151__6260
*1704 p96186A3152__4319
*1705 p96186A3153__8428
*1706 p96178A3154__5526
*1707 p96178A3155__6783
*1708 p96178A3156__3680
*1709 p96178A3157__1617
*1710 p96178A3158__2802
*1711 p96178A3159__1705
*1712 p96178A3160__5122
*1713 p96178A3161__8246
*1714 p96186A3162__7098
*1715 p96186A3163__6131
*1716 p96186A3164__1881
*1717 p96186A3165__5115
*1718 p96186A3182__7482
*1719 p96186A3183__4733
*1720 p96186A3184__6161
*1721 p96178A3185__9315
*1722 p96178A3186__9945
*1723 p96178A3187__2883
*1724 p96178A3188__2346
*1725 p96186A3189__1666
*1726 p96186A3190__7410
*1727 p96178A3191__6417
*1728 p96178A3192__5477
*1729 p96186A3193__2398
*1730 p96178A3194__5107
*1731 p96178A3195__6260
*1732 p96186A3196__4319
*1733 p96186A3197__8428
*1734 p96186A3198__5526
*1735 p96186A3199__6783
*1736 p96186A3200__3680
*1737 p96186A3201__1617
*1738 p96184A__2802
*1739 p96184A3202__1705
*1740 p96184A3203__5122
*1741 p96184A3204__8246
*1742 p96184A3205__7098
*1743 p96184A3206__6131
*1744 p96414A__1881
*1745 p96435A__5115
*1746 p96414A3207__7482
*1747 p96184A3208__4733
*1748 p96184A3209__6161
*1749 p96186A3210__9315
*1750 p96186A3211__9945
*1751 p96186A3212__2883
*1752 p96186A3213__2346
*1753 p96186A3214__1666
*1754 p96186A3215__7410
*1755 p96186A3216__6417
*1756 p96186A3217__5477
*1757 p96329A__2398
*1758 p96435A3230__5107
*1759 p96449A__6260
*1760 p96397A__4319
*1761 p96454A__8428
*1762 p96416A__5526
*1763 p96480A__6783
*1764 p96407A__3680
*1765 Fp96438A
*1766 p96389A__1617
*1767 p96369A__2802
*1768 p96380A__1705
*1769 p96372A__5122
*1770 p96418A__8246
*1771 p96346A__7098
*1772 Fp96342A
*1773 p96329A3232__6131
*1774 Fp96541A
*1775 Fp96541A3233
*1776 Fp96333A
*1777 Fp96314A
*1778 Fp96541A3234
*1779 Fp96541A3235
*1780 Fp96541A3236
*1781 Fp96541A3237
*1782 Fp96541A3238
*1783 Fp96541A3239
*1784 g2205__1881


*PORTS

*634 I *C 10 324
*635 I *C 15 324
*636 I *C 0 5
*637 I *C 0 48.2
*638 I *C 0 44.6
*639 I *C 0 41
*640 I *C 0 37.4
*641 I *C 0 33.8
*642 I *C 0 30.2
*643 I *C 0 26.6
*644 I *C 0 23
*645 I *C 0 19.4
*646 I *C 0 15.8
*647 I *C 0 12.2
*648 I *C 0 8.6
*649 I *C 0 77
*650 I *C 0 73.4
*651 I *C 0 69.8
*652 I *C 0 66.2
*653 I *C 0 62.6
*654 I *C 0 59
*655 I *C 0 55.4
*656 I *C 0 51.8
*657 I *C 155 5
*658 I *C 155 37.4
*659 I *C 155 33.8
*660 I *C 155 30.2
*661 I *C 155 26.6
*662 I *C 155 23
*663 I *C 155 19.4
*664 I *C 155 15.8
*665 I *C 155 12.2
*666 I *C 155 8.6
*667 O *C 155 267.8
*668 O *C 155 264.2
*669 O *C 155 260.6
*670 O *C 155 257
*671 O *C 155 253.4
*672 O *C 155 249.8
*673 O *C 155 246.2
*674 O *C 155 242.6
*675 O *C 155 239
*676 O *C 155 235.4
*677 O *C 155 231.8
*678 O *C 155 228.2
*679 O *C 155 224.6
*680 O *C 155 221
*681 O *C 155 217.4
*682 O *C 155 213.8
*683 O *C 155 210.2
*684 O *C 155 206.6
*685 O *C 155 203
*686 O *C 155 199.4
*687 O *C 155 195.8
*688 O *C 155 192.2
*689 O *C 155 188.6
*690 O *C 155 185
*691 O *C 155 181.4
*692 O *C 155 177.8
*693 O *C 155 174.2
*694 O *C 155 170.6
*695 O *C 155 167
*696 O *C 155 163.4
*697 O *C 155 159.8
*698 O *C 155 156.2
*699 O *C 155 152.6
*700 O *C 155 149
*701 O *C 155 145.4
*702 O *C 155 141.8
*703 O *C 155 138.2
*704 O *C 155 134.6
*705 O *C 155 131
*706 O *C 155 127.4
*707 O *C 155 123.8
*708 O *C 155 120.2
*709 O *C 155 116.6
*710 O *C 155 113
*711 O *C 155 109.4
*712 O *C 155 105.8
*713 O *C 155 102.2
*714 O *C 155 98.6
*715 O *C 155 95
*716 O *C 155 91.4
*717 O *C 155 87.8
*718 O *C 155 84.2
*719 O *C 155 80.6
*720 O *C 155 77
*721 O *C 155 73.4
*722 O *C 155 69.8
*723 O *C 155 66.2
*724 O *C 155 62.6
*725 O *C 155 59
*726 O *C 155 55.4
*727 O *C 155 51.8
*728 O *C 155 48.2
*729 O *C 155 44.6
*730 O *C 155 41


*D_NET *1 0.00371899

*CONN
*I *1107:I I *C 147.7 164.8 *L 0.00105 *D DEL1
*I *941:Z O *C 145.7 152.8 *L 0 *D CKBD0

*CAP
1 *941:Z 3.7201e-05
2 *1107:I 0.00010026
3 *1:2 0.00109967008
4 *1:3 1.08566e-05
5 *1:4 0.00105878
6 *1:5 0.000640253
7 *1:6 0.000771959

*RES
1 *1:2 *1:3 0.159249
2 *941:Z *1:6 2.64101
3 *1:4 *1:6 0.898266
4 *1:3 *1:4 3.53094
5 *1:2 *1:5 4.33591986
6 *1107:I *1:5 2.29565
*END

*D_NET *2 0.0093168

*CONN
*I *942:Z O *C 138.1 132 *L 0 *D BUFFD1
*I *1023:I I *C 137.7 177.6 *L 0.00103 *D DEL2

*CAP
1 *1023:I 0.000101194
2 *942:Z 0.000256288
3 *2:2 0.00256151016
4 *2:3 0.000154078
5 *2:3 *155:3 0.00293624
6 *942:Z *783:4 0.000388841016
7 *2:2 *3:2 0.00172873
8 *2:2 *617:8 0.00118990008

*RES
1 *942:Z *2:2 1.93815
2 *1023:I *2:3 1.17563
3 *2:3 *2:2 37.6016998
*END

*D_NET *3 0.0176792

*CONN
*I *943:Z O *C 138.1 92.4 *L 0 *D BUFFD1
*I *1170:I I *C 145.1 156 *L 0.00103 *D DEL015

*CAP
1 *943:Z 0.000102465
2 *3:2 0.00233891016
3 *3:3 0.000301255
4 *3:4 0.000990918
5 *3:5 0.00024069
6 *3:6 0.000608934
7 *943:Z *614:3 0.00492850031
8 *3:2 *617:4 0.0030032
9 *3:2 *2:2 0.00172873
10 *943:Z *1634:Q 0.000846955
11 *3:3 *867:2 0.000778862031
12 *3:3 *883:2 0.000251192012
13 *3:2 *942:I 0.00155863

*RES
1 *3:4 *3:6 5.63316
2 *3:3 *3:6 6.14897
3 *943:Z *3:5 2.08698
4 *3:2 *3:4 55.5985985
5 *1170:I *3:3 1.95379
6 *3:2 *3:5 0.224817
*END

*D_NET *4 0.0162215

*CONN
*I *944:Z O *C 151.3 106 *L 0 *D CKBD1
*I *1109:I I *C 141.7 163.2 *L 0.00105 *D DEL1

*CAP
1 *1109:I 0.000266677
2 *4:2 0.000913876
3 *4:3 0.00356812
4 *4:4 0.000117277
5 *4:5 0.000703606
6 *4:6 4.96548e-05
7 *4:3 *53:4 0.00322793
8 *4:2 *1105:I 0.000197545996
9 *4:2 *338:2 0.00230459
10 *4:2 *840:22 0.00117668
11 *4:3 *154:4 0.000295401016
12 *4:3 *264:2 0.000293171992
13 *4:3 *616:5 0.00286198
14 *4:3 *776:2 0.00024501

*RES
1 *4:5 *4:6 0.093551
2 *1109:I *4:2 4.14331
3 *4:6 *4:3 3.36088
4 *4:4 *4:5 5.65559
5 *4:2 *4:3 50.6691017
6 *944:Z *4:4 0.224986
*END

*D_NET *5 0.0041699

*CONN
*I *1022:I I *C 138.7 174 *L 0.00104 *D DEL0
*I *945:Z O *C 138.1 156.4 *L 0 *D CKBD0

*CAP
1 *945:Z 0.00046723
2 *1022:I 5.57351e-05
3 *5:2 9.82698e-05
4 *5:3 0.00176736
5 *5:4 1.27658e-06
6 *5:5 0.00178002

*RES
1 *5:2 *5:3 7.04811001
2 *1022:I *5:2 0.482235
3 *5:3 *5:4 0.159275
4 *945:Z *5:5 1.71116
5 *5:4 *5:5 6.3681
*END

*D_NET *6 0.0036704

*CONN
*I *946:Z O *C 142.7 160 *L 0 *D CKBD1
*I *950:I I *C 151.1 164.8 *L 0.000643 *D CKBD0

*CAP
1 *946:Z 0.000693775
2 *6:2 0.000303218
3 *6:3 0.0026734

*RES
1 *6:2 *6:3 5.66122
2 *946:Z *6:3 7.97004986
3 *950:I *6:2 1.27779
*END

*D_NET *7 0.00185949

*CONN
*I *947:Z O *C 151.7 80.8 *L 0 *D BUFFD1
*I *1742:A2 I *C 141.7 80.4 *L 0.000697 *D MOAI22D0

*CAP
1 *1742:A2 0.000211729
2 *947:Z 0.000114855
3 *7:2 0.000277984
4 *7:3 0.00125492

*RES
1 *7:2 *7:3 6.65804005
2 *947:Z *7:2 0.351006
3 *1742:A2 *7:3 1.32234
*END

*D_NET *8 0.00628645

*CONN
*I *948:Z O *C 151.5 51.8 *L 0 *D DEL005
*I *1557:I I *C 137.5 66 *L 0.00103 *D BUFFD2

*CAP
1 *1557:I 5.39605e-05
2 *8:2 0.000201269
3 *8:3 6.07208e-07
4 *8:4 0.00265289
5 *1557:I *617:3 0.000376280977
6 *8:4 *71:2 0.000507261992
7 *1557:I *484:3 0.000605675
8 *8:3 *619:3 0.000833639063
9 *8:2 *726:3 0.00105488

*RES
1 *8:2 *8:4 12.3576002
2 *1557:I *8:3 1.16965
3 *8:3 *8:4 12.2341
4 *948:Z *8:2 0.350914
*END

*D_NET *9 0.000804954

*CONN
*I *949:Z O *C 151.9 163.6 *L 0 *D CKBD0
*I *958:I I *C 151.3 159.6 *L 0.000643 *D CKBD0

*CAP
1 *958:I 0.000354382
2 *949:Z 7.90823e-05
3 *9:2 0.00037149

*RES
1 *949:Z *9:2 1.90348
2 *958:I *9:2 2.51241994
*END

*D_NET *10 0.00499984

*CONN
*I *946:I I *C 142.1 159.6 *L 0.000968 *D CKBD1
*I *957:Z O *C 148.7 171.8 *L 0 *D DEL005

*CAP
1 *946:I 0.000812923
2 *10:2 0.00016967
3 *10:3 0.00285917
4 *10:4 0.00115807

*RES
1 *946:I *10:3 4.36901
2 *10:2 *10:4 4.96937
3 *957:Z *10:2 0.350963
4 *10:3 *10:4 10.0089998
*END

*D_NET *11 0.00627717

*CONN
*I *951:Z O *C 139.3 181.4 *L 0 *D DEL005
*I *956:I I *C 141.7 150.4 *L 0.000643 *D CKBD0

*CAP
1 *11:2 0.00126879
2 *11:4 0.000144793
3 *11:5 0.00170543
4 *11:2 *83:3 0.00030037502
5 *11:2 *909:3 0.000623224961
6 *11:2 *910:2 0.00120676992
7 *11:2 *838:9 0.00102778992

*RES
1 *11:3 *11:5 8.91393
2 *11:4 *11:2 2.18211
3 *11:2 *11:6 15.5071001
4 *956:I *11:4 0.45005
5 *951:Z *11:3 0.225025
6 *11:5 *11:6 0.225025
*END

*D_NET *12 0.0120232

*CONN
*I *951:I I *C 138.7 181.2 *L 0.00182 *D DEL005
*I *952:Z O *C 149.3 145.6 *L 0 *D CKBD0

*CAP
1 *952:Z 6.1968e-05
2 *12:2 0.00101979
3 *12:3 0.000821929
4 *12:4 0.00054868
5 *12:5 4.90147e-05
6 *12:6 0.000258154
7 *12:7 0.00138935
8 *12:8 2.53553e-05
9 *12:3 *16:2 0.000333065977
10 *12:2 *169:2 0.00184404
11 *12:2 *536:8 0.00137883
12 *12:2 *618:30 0.00224393016
13 *12:3 *620:34 0.00204913

*RES
1 *12:2 *12:8 13.6759
2 *12:2 *12:7 2.95785
3 *12:5 *12:6 19.1357994
4 *12:3 *12:5 3.51175
5 *952:Z *12:4 1.76478
6 *12:4 *12:7 6.13644
7 *951:I *12:3 0.225124
8 *12:6 *12:8 0.225124
*END

*D_NET *13 0.00278572

*CONN
*I *950:Z O *C 151.7 164.4 *L 0 *D CKBD0
*I *953:I I *C 144.7 177.6 *L 0.000643 *D CKBD0

*CAP
1 *953:I 0.00070494
2 *13:2 5.45468e-05
3 *13:3 8.87235e-05
4 *13:4 0.00193752

*RES
1 *13:2 *13:4 8.34650993
2 *13:3 *13:4 2.42056
3 *950:Z *13:3 0.449955
4 *953:I *13:2 3.24838
*END

*D_NET *14 0.000614594

*CONN
*I *949:I I *C 151.3 163.2 *L 0.000643 *D CKBD0
*I *954:Z O *C 151.9 160.8 *L 0 *D CKBD0

*CAP
1 *949:I 0.000123309
2 *954:Z 2.4197e-05
3 *14:2 0.000467085

*RES
1 *954:Z *14:2 0.468742
2 *949:I *14:2 2.93600988
*END

*D_NET *15 0.00342146

*CONN
*I *955:I I *C 142.5 96.4 *L 0.00072 *D BUFFD1
*I *966:Z O *C 139.1 105.8 *L 0 *D DEL005

*CAP
1 *955:I 7.2504e-05
2 *15:2 0.00107984
3 *15:4 0.00141373
4 *15:5 0.000855378

*RES
1 *15:2 *15:3 3.31922
2 *955:I *15:2 0.384856
3 *15:3 *15:4 0.769645
4 *966:Z *15:5 2.89235
5 *15:4 *15:5 4.34335995
*END

*D_NET *16 0.00643861

*CONN
*I *956:Z O *C 142.3 150 *L 0 *D CKBD0
*I *1009:I I *C 145.9 184.8 *L 0.00103 *D DEL015

*CAP
1 *956:Z 2.35906e-06
2 *16:2 0.000819482
3 *16:3 0.000466803
4 *16:4 0.000205707
5 *16:5 0.000425212
6 *16:6 0.00061489
7 *16:7 6.80249e-06
8 *16:8 3.19442e-05
9 *16:9 0.00105891
10 *16:9 *82:3 0.000298318008
11 *16:9 *233:3 0.000255127012
12 *16:9 *536:9 0.000716191016
13 *16:2 *52:8 0.000289879004
14 *16:3 *618:30 0.000453566016
15 *16:3 *91:12 0.000460337031
16 *16:2 *12:3 0.000333065977

*RES
1 *16:5 *16:3 0.674882
2 *16:8 *16:9 0.728742
3 *16:7 *16:9 17.8271008
4 *16:6 *16:2 3.16985
5 *1009:I *16:4 1.29726
6 *956:Z *16:5 0.40531
7 *16:3 *16:8 3.78978
8 *16:4 *16:6 2.60105
9 *16:2 *16:7 0.224961
*END

*D_NET *17 0.001824

*CONN
*I *957:I I *C 148.1 172 *L 0.00182 *D DEL005
*I *960:Z O *C 151.7 167 *L 0 *D DEL005

*CAP
1 *960:Z 0.000204865
2 *957:I 9.06028e-05
3 *17:2 0.00134245
4 *17:3 3.71998e-05
5 *17:4 0.000148902

*RES
1 *17:2 *17:3 3.82048988
2 *957:I *17:4 0.609835
3 *960:Z *17:2 3.01017
4 *17:3 *17:4 0.527987
*END

*D_NET *18 0.00147467

*CONN
*I *954:I I *C 151.3 161.2 *L 0.000643 *D CKBD0
*I *961:Z O *C 148.5 157.2 *L 0 *D CKBD0

*CAP
1 *954:I 0.000271688
2 *961:Z 0.000583635
3 *18:2 0.000619348984

*RES
1 *954:I *18:2 3.70664001
2 *961:Z *18:2 2.14318
*END

*D_NET *19 0.00191409

*CONN
*I *955:Z O *C 143.1 96 *L 0 *D BUFFD1
*I *959:I I *C 137.7 100 *L 0.000643 *D CKBD0

*CAP
1 *955:Z 0.000221161
2 *19:2 8.53637e-05
3 *19:4 0.00160756

*RES
1 *19:2 *19:4 3.62449002
2 *19:3 *19:4 2.74115
3 *955:Z *19:2 0.70459
4 *959:I *19:3 0.450019
*END

*D_NET *20 0.00286686

*CONN
*I *953:Z O *C 145.3 178 *L 0 *D CKBD0
*I *988:I I *C 146.3 164.8 *L 0.000643 *D CKBD0

*CAP
1 *953:Z 1.02124e-05
2 *988:I 0.00054148
3 *20:2 0.000496495
4 *20:3 0.00181867

*RES
1 *988:I *20:3 2.71348
2 *20:2 *20:3 7.02553988
3 *953:Z *20:2 1.94174
*END

*D_NET *21 0.00240673

*CONN
*I *958:Z O *C 151.9 160 *L 0 *D CKBD0
*I *967:I I *C 148.7 154 *L 0.000643 *D CKBD0

*CAP
1 *21:2 9.47705e-05
2 *21:3 0.000244104
3 *21:4 0.000657259
4 *21:5 0.00141058

*RES
1 *21:2 *21:4 2.57108
2 *21:4 *21:5 5.46735001
3 *21:3 *21:5 0.449995
4 *967:I *21:3 0.449995
5 *958:Z *21:2 0.224998
*END

*D_NET *22 0.00275278

*CONN
*I *952:I I *C 148.7 145.2 *L 0.000643 *D CKBD0
*I *962:Z O *C 145.5 142 *L 0 *D CKBD0

*CAP
1 *952:I 0.000344224
2 *962:Z 0.000587862
3 *22:2 0.000605272
4 *22:3 0.000596009
5 *22:4 0.000619421016

*RES
1 *962:Z *22:3 2.30227
2 *22:2 *22:4 2.44514
3 *22:2 *22:3 1.96919
4 *952:I *22:4 3.29788995
*END

*D_NET *23 0.000831579

*CONN
*I *959:Z O *C 138.3 99.6 *L 0 *D CKBD0
*I *963:I I *C 137.9 103.6 *L 0.000643 *D CKBD0

*CAP
1 *959:Z 0.000831579063

*RES
1 *963:I *959:Z 3.44417
*END

*D_NET *24 0.00323093

*CONN
*I *961:I I *C 147.9 157.6 *L 0.000643 *D CKBD0
*I *964:Z O *C 151.1 145.4 *L 0 *D DEL005

*CAP
1 *961:I 0.000305367
2 *24:2 0.000101042
3 *24:3 0.000619987
4 *24:4 0.000106357
5 *24:5 0.00209816

*RES
1 *24:4 *24:5 2.65314
2 *24:3 *24:5 8.00240993
3 *964:Z *24:2 0.449965
4 *24:2 *24:4 0.449965
5 *961:I *24:3 1.85639
*END

*D_NET *25 0.000690528

*CONN
*I *965:Z O *C 138.5 146.6 *L 0 *D DEL005
*I *968:I I *C 138.7 150.4 *L 0.00182 *D DEL005

*CAP
1 *968:I 4.26483e-05
2 *965:Z 0.00064788

*RES
1 *965:Z *968:I 2.64334
*END

*D_NET *26 0.00132658

*CONN
*I *966:I I *C 138.5 105.6 *L 0.00182 *D DEL005
*I *973:Z O *C 138.5 110.6 *L 0 *D DEL005

*CAP
1 *966:I 0.000671471016
2 *26:2 0.000655108

*RES
1 *966:I *26:2 2.26723
2 *973:Z *26:2 2.60981989
*END

*D_NET *27 0.00297149

*CONN
*I *964:I I *C 150.5 145.2 *L 0.00182 *D DEL005
*I *972:Z O *C 148.5 153.8 *L 0 *D DEL005

*CAP
1 *972:Z 0.000214743
2 *27:2 0.000126433
3 *27:3 0.000462752
4 *27:4 8.7262e-05
5 *27:5 0.00208029016

*RES
1 *27:3 *27:5 6.48978996
2 *27:4 *27:5 1.82337
3 *972:Z *27:3 0.449976
4 *27:2 *27:4 1.61136
5 *964:I *27:2 0.224988
*END

*D_NET *28 0.00138151

*CONN
*I *968:Z O *C 139.3 150.2 *L 0 *D DEL005
*I *970:I I *C 140.7 154 *L 0.00182 *D DEL005

*CAP
1 *28:3 0.00138151

*RES
1 *968:Z *28:3 1.56877
2 *28:2 *28:3 2.87333012
3 *970:I *28:2 0.225005
*END

*D_NET *29 0.00140123

*CONN
*I *963:Z O *C 138.5 103.2 *L 0 *D CKBD0
*I *969:I I *C 137.9 109.2 *L 0.000643 *D CKBD0

*CAP
1 *963:Z 9.0404e-05
2 *969:I 0.000423911
3 *29:2 0.00088692

*RES
1 *29:2 *29:3 3.14793992
2 *969:I *29:3 2.02275
3 *963:Z *29:2 0.384222
*END

*D_NET *30 0.00247724

*CONN
*I *970:Z O *C 141.3 153.8 *L 0 *D DEL005
*I *974:I I *C 137.9 157.6 *L 0.00182 *D DEL005

*CAP
1 *970:Z 3.16901e-05
2 *30:2 0.000332918
3 *30:3 6.65336e-05
4 *30:4 0.00204612

*RES
1 *970:Z *30:2 1.01704
2 *30:2 *30:4 3.69589
3 *30:3 *30:4 3.90056992
4 *974:I *30:3 0.609226
*END

*D_NET *31 0.00123576

*CONN
*I *971:Z O *C 138.1 124.8 *L 0 *D CKBD0
*I *1709:B1 I *C 141.5 123.8 *L 0.000863 *D AO22D0

*CAP
1 *1709:B1 0.000346641
2 *31:2 0.000104148
3 *31:3 0.000784973047

*RES
1 *31:2 *31:3 2.51731992
2 *971:Z *31:3 0.449988
3 *1709:B1 *31:2 1.40927
*END

*D_NET *32 0.00237272

*CONN
*I *972:I I *C 147.9 154 *L 0.00182 *D DEL005
*I *1778:ZN O *C 144.9 160 *L 0 *D INVD1

*CAP
1 *972:I 0.000242457
2 *32:2 0.000783854
3 *32:3 6.51061e-05
4 *32:4 0.00128129992

*RES
1 *32:2 *32:3 2.4925
2 *972:I *32:4 1.2459
3 *32:3 *32:4 4.66364002
4 *1778:ZN *32:2 0.225013
*END

*D_NET *33 0.00471856

*CONN
*I *969:Z O *C 138.5 109.6 *L 0 *D CKBD0
*I *971:I I *C 137.5 125.2 *L 0.000643 *D CKBD0

*CAP
1 *969:Z 0.000218418
2 *971:I 0.00119588
3 *33:2 0.000869103
4 *33:3 0.00243519

*RES
1 *33:2 *33:3 7.68043
2 *969:Z *33:3 2.08076
3 *971:I *33:2 8.75930023
*END

*D_NET *34 0.00267868

*CONN
*I *974:Z O *C 138.5 157.4 *L 0 *D DEL005
*I *980:I I *C 138.5 166.8 *L 0.00182 *D DEL005

*CAP
1 *980:I 0.000123995
2 *34:2 0.000188622
3 *34:3 0.000284858
4 *34:4 8.86861e-05
5 *34:5 0.00108738008
6 *34:6 0.00090513

*RES
1 *34:4 *34:5 4.06191015
2 *34:4 *34:6 0.666221
3 *34:3 *34:6 3.23702
4 *980:I *34:3 1.26272
5 *34:2 *34:5 0.449974
6 *974:Z *34:2 0.224987
*END

*D_NET *35 0.00390626

*CONN
*I *975:Z O *C 138.9 139.4 *L 0 *D DEL005
*I *978:I I *C 138.1 145.2 *L 0.000643 *D CKBD0

*CAP
1 *978:I 8.11827e-05
2 *35:2 0.00124081
3 *35:3 0.000115421
4 *35:4 0.00100803
5 *35:5 0.00146082

*RES
1 *35:4 *35:5 3.10514
2 *35:2 *35:3 3.87097
3 *975:Z *35:4 0.45002
4 *35:3 *35:5 5.58464003
5 *978:I *35:2 0.864419
*END

*D_NET *36 0.00934921

*CONN
*I *976:Z O *C 140.1 242.8 *L 0 *D DEL0
*I *1718:A2 I *C 144.9 202.8 *L 0.000697 *D MOAI22D0

*CAP
1 *1718:A2 0.000135568
2 *36:2 0.00173524
3 *36:3 0.000240924
4 *36:4 5.1341e-05
5 *1718:A2 *842:26 0.000461703008
6 *36:2 *852:14 0.000335440977
7 *36:2 *319:2 0.000998613984
8 *36:2 *52:7 0.00370109
9 *36:2 *79:5 0.00119269
10 *36:2 *620:33 0.000496605977

*RES
1 *36:2 *36:4 30.7268009
2 *1718:A2 *36:2 4.17608
3 *36:3 *36:4 1.20542
4 *976:Z *36:3 0.22505
*END

*D_NET *37 0.00400794

*CONN
*I *973:I I *C 137.9 110.8 *L 0.00182 *D DEL005
*I *977:Z O *C 138.3 121.2 *L 0 *D CKBD0

*CAP
1 *973:I 0.000104778
2 *37:2 0.00171837
3 *37:3 0.000127511
4 *37:4 0.000506924
5 *37:5 7.27099e-05
6 *37:6 5.94684e-05
7 *37:7 0.00141817

*RES
1 *973:I *37:5 0.834994
2 *37:4 *37:7 5.67892981
3 *37:3 *37:4 2.01556
4 *37:2 *37:6 5.00156
5 *37:2 *37:5 2.05776
6 *977:Z *37:3 0.225039
7 *37:6 *37:7 0.225039
*END

*D_NET *38 0.000349318

*CONN
*I *978:Z O *C 138.7 145.6 *L 0 *D CKBD0
*I *987:I I *C 138.7 146.8 *L 0.000643 *D CKBD0

*CAP
1 *978:Z 0.000349318008

*RES
1 *987:I *978:Z 1.51122
*END

*D_NET *39 0.0132242

*CONN
*I *947:I I *C 151.1 80.4 *L 0.00072 *D BUFFD1
*I *979:Z O *C 148.3 114 *L 0 *D CKBD0
*I *1755:A2 I *C 142.3 102 *L 0.001 *D MOAI22D1
*I *1734:A2 I *C 145.9 78.4 *L 0.000697 *D MOAI22D0

*CAP
1 *979:Z 0.000188761
2 *39:4 0.000328173
3 *39:5 0.00161305
4 *39:6 0.000431402
5 *39:8 0.000613838
6 *39:10 0.00104433
7 *39:11 0.000488875
8 *39:12 0.0011084
9 *39:13 0.000561091
10 *39:14 0.00123058
11 *39:15 0.000835212
12 *39:16 0.000278946
13 *39:17 0.000504283
14 *39:18 0.000246259
15 *39:19 0.000674043
16 *39:5 *737:2 0.000630549023
17 *39:10 *858:10 0.000411816016
18 *39:10 *860:9 0.000816748984
19 *39:4 *779:2 0.000556104023
20 *39:5 *1621:Q 0.000661716016

*RES
1 *39:17 *39:19 3.24858
2 *39:11 *39:14 0.973005
3 *39:9 *39:15 3.29849
4 *39:11 *39:13 3.10394
5 *947:I *39:16 1.33155
6 *39:6 *39:16 2.08383
7 *39:5 *39:7 4.94747
8 *39:4 *39:19 4.97091007
9 *39:4 *39:18 2.67531
10 *39:12 *39:18 3.30737
11 *39:6 *39:14 4.74397
12 *979:Z *39:17 1.4859
13 *39:8 *39:15 1.60453
14 *39:7 *39:8 2.32276
15 *39:9 *39:10 3.3569
16 *39:5 *39:13 1.4592
17 *39:10 *39:12 4.87633
18 *1755:A2 *39:12 0.450018
19 *1734:A2 *39:11 0.450018
*END

*D_NET *40 0.00151076

*CONN
*I *980:Z O *C 139.1 167 *L 0 *D DEL005
*I *983:I I *C 138.5 163.2 *L 0.00182 *D DEL005

*CAP
1 *980:Z 2.31271e-05
2 *40:2 0.000152291
3 *40:3 0.000385113
4 *40:4 0.00095024

*RES
1 *40:2 *40:4 0.449986
2 *40:3 *40:4 3.36339998
3 *980:Z *40:3 0.674979
4 *983:I *40:2 0.224993
*END

*D_NET *41 0.00182454

*CONN
*I *967:Z O *C 149.3 153.6 *L 0 *D CKBD0
*I *981:I I *C 144.7 157.6 *L 0.000968 *D CKBD1

*CAP
1 *41:2 0.000810165
2 *41:3 0.000948312969
3 *41:4 6.6057e-05

*RES
1 *41:2 *41:4 2.66919
2 *41:3 *41:4 3.20105004
3 *981:I *41:3 0.450001
4 *967:Z *41:2 0.224976
*END

*D_NET *42 0.00363767

*CONN
*I *977:I I *C 137.7 121.6 *L 0.000643 *D CKBD0
*I *982:Z O *C 151.9 116.6 *L 0 *D DEL005

*CAP
1 *977:I 8.66233e-05
2 *982:Z 0.000411229
3 *42:2 7.37417e-05
4 *42:3 0.00178855
5 *42:4 0.00127752

*RES
1 *42:2 *42:4 5.59129
2 *982:Z *42:2 2.68338
3 *977:I *42:3 1.60315
4 *42:3 *42:4 5.96210003
*END

*D_NET *43 0.000656918

*CONN
*I *983:Z O *C 139.1 163.4 *L 0 *D DEL005
*I *1006:I I *C 140.3 164.8 *L 0.00103 *D DEL01

*CAP
1 *1006:I 5.56504e-05
2 *983:Z 0.000250523
3 *43:2 0.000350745

*RES
1 *983:Z *43:2 2.1551199
2 *1006:I *43:2 0.449992
*END

*D_NET *44 0.00942401

*CONN
*I *984:Z O *C 140.1 240 *L 0 *D DEL015
*I *1715:A2 I *C 144.1 193.6 *L 0.000697 *D MOAI22D0
*I *1701:A2 I *C 147.1 193.6 *L 0.000697 *D MOAI22D0

*CAP
1 *1715:A2 6.18968e-05
2 *44:3 0.00132527
3 *44:4 0.000239744
4 *44:5 0.0046306
5 *44:6 0.000115456
6 *44:7 0.000505278
7 *44:3 *470:44 0.000714519063
8 *44:3 *73:13 0.00114476
9 *44:3 *462:11 0.000395601016
10 *1715:A2 *464:9 0.000290877012

*RES
1 *44:3 *44:5 9.87309
2 *44:6 *44:7 2.18224
3 *44:4 *44:5 23.1641006
4 *984:Z *44:4 0.913684
5 *1715:A2 *44:7 0.675101
6 *44:3 *44:7 2.81139
7 *1701:A2 *44:6 0.44995
*END

*D_NET *45 0.00728892

*CONN
*I *985:Z O *C 143.5 91.6 *L 0 *D CKBD0
*I *1729:A2 I *C 147.5 69.6 *L 0.000697 *D MOAI22D0
*I *1738:A2 I *C 142.7 64 *L 0.000697 *D MOAI22D0

*CAP
1 *1738:A2 0.000783051
2 *1729:A2 0.000145603
3 *45:3 0.00108445
4 *45:4 0.000352481
5 *45:5 0.000129353
6 *45:6 5.48224e-05
7 *45:7 0.000427591
8 *45:8 0.000178235
9 *45:9 0.000385428
10 *45:3 *472:8 0.00139834
11 *45:6 *858:11 0.00027608002
12 *1729:A2 *1262:I 0.000254388008
13 *45:3 *537:25 0.00137411
14 *45:4 *857:24 0.000445001016

*RES
1 *45:9 *45:4 4.12015
2 *45:8 *45:9 5.44083977
3 *45:7 *45:8 1.87079
4 *1729:A2 *45:5 0.659682
5 *45:3 *45:4 2.79165
6 *45:6 *45:7 3.78142
7 *45:5 *45:3 3.78408
8 *1738:A2 *45:3 5.0455
9 *985:Z *45:6 0.224986
*END

*D_NET *46 0.00168915

*CONN
*I *986:Z O *C 143.9 134.6 *L 0 *D DEL005
*I *1712:B1 I *C 141.5 138.2 *L 0.000863 *D AO22D0

*CAP
1 *1712:B1 3.43485e-06
2 *986:Z 0.000355581
3 *46:2 0.000803938984
4 *46:3 0.000526195

*RES
1 *46:2 *46:3 4.86870003
2 *986:Z *46:2 1.29867
3 *1712:B1 *46:3 0.350948
*END

*D_NET *47 0.000912114

*CONN
*I *987:Z O *C 139.3 146.4 *L 0 *D CKBD0
*I *992:I I *C 140.7 148.8 *L 0.000968 *D CKBD1

*CAP
1 *47:2 0.000912114063

*RES
1 *992:I *47:2 1.55634
2 *987:Z *47:2 1.91794002
*END

*D_NET *48 0.00254037

*CONN
*I *960:I I *C 151.1 166.8 *L 0.00182 *D DEL005
*I *1006:Z O *C 142.1 164.4 *L 0 *D DEL01

*CAP
1 *960:I 0.00023719
2 *1006:Z 8.17084e-05
3 *48:2 0.000133047
4 *48:3 0.00208844

*RES
1 *48:2 *48:3 6.46818018
2 *1006:Z *48:3 3.28028
3 *960:I *48:2 0.980945
*END

*D_NET *49 0.00467762

*CONN
*I *989:Z O *C 151.9 41.2 *L 0 *D BUFFD0
*I *995:I I *C 137.5 51.6 *L 0.000643 *D CKBD0

*CAP
1 *995:I 2.98524e-05
2 *989:Z 0.000112241
3 *49:2 0.000558528
4 *49:3 0.000470951
5 *49:5 0.00350605

*RES
1 *49:4 *49:5 4.91761
2 *49:2 *49:4 2.77383
3 *995:I *49:2 0.329957
4 *49:3 *49:5 11.1868
5 *989:Z *49:3 0.350953
*END

*D_NET *50 0.00688243

*CONN
*I *990:Z O *C 140.1 239.2 *L 0 *D DEL0
*I *1714:A2 I *C 142.1 200.8 *L 0.000697 *D MOAI22D0

*CAP
1 *1714:A2 0.000530816
2 *50:2 0.00191643
3 *50:3 0.00102631
4 *50:4 3.09097e-05
5 *50:4 *181:10 0.000962673984
6 *50:2 *69:5 0.00212331016
7 *50:2 *841:14 0.000291985996

*RES
1 *50:4 *50:2 23.2080002
2 *50:3 *50:4 3.36243
3 *990:Z *50:3 1.93778
4 *1714:A2 *50:2 2.55608
*END

*D_NET *51 0.000625879

*CONN
*I *991:Z O *C 138.1 127.6 *L 0 *D CKBD0
*I *1076:I I *C 138.7 127.2 *L 0.00182 *D DEL005

*CAP
1 *1076:I 0.0002576
2 *991:Z 0.00019744
3 *51:2 0.000170837

*RES
1 *1076:I *51:2 1.05199003
2 *991:Z *51:2 0.450004
*END

*D_NET *52 0.0221916

*CONN
*I *992:Z O *C 141.3 149.2 *L 0 *D CKBD1
*I *1000:I I *C 142.7 152.4 *L 0.00182 *D DEL005
*I *1724:B1 I *C 143.3 231.8 *L 0.000863 *D AO22D0
*I *1693:B1 I *C 143.3 253.4 *L 0.000863 *D AO22D0

*CAP
1 *1693:B1 7.35647e-06
2 *992:Z 0.000746426
3 *52:4 0.00334796
4 *52:5 9.26711e-05
5 *52:6 0.000105596
6 *52:7 0.000153464
7 *52:8 0.00282729
8 *52:9 0.000133949
9 *52:10 0.00106143
10 *52:8 *16:2 0.000289879004
11 *52:7 *79:6 0.00108589992
12 *992:Z *153:3 0.000496266016
13 *992:Z *470:45 0.000806127031
14 *992:Z *536:8 0.000990107031
15 *992:Z *620:6 0.00186519
16 *992:Z *841:6 0.00322741
17 *52:7 *36:2 0.00370109
18 *52:4 *859:10 0.00125353

*RES
1 *52:9 *52:10 4.76248
2 *52:6 *52:7 1.35812
3 *52:7 *52:8 56.6553001
4 *52:5 *52:10 1.06851
5 *52:4 *52:6 0.630214
6 *1693:B1 *52:4 17.4636
7 *992:Z *52:10 3.69311
8 *52:8 *52:9 2.65399
9 *1724:B1 *52:6 0.4504
10 *1000:I *52:5 0.224768
*END

*D_NET *53 0.0153632

*CONN
*I *993:Z O *C 138.3 134.8 *L 0 *D CKBD1
*I *1753:A2 I *C 141.7 94.8 *L 0.001 *D MOAI22D1
*I *1747:A2 I *C 142.7 71.2 *L 0.000697 *D MOAI22D0
*I *1732:A2 I *C 148.3 71.2 *L 0.000697 *D MOAI22D0

*CAP
1 *1747:A2 9.2374e-05
2 *993:Z 0.000139482
3 *53:4 0.00294299
4 *53:5 0.000429761
5 *53:6 0.000297555
6 *53:7 0.00141287
7 *53:8 0.000173701
8 *53:9 0.000357236
9 *53:10 0.000124887
10 *53:11 0.000210929
11 *53:12 0.000314844
12 *53:13 0.000209402
13 *53:7 *733:2 0.00143202
14 *53:7 *468:3 0.000815771016
15 *53:4 *469:5 0.000996146016
16 *53:4 *509:3 0.000253875996
17 *53:7 *871:3 0.00118031
18 *1747:A2 *484:15 0.000506761016
19 *53:4 *264:4 0.000244316992
20 *53:4 *4:3 0.00322793

*RES
1 *1753:A2 *53:9 0.900059
2 *53:4 *53:13 30.7700996
3 *53:11 *53:12 1.74612
4 *53:4 *53:9 2.3194
5 *53:6 *53:8 1.18552
6 *1747:A2 *53:8 0.675162
7 *53:5 *53:6 1.97572
8 *53:10 *53:13 2.62412
9 *53:7 *53:12 12.8924
10 *1732:A2 *53:5 1.64236
11 *53:7 *53:8 0.572338
12 *53:9 *53:11 1.517
13 *993:Z *53:10 0.449795
*END

*D_NET *54 0.00159772

*CONN
*I *994:Z O *C 145.9 138.2 *L 0 *D DEL005
*I *1001:I I *C 144.3 143.2 *L 0.000643 *D CKBD0

*CAP
1 *1001:I 0.000413774
2 *994:Z 0.000129176
3 *54:2 0.00097283
4 *54:3 1.53937e-05
5 *54:4 6.65328e-05

*RES
1 *1001:I *54:3 1.8135
2 *54:2 *54:3 2.57011008
3 *994:Z *54:4 0.899986
4 *54:2 *54:4 0.864298
*END

*D_NET *55 0.00296617

*CONN
*I *995:Z O *C 138.1 52 *L 0 *D CKBD0
*I *999:I I *C 139.9 62.4 *L 0.00182 *D DEL005

*CAP
1 *999:I 7.48692e-05
2 *55:2 0.00289131

*RES
1 *999:I *55:2 9.66876984
2 *995:Z *55:2 1.40895
*END

*D_NET *56 0.00278253

*CONN
*I *996:Z O *C 146.1 163.4 *L 0 *D DEL005
*I *1782:I I *C 144.1 157.6 *L 0.00104 *D INVD1

*CAP
1 *996:Z 0.00073023
2 *56:2 5.93388e-05
3 *56:3 0.00112947
4 *56:4 0.000863488

*RES
1 *996:Z *56:2 2.95244
2 *56:3 *56:4 3.09503
3 *1782:I *56:3 1.07528
4 *56:2 *56:4 4.08046007
*END

*D_NET *57 1.1761e-05

*CONN
*I *997:I I *C 142.1 148.8 *L 0.000968 *D CKBD1
*I *1781:ZN O *C 141.9 149.2 *L 0 *D INVD1

*CAP
1 *1781:ZN 1.1761001e-05

*RES
1 *1781:ZN *997:I 0.16627
*END

*D_NET *58 0.0192223

*CONN
*I *962:I I *C 144.9 141.6 *L 0.000643 *D CKBD0
*I *998:Z O *C 140.7 70 *L 0 *D DEL01

*CAP
1 *962:I 0.00029321
2 *58:2 0.00054094
3 *58:3 0.000867054
4 *58:5 0.00129121
5 *58:6 2.82403e-05
6 *58:7 0.0015939
7 *58:8 0.000572943
8 *58:9 0.000188644
9 *58:10 0.00015738
10 *58:11 0.000109037
11 *58:12 8.00892e-05
12 *58:13 0.000131777
13 *58:15 0.000163459
14 *58:16 0.00210788984
15 *58:7 *474:3 0.00107446
16 *58:5 *633:60 0.00105121008
17 *58:2 *469:4 0.00191207
18 *58:8 *619:7 0.000786413047
19 *58:5 *1637:Q 0.000683448984
20 *58:2 *838:10 0.000739437969
21 *58:2 *839:20 0.00206099016
22 *58:3 *620:11 0.000683673047
23 *58:2 *846:10 0.00210484

*RES
1 *998:Z *58:2 1.58308
2 *58:6 *58:7 10.559
3 *58:4 *58:11 5.67739
4 *58:5 *58:6 0.31019
5 *58:5 *58:10 7.90328
6 *58:9 *58:13 5.91422
7 *58:10 *58:3 0.544601
8 *58:4 *58:16 1.52327
9 *58:8 *58:16 8.9355
10 *58:14 *58:15 2.95277
11 *962:I *58:8 3.51333
12 *58:12 *58:15 2.12182
13 *58:12 *58:13 0.159238
14 *58:11 *58:3 13.2433996
15 *58:7 *58:9 1.14396
16 *58:2 *58:14 7.05819
*END

*D_NET *59 0.00159947

*CONN
*I *999:Z O *C 140.5 62.6 *L 0 *D DEL005
*I *1005:I I *C 138.9 56.8 *L 0.00103 *D DEL01

*CAP
1 *59:3 0.00159947

*RES
1 *1005:I *59:3 1.45729
2 *59:2 *59:3 4.29004002
3 *999:Z *59:2 0.224989
*END

*D_NET *60 1.4002e-05

*CONN
*I *1000:Z O *C 143.3 152.6 *L 0 *D DEL005
*I *1780:I I *C 143.5 152.4 *L 0.00197 *D INVD2

*CAP
1 *1000:Z 1.40019995e-05

*RES
1 *1000:Z *1780:I 0.160331
*END

*D_NET *61 0.00914319

*CONN
*I *1001:Z O *C 144.9 142.8 *L 0 *D CKBD0
*I *1004:I I *C 146.3 179.2 *L 0.00103 *D DEL01

*CAP
1 *1001:Z 0.00133303
2 *61:2 0.000956075
3 *61:3 0.00106444
4 *61:4 0.000193087
5 *61:5 2.59391e-05
6 *61:7 0.00074049
7 *61:8 0.00150302
8 *61:9 0.000680057
9 *1001:Z *883:3 0.00025325998
10 *61:2 *1779:ZN 0.000576340977
11 *61:3 *1646:CDN 0.000753736953
12 *61:2 *840:12 0.000642091992
13 *61:4 *846:7 0.000421615

*RES
1 *61:2 *61:7 7.59494019
2 *61:6 *61:2 0.159232
3 *61:4 *61:9 3.09228
4 *1001:Z *61:5 5.91327
5 *61:3 *61:9 6.35736
6 *61:5 *61:8 2.72433
7 *1004:I *61:4 0.602742
8 *61:6 *61:8 4.96761
9 *61:3 *61:7 3.61923
*END

*D_NET *62 0.00135223

*CONN
*I *996:I I *C 145.5 163.2 *L 0.00182 *D DEL005
*I *1002:Z O *C 146.1 159.8 *L 0 *D DEL005

*CAP
1 *1002:Z 0.00135223

*RES
1 *1002:Z *62:2 4.53068018
2 *996:I *62:2 0.225027
*END

*D_NET *63 0.00199703

*CONN
*I *1003:Z O *C 148.3 127.4 *L 0 *D DEL005
*I *1078:I I *C 138.7 125.2 *L 0.00182 *D DEL005

*CAP
1 *1078:I 0.000172249
2 *63:2 0.000410203
3 *63:3 0.00141458

*RES
1 *63:2 *63:3 6.3372798
2 *1003:Z *63:2 0.864491
3 *1078:I *63:3 0.827842
*END

*D_NET *64 0.00777972

*CONN
*I *1004:Z O *C 148.1 178.8 *L 0 *D DEL01
*I *1010:I I *C 142.9 148.8 *L 0.000968 *D CKBD1

*CAP
1 *1010:I 0.000180113
2 *64:2 0.000423904
3 *64:3 0.000526465
4 *64:4 0.000362691
5 *64:5 0.000696904
6 *64:7 9.0293e-07
7 *64:8 7.7394e-07
8 *64:9 0.000939261953
9 *64:10 0.000672124
10 *64:2 *841:8 0.00200349
11 *1010:I *1010:Z 0.000377855
12 *64:3 *846:14 0.00100937
13 *1010:I *847:11 0.000585878008

*RES
1 *64:8 *64:9 4.3509
2 *64:7 *64:9 0.304399
3 *64:2 *64:8 0.159298
4 *64:3 *64:10 5.57615
5 *1010:I *64:5 1.45745
6 *1004:Z *64:4 1.48423
7 *64:6 *64:2 6.59910011
8 *64:6 *64:3 0.159198
9 *64:5 *64:7 6.34626
10 *64:4 *64:10 3.46479
*END

*D_NET *65 0.000900133

*CONN
*I *1005:Z O *C 140.7 56.4 *L 0 *D DEL01
*I *1011:I I *C 138.7 55.2 *L 0.00103 *D DEL015

*CAP
1 *1011:I 0.000102968
2 *1005:Z 0.000110211
3 *65:2 0.000686961016

*RES
1 *1011:I *65:2 2.82613993
2 *1005:Z *65:2 0.449993
*END

*D_NET *66 0.00677692

*CONN
*I *988:Z O *C 146.9 164.4 *L 0 *D CKBD0
*I *991:I I *C 137.5 127.2 *L 0.000643 *D CKBD0

*CAP
1 *988:Z 0.000158587
2 *991:I 0.000215231
3 *66:2 0.000180554
4 *66:3 0.000149729
5 *66:4 0.00138337
6 *66:5 0.000827399
7 *66:6 0.0015397
8 *66:7 0.000172589
9 *66:6 *264:2 0.000809197031
10 *66:3 *105:2 0.000688902031
11 *66:4 *338:2 0.000651645

*RES
1 *66:6 *66:7 19.1151009
2 *66:4 *66:5 6.5854
3 *988:Z *66:2 0.760392
4 *66:5 *66:7 0.384134
5 *991:I *66:3 0.674932
6 *66:3 *66:6 0.450052
7 *66:2 *66:4 6.35439
*END

*D_NET *67 0.00254282

*CONN
*I *1002:I I *C 145.5 159.6 *L 0.00182 *D DEL005
*I *1007:Z O *C 146.1 168 *L 0 *D DEL01

*CAP
1 *1002:I 0.000835552
2 *1007:Z 0.000166255
3 *67:2 0.000483516
4 *67:3 0.00105751

*RES
1 *67:2 *67:3 5.13677979
2 *1007:Z *67:2 1.72862
3 *1002:I *67:3 3.16949
*END

*D_NET *68 4.8477e-05

*CONN
*I *1008:I I *C 144.3 152.4 *L 0.000968 *D CKBD1
*I *1780:ZN O *C 143.9 152.4 *L 0 *D INVD2

*CAP
1 *1780:ZN 4.8477002e-05

*RES
1 *1780:ZN *1008:I 0.332827
*END

*D_NET *69 0.0204917

*CONN
*I *1009:Z O *C 148.1 185.2 *L 0 *D DEL015
*I *1781:I I *C 141.5 148.8 *L 0.00104 *D INVD1
*I *1727:B1 I *C 143.1 235.4 *L 0.000863 *D AO22D0
*I *1694:B1 I *C 143.1 260.6 *L 0.000863 *D AO22D0

*CAP
1 *1694:B1 0.000355972
2 *69:4 0.0015577
3 *69:5 8.49131e-05
4 *69:6 0.000235292
5 *69:7 8.79789e-05
6 *69:9 0.00202946
7 *69:10 0.000101574
8 *69:11 6.06964e-06
9 *69:12 0.000325748
10 *69:13 0.000419982
11 *69:14 0.000327668
12 *69:15 0.000569649
13 *69:16 0.00178652
14 *69:17 0.0013025
15 *69:5 *50:2 0.00212331016
16 *1694:B1 *91:7 0.00139115
17 *69:4 *779:3 0.000615234961
18 *69:4 *840:6 0.0029926
19 *69:4 *838:8 0.00281317
20 *69:4 *842:15 0.00136526

*RES
1 *1694:B1 *69:6 1.91014
2 *69:13 *69:17 2.8066
3 *1009:Z *69:7 0.592611
4 *69:6 *69:16 15.7919
5 *69:9 *69:16 17.9885998
6 *69:4 *69:15 12.0875
7 *69:10 *69:11 0.159201
8 *69:14 *69:17 2.71383
9 *69:8 *69:10 3.82933
10 *69:7 *69:17 3.2466
11 *69:5 *69:16 0.701856
12 *69:14 *69:15 13.38
13 *1781:I *69:4 1.65981
14 *69:12 *69:13 5.71339
15 *69:8 *69:9 0.159201
16 *69:11 *69:12 3.94516
17 *1727:B1 *69:5 0.225077
*END

*D_NET *70 0.0194802

*CONN
*I *1010:Z O *C 143.5 149.2 *L 0 *D CKBD1
*I *1778:I I *C 144.5 159.6 *L 0.00104 *D INVD1
*I *1696:B1 I *C 145.1 258.2 *L 0.000863 *D AO22D0
*I *1730:B1 I *C 145.1 243.8 *L 0.000863 *D AO22D0

*CAP
1 *1696:B1 6.42268e-06
2 *1778:I 7.60363e-05
3 *1010:Z 4.44852e-05
4 *70:4 0.00170361
5 *70:5 0.000644814
6 *70:6 2.9716e-05
7 *70:7 0.000216862
8 *70:8 0.000511121
9 *70:9 0.00109997
10 *70:10 0.000430793
11 *70:11 0.000131857
12 *70:12 0.00193968
13 *70:13 0.000396993
14 *70:14 0.000145147
15 *70:15 0.000372338
16 *70:16 0.000362097
17 *70:17 0.000144584
18 *70:19 0.00120433
19 *70:20 0.000380418
20 *70:12 *882:2 0.00179619
21 *1010:Z *1010:I 0.000377855
22 *70:4 *181:11 0.0030171
23 *70:8 *843:4 0.00190857
24 *70:6 *1122:I 0.000294097988
25 *70:4 *620:8 0.000592188008
26 *70:5 *1564:I 0.00165297

*RES
1 *70:7 *70:8 3.19499
2 *70:4 *70:16 3.04737
3 *70:11 *70:20 1.22672
4 *70:16 *70:17 1.51203
5 *70:5 *70:15 3.5062
6 *70:18 *70:19 0.159275
7 *70:17 *70:20 1.24226
8 *70:13 *70:18 4.9768
9 *70:6 *70:8 0.251646
10 *70:6 *70:9 5.5539
11 *70:7 *70:12 0.864142
12 *70:19 *70:20 9.54656
13 *70:14 *70:5 8.21755
14 *1696:B1 *70:4 6.02784
15 *70:12 *70:15 28.2879009
16 *70:13 *70:14 2.21604
17 *70:9 *70:10 2.895
18 *1010:Z *70:10 0.609906
19 *1778:I *70:6 0.384159
20 *1730:B1 *70:11 0.224884
*END

*D_NET *71 0.00542398

*CONN
*I *1011:Z O *C 140.9 55.6 *L 0 *D DEL015
*I *1032:I I *C 137.5 17.2 *L 0.000643 *D CKBD0

*CAP
1 *1032:I 0.000126085
2 *71:2 0.00257093
3 *71:3 0.000137305
4 *71:4 0.000954463
5 *71:2 *326:3 0.000259647988
6 *71:2 *328:2 0.000350933984
7 *71:2 *484:4 0.000517328008
8 *71:2 *8:4 0.000507261992

*RES
1 *71:3 *71:4 4.0591
2 *1032:I *71:2 1.33086
3 *71:2 *71:4 24.3561001
4 *1011:Z *71:3 0.224845
*END

*D_NET *72 0.00263292

*CONN
*I *1007:I I *C 144.3 168.4 *L 0.00103 *D DEL01
*I *1012:Z O *C 151.9 174.4 *L 0 *D DEL015

*CAP
1 *1012:Z 3.06606e-06
2 *72:2 3.49106e-05
3 *72:3 0.000605502
4 *72:4 0.00198945

*RES
1 *72:2 *72:3 3.25805
2 *1012:Z *72:2 0.320672
3 *72:3 *72:4 7.44178009
4 *1007:I *72:4 0.450009
*END

*D_NET *73 0.0281331

*CONN
*I *1013:Z O *C 139.1 99.6 *L 0 *D CKBD1
*I *1706:B1 I *C 140.5 113 *L 0.000863 *D AO22D0
*I *1774:I I *C 141.1 157.6 *L 0.00104 *D INVD1
*I *1721:B1 I *C 146.7 215 *L 0.000863 *D AO22D0
*I *1690:B1 I *C 145.5 221 *L 0.000863 *D AO22D0

*CAP
1 *1690:B1 0.000751332
2 *1013:Z 0.000296038
3 *73:5 0.000112357
4 *73:6 0.000590984
5 *73:7 0.000373753
6 *73:8 0.000519954
7 *73:9 0.00094132
8 *73:12 0.000515918
9 *73:13 0.00122748
10 *73:14 0.00043299
11 *73:15 2.41741e-06
12 *73:16 0.00137761
13 *73:17 0.000681879
14 *73:18 2.79579e-06
15 *73:19 0.000941067
16 *73:20 0.000664641
17 *73:21 0.000711476
18 *73:23 5.36245e-05
19 *73:24 0.000823455
20 *73:25 5.72822e-05
21 *73:26 0.00056805
22 *73:27 0.00015833
23 *73:28 0.00114875
24 *73:29 0.000870983
25 *73:31 0.000205543
26 *73:32 0.0005802
27 *73:33 0.00103905
28 *73:34 0.00109128
29 *73:35 6.58167e-05
30 *73:36 0.000269615
31 *73:13 *44:3 0.00114476
32 *73:16 *1022:Z 0.000558880977
33 *73:17 *153:2 0.000318093984
34 *73:20 *166:2 0.000527149961
35 *73:8 *618:5 0.00134975
36 *73:9 *1463:I 0.000411281992
37 *73:20 *839:6 0.000971377031
38 *73:7 *841:4 0.00254233
39 *73:7 *881:9 0.000871022969
40 *73:6 *464:3 0.00133516
41 *73:7 *509:3 0.000398886992
42 *73:7 *1706:B2 0.000628395039

*RES
1 *73:9 *73:10 2.56113
2 *73:5 *73:26 0.362032
3 *73:7 *73:25 0.445913
4 *73:13 *73:15 0.966804
5 *73:18 *73:19 3.58985
6 *73:31 *73:35 4.46862
7 *73:7 *73:10 5.50071
8 *73:20 *73:34 3.32436
9 *73:8 *73:25 2.95046
10 *73:29 *73:30 12.9651003
11 *73:13 *73:22 8.23554
12 *73:23 *73:24 7.1528
13 *73:8 *73:32 2.18881
14 *73:17 *73:19 0.159255
15 *73:6 *73:28 3.10418
16 *73:14 *73:18 1.77415
17 *73:11 *73:12 2.06477
18 *73:17 *73:20 2.55579
19 *73:27 *73:34 0.769565
20 *73:34 *73:36 8.80628
21 *73:11 *73:21 3.20032
22 *73:30 *73:31 0.159255
23 *73:22 *73:24 0.159255
24 *73:6 *73:12 1.67821
25 *73:15 *73:16 6.47701
26 *73:32 *73:33 5.36876
27 *1690:B1 *73:26 5.0914
28 *1013:Z *73:33 1.15455
29 *73:14 *73:16 0.159255
30 *73:9 *73:29 5.31712
31 *73:21 *73:23 0.285076
32 *73:5 *73:28 2.68438
33 *1774:I *73:27 0.224935
34 *1721:B1 *73:26 0.224935
35 *1706:B1 *73:25 0.224935
36 *73:35 *73:36 0.224935
*END

*D_NET *74 1.1285e-05

*CONN
*I *1014:Z O *C 143.1 276 *L 0 *D DEL01
*I *1097:I I *C 143.3 276.4 *L 0.00105 *D DEL1

*CAP
1 *1014:Z 1.1285e-05

*RES
1 *1014:Z *1097:I 0.163513
*END

*D_NET *75 0.0300653

*CONN
*I *1015:Z O *C 138.1 34.8 *L 0 *D CKBD1
*I *1684:E I *C 139.7 26.4 *L 0.00159 *D EDFCNQD1
*I *1683:E I *C 144.5 24.4 *L 0.00159 *D EDFCNQD1
*I *1686:E I *C 145.1 33.6 *L 0.00159 *D EDFCNQD1
*I *1688:E I *C 144.1 44.4 *L 0.00159 *D EDFCNQD1
*I *1687:E I *C 139.5 37.2 *L 0.00159 *D EDFCNQD1
*I *1689:E I *C 144.7 51.6 *L 0.00159 *D EDFCNQD1
*I *1685:E I *C 138.5 35.2 *L 0.00159 *D EDFCNQD1
*I *1587:B1 I *C 148.5 102 *L 0.000894 *D INR3D0
*I *1033:I I *C 151.3 109.2 *L 0.00182 *D DEL005
*I *1035:I I *C 146.1 102 *L 0.000697 *D BUFFD0
*I *1037:I I *C 147.1 102 *L 0.000697 *D BUFFD0
*I *1679:E I *C 145.1 112.8 *L 0.00152 *D EDFCNQD4
*I *1763:A2 I *C 146.1 114.4 *L 0.000606 *D CKND2D0
*I *1611:A1 I *C 146.9 121.4 *L 0.000617 *D CKND2D0
*I *1745:A2 I *C 146.5 134.4 *L 0.00102 *D ND2D1
*I *1746:B1 I *C 146.5 138 *L 0.000698 *D IND3D0
*I *1773:A2 I *C 148.9 139.6 *L 0.000606 *D CKND2D0
*I *1744:A3 I *C 149.3 143.2 *L 0.00103 *D ND3D1

*CAP
1 *1033:I 0.000133516
2 *1587:B1 7.75862e-05
3 *1685:E 0.000148834
4 *1689:E 4.50532e-05
5 *1683:E 0.00011321
6 *1015:Z 8.26529e-05
7 *75:19 0.000529605
8 *75:20 0.000495918
9 *75:21 0.000462544
10 *75:22 0.000638883
11 *75:23 0.00110731
12 *75:24 0.00128205
13 *75:25 0.000492455
14 *75:26 0.000166695
15 *75:27 0.000287261
16 *75:28 0.00061977
17 *75:29 0.000495155
18 *75:30 0.000905779
19 *75:31 0.000824358
20 *75:32 0.000204784
21 *75:33 0.000154331
22 *75:34 0.000403366
23 *75:35 0.00013291
24 *75:36 0.000539171
25 *75:37 0.000612199
26 *75:39 0.000395658
27 *75:40 0.00025015
28 *75:41 0.000358528
29 *75:42 0.00030027
30 *75:43 0.000504154
31 *75:44 9.03607e-05
32 *75:45 0.000161237
33 *75:46 0.000149812
34 *75:47 0.00063004
35 *75:48 0.000296768
36 *75:49 0.000205058
37 *75:50 0.000727639
38 *75:51 0.000722553
39 *75:52 8.53331e-05
40 *75:53 6.50268e-05
41 *75:54 0.000221451
42 *75:55 0.000346908
43 *75:56 0.000384664
44 *75:57 0.000243303
45 *75:58 0.000207738
46 *75:59 0.000519021
47 *75:60 0.000380321
48 *75:61 0.000363184
49 *75:62 0.00060946
50 *75:63 0.000594397
51 *75:64 0.001033
52 *75:21 *288:2 0.000764621016
53 *75:43 *309:3 0.00151877
54 *75:42 *310:2 0.00130064
55 *75:22 *847:6 0.000924068984
56 *1683:E *613:12 0.000834447969
57 *75:23 *1761:ZN 0.000600301016
58 *75:24 *934:3 0.00143007
59 *75:19 *652:2 0.000603088984
60 *1015:Z *534:4 0.000219568008
61 *75:19 *485:11 0.00035454
62 *75:20 *719 0.000713798984

*RES
1 *1587:B1 *75:46 0.45003
2 *75:49 *75:64 5.26278
3 *75:31 *75:50 3.4013
4 *75:23 *75:34 0.442925
5 *75:26 *75:28 2.32104
6 *75:22 *75:33 1.31456
7 *75:27 *75:50 4.29684
8 *1033:I *75:42 1.87537
9 *75:53 *75:54 2.99988
10 *75:48 *75:63 0.544654
11 *1611:A1 *75:48 0.929448
12 *75:52 *75:64 0.602785
13 *75:23 *75:48 4.90253
14 *75:20 *75:62 5.68714
15 *75:56 *75:57 3.39969
16 *75:43 *75:61 3.65336
17 *75:28 *75:29 2.41453
18 *75:37 *75:49 0.881651
19 *75:30 *75:44 3.0115
20 *75:57 *75:58 1.1744
21 *75:42 *75:62 4.69875
22 *1685:E *75:32 0.619417
23 *75:24 *75:39 3.99924
24 *1684:E *75:30 1.48185
25 *75:46 *75:62 0.763936
26 *75:55 *75:56 3.05655
27 *75:21 *75:22 1.1413
28 *75:41 *75:63 10.5824003
29 *75:29 *75:40 0.982573
30 *75:54 *75:55 4.5791
31 *75:20 *75:53 1.18732
32 *75:31 *75:35 0.958998
33 *1037:I *75:51 0.674964
34 *75:59 *75:60 2.53628
35 *75:19 *75:43 4.06076
36 *75:22 *75:45 1.86196
37 *75:19 *75:26 0.471344
38 *75:60 *75:61 2.51949
39 *75:58 *75:59 2.38159
40 *75:38 *75:47 1.99324
41 *1035:I *75:51 1.30455
42 *75:25 *75:50 2.45635
43 *75:34 *75:39 2.68419
44 *75:32 *75:35 1.28485
45 *75:44 *75:52 0.487007
46 *75:25 *75:37 2.03361
47 *75:21 *75:47 1.98775
48 *75:24 *75:42 2.56002
49 *1773:A2 *75:45 0.674964
50 *1015:Z *75:32 0.859368
51 *1689:E *75:26 0.60779
52 *75:36 *75:41 1.47475
53 *1683:E *75:52 0.807535
54 *75:33 *75:36 2.77107
55 *75:27 *75:40 1.25272
56 *75:46 *75:51 1.03505
57 *1688:E *75:40 0.45003
58 *1679:E *75:39 0.45003
59 *1744:A3 *75:38 0.45003
60 *1686:E *75:37 0.224934
61 *1745:A2 *75:36 0.224934
62 *1687:E *75:35 0.224934
63 *1763:A2 *75:34 0.224934
64 *1746:B1 *75:33 0.224934
*END

*D_NET *76 0.00147498

*CONN
*I *1016:I I *C 138.7 62.4 *L 0.000968 *D CKBD1
*I *1557:Z O *C 138.1 66.4 *L 0 *D BUFFD2

*CAP
1 *1557:Z 6.95277e-05
2 *76:3 0.00140546

*RES
1 *1016:I *76:3 0.926804
2 *76:2 *76:3 4.27197981
3 *1557:Z *76:2 0.384202
*END

*D_NET *77 0.000978511

*CONN
*I *1017:I I *C 137.7 73.2 *L 0.000968 *D CKBD1
*I *1554:Z O *C 138.1 70.8 *L 0 *D BUFFD2

*CAP
1 *1554:Z 0.000926172031
2 *77:2 5.23326e-05

*RES
1 *1554:Z *77:2 2.9358201
2 *1017:I *77:2 0.225016
*END

*D_NET *78 0.00133808

*CONN
*I *1018:I I *C 137.7 91.2 *L 0.000968 *D CKBD1
*I *1230:Z O *C 139.1 88 *L 0 *D CKBD1

*CAP
1 *1018:I 0.00016075
2 *78:2 0.00117733

*RES
1 *1230:Z *78:2 1.45724
2 *1018:I *78:2 3.79969001
*END

*D_NET *79 0.0166552

*CONN
*I *1019:Z O *C 141.5 178.8 *L 0 *D DEL1
*I *1775:I I *C 142.1 154 *L 0.00104 *D INVD1
*I *1722:B1 I *C 146.7 222.2 *L 0.000863 *D AO22D0
*I *1691:B1 I *C 145.3 247.4 *L 0.000863 *D AO22D0

*CAP
1 *1691:B1 0.000412394
2 *79:4 0.000542076
3 *79:5 0.000965159
4 *79:6 4.92285e-05
5 *79:7 0.000347319
6 *79:8 0.000309717
7 *79:9 0.000819209
8 *79:10 0.000460732
9 *79:12 4.03205e-05
10 *79:13 0.000852778
11 *79:14 0.000622717
12 *79:15 2.57863e-06
13 *79:16 0.000673868
14 *79:17 0.000107459
15 *79:18 0.000838197
16 *79:19 0.000903553
17 *79:20 0.00307256
18 *79:18 *153:2 0.00193038
19 *79:5 *36:2 0.00119269
20 *79:4 *413:4 0.000417163984
21 *79:5 *319:5 0.000288017012
22 *79:5 *464:14 0.00072111
23 *79:6 *52:7 0.00108589992

*RES
1 *79:19 *79:20 13.9128
2 *79:4 *79:9 1.57234
3 *1691:B1 *79:10 1.62628
4 *79:7 *79:8 1.64764
5 *79:6 *79:20 23.7266006
6 *79:5 *79:6 3.63994
7 *79:8 *79:5 4.19929
8 *1722:B1 *79:7 0.572746
9 *79:18 *79:19 5.72348
10 *79:9 *79:15 2.49083
11 *1775:I *79:18 0.953611
12 *79:17 *79:20 0.929355
13 *79:11 *79:14 2.61066
14 *79:12 *79:13 3.54292
15 *79:4 *79:7 2.87676
16 *79:14 *79:16 0.159297
17 *79:10 *79:12 1.92569
18 *79:15 *79:16 2.73738
19 *79:11 *79:13 0.159297
20 *1019:Z *79:17 0.224826
*END

*D_NET *80 0.00248992

*CONN
*I *1020:Z O *C 151.1 41.2 *L 0 *D BUFFD1
*I *1688:D I *C 144.3 44.6 *L 0.000758 *D EDFCNQD1

*CAP
1 *80:2 0.000788007
2 *80:3 0.000340838
3 *80:4 0.000100753
4 *80:5 0.00126033

*RES
1 *80:4 *80:5 1.59454
2 *80:2 *80:4 2.36539
3 *80:3 *80:5 4.33374977
4 *1688:D *80:2 1.0636
5 *1020:Z *80:3 0.225033
*END

*D_NET *81 0.00142711

*CONN
*I *1021:Z O *C 151.5 103.2 *L 0 *D CKBD1
*I *1678:D I *C 145.3 103.4 *L 0.000758 *D EDFCNQD1

*CAP
1 *1678:D 0.000259697
2 *81:2 8.82619e-05
3 *81:3 0.00107915

*RES
1 *81:2 *81:3 4.3667202
2 *1678:D *81:3 1.28764
3 *1021:Z *81:2 0.225012
*END

*D_NET *82 0.00940467

*CONN
*I *1022:Z O *C 141.1 174.4 *L 0 *D DEL0
*I *1636:D I *C 141.9 103.6 *L 0.000971 *D DFCNQD1

*CAP
1 *1022:Z 8.34512e-05
2 *82:2 0.000553184
3 *82:3 0.00019514
4 *82:4 0.000103333
5 *82:5 2.74809e-05
6 *82:6 0.00236036984
7 *82:3 *166:3 0.00271532
8 *82:3 *233:4 0.00100965
9 *82:5 *738:2 0.00114681008
10 *1022:Z *73:16 0.000558880977
11 *82:2 *841:20 0.000352763008
12 *82:3 *16:9 0.000298318008

*RES
1 *1636:D *82:2 0.45027
2 *1022:Z *82:4 1.27143
3 *82:3 *82:6 44.8462982
4 *82:4 *82:3 0.45027
5 *82:2 *82:5 1.20574
6 *82:5 *82:6 0.225135
*END

*D_NET *83 0.00877448

*CONN
*I *1023:Z O *C 142.9 178 *L 0 *D DEL2
*I *1639:D I *C 141.9 114.4 *L 0.000971 *D DFCNQD1

*CAP
1 *1023:Z 0.000150443
2 *83:2 0.000232346
3 *83:3 0.00120154
4 *83:4 0.000216673
5 *83:5 8.19645e-05
6 *83:6 0.000390209
7 *83:7 0.00201786
8 *83:3 *166:2 0.00230274016
9 *83:2 *293:3 0.00160296
10 *83:2 *839:27 0.000277346992
11 *83:3 *11:2 0.00030037502

*RES
1 *83:3 *83:7 27.1912003
2 *83:6 *83:3 12.4413
3 *83:2 *83:7 1.70982
4 *1023:Z *83:5 0.450172
5 *83:5 *83:6 2.12473
6 *83:4 *83:2 0.450172
7 *1639:D *83:4 0.224878
*END

*D_NET *84 0.00787558

*CONN
*I *1015:I I *C 137.5 35.2 *L 0.000968 *D CKBD1
*I *1024:Z O *C 140.3 6.2 *L 0 *D CKBD2
*I *1682:E I *C 143.9 6.4 *L 0.00159 *D EDFCNQD1
*I *1681:E I *C 145.5 10 *L 0.00159 *D EDFCNQD1

*CAP
1 *1682:E 0.000147716
2 *84:4 0.000899975
3 *84:5 0.000572264
4 *84:6 0.000450197
5 *84:7 0.000676405
6 *84:8 0.000476168
7 *84:9 0.00210906
8 *84:10 0.000476972
9 *84:11 0.000121488
10 *84:12 0.000535801
11 *84:9 *734:2 0.000618135977
12 *84:6 *529:4 0.000545297031
13 *84:4 *629:26 0.000246079004

*RES
1 *1015:I *84:9 9.7913599
2 *1024:Z *84:10 0.575954
3 *84:5 *84:11 1.31819
4 *84:6 *84:4 1.86681
5 *1681:E *84:5 2.73993
6 *84:9 *84:12 1.48403
7 *84:7 *84:8 4.55638
8 *1682:E *84:11 0.834871
9 *84:10 *84:11 2.20909
10 *84:8 *84:10 0.854593
11 *84:4 *84:7 4.73656
12 *84:6 *84:12 3.01094
*END

*D_NET *85 0.00542576

*CONN
*I *1025:Z O *C 142.1 315.6 *L 0 *D BUFFD1
*I *1125:I I *C 140.7 274.8 *L 0.000643 *D CKBD0
*I *1257:I I *C 145.1 274.8 *L 0.00105 *D DEL1

*CAP
1 *85:3 0.000137843
2 *85:4 6.28798e-05
3 *85:5 0.00504385
4 *85:5 *1086:I 0.000181171992

*RES
1 *85:4 *85:5 2.49114
2 *85:3 *85:5 26.3533993
3 *1025:Z *85:3 0.74513
4 *1125:I *85:5 1.05275
5 *1257:I *85:4 0.449973
*END

*D_NET *86 0.000512967

*CONN
*I *1026:I I *C 142.3 49.6 *L 0.00072 *D BUFFD1
*I *1053:Z O *C 141.5 48.4 *L 0 *D BUFFD1

*CAP
1 *1053:Z 0.000441386992
2 *1026:I 7.1581e-05

*RES
1 *1053:Z *1026:I 1.81806
*END

*D_NET *87 0.00193342

*CONN
*I *1027:Z O *C 144.1 160 *L 0 *D CKBD1
*I *1090:I I *C 137.7 159.6 *L 0.00103 *D DEL01

*CAP
1 *1027:Z 0.000164255
2 *87:2 0.00139798
3 *87:3 0.000371195

*RES
1 *1027:Z *87:3 1.51051
2 *87:2 *87:3 4.12798023
3 *1090:I *87:2 1.06368
*END

*D_NET *88 0.00142341

*CONN
*I *1028:I I *C 144.7 136 *L 0.000697 *D BUFFD0
*I *1237:Z O *C 140.7 135.6 *L 0 *D DEL1

*CAP
1 *1028:I 0.000242856
2 *88:2 0.00110517
3 *88:3 7.53812e-05

*RES
1 *1028:I *88:3 1.16056
2 *88:2 *88:3 3.58614993
3 *1237:Z *88:2 0.22501
*END

*D_NET *89 0.00284927

*CONN
*I *1029:I I *C 138.7 71.2 *L 0.00104 *D DEL0
*I *1555:Z O *C 138.1 62.8 *L 0 *D BUFFD2

*CAP
1 *1555:Z 0.000339915
2 *1029:I 0.000140984
3 *89:2 0.00135336
4 *89:3 0.00101499

*RES
1 *1029:I *89:2 1.07539
2 *89:2 *89:3 8.20833969
3 *1555:Z *89:3 1.37699
*END

*D_NET *90 0.0022543

*CONN
*I *1030:I I *C 138.7 66 *L 0.00103 *D BUFFD2
*I *1560:Z O *C 138.1 56.4 *L 0 *D BUFFD2

*CAP
1 *1560:Z 0.00127316
2 *90:2 0.00098115

*RES
1 *1560:Z *90:2 4.94849014
2 *1030:I *90:2 3.0953
*END

*D_NET *91 0.0240345

*CONN
*I *1031:Z O *C 140.1 171.6 *L 0 *D DEL0
*I *1711:B1 I *C 141.3 135.8 *L 0.000863 *D AO22D0
*I *1783:I I *C 142.9 159.6 *L 0.00104 *D INVD1
*I *1728:B1 I *C 143.1 242.6 *L 0.000863 *D AO22D0
*I *1695:B1 I *C 142.5 264.2 *L 0.000863 *D AO22D0

*CAP
1 *1695:B1 0.000684315
2 *1711:B1 0.000472974
3 *91:5 0.00311521
4 *91:6 0.000603885
5 *91:7 0.00291723
6 *91:8 0.000608734
7 *91:9 0.000696198
8 *91:12 0.000887052
9 *91:13 0.000112943
10 *91:14 0.000191756
11 *91:15 0.000749343
12 *91:12 *16:3 0.000460337031
13 *91:9 *779:2 0.00197623
14 *91:5 *838:7 0.00333689
15 *91:6 *842:15 0.000737262031
16 *91:7 *1694:B1 0.00139115
17 *91:7 *1731:B1 0.00509301

*RES
1 *1728:B1 *91:15 1.61578
2 *91:7 *91:15 13.6484
3 *1711:B1 *91:9 1.68515
4 *91:9 *91:11 9.43213
5 *1783:I *91:6 1.75961
6 *91:12 *91:6 8.60318
7 *91:13 *91:6 2.70176
8 *1695:B1 *91:7 3.07496
9 *91:5 *91:15 27.8882999
10 *91:13 *91:14 7.02229
11 *91:8 *91:10 1.88558
12 *91:5 *91:14 16.9336
13 *91:11 *91:12 0.159153
14 *1031:Z *91:8 0.225112
15 *91:10 *91:14 0.225112
*END

*D_NET *92 0.00233922

*CONN
*I *1032:Z O *C 138.1 16.8 *L 0 *D CKBD0
*I *1034:I I *C 137.5 26.4 *L 0.000643 *D CKBD0

*CAP
1 *1034:I 0.000651781
2 *1032:Z 0.000217731
3 *92:2 2.01561e-06
4 *92:3 0.0014677

*RES
1 *92:2 *92:3 5.93289995
2 *1032:Z *92:3 1.23934
3 *1034:I *92:2 2.74909
*END

*D_NET *93 0.00140079

*CONN
*I *1033:Z O *C 151.9 109.4 *L 0 *D DEL005
*I *1680:E I *C 145.1 109.2 *L 0.00159 *D EDFCNQD1

*CAP
1 *1680:E 0.000155422
2 *93:2 0.000132185
3 *93:3 0.00111318008

*RES
1 *93:2 *93:3 4.81540012
2 *1680:E *93:3 0.821622
3 *1033:Z *93:2 0.224987
*END

*D_NET *94 0.00100676

*CONN
*I *1034:Z O *C 138.1 26.8 *L 0 *D CKBD0
*I *1036:I I *C 143.1 28 *L 0.000643 *D CKBD0

*CAP
1 *94:2 0.000637103008
2 *94:3 0.000369663

*RES
1 *94:2 *94:3 3.85762
2 *1036:I *94:2 1.0796
3 *1034:Z *94:3 0.224973
*END

*D_NET *95 0.00122841

*CONN
*I *1035:Z O *C 146.7 102.4 *L 0 *D BUFFD0
*I *1678:E I *C 145.1 103.6 *L 0.00159 *D EDFCNQD1

*CAP
1 *1035:Z 0.000260956
2 *95:2 0.000967458047

*RES
1 *1035:Z *95:2 2.12463999
2 *1678:E *95:2 1.37815
*END

*D_NET *96 0.00255216

*CONN
*I *1036:Z O *C 143.7 27.6 *L 0 *D CKBD0
*I *1038:I I *C 151.3 35.2 *L 0.000643 *D CKBD0

*CAP
1 *1038:I 0.000141586
2 *96:3 0.000846454
3 *96:4 0.00114610008
4 *96:5 0.000418007

*RES
1 *96:3 *96:4 3.56727
2 *96:2 *96:4 4.99635983
3 *1038:I *96:5 2.51114
4 *1036:Z *96:3 0.22498
5 *96:2 *96:5 0.22498
*END

*D_NET *97 0.000408456

*CONN
*I *1037:Z O *C 147.7 102.4 *L 0 *D BUFFD0
*I *1596:D I *C 147.5 100 *L 0.000971 *D DFCNQD1

*CAP
1 *1596:D 0.000408456016

*RES
1 *1596:D *1037:Z 1.35817
*END

*D_NET *98 0.000667516

*CONN
*I *1038:Z O *C 151.9 34.8 *L 0 *D CKBD0
*I *1039:I I *C 151.3 31.6 *L 0.000643 *D CKBD0

*CAP
1 *1039:I 4.72895e-05
2 *1038:Z 3.12567e-05
3 *98:2 0.000588962031

*RES
1 *1038:Z *98:2 0.491049
2 *1039:I *98:2 3.48321009
*END

*D_NET *99 0.000468079

*CONN
*I *1039:Z O *C 151.9 31.2 *L 0 *D CKBD0
*I *1040:I I *C 151.3 33.6 *L 0.00182 *D DEL005

*CAP
1 *1040:I 1.06581e-05
2 *1039:Z 0.00045742

*RES
1 *1039:Z *1040:I 2.19495
*END

*D_NET *100 0.0019688

*CONN
*I *1040:Z O *C 151.9 33.8 *L 0 *D DEL005
*I *1041:I I *C 142.9 33.6 *L 0.000643 *D CKBD0

*CAP
1 *1041:I 0.000211685
2 *1040:Z 0.000176866
3 *100:2 0.000326509
4 *100:3 0.00125375

*RES
1 *100:2 *100:3 6.52665997
2 *1040:Z *100:2 0.602911
3 *1041:I *100:3 1.31437
*END

*D_NET *101 0.000950865

*CONN
*I *1041:Z O *C 143.5 34 *L 0 *D CKBD0
*I *1042:I I *C 144.7 35.2 *L 0.00182 *D DEL005

*CAP
1 *1042:I 0.000184091
2 *1041:Z 0.000229788
3 *101:2 0.000536984023

*RES
1 *1042:I *101:2 2.33694005
2 *1041:Z *101:2 0.764027
*END

*D_NET *102 0.00295976

*CONN
*I *1042:Z O *C 145.3 35 *L 0 *D DEL005
*I *1046:I I *C 137.7 30 *L 0.000643 *D CKBD0

*CAP
1 *1046:I 6.29582e-05
2 *1042:Z 1.02984e-05
3 *102:2 0.00108816
4 *102:3 0.000199084
5 *102:4 0.000439628
6 *102:5 0.00115962992

*RES
1 *102:3 *102:5 4.86038017
2 *1042:Z *102:3 0.622454
3 *1046:I *102:2 0.484733
4 *102:2 *102:4 4.22102
5 *102:4 *102:5 1.8618
*END

*D_NET *103 0.00164033

*CONN
*I *1021:I I *C 150.9 103.6 *L 0.000968 *D CKBD1
*I *1043:Z O *C 143.9 103.2 *L 0 *D CKBD1

*CAP
1 *1043:Z 0.000456903
2 *103:2 0.00118342992

*RES
1 *1021:I *103:2 0.702053
2 *1043:Z *103:2 6.04040003
*END

*D_NET *104 0.00514105

*CONN
*I *1044:Z O *C 148.5 175.2 *L 0 *D DEL015
*I *1574:A[0] I *C 134.195 162.705 *L 0.00555 *D sram00

*CAP
1 *104:2 0.00175399
2 *104:3 0.0012444
3 *104:4 0.000158631
4 *104:6 0.000157561
5 *104:7 0.000169016
6 *104:8 0.000506351
7 *104:9 0.000313944
8 *104:10 9.80104e-05
9 *104:3 *155:2 0.000263895996
10 *104:2 *842:16 0.000189444004
11 *104:3 *859:21 0.000285809004

*RES
1 *104:9 *104:10 0.476809
2 *104:8 *104:10 2.14346
3 *104:4 *104:2 1.50381
4 *104:4 *104:7 1.35814
5 *104:3 *104:8 5.89887
6 *104:6 *104:8 0.444379
7 *104:5 *104:9 1.02425
8 *104:3 *104:2 8.41274
9 *1044:Z *104:5 0.225
10 *1044:Z *1574:A[0] 0.0001
*END

*D_NET *105 0.0103016

*CONN
*I *1045:Z O *C 148.7 170.8 *L 0 *D DEL0
*I *1640:D I *C 141.3 120 *L 0.000971 *D DFCNQD1

*CAP
1 *105:2 0.00074911
2 *105:3 0.00142714
3 *105:4 0.000164357
4 *105:5 0.000369546
5 *105:6 0.00308276
6 *105:2 *336:4 0.00139786
7 *105:2 *783:5 0.000389441992
8 *105:2 *66:3 0.000688902031
9 *105:2 *454:10 0.000562356992
10 *105:3 *616:5 0.000823986016
11 *105:2 *1464:I 0.000646134961

*RES
1 *1045:Z *105:5 0.701745
2 *105:3 *105:6 25.4367008
3 *105:5 *105:3 7.19327
4 *105:4 *105:2 2.93196
5 *105:2 *105:6 10.7932
6 *1640:D *105:4 0.225117
*END

*D_NET *106 0.00110994

*CONN
*I *1046:Z O *C 138.3 30.4 *L 0 *D CKBD0
*I *1059:I I *C 137.9 31.6 *L 0.00182 *D DEL005

*CAP
1 *1046:Z 0.000138007
2 *106:2 0.000813775
3 *106:3 0.000158161

*RES
1 *106:2 *106:3 2.78660989
2 *1046:Z *106:3 0.449992
3 *1059:I *106:2 0.225017
*END

*D_NET *107 0.00229091

*CONN
*I *1047:Z O *C 150.9 80.8 *L 0 *D BUFFD1
*I *1420:I I *C 142.3 78.4 *L 0.00105 *D DEL1

*CAP
1 *1420:I 0.000165423
2 *107:2 0.00171643
3 *107:3 0.000409052

*RES
1 *107:2 *107:3 6.76257992
2 *1420:I *107:2 0.82778
3 *1047:Z *107:3 1.59561
*END

*D_NET *108 0.000527967

*CONN
*I *1048:Z O *C 138.3 34 *L 0 *D CKBD1
*I *1603:D I *C 139.5 33.6 *L 0.000971 *D DFCNQD1

*CAP
1 *1603:D 0.000167422
2 *1048:Z 0.000167505
3 *108:2 0.00019304

*RES
1 *1048:Z *108:2 0.450006
2 *1603:D *108:2 1.73031998
*END

*D_NET *109 0.000991846

*CONN
*I *1043:I I *C 143.3 103.6 *L 0.000968 *D CKBD1
*I *1049:Z O *C 144.7 103.2 *L 0 *D CKBD0

*CAP
1 *1043:I 5.54949e-06
2 *1049:Z 7.02004e-05
3 *109:2 0.000916086016

*RES
1 *1049:Z *109:2 2.59615993
2 *1043:I *109:2 0.394241
*END

*D_NET *110 0.00133419

*CONN
*I *1050:Z O *C 146.5 9.6 *L 0 *D CKBD1
*I *1592:D I *C 149.1 13.6 *L 0.000971 *D DFCNQD1

*CAP
1 *1592:D 0.000324991
2 *110:2 0.000654928984
3 *110:3 0.000354272

*RES
1 *110:2 *110:3 2.37135
2 *1592:D *110:3 2.65864992
3 *1050:Z *110:2 0.224989
*END

*D_NET *111 0.00100338

*CONN
*I *1051:Z O *C 138.3 12.4 *L 0 *D CKBD1
*I *1597:D I *C 139.7 13.6 *L 0.000971 *D DFCNQD1

*CAP
1 *1597:D 5.93583e-06
2 *111:2 0.000997447031

*RES
1 *1597:D *111:2 3.19132996
2 *1051:Z *111:2 0.225023
*END

*D_NET *112 0.000452103

*CONN
*I *1052:Z O *C 151.3 23.2 *L 0 *D BUFFD1
*I *1608:D I *C 149.5 22.8 *L 0.000971 *D DFCNQD1

*CAP
1 *112:2 0.000452103008

*RES
1 *1052:Z *112:2 0.44999
2 *1608:D *112:2 1.58329999
*END

*D_NET *113 0.00287528

*CONN
*I *1026:Z O *C 142.9 49.2 *L 0 *D BUFFD1
*I *1602:D I *C 140.1 40.8 *L 0.000971 *D DFCNQD1

*CAP
1 *113:2 0.000538394
2 *113:3 0.000161429
3 *113:4 0.000590325
4 *113:5 0.00158514

*RES
1 *113:2 *113:4 2.22947
2 *1026:Z *113:2 1.66353
3 *113:4 *113:5 5.66077995
4 *113:3 *113:5 0.592544
5 *1602:D *113:3 0.225011
*END

*D_NET *114 0.00132486

*CONN
*I *1054:Z O *C 138.1 19.6 *L 0 *D CKBD0
*I *1605:D I *C 140.1 22.8 *L 0.000971 *D DFCNQD1

*CAP
1 *1054:Z 0.000638642
2 *114:2 0.000686222969

*RES
1 *1054:Z *114:2 2.35193992
2 *1605:D *114:2 2.21485
*END

*D_NET *115 0.00290802

*CONN
*I *1055:Z O *C 141.9 69.8 *L 0 *D DEL005
*I *1419:I I *C 138.1 64 *L 0.00105 *D DEL1

*CAP
1 *1055:Z 0.000311752
2 *115:2 0.000744483
3 *115:3 0.000625244
4 *115:4 0.00122655

*RES
1 *115:2 *115:4 4.46848011
2 *115:3 *115:4 0.476808
3 *1419:I *115:3 2.2056
4 *1055:Z *115:2 3.62819
*END

*D_NET *116 0.00207248

*CONN
*I *1056:Z O *C 138.1 49.2 *L 0 *D CKBD0
*I *1067:I I *C 138.3 58.8 *L 0.00182 *D DEL005

*CAP
1 *1067:I 0.000218799
2 *116:2 5.72805e-05
3 *116:3 0.000357015
4 *116:4 0.00143937

*RES
1 *116:3 *116:4 6.60086012
2 *116:2 *116:4 0.701825
3 *1067:I *116:3 0.827726
4 *1056:Z *116:2 0.225011
*END

*D_NET *117 0.0024537

*CONN
*I *1057:I I *C 151.1 53.2 *L 0.000643 *D CKBD0
*I *1623:Q O *C 146.3 59.2 *L 0 *D DFCNQD1

*CAP
1 *1057:I 0.000537
2 *117:2 0.00090966
3 *117:3 0.000959806953
4 *117:4 4.72471e-05

*RES
1 *1623:Q *117:2 3.45367002
2 *117:2 *117:3 0.951003
3 *117:3 *117:4 3.0491
4 *1057:I *117:4 2.23496
*END

*D_NET *118 0.00138091

*CONN
*I *1058:Z O *C 138.3 258 *L 0 *D BUFFD1
*I *1574:D[51] I *C 134.195 263.785 *L 0.00183 *D sram00

*CAP
1 *118:2 9.87121e-05
2 *118:3 0.000564888008
3 *118:4 4.215e-05
4 *118:5 0.000294697
5 *118:7 9.89362e-05
6 *118:8 0.000190597
7 *118:10 2.75828e-06
8 *118:11 8.81789e-05

*RES
1 *118:10 *118:11 0.159195
2 *118:7 *118:10 0.348602
3 *118:6 *118:8 0.974596
4 *118:2 *118:3 0.602698
5 *118:8 *118:9 0.159195
6 *118:6 *118:7 0.159195
7 *118:4 *118:11 0.384763
8 *118:4 *118:5 2.01445
9 *118:3 *118:9 2.34872007
10 *1058:Z *118:2 0.224995
11 *1058:Z *1574:D[51] 0.000107516
*END

*D_NET *119 0.00457533

*CONN
*I *1059:Z O *C 138.5 31.4 *L 0 *D DEL005
*I *1561:I I *C 137.5 6.4 *L 0.00072 *D BUFFD1

*CAP
1 *1561:I 0.000173732
2 *119:2 0.00062784
3 *119:3 0.00377378

*RES
1 *119:2 *119:3 15.2409
2 *1059:Z *119:2 2.41674
3 *1561:I *119:3 0.745347
*END

*D_NET *120 0.00232344

*CONN
*I *1060:Z O *C 138.1 77.2 *L 0 *D CKBD1
*I *1138:I I *C 137.9 84 *L 0.000643 *D CKBD0

*CAP
1 *1138:I 3.61246e-05
2 *1060:Z 8.98493e-05
3 *120:2 0.000957691
4 *120:3 5.19121e-05
5 *120:4 0.00118787

*RES
1 *120:3 *120:4 4.41859007
2 *120:2 *120:4 0.476811
3 *1060:Z *120:2 3.43773
4 *1138:I *120:3 0.554212
*END

*D_NET *121 0.00293266

*CONN
*I *1061:I I *C 139.3 166.8 *L 0.00104 *D DEL0
*I *1783:ZN O *C 143.3 160 *L 0 *D INVD1

*CAP
1 *1783:ZN 0.000532883
2 *121:2 0.00125942
3 *121:3 0.000541415
4 *121:4 0.000598933

*RES
1 *121:2 *121:3 4.90611982
2 *1783:ZN *121:4 3.61192
3 *1061:I *121:3 1.79376
4 *121:2 *121:4 0.225034
*END

*D_NET *122 0.00412886

*CONN
*I *1062:Z O *C 138.1 23.2 *L 0 *D CKBD0
*I *1478:I I *C 141.9 48 *L 0.00105 *D DEL1

*CAP
1 *1062:Z 0.000158684
2 *122:2 0.000122248
3 *122:3 0.000632549
4 *122:4 0.00130491
5 *122:5 0.00159402
6 *122:6 2.66582e-05
7 *122:7 0.000289762

*RES
1 *122:6 *122:7 1.76542
2 *122:5 *122:7 0.159175
3 *122:4 *122:6 6.00986
4 *122:3 *122:5 9.31402016
5 *1062:Z *122:4 1.36223
6 *122:2 *122:3 2.22035
7 *1478:I *122:2 0.449954
*END

*D_NET *123 0.00480892

*CONN
*I *1047:I I *C 150.3 80.4 *L 0.00072 *D BUFFD1
*I *1063:Z O *C 138.9 74.6 *L 0 *D DEL005

*CAP
1 *1063:Z 8.23444e-05
2 *123:2 0.000574624
3 *123:3 0.00220894
4 *123:4 0.001943

*RES
1 *123:3 *123:4 7.42468977
2 *1063:Z *123:3 2.12105
3 *123:2 *123:4 6.73112
4 *1047:I *123:2 2.16965
*END

*D_NET *124 0.00238156

*CONN
*I *1057:Z O *C 151.7 52.8 *L 0 *D CKBD0
*I *1064:I I *C 141.1 55.2 *L 0.000643 *D CKBD0

*CAP
1 *124:2 0.000229149
2 *124:3 0.0021524

*RES
1 *124:2 *124:3 7.32705021
2 *1064:I *124:3 2.56216
3 *1057:Z *124:2 0.224945
*END

*D_NET *125 0.000585564

*CONN
*I *1065:Z O *C 151.1 34.8 *L 0 *D CKBD1
*I *1594:D I *C 149.3 35.2 *L 0.000971 *D DFCNQD1

*CAP
1 *125:2 0.000585564023

*RES
1 *1065:Z *125:2 0.449989
2 *1594:D *125:2 1.79218996
*END

*D_NET *126 0.00255925

*CONN
*I *1066:Z O *C 151.5 8.6 *L 0 *D DEL005
*I *1325:I I *C 137.5 10 *L 0.00103 *D DEL015

*CAP
1 *1325:I 2.80038e-05
2 *1066:Z 6.39759e-05
3 *126:2 0.000295089
4 *126:3 2.32163e-05
5 *126:4 0.00214897984

*RES
1 *126:3 *126:4 2.74336
2 *126:2 *126:4 9.86279011
3 *1066:Z *126:2 2.36336
4 *1325:I *126:3 0.555775
*END

*D_NET *127 0.00227768

*CONN
*I *1067:Z O *C 138.9 59 *L 0 *D DEL005
*I *1329:I I *C 138.3 49.6 *L 0.00103 *D DEL015

*CAP
1 *1329:I 4.91863e-05
2 *127:2 0.000440685
3 *127:3 0.00178781

*RES
1 *127:2 *127:3 7.70184994
2 *1329:I *127:3 0.720286
3 *1067:Z *127:2 0.800905
*END

*D_NET *128 0.00178397

*CONN
*I *1068:Z O *C 139.3 26.6 *L 0 *D DEL005
*I *1327:I I *C 140.9 20.8 *L 0.00103 *D DEL015

*CAP
1 *128:2 0.00118533
2 *128:3 0.000598643

*RES
1 *1068:Z *128:3 1.7286
2 *128:2 *128:3 4.31168985
3 *1327:I *128:2 0.450012
*END

*D_NET *129 0.00146962

*CONN
*I *1069:Z O *C 151.3 24.2 *L 0 *D DEL005
*I *1328:I I *C 146.3 28 *L 0.00103 *D DEL015

*CAP
1 *1328:I 0.000366861
2 *1069:Z 0.000138349
3 *129:2 7.00751e-05
4 *129:3 0.000894327969

*RES
1 *129:2 *129:3 3.03513002
2 *1328:I *129:3 3.01346
3 *1069:Z *129:2 0.476925
*END

*D_NET *130 0.00196811

*CONN
*I *1070:Z O *C 138.9 8.6 *L 0 *D DEL005
*I *1326:I I *C 140.9 15.6 *L 0.00103 *D DEL015

*CAP
1 *1070:Z 0.000357089
2 *130:2 0.00161103

*RES
1 *1326:I *130:2 5.52696991
2 *1070:Z *130:2 2.36804
*END

*D_NET *131 0.00103005

*CONN
*I *1055:I I *C 141.3 69.6 *L 0.00182 *D DEL005
*I *1071:Z O *C 138.9 67.4 *L 0 *D DEL005

*CAP
1 *1055:I 8.06431e-05
2 *1071:Z 0.000550515
3 *131:2 0.000398889

*RES
1 *1055:I *131:2 1.98027
2 *1071:Z *131:2 2.18241
*END

*D_NET *132 0.00123517

*CONN
*I *1072:I I *C 151.1 62.4 *L 0.000968 *D CKBD1
*I *1624:Q O *C 146.7 62.8 *L 0 *D DFCNQD1

*CAP
1 *1072:I 3.61891e-06
2 *132:2 0.00102669
3 *132:3 0.000204868

*RES
1 *132:2 *132:3 4.03346014
2 *1072:I *132:3 0.801018
3 *1624:Q *132:2 0.225011
*END

*D_NET *133 0.00123586

*CONN
*I *1073:Z O *C 151.5 19.4 *L 0 *D DEL005
*I *1324:I I *C 149.3 15.6 *L 0.00103 *D DEL015

*CAP
1 *1324:I 0.000170265
2 *1073:Z 3.67785e-05
3 *133:2 0.000508684
4 *133:3 0.000520129023

*RES
1 *1073:Z *133:2 0.62206
2 *133:2 *133:3 5.00273991
3 *1324:I *133:3 0.675037
*END

*D_NET *134 0.00174475

*CONN
*I *1074:Z O *C 151.3 13.4 *L 0 *D DEL005
*I *1322:I I *C 143.5 13.6 *L 0.00103 *D DEL015

*CAP
1 *1322:I 0.000347693
2 *1074:Z 0.000175087
3 *134:2 0.00122197

*RES
1 *1322:I *134:2 1.49821
2 *1074:Z *134:2 6.37742996
*END

*D_NET *135 0.00032737

*CONN
*I *1075:Z O *C 142.7 70 *L 0 *D CKBD0
*I *1417:I I *C 143.1 71.2 *L 0.00105 *D DEL1

*CAP
1 *1075:Z 0.00032736998

*RES
1 *1075:Z *1417:I 1.90747
*END

*D_NET *136 0.00126959

*CONN
*I *1076:Z O *C 139.3 127.4 *L 0 *D DEL005
*I *1710:B1 I *C 141.5 128.6 *L 0.000863 *D AO22D0

*CAP
1 *1076:Z 0.000511753
2 *136:2 0.000127188
3 *136:3 0.000630645977

*RES
1 *136:2 *136:3 2.22416997
2 *1076:Z *136:3 2.09425
3 *1710:B1 *136:2 0.22501
*END

*D_NET *137 0.00751559

*CONN
*I *1077:Z O *C 144.1 167.2 *L 0 *D DEL015
*I *1679:D I *C 145.3 113 *L 0.00077 *D EDFCNQD4

*CAP
1 *137:2 0.000248335
2 *137:3 0.000416972
3 *137:4 0.000179816
4 *137:5 0.000333205
5 *137:6 0.00249191
6 *137:5 *311:2 0.00165488
7 *137:5 *230:2 0.00219047

*RES
1 *137:5 *137:6 33.8684998
2 *137:4 *137:6 1.33177
3 *137:3 *137:5 1.2863
4 *137:2 *137:4 0.890433
5 *1077:Z *137:3 0.450126
6 *1679:D *137:2 0.224805
*END

*D_NET *138 0.00476265

*CONN
*I *982:I I *C 151.3 116.4 *L 0.00182 *D DEL005
*I *1078:Z O *C 139.3 125 *L 0 *D DEL005

*CAP
1 *982:I 0.000199645
2 *138:2 0.00114578
3 *138:3 0.00194525
4 *138:4 0.00136531
5 *138:5 0.00010665

*RES
1 *138:2 *138:4 3.08476
2 *1078:Z *138:2 1.44279
3 *138:4 *138:5 5.23842
4 *138:3 *138:5 6.08265018
5 *982:I *138:3 2.15737
*END

*D_NET *139 0.00241899

*CONN
*I *1079:Z O *C 144.1 109.4 *L 0 *D DEL005
*I *1707:B1 I *C 140.9 116.6 *L 0.000863 *D AO22D0

*CAP
1 *1079:Z 6.77935e-06
2 *139:2 0.00113609
3 *139:3 9.13495e-05
4 *139:5 0.00118476

*RES
1 *139:2 *139:3 3.82307005
2 *1079:Z *139:2 0.310519
3 *139:4 *139:5 1.86236
4 *139:3 *139:5 2.58531
5 *1707:B1 *139:4 0.225
*END

*D_NET *140 0.000781493

*CONN
*I *1080:I I *C 148.1 139.6 *L 0.000643 *D CKBD0
*I *1275:Z O *C 151.9 139.2 *L 0 *D DEL01

*CAP
1 *1275:Z 0.000263282
2 *1080:I 0.000124127
3 *140:2 0.000394084023

*RES
1 *1080:I *140:2 0.818485
2 *1275:Z *140:2 2.82108998
*END

*D_NET *141 0.00526593

*CONN
*I *1081:I I *C 145.3 240.4 *L 0.00103 *D DEL015
*I *1260:Z O *C 151.1 214 *L 0 *D BUFFD0

*CAP
1 *141:2 0.00051188
2 *141:3 0.000168185
3 *141:4 0.00240026
4 *141:4 *840:9 0.00182907
5 *141:2 *180:19 0.000356530977

*RES
1 *141:2 *141:4 19.0468998
2 *141:3 *141:4 2.96968
3 *1260:Z *141:3 0.576034
4 *1081:I *141:2 1.95363
*END

*D_NET *142 0.00217051

*CONN
*I *1082:I I *C 138.1 220.8 *L 0.00104 *D DEL0
*I *1403:Z O *C 145.5 214.8 *L 0 *D DEL1

*CAP
1 *1403:Z 0.000756039
2 *1082:I 6.52771e-05
3 *142:2 0.00124178008
4 *142:3 0.000107418

*RES
1 *142:2 *142:3 4.5223999
2 *1403:Z *142:3 2.73928
3 *1082:I *142:2 1.98207
*END

*D_NET *143 0.00280373

*CONN
*I *1083:I I *C 138.1 182.8 *L 0.00104 *D DEL0
*I *1404:Z O *C 149.3 192.4 *L 0 *D DEL1

*CAP
1 *143:2 0.000254034
2 *143:3 0.00101205
3 *143:4 0.00153765

*RES
1 *143:2 *143:4 7.27565002
2 *1404:Z *143:2 0.704518
3 *143:3 *143:4 5.26212
4 *1083:I *143:3 0.225033
*END

*D_NET *144 0.00224064

*CONN
*I *1084:I I *C 140.7 182.8 *L 0.00104 *D DEL0
*I *1402:Z O *C 148.7 186 *L 0 *D DEL1

*CAP
1 *144:2 0.000268211
2 *144:3 0.000705979
3 *144:4 0.00126645992

*RES
1 *144:2 *144:4 5.34731007
2 *144:3 *144:4 2.67635
3 *1402:Z *144:2 0.544718
4 *1084:I *144:3 0.449988
*END

*D_NET *145 0.0051502

*CONN
*I *1085:I I *C 149.7 168.4 *L 0.00103 *D DEL015
*I *1284:Z O *C 148.7 142 *L 0 *D DEL01

*CAP
1 *1284:Z 0.000895382
2 *145:2 0.00224025016
3 *145:3 0.000827698
4 *145:2 *186:3 0.000159523994
5 *145:2 *719:4 0.000208903008
6 *145:2 *179:3 0.000478100977
7 *145:3 *933:4 0.000340328008

*RES
1 *145:3 *145:2 0.602656
2 *1284:Z *145:2 16.2399998
3 *1085:I *145:3 4.57394
*END

*D_NET *146 0.00265967

*CONN
*I *1086:Z O *C 143.1 286 *L 0 *D DEL015
*I *1574:D[61] I *C 134.195 305.785 *L 0.00183 *D sram00

*CAP
1 *146:2 6.04281e-06
2 *146:3 0.000197399
3 *146:4 0.000456141
4 *146:6 0.00200008016

*RES
1 *146:3 *146:6 13.1931
2 *146:3 *146:4 4.15484
3 *146:5 *146:6 1.60995
4 *1086:Z *146:2 0.225
5 *146:2 *146:5 0.225
6 *1086:Z *1574:D[61] 0.0001
*END

*D_NET *147 0.00124532

*CONN
*I *1087:I I *C 145.7 67.6 *L 0.000643 *D CKBD0
*I *1262:Z O *C 148.5 70 *L 0 *D BUFFD1

*CAP
1 *147:2 0.000710458984
2 *147:3 0.000534858

*RES
1 *147:2 *147:3 2.06840992
2 *1262:Z *147:3 1.56901
3 *1087:I *147:2 0.450003
*END

*D_NET *148 0.00229904

*CONN
*I *1088:Z O *C 139.9 164.4 *L 0 *D DEL01
*I *1574:A[2] I *C 134.265 156.66 *L 0.00555 *D sram00

*CAP
1 *148:2 0.00146861
2 *148:3 0.000830431

*RES
1 *148:2 *148:3 3.83625
2 *1088:Z *148:2 5.65327978
3 *1088:Z *1574:A[2] 8.62622e-05
*END

*D_NET *149 0.00512616

*CONN
*I *1089:I I *C 144.3 166.8 *L 0.00103 *D DEL015
*I *1309:Z O *C 147.7 135.6 *L 0 *D DEL01

*CAP
1 *1089:I 0.000642734
2 *149:2 0.00138608
3 *149:3 0.00042641
4 *149:2 *184:2 0.00120539
5 *149:3 *854:3 0.000164658984
6 *149:2 *170:4 0.00130089

*RES
1 *149:3 *149:2 21.0685997
2 *1309:Z *149:3 0.450074
3 *1089:I *149:2 3.03221
*END

*D_NET *150 0.00122638

*CONN
*I *1090:Z O *C 139.5 160 *L 0 *D DEL01
*I *1574:A[1] I *C 134.265 162.125 *L 0.00555 *D sram00

*CAP
1 *150:2 0.000114317
2 *150:3 0.000145378
3 *150:4 0.000222084
4 *150:6 5.2547e-05
5 *150:7 0.000196023
6 *150:9 5.26695e-06
7 *150:10 1.85748e-05
8 *150:11 0.000472188008

*RES
1 *150:9 *150:10 0.268551
2 *150:2 *150:3 0.512829
3 *150:8 *150:11 0.712128
4 *150:7 *150:8 0.159211
5 *150:4 *150:11 2.99569988
6 *150:3 *150:4 0.434709
7 *150:6 *150:9 0.30128
8 *150:5 *150:7 0.97469
9 *150:5 *150:6 0.159211
10 *1090:Z *150:2 0.224988
11 *1090:Z *1574:A[1] 9.14215e-05
*END

*D_NET *151 0.00234547

*CONN
*I *1091:I I *C 138.1 218.8 *L 0.00103 *D DEL015
*I *1258:Z O *C 143.1 210.4 *L 0 *D BUFFD0

*CAP
1 *1258:Z 0.000279245
2 *151:2 7.74735e-05
3 *151:4 0.00198873

*RES
1 *151:2 *151:4 3.79278
2 *151:3 *151:4 4.81936979
3 *1258:Z *151:2 1.15476
4 *1091:I *151:3 0.449977
*END

*D_NET *152 0.00270136

*CONN
*I *1092:Z O *C 147.5 279.6 *L 0 *D DEL1
*I *1667:D I *C 145.7 267.6 *L 0.000971 *D DFCNQD1

*CAP
1 *1667:D 0.000457476
2 *1092:Z 0.000181312
3 *152:2 0.00180857
4 *152:3 0.000254003

*RES
1 *152:2 *152:3 7.51690006
2 *1092:Z *152:3 1.92201
3 *1667:D *152:2 2.38424
*END

*D_NET *153 0.00962186

*CONN
*I *1093:Z O *C 141.7 170.8 *L 0 *D DEL1
*I *1643:D I *C 141.7 134.4 *L 0.000971 *D DFCNQD1

*CAP
1 *1643:D 2.78557e-05
2 *1093:Z 0.000190756
3 *153:2 0.000778871
4 *153:3 0.000669677
5 *153:4 0.00162269
6 *153:5 0.00127361
7 *153:6 7.81694e-05
8 *153:7 0.000367622
9 *153:8 4.08551e-06
10 *153:4 *375:3 0.000755305
11 *153:3 *619:5 0.000514279023
12 *153:4 *908:2 0.000594198008
13 *153:2 *73:17 0.000318093984
14 *153:3 *992:Z 0.000496266016
15 *153:2 *79:18 0.00193038

*RES
1 *153:5 *153:8 8.87954
2 *1643:D *153:7 1.73068
3 *153:2 *153:8 9.40671
4 *153:3 *153:6 1.36814
5 *153:3 *153:5 2.33618
6 *153:4 *153:6 11.1339998
7 *1093:Z *153:2 1.21778
8 *153:4 *153:7 0.224936
*END

*D_NET *154 0.00722788

*CONN
*I *1094:Z O *C 141.7 168 *L 0 *D DEL1
*I *1644:D I *C 143.1 139.6 *L 0.000971 *D DFCNQD1

*CAP
1 *1644:D 7.9615e-05
2 *154:2 0.00260227984
3 *154:3 0.000136914
4 *154:4 0.0010286
5 *154:5 4.78484e-05
6 *154:4 *250:2 0.000249670996
7 *154:2 *273:3 0.000576556992
8 *154:4 *846:6 0.000411813008
9 *154:4 *910:3 0.00147622
10 *154:4 *4:3 0.000295401016
11 *154:2 *840:22 0.000322930996

*RES
1 *154:5 *154:2 3.26982
2 *154:3 *154:4 2.23037
3 *1644:D *154:5 0.450094
4 *154:4 *154:2 23.5226002
5 *1094:Z *154:3 0.225047
*END

*D_NET *155 0.00906284

*CONN
*I *1095:Z O *C 150.5 167.2 *L 0 *D DEL1
*I *1645:D I *C 142.9 143.2 *L 0.000971 *D DFCNQD1

*CAP
1 *155:2 0.00167475
2 *155:3 0.0020281
3 *155:4 0.000252155
4 *155:5 8.60322e-05
5 *155:6 0.00118721
6 *155:4 *908:3 0.000224545996
7 *155:2 *104:3 0.000263895996
8 *155:3 *1206:I 0.000409925
9 *155:3 *2:3 0.00293624

*RES
1 *155:5 *155:6 4.95385
2 *155:3 *155:2 19.2229004
3 *155:4 *155:2 10.4002
4 *1645:D *155:5 0.224975
5 *1095:Z *155:4 0.224975
6 *155:3 *155:6 0.224975
*END

*D_NET *156 0.00221351

*CONN
*I *1096:Z O *C 147.1 278.8 *L 0 *D DEL1
*I *1669:D I *C 143.9 271.2 *L 0.000971 *D DFCNQD1

*CAP
1 *156:2 0.00011179
2 *156:3 0.000520416
3 *156:4 0.0015813

*RES
1 *156:3 *156:4 2.11359
2 *156:2 *156:4 5.68364
3 *1096:Z *156:2 0.495463
4 *1669:D *156:3 0.224966
*END

*D_NET *157 0.00390698

*CONN
*I *1097:Z O *C 146.5 276 *L 0 *D DEL1
*I *1666:D I *C 143.3 262 *L 0.000971 *D DFCNQD1

*CAP
1 *1666:D 0.000682676
2 *157:2 0.000252994
3 *157:3 0.00297132

*RES
1 *157:2 *157:3 10.8184004
2 *1097:Z *157:2 0.970975
3 *1666:D *157:3 2.79209
*END

*D_NET *158 0.00367998

*CONN
*I *1098:Z O *C 151.7 275.2 *L 0 *D DEL1
*I *1663:D I *C 145.7 249.6 *L 0.000971 *D DFCNQD1

*CAP
1 *158:2 0.00284373
2 *158:3 9.22959e-05
3 *158:4 0.000743922

*RES
1 *158:2 *158:4 16.3008995
2 *158:3 *158:4 3.62452
3 *1098:Z *158:3 0.449956
4 *1663:D *158:2 0.89643
*END

*D_NET *159 0.0023463

*CONN
*I *1099:Z O *C 141.5 268 *L 0 *D DEL1
*I *1668:D I *C 146.3 260.4 *L 0.000971 *D DFCNQD1

*CAP
1 *1668:D 0.000225578
2 *159:2 0.00200886984
3 *159:3 0.000111854

*RES
1 *159:2 *159:3 3.31539
2 *1099:Z *159:2 5.28038979
3 *1668:D *159:3 0.929483
*END

*D_NET *160 0.00247476

*CONN
*I *1100:Z O *C 142.3 265.2 *L 0 *D DEL1
*I *1664:D I *C 146.7 254.8 *L 0.000971 *D DFCNQD1

*CAP
1 *1664:D 7.07871e-05
2 *1100:Z 6.3814e-05
3 *160:2 0.000893358
4 *160:3 0.000130643
5 *160:4 8.10584e-05
6 *160:5 0.0012351

*RES
1 *1100:Z *160:3 0.674972
2 *160:4 *160:5 3.13729
3 *160:2 *160:4 3.5299
4 *1664:D *160:2 0.401176
5 *160:3 *160:5 4.18654013
*END

*D_NET *161 0.000716108

*CONN
*I *1101:Z O *C 141.7 258 *L 0 *D DEL1
*I *1665:D I *C 141.7 254.8 *L 0.000971 *D DFCNQD1

*CAP
1 *161:2 0.000716108047

*RES
1 *1101:Z *161:2 2.34414005
2 *1665:D *161:2 0.224985
*END

*D_NET *162 0.00257917

*CONN
*I *1102:I I *C 138.7 217.2 *L 0.00105 *D DEL1
*I *1703:ZN O *C 142.3 205.8 *L 0 *D MOAI22D0

*CAP
1 *1703:ZN 0.000158533
2 *162:2 8.3279e-05
3 *162:3 0.00233734016

*RES
1 *162:2 *162:3 7.55295992
2 *1703:ZN *162:3 3.11357
3 *1102:I *162:2 0.224966
*END

*D_NET *163 0.00316287

*CONN
*I *1103:I I *C 140.5 218.8 *L 0.00105 *D DEL1
*I *1702:ZN O *C 146.5 205.8 *L 0 *D MOAI22D0

*CAP
1 *1103:I 0.000218944
2 *163:2 2.46862e-06
3 *163:3 0.00294147

*RES
1 *1702:ZN *163:3 5.21744
2 *1103:I *163:2 1.35515
3 *163:2 *163:3 7.40092993
*END

*D_NET *164 0.000653387

*CONN
*I *1104:I I *C 143.3 210 *L 0.00105 *D DEL1
*I *1704:ZN O *C 142.3 208.6 *L 0 *D MOAI22D0

*CAP
1 *1704:ZN 0.000257143
2 *1104:I 0.000396243984

*RES
1 *1104:I *1704:ZN 2.54272
*END

*D_NET *165 0.00646538

*CONN
*I *1105:I I *C 139.3 163.2 *L 0.00103 *D DEL015
*I *1272:Z O *C 146.5 142 *L 0 *D CKBD0

*CAP
1 *1272:Z 0.000222823
2 *1105:I 7.68832e-05
3 *165:2 0.00293109
4 *165:3 4.60673e-06
5 *165:4 6.29289e-05
6 *165:5 4.27129e-05
7 *165:6 0.000513002
8 *165:3 *781:2 0.000722867031
9 *1272:Z *855:11 0.00024827
10 *165:2 *378:7 0.000211835996
11 *165:3 *782:9 0.00123081008
12 *1105:I *4:2 0.000197545996

*RES
1 *165:4 *165:2 8.47387
2 *1105:I *165:5 0.701799
3 *165:3 *165:2 15.2294998
4 *165:5 *165:6 3.38025
5 *1272:Z *165:4 0.384827
6 *165:3 *165:6 0.224947
*END

*D_NET *166 0.00851983

*CONN
*I *1106:Z O *C 140.9 160.8 *L 0 *D DEL1
*I *1637:D I *C 142.5 105.6 *L 0.000971 *D DFCNQD1

*CAP
1 *1637:D 9.52567e-05
2 *166:2 0.000218235
3 *166:3 0.00174181
4 *166:4 2.84388e-05
5 *166:5 0.000600829
6 *166:6 6.75621e-05
7 *166:5 *293:3 0.000222457012
8 *166:2 *73:20 0.000527149961
9 *166:3 *82:3 0.00271532
10 *166:2 *83:3 0.00230274016

*RES
1 *166:6 *166:3 35.6971016
2 *166:5 *166:3 0.449918
3 *166:2 *166:6 0.894933
4 *166:4 *166:5 1.79913
5 *1106:Z *166:2 0.449918
6 *1637:D *166:4 0.449918
*END

*D_NET *167 0.0111924

*CONN
*I *1107:Z O *C 150.9 164.4 *L 0 *D DEL1
*I *1633:D I *C 147.7 96.4 *L 0.000971 *D DFCNQD1

*CAP
1 *167:2 0.000217431
2 *167:3 0.000125619
3 *167:4 5.01194e-05
4 *167:5 0.00021578
5 *167:6 0.000153223
6 *167:7 0.00220885984
7 *167:5 *309:4 0.00459773031
8 *167:5 *940:13 0.00362371

*RES
1 *167:4 *167:6 1.61061
2 *1107:Z *167:3 0.449707
3 *167:6 *167:7 47.0798988
4 *167:5 *167:7 0.449707
5 *167:2 *167:5 1.07973
6 *1633:D *167:2 0.224854
7 *167:3 *167:4 0.224854
*END

*D_NET *168 0.00832991

*CONN
*I *1108:I I *C 142.9 164.8 *L 0.00105 *D DEL1
*I *1754:ZN O *C 141.9 98 *L 0 *D MOAI22D1

*CAP
1 *1754:ZN 2.84355e-05
2 *168:2 0.000441981
3 *168:3 0.0034319
4 *168:2 *169:2 0.00154243
5 *168:3 *235:2 0.0018381
6 *168:3 *775:4 0.00064343
7 *168:3 *846:6 0.000403638984

*RES
1 *168:2 *168:3 43.428299
2 *1108:I *168:3 2.00654
3 *1754:ZN *168:2 0.449948
*END

*D_NET *169 0.011587

*CONN
*I *1109:Z O *C 144.9 163.6 *L 0 *D DEL1
*I *1631:D I *C 141.7 91.2 *L 0.000971 *D DFCNQD1

*CAP
1 *169:2 0.00280017
2 *169:3 0.000399548
3 *169:4 0.000230132
4 *169:5 0.000173219
5 *169:6 0.000402753
6 *169:2 *775:5 0.00164226
7 *169:2 *800:2 0.00034982
8 *169:2 *846:8 0.000726216953
9 *169:2 *279:2 0.0014764
10 *169:2 *12:2 0.00184404
11 *169:2 *168:2 0.00154243

*RES
1 *169:2 *169:6 51.7324982
2 *169:5 *169:6 1.98844
3 *169:4 *169:5 0.449944
4 *169:3 *169:2 1.37983
5 *1109:Z *169:4 0.609398
6 *1631:D *169:3 0.224972
*END

*D_NET *170 0.00913247

*CONN
*I *1110:Z O *C 144.3 160.8 *L 0 *D DEL1
*I *1634:D I *C 141.5 92.8 *L 0.000971 *D DFCNQD1

*CAP
1 *1634:D 0.000129629
2 *1110:Z 0.000148652
3 *170:2 0.000315055
4 *170:3 0.000146109
5 *170:4 0.000386156
6 *170:5 0.000263449
7 *170:6 0.00308581
8 *170:4 *247:2 0.00223838
9 *170:4 *149:2 0.00130089
10 *170:4 *184:3 0.000670983047
11 *170:4 *230:2 0.000447373984

*RES
1 *170:5 *170:6 2.87141
2 *170:3 *170:4 1.33788
3 *170:4 *170:6 43.3196983
4 *1110:Z *170:3 0.450145
5 *1634:D *170:2 0.450145
6 *170:2 *170:5 0.450145
*END

*D_NET *171 0.00311663

*CONN
*I *1111:Z O *C 140.7 236.4 *L 0 *D DEL1
*I *1660:D I *C 149.3 246 *L 0.000971 *D DFCNQD1

*CAP
1 *171:2 0.000550277
2 *171:3 0.00147579
3 *171:4 0.00109058

*RES
1 *171:3 *171:4 6.10957003
2 *171:2 *171:4 4.46266
3 *1660:D *171:2 2.16244
4 *1111:Z *171:3 0.225044
*END

*D_NET *172 0.00155841

*CONN
*I *1112:Z O *C 140.7 224.8 *L 0 *D DEL1
*I *1656:D I *C 145.9 228 *L 0.000971 *D DFCNQD1

*CAP
1 *1112:Z 0.000272574
2 *172:2 0.000377796
3 *172:3 0.00090805

*RES
1 *172:2 *172:3 3.85928011
2 *1656:D *172:2 1.24948
3 *1112:Z *172:3 1.20544
*END

*D_NET *173 0.000680156

*CONN
*I *1113:I I *C 145.1 236.8 *L 0.00105 *D DEL1
*I *1727:Z O *C 144.1 234.6 *L 0 *D AO22D0

*CAP
1 *1727:Z 0.000420289023
2 *1113:I 0.000259869

*RES
1 *1113:I *1727:Z 2.84987
*END

*D_NET *174 0.00229555

*CONN
*I *1114:Z O *C 151.9 232.8 *L 0 *D DEL1
*I *1655:D I *C 148.7 224.4 *L 0.000971 *D DFCNQD1

*CAP
1 *1655:D 0.000464676
2 *174:2 0.00154825
3 *174:3 0.000282623

*RES
1 *1655:D *174:2 1.7458
2 *174:2 *174:3 6.48964977
3 *1114:Z *174:3 1.71322
*END

*D_NET *175 0.00087767

*CONN
*I *1115:I I *C 145.9 238.8 *L 0.00105 *D DEL1
*I *1728:Z O *C 144.1 241.8 *L 0 *D AO22D0

*CAP
1 *1728:Z 0.000409621
2 *1115:I 0.00046805

*RES
1 *1728:Z *1115:I 4.18766
*END

*D_NET *176 0.00122806

*CONN
*I *1116:I I *C 148.1 229.6 *L 0.00105 *D DEL1
*I *1724:Z O *C 144.3 231 *L 0 *D AO22D0

*CAP
1 *1116:I 0.000333454
2 *176:2 0.00081687
3 *176:3 7.77419e-05

*RES
1 *176:2 *176:3 3.0783999
2 *1724:Z *176:2 0.384847
3 *1116:I *176:3 1.82226
*END

*D_NET *177 0.000560629

*CONN
*I *1117:Z O *C 141.5 243.6 *L 0 *D DEL1
*I *1661:D I *C 142.1 246 *L 0.000971 *D DFCNQD1

*CAP
1 *1117:Z 0.000560629023

*RES
1 *1117:Z *1661:D 2.0747
*END

*D_NET *178 0.0115649

*CONN
*I *1118:Z O *C 150.9 163.6 *L 0 *D DEL1
*I *1588:D I *C 147.5 116.4 *L 0.000971 *D DFCNQD1
*I *1589:I I *C 146.7 159.8 *L 0.00062 *D CKND0

*CAP
1 *1588:D 0.00248752
2 *178:3 0.000473971
3 *178:4 0.00119288
4 *178:5 0.000393312
5 *178:6 0.000309654
6 *178:7 0.000674232
7 *178:8 0.000867168
8 *178:9 0.000322408
9 *178:10 0.00136175
10 *178:11 0.000322484
11 *178:12 0.000292536
12 *178:13 0.000260424
13 *178:14 0.000121842
14 *178:8 *855:12 0.00102597
15 *178:3 *288:2 0.000372601016
16 *178:4 *1757:A2 0.00108619

*RES
1 *178:13 *178:14 0.473447
2 *1588:D *178:7 9.58535957
3 *178:3 *178:11 2.7892
4 *178:8 *178:12 1.91412
5 *178:10 *178:11 2.62421
6 *178:8 *178:14 3.95183
7 *178:9 *178:12 1.4338
8 *178:5 *178:6 1.51307
9 *178:5 *178:3 2.88939
10 *178:4 *178:6 6.58876
11 *178:4 *178:7 2.24657
12 *1118:Z *178:13 1.38729
13 *178:9 *178:10 6.81445
14 *1589:I *178:12 0.224949
*END

*D_NET *179 0.00841927

*CONN
*I *1119:I I *C 147.9 161.2 *L 0.00105 *D DEL1
*I *1767:ZN O *C 146.9 124.8 *L 0 *D INR3D0

*CAP
1 *179:2 0.00309534
2 *179:3 0.00106843
3 *179:3 *145:2 0.000478100977
4 *179:3 *937:5 0.000217447988
5 *179:2 *717:3 0.00167757
6 *179:2 *719:3 0.00188238

*RES
1 *1119:I *179:3 1.05258
2 *1767:ZN *179:2 1.73771
3 *179:3 *179:2 29.6569996
*END

*D_NET *180 0.0159585

*CONN
*I *1120:Z O *C 149.5 168 *L 0 *D DEL1
*I *1690:B2 I *C 145.9 221 *L 0.000698 *D AO22D0
*I *1691:B2 I *C 144.9 247.4 *L 0.000698 *D AO22D0
*I *1693:B2 I *C 143.7 253.4 *L 0.000698 *D AO22D0
*I *1692:B2 I *C 144.9 253.4 *L 0.000698 *D AO22D0
*I *1696:B2 I *C 144.7 258.2 *L 0.000698 *D AO22D0
*I *1694:B2 I *C 143.5 260.6 *L 0.000698 *D AO22D0
*I *1695:B2 I *C 142.1 264.2 *L 0.000698 *D AO22D0
*I *1697:B2 I *C 142.5 265.4 *L 0.000698 *D AO22D0

*CAP
1 *1697:B2 0.000371945
2 *1696:B2 2.88334e-05
3 *1692:B2 0.000179788
4 *1691:B2 1.25375e-05
5 *180:9 0.000904242
6 *180:10 0.000453846
7 *180:11 0.000697696
8 *180:12 8.96416e-05
9 *180:13 0.000713935
10 *180:14 0.000228199
11 *180:15 0.000571423
12 *180:16 0.000146018
13 *180:17 5.58157e-05
14 *180:18 0.000388999
15 *180:19 0.000675341
16 *180:20 0.000349114
17 *180:21 0.000200403
18 *180:22 8.95014e-05
19 *180:24 0.00159148
20 *180:25 0.000252657
21 *180:26 0.000579754
22 *180:27 1.12192e-06
23 *180:28 0.00183813
24 *180:13 *625:7 0.00100193
25 *1692:B2 *627:21 0.000503767031
26 *180:9 *863:9 0.00120685008
27 *180:19 *141:2 0.000356530977
28 *180:19 *840:7 0.00134688
29 *180:9 *839:15 0.00112215992

*RES
1 *180:23 *180:26 8.86531
2 *180:22 *180:25 1.74659
3 *180:18 *180:21 1.10638
4 *180:17 *180:20 1.30067
5 *180:10 *180:20 2.28922
6 *180:12 *180:9 2.78221
7 *180:10 *180:13 1.18769
8 *180:19 *180:28 16.4673
9 *180:9 *180:27 4.08088
10 *180:11 *180:14 3.21358
11 *1696:B2 *180:14 0.696124
12 *180:13 *180:19 2.23387
13 *180:11 *180:17 0.520952
14 *180:24 *180:25 18.6972008
15 *180:23 *180:24 0.159196
16 *180:26 *180:27 0.159196
17 *180:15 *180:21 3.05581
18 *180:14 *180:15 1.56628
19 *1697:B2 *180:18 2.22303
20 *1692:B2 *180:11 1.34974
21 *180:22 *180:28 0.361186
22 *180:16 *180:28 0.813095
23 *1691:B2 *180:13 0.541208
24 *1695:B2 *180:18 0.449913
25 *1693:B2 *180:17 0.449913
26 *1690:B2 *180:16 0.449913
27 *1694:B2 *180:15 0.225099
28 *1120:Z *180:12 0.225099
*END

*D_NET *181 0.0153086

*CONN
*I *1121:Z O *C 148.1 182.4 *L 0 *D DEL1
*I *1690:A2 I *C 145.3 220.8 *L 0.000745 *D AO22D0
*I *1691:A2 I *C 145.5 247.6 *L 0.000745 *D AO22D0
*I *1693:A2 I *C 143.1 253.2 *L 0.000745 *D AO22D0
*I *1692:A2 I *C 145.5 253.2 *L 0.000745 *D AO22D0
*I *1696:A2 I *C 145.3 258.4 *L 0.000745 *D AO22D0
*I *1694:A2 I *C 142.9 260.4 *L 0.000745 *D AO22D0
*I *1695:A2 I *C 142.7 264 *L 0.000745 *D AO22D0
*I *1697:A2 I *C 143.1 265.6 *L 0.000745 *D AO22D0

*CAP
1 *1697:A2 0.000357345
2 *1695:A2 0.000149697
3 *1121:Z 0.000175723
4 *181:9 0.000538134
5 *181:10 0.00151606
6 *181:11 0.000770904
7 *181:12 4.02987e-05
8 *181:14 0.000440371
9 *181:15 4.92977e-05
10 *181:16 0.000130682
11 *181:17 0.00107127
12 *181:18 4.65911e-05
13 *181:19 0.000565825
14 *181:20 0.000356789
15 *181:21 0.000413328
16 *181:22 0.000374186
17 *181:23 0.000349687
18 *181:24 0.000410205
19 *181:25 0.000201748
20 *181:26 9.78551e-05
21 *181:27 0.000468131
22 *181:28 0.000265319
23 *181:29 0.000944915
24 *181:30 0.000166053
25 *181:31 0.000619564
26 *181:9 *626:29 0.000808871953
27 *181:10 *50:4 0.000962673984
28 *181:11 *70:4 0.0030171

*RES
1 *181:18 *181:22 1.91349
2 *181:13 *181:14 0.646117
3 *181:26 *181:27 0.285185
4 *181:9 *181:29 0.44726
5 *1691:A2 *181:20 1.17097
6 *181:11 *181:20 0.854547
7 *181:10 *181:30 11.007
8 *1697:A2 *181:15 1.6886
9 *181:15 *181:19 2.46136
10 *1121:Z *181:9 3.05407
11 *181:12 *181:17 1.46153
12 *181:23 *181:26 2.96673
13 *181:27 *181:28 8.65448
14 *181:23 *181:29 10.5849
15 *181:16 *181:21 1.82733
16 *181:28 *181:31 1.17215
17 *1695:A2 *181:15 0.583302
18 *181:24 *181:31 1.04316
19 *181:24 *181:25 4.12175
20 *1690:A2 *181:31 1.79374
21 *181:13 *181:17 2.84664
22 *181:25 *181:10 2.23328
23 *181:20 *181:30 1.2489
24 *181:11 *181:12 2.52216
25 *181:14 *181:19 1.42173
26 *1694:A2 *181:19 0.449947
27 *1696:A2 *181:18 0.449947
28 *1693:A2 *181:17 0.225058
29 *1692:A2 *181:16 0.225058
30 *181:14 *181:22 0.225058
31 *181:17 *181:21 0.225058
*END

*D_NET *182 0.0120734

*CONN
*I *1122:Z O *C 147.7 160.8 *L 0 *D DEL1
*I *1698:B2 I *C 144.1 174.2 *L 0.000739 *D MOAI22D0
*I *1699:B2 I *C 143.7 182.6 *L 0.000739 *D MOAI22D0
*I *1700:B2 I *C 146.3 188.6 *L 0.000739 *D MOAI22D0
*I *1701:B2 I *C 146.3 193.4 *L 0.000739 *D MOAI22D0
*I *1702:B2 I *C 146.1 206.6 *L 0.000739 *D MOAI22D0
*I *1705:B2 I *C 146.1 207.8 *L 0.000739 *D MOAI22D0
*I *1703:B2 I *C 141.9 206.6 *L 0.000739 *D MOAI22D0
*I *1704:B2 I *C 141.9 207.8 *L 0.000739 *D MOAI22D0

*CAP
1 *1703:B2 0.000193772
2 *1122:Z 0.000115714
3 *182:9 0.00045634
4 *182:10 0.000334803
5 *182:11 0.000800404
6 *182:12 0.00107808992
7 *182:13 0.000481871
8 *182:14 8.37829e-05
9 *182:15 0.00105772
10 *182:17 0.000251974
11 *182:18 0.000359972
12 *182:19 0.000194216
13 *182:20 0.000197555
14 *182:21 0.000265134
15 *182:22 0.000760561
16 *182:23 0.000198131
17 *182:24 0.000443492
18 *182:25 0.000162532
19 *182:9 *841:5 0.00111372992
20 *182:9 *846:7 0.000414073008
21 *182:12 *864:10 0.00100056008
22 *1703:B2 *1703:A1 0.000879838984
23 *182:9 *626:29 0.000406212969
24 *182:10 *852:9 0.000822896016

*RES
1 *182:21 *182:25 1.11978
2 *182:9 *182:24 4.64373
3 *182:13 *182:14 1.23333
4 *182:12 *182:14 5.18524
5 *182:17 *182:24 3.83638
6 *182:10 *182:20 3.79868
7 *182:13 *182:23 1.4099
8 *182:16 *182:10 0.159212
9 *182:19 *182:23 0.795545
10 *182:18 *182:22 3.0222
11 *182:9 *182:20 3.27213
12 *182:11 *182:15 3.82458
13 *1703:B2 *182:21 0.980408
14 *182:19 *182:25 2.38775
15 *182:12 *182:18 1.85573
16 *182:17 *182:22 2.71643
17 *1122:Z *182:11 0.601703
18 *182:15 *182:16 5.60370016
19 *1699:B2 *182:24 0.224965
20 *1702:B2 *182:23 0.224965
21 *1700:B2 *182:22 0.224965
22 *1704:B2 *182:21 0.224965
23 *1698:B2 *182:20 0.224965
24 *1705:B2 *182:19 0.224965
25 *1701:B2 *182:18 0.224965
*END

*D_NET *183 0.00410244

*CONN
*I *1065:I I *C 150.5 35.2 *L 0.000968 *D CKBD1
*I *1123:Z O *C 142.9 45.6 *L 0 *D CKBD0
*I *1686:D I *C 145.3 33.8 *L 0.000758 *D EDFCNQD1

*CAP
1 *1065:I 0.000181265
2 *1686:D 0.000576374
3 *1123:Z 7.42894e-05
4 *183:3 0.000865828984
5 *183:4 0.000835627
6 *183:5 0.000514266
7 *183:6 0.000546978
8 *183:7 0.000507805

*RES
1 *183:4 *183:5 2.43272
2 *183:3 *183:7 4.4691
3 *1065:I *183:3 0.905536
4 *183:5 *183:6 3.12133
5 *1123:Z *183:4 3.09017
6 *183:6 *183:7 1.07063
7 *1686:D *183:7 2.63021
*END

*D_NET *184 0.00779172

*CONN
*I *1124:I I *C 149.3 159.6 *L 0.00103 *D DEL01
*I *1587:ZN O *C 148.5 102.4 *L 0 *D INR3D0

*CAP
1 *184:2 0.000224855
2 *184:3 0.00294953
3 *184:4 0.000186284
4 *184:5 0.000230661
5 *184:6 0.000198166
6 *184:7 0.000266036
7 *184:7 *308:2 0.000299943008
8 *184:7 *784:3 0.000278986992
9 *184:2 *657:4 0.00128084008
10 *184:3 *170:4 0.000670983047
11 *184:2 *149:2 0.00120539

*RES
1 *184:2 *184:3 35.0038986
2 *184:7 *184:3 2.83937
3 *184:6 *184:2 1.98798
4 *1124:I *184:5 0.450261
5 *184:4 *184:7 0.769663
6 *1587:ZN *184:4 0.224863
7 *184:5 *184:6 0.224863
*END

*D_NET *185 1.3011e-05

*CONN
*I *1125:Z O *C 141.3 275.2 *L 0 *D CKBD0
*I *1317:I I *C 141.5 274.8 *L 0.00105 *D DEL1

*CAP
1 *1125:Z 1.30109998e-05

*RES
1 *1125:Z *1317:I 0.155112
*END

*D_NET *186 0.0122655

*CONN
*I *1126:Z O *C 148.9 160 *L 0 *D DEL01
*I *1680:D I *C 145.3 109.4 *L 0.000758 *D EDFCNQD1

*CAP
1 *1680:D 0.000245833
2 *1126:Z 9.51454e-06
3 *186:2 0.00404893031
4 *186:3 0.000333194
5 *186:4 0.000502293
6 *186:5 0.000551473
7 *186:3 *1168:Z 0.00391361
8 *186:3 *248:4 0.000998608984
9 *186:3 *908:4 0.00034704
10 *186:2 *310:4 0.00115549008
11 *186:3 *145:2 0.000159523994

*RES
1 *186:4 *186:2 40.9435997
2 *186:3 *186:4 0.728458
3 *1680:D *186:5 0.955242
4 *1126:Z *186:3 3.4911
5 *186:5 *186:2 3.15686
*END

*D_NET *187 0.0026357

*CONN
*I *1127:Z O *C 141.9 160 *L 0 *D DEL015
*I *1574:A[5] I *C 134.265 151.75 *L 0.00555 *D sram00

*CAP
1 *1127:Z 1.97822e-05
2 *187:2 4.66455e-05
3 *187:3 0.000152413
4 *187:4 0.00147321
5 *187:5 0.000209871
6 *187:6 7.35762e-05
7 *187:7 0.000660185

*RES
1 *187:2 *187:3 0.937714
2 *187:6 *187:7 3.16429
3 *187:4 *187:5 1.31764
4 *187:3 *187:4 5.18074989
5 *1127:Z *187:2 0.271623
6 *187:5 *187:6 0.124033
7 *1127:Z *1574:A[5] 7.9052e-05
*END

*D_NET *188 0.00607566

*CONN
*I *1128:I I *C 148.7 157.6 *L 0.00105 *D DEL1
*I *1773:ZN O *C 149.5 139.2 *L 0 *D CKND2D0

*CAP
1 *1773:ZN 0.000951344
2 *1128:I 5.91621e-05
3 *188:2 0.000283417
4 *188:3 0.00111195
5 *188:4 0.00193376
6 *188:5 0.000804959
7 *1773:ZN *248:3 0.000182256992
8 *188:4 *279:4 0.000527456992
9 *1128:I *908:5 0.000221358008

*RES
1 *188:3 *188:5 3.19468
2 *1128:I *188:4 10.8423996
3 *1773:ZN *188:5 2.98705
4 *188:2 *188:3 3.34193
5 *188:2 *188:4 0.965023
*END

*D_NET *189 1.3021e-05

*CONN
*I *1129:Z O *C 139.9 235.6 *L 0 *D CKBD1
*I *1353:I I *C 140.1 235.2 *L 0.00104 *D DEL0

*CAP
1 *1129:Z 1.30209998e-05

*RES
1 *1129:Z *1353:I 0.155488
*END

*D_NET *190 0.000995788

*CONN
*I *1130:Z O *C 138.1 232.8 *L 0 *D CKBD1
*I *1361:I I *C 140.3 231.6 *L 0.00104 *D DEL0

*CAP
1 *1361:I 0.000183676
2 *190:2 0.000812117969

*RES
1 *1361:I *190:2 0.929495
2 *1130:Z *190:2 2.8987999
*END

*D_NET *191 0.00105204

*CONN
*I *1131:Z O *C 145.9 88 *L 0 *D BUFFD1
*I *1490:I I *C 145.9 85.6 *L 0.00287 *D BUFFD8

*CAP
1 *1131:Z 0.000122505
2 *191:2 0.000929532969

*RES
1 *1131:Z *191:2 3.11903
2 *1490:I *191:2 0.449988
*END

*D_NET *192 0.000866769

*CONN
*I *1132:Z O *C 141.5 224.8 *L 0 *D CKBD1
*I *1360:I I *C 140.9 226 *L 0.00104 *D DEL0

*CAP
1 *1132:Z 2.15889e-05
2 *192:2 0.000845177031

*RES
1 *1132:Z *192:2 0.711524
2 *1360:I *192:2 2.33841991
*END

*D_NET *193 0.00128808

*CONN
*I *1133:Z O *C 151.3 261.6 *L 0 *D BUFFD1
*I *1350:I I *C 149.1 265.6 *L 0.00104 *D DEL0

*CAP
1 *193:3 0.00128808

*RES
1 *1133:Z *193:3 2.05725
2 *193:2 *193:3 2.4842701
3 *1350:I *193:2 0.449993
*END

*D_NET *194 1.1307e-05

*CONN
*I *1134:Z O *C 141.5 236.4 *L 0 *D CKBD1
*I *1351:I I *C 141.7 236.8 *L 0.00104 *D DEL0

*CAP
1 *1134:Z 1.13070007e-05

*RES
1 *1134:Z *1351:I 0.166437
*END

*D_NET *195 0.000642161

*CONN
*I *1135:Z O *C 138.3 88 *L 0 *D CKBD1
*I *1366:I I *C 137.7 85.6 *L 0.00104 *D DEL0

*CAP
1 *195:2 0.000642161016

*RES
1 *1366:I *195:2 2.17174006
2 *1135:Z *195:2 0.225008
*END

*D_NET *196 0.000768095

*CONN
*I *1136:Z O *C 144.3 34 *L 0 *D CKBD1
*I *1370:I I *C 143.7 31.6 *L 0.00104 *D DEL0

*CAP
1 *1370:I 0.000589774023
2 *1136:Z 0.000178323

*RES
1 *1370:I *1136:Z 3.39282
*END

*D_NET *197 0.00140944

*CONN
*I *1137:Z O *C 147.5 84.4 *L 0 *D CKBD1
*I *1378:I I *C 143.5 82 *L 0.00104 *D DEL0

*CAP
1 *1378:I 0.000292063
2 *1137:Z 6.12138e-06
3 *197:2 0.00111126008

*RES
1 *1137:Z *197:2 0.675251
2 *1378:I *197:2 5.1373601
*END

*D_NET *198 0.00327119

*CONN
*I *1138:Z O *C 138.5 84.4 *L 0 *D CKBD0
*I *1321:I I *C 138.7 73.2 *L 0.00103 *D DEL01

*CAP
1 *198:2 0.000121646
2 *198:3 0.00023261
3 *198:4 0.00291697

*RES
1 *198:3 *198:4 10.8711996
2 *1138:Z *198:3 0.701844
3 *198:2 *198:4 0.896423
4 *1321:I *198:2 0.224935
*END

*D_NET *199 0.00161841

*CONN
*I *1139:Z O *C 146.1 116.8 *L 0 *D CKBD1
*I *1384:I I *C 142.5 120 *L 0.00104 *D DEL0

*CAP
1 *1139:Z 0.000284373
2 *199:3 0.00133403

*RES
1 *1139:Z *199:3 2.8001399
2 *199:2 *199:3 2.57164
3 *1384:I *199:2 0.449998
*END

*D_NET *200 0.000588981

*CONN
*I *1140:Z O *C 138.5 81.6 *L 0 *D CKBD1
*I *1375:I I *C 137.9 80.4 *L 0.00104 *D DEL0

*CAP
1 *1375:I 0.00040291
2 *1140:Z 6.95771e-05
3 *200:2 0.000116493

*RES
1 *1375:I *200:2 2.0285399
2 *1140:Z *200:2 0.449996
*END

*D_NET *201 0.000524952

*CONN
*I *1141:Z O *C 150.7 217.6 *L 0 *D CKBD1
*I *1359:I I *C 149.1 218.8 *L 0.00104 *D DEL0

*CAP
1 *201:2 0.000524951992

*RES
1 *1141:Z *201:2 1.33135
2 *1359:I *201:2 1.43043995
*END

*D_NET *202 0.00040201

*CONN
*I *1142:Z O *C 138.1 116.8 *L 0 *D CKBD1
*I *1381:I I *C 137.9 118 *L 0.00104 *D DEL0

*CAP
1 *1142:Z 0.00040201

*RES
1 *1381:I *1142:Z 1.63428
*END

*D_NET *203 1.3021e-05

*CONN
*I *1143:Z O *C 148.9 178.8 *L 0 *D CKBD1
*I *1376:I I *C 149.1 179.2 *L 0.00104 *D DEL0

*CAP
1 *1143:Z 1.30209998e-05

*RES
1 *1143:Z *1376:I 0.155231
*END

*D_NET *204 0.000957053

*CONN
*I *1144:Z O *C 151.7 247.2 *L 0 *D CKBD1
*I *1347:I I *C 149.1 249.6 *L 0.00104 *D DEL0

*CAP
1 *204:2 9.22171e-05
2 *204:3 0.000864831953

*RES
1 *204:2 *204:3 3.30752993
2 *1347:I *204:3 0.449981
3 *1144:Z *204:2 0.22499
*END

*D_NET *205 0.00123339

*CONN
*I *1145:Z O *C 145.9 37.6 *L 0 *D BUFFD1
*I *1355:I I *C 143.5 40.8 *L 0.00104 *D DEL0

*CAP
1 *1145:Z 0.000502831
2 *205:2 7.68829e-05
3 *205:3 0.000653674023

*RES
1 *205:2 *205:3 3.00166988
2 *1145:Z *205:2 1.71267
3 *1355:I *205:3 0.450003
*END

*D_NET *206 0.000587232

*CONN
*I *1146:Z O *C 147.9 78 *L 0 *D CKBD1
*I *1379:I I *C 149.3 78.4 *L 0.00104 *D DEL0

*CAP
1 *1146:Z 0.00014037
2 *206:2 0.000446863008

*RES
1 *1379:I *206:2 1.75303996
2 *1146:Z *206:2 0.450003
*END

*D_NET *207 0.00121587

*CONN
*I *1147:Z O *C 138.9 19.6 *L 0 *D CKBD1
*I *1365:I I *C 143.5 19.2 *L 0.00104 *D DEL0

*CAP
1 *1365:I 0.0004065
2 *207:2 0.000798942969
3 *207:3 1.04356e-05

*RES
1 *1365:I *207:3 1.66534
2 *207:2 *207:3 2.99727011
3 *1147:Z *207:2 0.225015
*END

*D_NET *208 0.00202069

*CONN
*I *1148:Z O *C 144.9 236.4 *L 0 *D BUFFD1
*I *1354:I I *C 149.1 231.6 *L 0.00104 *D DEL0

*CAP
1 *1354:I 0.00066483
2 *208:2 7.28847e-05
3 *208:4 0.00128296992

*RES
1 *1354:I *208:2 2.33101
2 *208:3 *208:4 1.86863
3 *208:2 *208:4 3.10384989
4 *1148:Z *208:3 0.225012
*END

*D_NET *209 0.000932928

*CONN
*I *1149:Z O *C 142.5 132 *L 0 *D CKBD1
*I *1382:I I *C 140.1 130.8 *L 0.00104 *D DEL0

*CAP
1 *209:2 0.000143778
2 *209:3 0.000789153984

*RES
1 *209:2 *209:3 2.8629899
2 *1382:I *209:3 0.450007
3 *1149:Z *209:2 0.224982
*END

*D_NET *210 0.00141741

*CONN
*I *1150:Z O *C 147.5 114 *L 0 *D CKBD1
*I *1387:I I *C 143.5 114.4 *L 0.00104 *D DEL0

*CAP
1 *1387:I 0.000346951
2 *1150:Z 9.11233e-05
3 *210:2 0.000138955
4 *210:3 0.000840383984

*RES
1 *210:2 *210:3 3.0875299
2 *1387:I *210:3 1.51385
3 *1150:Z *210:2 0.674926
*END

*D_NET *211 0.00059982

*CONN
*I *1151:Z O *C 148.7 120.4 *L 0 *D BUFFD1
*I *1496:I I *C 149.1 118 *L 0.00287 *D BUFFD8

*CAP
1 *1496:I 0.00059982

*RES
1 *1496:I *1151:Z 2.16312
*END

*D_NET *212 0.00113748

*CONN
*I *1152:Z O *C 138.9 23.2 *L 0 *D CKBD1
*I *1356:I I *C 143.7 22.8 *L 0.00104 *D DEL0

*CAP
1 *212:2 6.38895e-05
2 *212:3 0.00107359008

*RES
1 *1152:Z *212:3 0.450007
2 *212:2 *212:3 3.71058011
3 *1356:I *212:2 0.450007
*END

*D_NET *213 0.00260031

*CONN
*I *1153:Z O *C 138.5 13.2 *L 0 *D BUFFD1
*I *1362:I I *C 149.5 20.8 *L 0.00104 *D DEL0

*CAP
1 *213:2 0.000347502
2 *213:3 0.000892357
3 *213:4 0.000895925
4 *213:5 0.000421735
5 *213:6 4.279e-05

*RES
1 *213:4 *213:6 3.0146
2 *213:3 *213:5 2.76254
3 *213:2 *213:3 4.25529003
4 *213:5 *213:6 0.0927858
5 *1153:Z *213:4 1.62508
6 *1362:I *213:2 1.55632
*END

*D_NET *214 1.0288e-05

*CONN
*I *1154:Z O *C 148.9 185.2 *L 0 *D CKBD1
*I *1369:I I *C 149.1 184.8 *L 0.00104 *D DEL0

*CAP
1 *1154:Z 1.02880005e-05

*RES
1 *1154:Z *1369:I 0.155231
*END

*D_NET *215 1.0659e-05

*CONN
*I *1155:Z O *C 146.1 178 *L 0 *D BUFFD1
*I *1367:I I *C 146.3 177.6 *L 0.00104 *D DEL0

*CAP
1 *1155:Z 1.06590002e-05

*RES
1 *1155:Z *1367:I 0.158333
*END

*D_NET *216 0.000587096

*CONN
*I *1156:Z O *C 151.5 81.8 *L 0 *D DEL005
*I *1320:I I *C 149.9 84 *L 0.00103 *D DEL01

*CAP
1 *1320:I 0.000445786016
2 *1156:Z 0.00014131

*RES
1 *1156:Z *1320:I 2.91959
*END

*D_NET *217 1.1168e-05

*CONN
*I *1157:Z O *C 148.9 182.4 *L 0 *D CKBD1
*I *1368:I I *C 149.1 182.8 *L 0.00104 *D DEL0

*CAP
1 *1157:Z 1.11680005e-05

*RES
1 *1157:Z *1368:I 0.155231
*END

*D_NET *218 1.2968e-05

*CONN
*I *1158:Z O *C 145.1 139.2 *L 0 *D CKBD1
*I *1389:I I *C 145.3 139.6 *L 0.00104 *D DEL0

*CAP
1 *1158:Z 1.29680005e-05

*RES
1 *1158:Z *1389:I 0.16012
*END

*D_NET *219 0.000807305

*CONN
*I *1159:Z O *C 143.5 52 *L 0 *D BUFFD1
*I *1373:I I *C 144.1 53.2 *L 0.00104 *D DEL0

*CAP
1 *219:2 0.000807305

*RES
1 *1373:I *219:2 1.07968
2 *1159:Z *219:2 2.03683996
*END

*D_NET *220 0.00131755

*CONN
*I *1160:Z O *C 151.3 59.2 *L 0 *D CKBD1
*I *1372:I I *C 146.3 60.4 *L 0.00104 *D DEL0

*CAP
1 *1160:Z 0.000145666
2 *220:2 0.00117189

*RES
1 *1372:I *220:2 0.964888
2 *1160:Z *220:2 4.70882988
*END

*D_NET *221 0.000638401

*CONN
*I *1161:Z O *C 138.9 41 *L 0 *D DEL005
*I *1348:I I *C 138.1 44.4 *L 0.00104 *D DEL0

*CAP
1 *1348:I 0.000638400977

*RES
1 *1348:I *1161:Z 3.08409
*END

*D_NET *222 0.00109502

*CONN
*I *1162:Z O *C 141.5 56.4 *L 0 *D CKBD1
*I *1371:I I *C 143.7 58.8 *L 0.00104 *D DEL0

*CAP
1 *1371:I 0.000187385
2 *1162:Z 0.000907633984

*RES
1 *1371:I *1162:Z 4.65597
*END

*D_NET *223 0.000724377

*CONN
*I *1163:Z O *C 143.5 98.8 *L 0 *D BUFFD1
*I *1383:I I *C 143.9 100 *L 0.00104 *D DEL0

*CAP
1 *1163:Z 7.40125e-05
2 *223:2 0.000650363047

*RES
1 *1383:I *223:2 1.88598001
2 *1163:Z *223:2 0.449998
*END

*D_NET *224 0.00111283

*CONN
*I *1164:Z O *C 148.7 138.4 *L 0 *D CKBD1
*I *1388:I I *C 149.5 136 *L 0.00104 *D DEL0

*CAP
1 *224:2 0.000436276
2 *224:3 0.000676558047

*RES
1 *224:2 *224:3 3.82101011
2 *1164:Z *224:2 0.44999
3 *1388:I *224:3 0.44999
*END

*D_NET *225 0.00164617

*CONN
*I *1072:Z O *C 151.7 62.8 *L 0 *D CKBD1
*I *1165:I I *C 145.9 62.4 *L 0.000643 *D CKBD0

*CAP
1 *225:2 0.000122438
2 *225:3 0.00152373

*RES
1 *225:2 *225:3 4.85461998
2 *1165:I *225:3 1.15462
3 *1072:Z *225:2 0.224968
*END

*D_NET *226 0.000533025

*CONN
*I *1166:Z O *C 138.7 42 *L 0 *D CKBD1
*I *1342:I I *C 138.1 46 *L 0.00104 *D DEL0

*CAP
1 *1342:I 8.75117e-05
2 *1166:Z 0.000445511992

*RES
1 *1342:I *1166:Z 2.81561
*END

*D_NET *227 0.000585086

*CONN
*I *1167:Z O *C 147.9 124 *L 0 *D CKBD1
*I *1385:I I *C 149.1 123.6 *L 0.00104 *D DEL0

*CAP
1 *1167:Z 4.166e-05
2 *227:2 0.000543429023

*RES
1 *1167:Z *227:2 0.449996
2 *1385:I *227:2 1.53319001
*END

*D_NET *228 0.00919546

*CONN
*I *1168:Z O *C 147.7 157.2 *L 0 *D DEL015
*I *1409:I I *C 145.5 118 *L 0.00105 *D DEL1

*CAP
1 *1409:I 0.000519002
2 *1168:Z 0.000604731
3 *228:2 0.00275541
4 *228:3 0.000540739
5 *228:4 0.000159518
6 *228:5 0.000135637
7 *228:2 *310:4 0.000566819023
8 *1168:Z *186:3 0.00391361

*RES
1 *228:3 *228:5 2.99489
2 *1168:Z *228:4 2.34836
3 *1409:I *228:3 2.02684
4 *228:5 *228:2 2.39155
5 *228:4 *228:2 28.5904007
*END

*D_NET *229 0.00362864

*CONN
*I *1169:Z O *C 142.3 268 *L 0 *D BUFFD1
*I *1344:I I *C 146.3 258.4 *L 0.00104 *D DEL0

*CAP
1 *1344:I 0.00262257
2 *1169:Z 0.000247951
3 *229:2 5.13429e-05
4 *229:3 0.000706795

*RES
1 *229:2 *229:3 3.51985
2 *1169:Z *229:3 1.39175
3 *1344:I *229:2 10.3202
*END

*D_NET *230 0.00957206

*CONN
*I *1170:Z O *C 147.3 156.4 *L 0 *D DEL015
*I *1415:I I *C 141.9 85.6 *L 0.00105 *D DEL1

*CAP
1 *230:2 0.00233866
2 *230:3 0.000497708
3 *230:4 0.000157695
4 *230:5 0.000402499
5 *230:6 0.000134392
6 *230:7 0.000221929
7 *230:4 *732:4 0.000295024004
8 *230:2 *137:5 0.00219047
9 *230:2 *170:4 0.000447373984
10 *230:3 *247:4 0.00228009016
11 *230:4 *311:2 0.000606193008

*RES
1 *230:4 *230:2 44.2019005
2 *230:7 *230:2 1.33207
3 *230:6 *230:3 1.873
4 *230:5 *230:7 1.56881
5 *1170:Z *230:6 0.44987
6 *1415:I *230:5 0.44987
7 *230:3 *230:4 0.225272
*END

*D_NET *231 0.00341969

*CONN
*I *1171:Z O *C 143.5 254.4 *L 0 *D BUFFD1
*I *1345:I I *C 149.5 242.4 *L 0.00104 *D DEL0

*CAP
1 *231:2 0.00255168016
2 *231:3 0.000164155
3 *231:4 0.000703849

*RES
1 *1345:I *231:2 0.675048
2 *231:3 *231:4 4.77289
3 *1171:Z *231:3 0.449985
4 *231:2 *231:4 9.16699982
*END

*D_NET *232 0.00189949

*CONN
*I *1172:Z O *C 143.7 123.8 *L 0 *D DEL005
*I *1446:I I *C 142.1 118 *L 0.00105 *D DEL1

*CAP
1 *232:2 0.000901587031
2 *232:3 0.000675994
3 *232:4 0.000321908

*RES
1 *232:2 *232:4 1.25688
2 *232:3 *232:4 2.54937
3 *1172:Z *232:2 3.03057003
4 *1446:I *232:3 0.449989
*END

*D_NET *233 0.00731404

*CONN
*I *1173:Z O *C 143.9 157.2 *L 0 *D DEL015
*I *1412:I I *C 142.1 116.4 *L 0.00105 *D DEL1

*CAP
1 *1173:Z 4.29111e-05
2 *233:2 8.34467e-05
3 *233:3 0.000139639
4 *233:4 0.00141529
5 *233:5 0.000715646
6 *233:6 0.000153396
7 *233:6 *738:2 0.00122222992
8 *233:6 *279:2 0.00180403
9 *233:6 *619:4 0.000241929004
10 *233:2 *470:72 0.000230744004
11 *233:3 *16:9 0.000255127012
12 *233:4 *82:3 0.00100965

*RES
1 *233:3 *233:4 27.6550999
2 *233:5 *233:3 2.27027
3 *233:2 *233:6 1.08914
4 *233:6 *233:4 0.449834
5 *1173:Z *233:5 0.449834
6 *1412:I *233:2 0.449834
*END

*D_NET *234 0.000337465

*CONN
*I *1174:Z O *C 138.5 37.6 *L 0 *D BUFFD1
*I *1343:I I *C 137.9 38.8 *L 0.00104 *D DEL0

*CAP
1 *1343:I 0.000120934
2 *1174:Z 0.00021653

*RES
1 *1343:I *1174:Z 1.72475
*END

*D_NET *235 0.0106306

*CONN
*I *1175:Z O *C 144.9 156.4 *L 0 *D DEL015
*I *1416:I I *C 139.3 87.6 *L 0.00105 *D DEL1

*CAP
1 *1175:Z 0.000182948
2 *235:2 0.000374085
3 *235:3 0.000986509
4 *235:4 0.000246568
5 *235:5 0.000174051
6 *235:6 0.00258005
7 *235:2 *291:3 0.000357493008
8 *235:2 *311:3 0.000527363008
9 *235:2 *866:4 0.00336351
10 *235:2 *168:3 0.0018381

*RES
1 *235:5 *235:6 2.49323
2 *1175:Z *235:4 0.712737
3 *235:2 *235:6 44.2328987
4 *235:4 *235:2 1.0799
5 *235:3 *235:5 3.31666
6 *1416:I *235:3 0.450185
*END

*D_NET *236 0.00120851

*CONN
*I *1176:I I *C 150.1 256.8 *L 0.00103 *D DEL01
*I *1434:Z O *C 150.7 253.6 *L 0 *D DEL1

*CAP
1 *1434:Z 0.000166306
2 *1176:I 0.000660498984
3 *236:2 0.000336745
4 *236:3 4.49605e-05

*RES
1 *236:2 *236:3 1.86646
2 *1176:I *236:3 2.70883989
3 *1434:Z *236:2 1.53389
*END

*D_NET *237 0.000977008

*CONN
*I *1177:Z O *C 147.5 268 *L 0 *D BUFFD1
*I *1332:I I *C 146.5 265.6 *L 0.00104 *D DEL0

*CAP
1 *1332:I 3.58466e-05
2 *1177:Z 0.000106036
3 *237:2 0.000835126016

*RES
1 *1332:I *237:2 0.551761
2 *1177:Z *237:2 2.9338901
*END

*D_NET *238 1.2916e-05

*CONN
*I *1178:Z O *C 148.9 278.8 *L 0 *D CKBD0
*I *1334:I I *C 149.1 278.4 *L 0.00104 *D DEL0

*CAP
1 *1178:Z 1.29159998e-05

*RES
1 *1178:Z *1334:I 0.155112
*END

*D_NET *239 1.0402e-05

*CONN
*I *1179:Z O *C 148.9 268.8 *L 0 *D CKBD0
*I *1340:I I *C 149.1 269.2 *L 0.00104 *D DEL0

*CAP
1 *1179:Z 1.04019995e-05

*RES
1 *1179:Z *1340:I 0.155112
*END

*D_NET *240 0.00155179

*CONN
*I *1180:I I *C 145.3 235.2 *L 0.00103 *D DEL015
*I *1658:Q O *C 141.7 232.8 *L 0 *D DFCNQD1

*CAP
1 *240:2 0.00085249
2 *240:4 0.000699293

*RES
1 *240:2 *240:4 3.10179996
2 *240:3 *240:4 2.09519
3 *1180:I *240:3 0.450011
4 *1658:Q *240:2 0.225005
*END

*D_NET *241 0.00135473

*CONN
*I *1181:Z O *C 141.9 264.4 *L 0 *D DEL0
*I *1448:I I *C 138.7 260.4 *L 0.00105 *D DEL1

*CAP
1 *1181:Z 0.000101433
2 *241:2 0.000480613
3 *241:3 0.000772686016

*RES
1 *1181:Z *241:3 3.17533994
2 *241:2 *241:3 2.19065
3 *1448:I *241:2 0.450021
*END

*D_NET *242 0.000446031

*CONN
*I *1182:Z O *C 145.5 217.6 *L 0 *D DEL01
*I *1451:I I *C 145.7 218.8 *L 0.00105 *D DEL1

*CAP
1 *1451:I 0.000307197012
2 *1182:Z 0.000138835

*RES
1 *1451:I *1182:Z 2.11997
*END

*D_NET *243 0.000958216

*CONN
*I *1183:Z O *C 149.5 257.2 *L 0 *D CKBD0
*I *1346:I I *C 146.3 256.8 *L 0.00104 *D DEL0

*CAP
1 *1346:I 7.20695e-05
2 *243:2 0.000183407
3 *243:3 0.000702733984

*RES
1 *1346:I *243:3 0.674981
2 *243:2 *243:3 2.48808002
3 *1183:Z *243:2 0.224981
*END

*D_NET *244 0.00198447

*CONN
*I *1184:Z O *C 141.9 290.4 *L 0 *D BUFFD1
*I *1333:I I *C 149.1 282 *L 0.00104 *D DEL0

*CAP
1 *1333:I 0.000164334
2 *244:2 0.000700233984
3 *244:4 0.000611667
4 *244:5 0.000461662
5 *244:6 4.65754e-05

*RES
1 *244:4 *244:6 2.73247
2 *244:2 *244:3 3.59742
3 *1333:I *244:2 1.26657
4 *244:3 *244:4 0.159221
5 *244:5 *244:6 3.62440991
6 *1184:Z *244:5 0.224977
*END

*D_NET *245 0.000996387

*CONN
*I *1185:Z O *C 144.1 304 *L 0 *D BUFFD1
*I *1337:I I *C 149.1 300 *L 0.00104 *D DEL0

*CAP
1 *1337:I 0.000203777
2 *245:2 0.000349491
3 *245:3 0.000409736992
4 *245:4 3.33804e-05

*RES
1 *1337:I *245:2 1.45892
2 *245:3 *245:4 3.12080002
3 *245:2 *245:4 1.85412
4 *1185:Z *245:3 0.225003
*END

*D_NET *246 0.000860911

*CONN
*I *1186:I I *C 144.1 246 *L 0.00103 *D DEL01
*I *1660:Q O *C 146.1 246.4 *L 0 *D DFCNQD1

*CAP
1 *1660:Q 6.85464e-05
2 *1186:I 7.16476e-05
3 *246:2 0.00072071

*RES
1 *1660:Q *246:2 2.10500002
2 *1186:I *246:2 0.449998
*END

*D_NET *247 0.00768072

*CONN
*I *1187:Z O *C 144.7 153.6 *L 0 *D DEL01
*I *1442:I I *C 142.1 110.8 *L 0.00105 *D DEL1

*CAP
1 *247:2 0.00162637
2 *247:3 0.00049239
3 *247:4 0.00056359
4 *247:5 0.000211936
5 *247:6 0.000267972
6 *247:4 *230:3 0.00228009016
7 *247:2 *170:4 0.00223838

*RES
1 *247:3 *247:5 1.66969
2 *1187:Z *247:4 0.450131
3 *247:6 *247:2 27.5699005
4 *247:5 *247:2 1.58387
5 *247:4 *247:6 1.74752
6 *1442:I *247:3 0.450131
*END

*D_NET *248 0.00552628

*CONN
*I *1188:Z O *C 149.7 156.4 *L 0 *D DEL01
*I *1393:I I *C 147.9 132.4 *L 0.00105 *D DEL1

*CAP
1 *248:2 8.91204e-05
2 *248:3 0.000891288
3 *248:4 0.000907192969
4 *248:5 0.000436549
5 *248:6 0.000506442
6 *248:7 0.000351941
7 *248:8 0.000508075
8 *248:2 *719:6 0.000275388008
9 *248:3 *933:5 0.000379431016
10 *248:4 *186:3 0.000998608984
11 *248:3 *1773:ZN 0.000182256992

*RES
1 *1188:Z *248:4 4.27566
2 *248:7 *248:8 1.38295
3 *248:6 *248:3 2.99154
4 *248:5 *248:4 2.46323
5 *248:5 *248:6 2.01174
6 *248:2 *248:8 6.7400198
7 *248:3 *248:2 0.729065
8 *1393:I *248:7 0.450048
*END

*D_NET *249 0.0134783

*CONN
*I *1189:I I *C 140.7 156 *L 0.00103 *D DEL01
*I *1635:Q O *C 139.3 99.6 *L 0 *D DFCNQD1

*CAP
1 *1189:I 8.84006e-05
2 *249:2 0.00340184
3 *249:3 0.000452385
4 *249:4 1.17314e-05
5 *249:5 5.33103e-05
6 *249:3 *797:2 0.0061576
7 *249:2 *297:4 0.000710583984
8 *249:3 *369:5 0.000439048008
9 *249:3 *378:7 0.00150061
10 *249:3 *782:4 0.000662733984

*RES
1 *1189:I *249:4 0.518703
2 *249:5 *249:2 2.49122
3 *249:4 *249:3 5.14236
4 *1635:Q *249:5 0.450263
5 *249:3 *249:2 47.213501
*END

*D_NET *250 0.00662017

*CONN
*I *1190:I I *C 138.9 157.6 *L 0.00103 *D DEL01
*I *1636:Q O *C 138.7 103.2 *L 0 *D DFCNQD1

*CAP
1 *250:2 0.000459431
2 *250:3 0.000140975
3 *250:4 0.00248689
4 *250:5 3.27487e-05
5 *250:6 0.000334811
6 *250:4 *264:3 0.00149726
7 *250:4 *273:4 0.000427112031
8 *250:4 *293:4 0.000752511953
9 *250:4 *846:9 0.000238766992
10 *250:2 *154:4 0.000249670996

*RES
1 *250:5 *250:6 2.76495
2 *250:3 *250:4 1.81828
3 *1190:I *250:2 0.610078
4 *250:4 *250:6 31.3339005
5 *250:2 *250:5 0.449908
6 *1636:Q *250:3 0.225193
*END

*D_NET *251 0.00120575

*CONN
*I *1191:I I *C 150.7 73.2 *L 0.000968 *D CKBD1
*I *1626:Q O *C 146.3 73.6 *L 0 *D DFCNQD1

*CAP
1 *1191:I 0.000128896
2 *251:2 0.000939831953
3 *251:3 0.000137013

*RES
1 *251:2 *251:3 3.53330994
2 *1191:I *251:3 0.807794
3 *1626:Q *251:2 0.224983
*END

*D_NET *252 1.0651e-05

*CONN
*I *1192:Z O *C 148.9 294 *L 0 *D CKBD0
*I *1336:I I *C 149.1 294.4 *L 0.00104 *D DEL0

*CAP
1 *1192:Z 1.06509998e-05

*RES
1 *1192:Z *1336:I 0.155112
*END

*D_NET *253 1.1661e-05

*CONN
*I *1193:Z O *C 142.3 268.8 *L 0 *D DEL01
*I *1445:I I *C 142.5 269.2 *L 0.00105 *D DEL1

*CAP
1 *1193:Z 1.16609998e-05

*RES
1 *1193:Z *1445:I 0.164927
*END

*D_NET *254 0.000418101

*CONN
*I *1194:I I *C 149.1 247.6 *L 0.00103 *D DEL01
*I *1663:Q O *C 148.9 250 *L 0 *D DFCNQD1

*CAP
1 *1663:Q 5.20415e-06
2 *1194:I 0.000412898008

*RES
1 *1194:I *1663:Q 1.78643
*END

*D_NET *255 0.0019925

*CONN
*I *1195:Z O *C 141.9 312 *L 0 *D BUFFD1
*I *1338:I I *C 149.1 301.6 *L 0.00104 *D DEL0

*CAP
1 *1338:I 0.000185783
2 *255:2 0.00108291992
3 *255:3 0.000171241
4 *255:4 4.82014e-05
5 *255:5 0.000414462
6 *255:6 8.98757e-05

*RES
1 *255:5 *255:6 4.76124
2 *255:4 *255:6 0.701818
3 *1338:I *255:2 2.14363
4 *255:3 *255:5 0.44998
5 *255:2 *255:4 5.24451017
6 *1195:Z *255:3 0.22503
*END

*D_NET *256 0.000963484

*CONN
*I *1196:I I *C 144.3 74.8 *L 0.000968 *D CKBD1
*I *1627:Q O *C 147.3 74.4 *L 0 *D DFCNQD1

*CAP
1 *1196:I 0.00041066
2 *256:2 0.000552824961

*RES
1 *1196:I *256:2 1.99438
2 *1627:Q *256:2 1.69292
*END

*D_NET *257 0.000906336

*CONN
*I *1197:I I *C 151.3 67.6 *L 0.00182 *D DEL005
*I *1625:Q O *C 146.5 67.2 *L 0 *D DFCNQD1

*CAP
1 *1625:Q 6.48192e-05
2 *257:2 8.36347e-05
3 *257:3 0.000757882031

*RES
1 *257:2 *257:3 3.12104988
2 *1625:Q *257:3 0.675015
3 *1197:I *257:2 0.225021
*END

*D_NET *258 0.00200604

*CONN
*I *1198:Z O *C 141.5 294 *L 0 *D BUFFD1
*I *1341:I I *C 149.1 285.6 *L 0.00104 *D DEL0

*CAP
1 *1341:I 0.000402119
2 *1198:Z 0.000684139
3 *258:2 0.000919787969

*RES
1 *1198:Z *258:2 4.40772
2 *1341:I *258:2 7.4449501
*END

*D_NET *259 0.00108539

*CONN
*I *1199:Z O *C 144.5 253.6 *L 0 *D CKBD0
*I *1339:I I *C 142.9 251.2 *L 0.00104 *D DEL0

*CAP
1 *1339:I 0.000578228008
2 *1199:Z 0.000507157

*RES
1 *1339:I *1199:Z 3.99065
*END

*D_NET *260 1.0288e-05

*CONN
*I *1200:Z O *C 148.9 289.6 *L 0 *D CKBD0
*I *1335:I I *C 149.1 289.2 *L 0.00104 *D DEL0

*CAP
1 *1200:Z 1.02880005e-05

*RES
1 *1200:Z *1335:I 0.155112
*END

*D_NET *261 0.00132912

*CONN
*I *1201:Z O *C 150.9 258 *L 0 *D DEL01
*I *1428:I I *C 147.3 262 *L 0.00105 *D DEL1

*CAP
1 *261:2 9.27979e-05
2 *261:4 0.00123633

*RES
1 *261:2 *261:4 2.51637
2 *261:3 *261:4 2.62232995
3 *1428:I *261:3 0.449993
4 *1201:Z *261:2 0.224996
*END

*D_NET *262 1.0516e-05

*CONN
*I *1202:Z O *C 148.9 235.6 *L 0 *D CKBD0
*I *1349:I I *C 149.1 235.2 *L 0.00104 *D DEL0

*CAP
1 *1202:Z 1.05159998e-05

*RES
1 *1202:Z *1349:I 0.155202
*END

*D_NET *263 0.0128975

*CONN
*I *1203:Z O *C 140.3 156.4 *L 0 *D DEL01
*I *1436:I I *C 138.1 94.8 *L 0.00105 *D DEL1

*CAP
1 *1436:I 0.000206446
2 *263:2 2.91875e-05
3 *263:3 0.000108076
4 *263:4 0.000474365
5 *263:5 0.00225566
6 *263:2 *782:2 0.000462945
7 *263:3 *799:2 0.00608615
8 *263:2 *803:2 0.000486991992
9 *263:3 *797:2 0.00278767

*RES
1 *263:4 *263:5 45.9009018
2 *263:2 *263:4 4.41737
3 *1436:I *263:3 1.63962
4 *263:3 *263:5 0.449652
5 *1203:Z *263:2 0.224826
*END

*D_NET *264 0.00580681

*CONN
*I *1204:Z O *C 140.1 153.6 *L 0 *D DEL01
*I *1443:I I *C 138.1 107.2 *L 0.00105 *D DEL1

*CAP
1 *264:2 0.000380485
2 *264:3 0.00205854016
3 *264:4 0.000292848
4 *264:4 *53:4 0.000244316992
5 *264:4 *616:3 0.000231002012
6 *264:2 *4:3 0.000293171992
7 *264:2 *66:6 0.000809197031
8 *264:3 *250:4 0.00149726

*RES
1 *264:2 *264:3 1.97665
2 *1443:I *264:4 0.450216
3 *264:4 *264:3 30.6389999
4 *1204:Z *264:2 0.224874
*END

*D_NET *265 1.0288e-05

*CONN
*I *1205:Z O *C 140.5 272.4 *L 0 *D DEL01
*I *1432:I I *C 140.7 272.8 *L 0.00105 *D DEL1

*CAP
1 *1205:Z 1.02880005e-05

*RES
1 *1205:Z *1432:I 0.155112
*END

*D_NET *266 0.00757163

*CONN
*I *1206:I I *C 137.7 152.4 *L 0.00103 *D DEL01
*I *1641:Q O *C 138.5 121.2 *L 0 *D DFCNQD1

*CAP
1 *1641:Q 0.00010985
2 *1206:I 0.000158973
3 *266:2 4.46447e-05
4 *266:3 0.00240608
5 *266:4 3.69347e-05
6 *266:2 *617:5 0.000487633984
7 *266:2 *803:3 0.00391759
8 *1206:I *155:3 0.000409925

*RES
1 *266:2 *266:3 25.9566002
2 *1641:Q *266:4 0.449931
3 *266:3 *266:4 1.74032
4 *1206:I *266:2 1.35455
*END

*D_NET *267 0.000916926

*CONN
*I *1207:I I *C 138.3 231.6 *L 0.00103 *D DEL01
*I *1657:Q O *C 141.5 229.2 *L 0 *D DFCNQD1

*CAP
1 *1657:Q 0.000364827
2 *267:2 0.00047931
3 *267:3 7.2787e-05

*RES
1 *267:2 *267:3 2.23947001
2 *1657:Q *267:3 1.61187
3 *1207:I *267:2 0.224986
*END

*D_NET *268 0.00111925

*CONN
*I *1208:I I *C 138.9 226 *L 0.00103 *D DEL01
*I *1656:Q O *C 142.7 228.4 *L 0 *D DFCNQD1

*CAP
1 *1656:Q 5.84095e-06
2 *1208:I 0.000227305
3 *268:2 0.000299901
4 *268:3 0.000586197031

*RES
1 *268:2 *268:3 2.7430799
2 *1656:Q *268:2 0.799367
3 *1208:I *268:3 0.953649
*END

*D_NET *269 0.00138322

*CONN
*I *1209:Z O *C 151.9 224.8 *L 0 *D DEL01
*I *1452:I I *C 145.5 226 *L 0.00105 *D DEL1

*CAP
1 *1209:Z 0.000160823
2 *269:2 0.00122239992

*RES
1 *1452:I *269:2 1.00516
2 *1209:Z *269:2 5.28641987
*END

*D_NET *270 0.000350387

*CONN
*I *1210:I I *C 140.5 242.4 *L 0.00103 *D DEL01
*I *1659:Q O *C 140.3 240 *L 0 *D DFCNQD1

*CAP
1 *1659:Q 0.000350386992

*RES
1 *1659:Q *1210:I 1.40775
*END

*D_NET *271 0.0029519

*CONN
*I *1211:I I *C 139.7 152.4 *L 0.00103 *D DEL015
*I *1645:Q O *C 139.7 142.8 *L 0 *D DFCNQD1

*CAP
1 *1645:Q 0.000375162
2 *1211:I 0.000173223
3 *271:2 0.00178887
4 *271:3 0.000115027
5 *271:4 0.000499633

*RES
1 *271:2 *271:4 9.25946999
2 *1211:I *271:3 0.674934
3 *1645:Q *271:2 1.04454
4 *271:3 *271:4 0.224931
*END

*D_NET *272 0.00175462

*CONN
*I *1212:Z O *C 140.9 203.2 *L 0 *D DEL01
*I *1439:I I *C 145.3 200.8 *L 0.00105 *D DEL1

*CAP
1 *1439:I 2.72279e-05
2 *272:2 0.00172738

*RES
1 *1439:I *272:2 0.929475
2 *1212:Z *272:2 5.84869003
*END

*D_NET *273 0.00623162

*CONN
*I *1213:I I *C 139.7 150.4 *L 0.00103 *D DEL01
*I *1642:Q O *C 139.5 127.6 *L 0 *D DFCNQD1

*CAP
1 *1213:I 0.000233034
2 *273:2 0.000887847031
3 *273:3 0.000296098
4 *273:4 0.000152127
5 *273:5 3.23248e-05
6 *273:6 0.000487093
7 *273:7 4.07379e-05
8 *273:8 0.000303007
9 *273:6 *293:3 0.000311888008
10 *273:2 *910:4 0.000561945977
11 *273:2 *780:2 0.00111511008
12 *273:2 *470:71 0.000806743984
13 *273:3 *154:2 0.000576556992
14 *273:4 *250:4 0.000427112031

*RES
1 *273:4 *273:7 0.36618
2 *1213:I *273:3 1.2694
3 *273:6 *273:8 0.449934
4 *273:2 *273:5 10.4749002
5 *273:7 *273:8 4.63551
6 *273:5 *273:6 0.544715
7 *273:3 *273:4 4.83978
8 *1642:Q *273:2 0.225047
*END

*D_NET *274 0.000883745

*CONN
*I *1214:Z O *C 140.1 207.6 *L 0 *D DEL01
*I *1447:I I *C 138.1 206.4 *L 0.00105 *D DEL1

*CAP
1 *274:2 0.000883745

*RES
1 *1214:Z *274:2 1.67025
2 *1447:I *274:2 2.08335996
*END

*D_NET *275 1.124e-05

*CONN
*I *1215:Z O *C 141.5 181.6 *L 0 *D DEL01
*I *1440:I I *C 141.7 181.2 *L 0.00105 *D DEL1

*CAP
1 *1215:Z 1.124e-05

*RES
1 *1215:Z *1440:I 0.166469
*END

*D_NET *276 0.000794556

*CONN
*I *1216:Z O *C 143.5 196.8 *L 0 *D DEL01
*I *1437:I I *C 145.5 199.2 *L 0.00105 *D DEL1

*CAP
1 *276:2 0.000794556016

*RES
1 *1216:Z *276:2 1.70904005
2 *1437:I *276:2 1.70054
*END

*D_NET *277 0.000520312

*CONN
*I *1217:Z O *C 140.1 250 *L 0 *D DEL01
*I *1459:I I *C 138.9 247.6 *L 0.00105 *D DEL1

*CAP
1 *277:2 0.000520311992

*RES
1 *1217:Z *277:2 1.33134997
2 *1459:I *277:2 1.30451
*END

*D_NET *278 0.00445681

*CONN
*I *1218:Z O *C 140.5 149.2 *L 0 *D DEL01
*I *1453:I I *C 138.5 132.4 *L 0.00105 *D DEL1

*CAP
1 *1218:Z 9.90788e-05
2 *278:2 2.8574e-06
3 *278:3 0.00435488

*RES
1 *278:2 *278:3 15.4900999
2 *1453:I *278:3 1.68218
3 *1218:Z *278:2 0.384322
*END

*D_NET *279 0.011375

*CONN
*I *1219:I I *C 150.1 156 *L 0.00103 *D DEL01
*I *1633:Q O *C 150.9 96 *L 0 *D DFCNQD1

*CAP
1 *1219:I 0.000233312
2 *279:2 0.00281172
3 *279:3 0.000482414
4 *279:4 0.000315388
5 *279:5 8.4993e-05
6 *279:6 0.00139434
7 *279:7 0.000102069
8 *279:8 0.000562988
9 *279:2 *738:3 0.000575556992
10 *279:2 *169:2 0.0014764
11 *279:2 *233:6 0.00180403
12 *279:3 *536:20 0.00100431
13 *279:4 *188:4 0.000527456992

*RES
1 *279:8 *279:3 4.3813
2 *279:2 *279:3 34.3460007
3 *279:4 *279:8 4.40855
4 *279:7 *279:2 2.45321
5 *279:6 *279:7 2.30385
6 *279:5 *279:6 3.87661
7 *1219:I *279:4 2.0329
8 *1633:Q *279:5 0.22483
*END

*D_NET *280 0.00180805

*CONN
*I *1220:I I *C 137.7 143.2 *L 0.00103 *D DEL01
*I *1644:Q O *C 139.9 139.2 *L 0 *D DFCNQD1

*CAP
1 *1220:I 6.5608e-05
2 *280:2 0.000133303
3 *280:3 0.00160914

*RES
1 *280:2 *280:3 2.26368
2 *1220:I *280:3 4.49253988
3 *1644:Q *280:2 0.224983
*END

*D_NET *281 0.000471599

*CONN
*I *1221:I I *C 142.1 168.4 *L 0.00103 *D DEL01
*I *1646:Q O *C 141.9 170.8 *L 0 *D DFCNQD1

*CAP
1 *1646:Q 1.05664e-05
2 *1221:I 0.00046103

*RES
1 *1221:I *1646:Q 1.92684
*END

*D_NET *282 0.00132245

*CONN
*I *1222:I I *C 138.3 96.4 *L 0.00182 *D DEL005
*I *1631:Q O *C 138.5 91.6 *L 0 *D DFCNQD1

*CAP
1 *1631:Q 0.00127251008
2 *1222:I 4.99412e-05

*RES
1 *1222:I *282:2 0.384256
2 *1631:Q *282:2 4.72646999
*END

*D_NET *283 0.000509751

*CONN
*I *1223:Z O *C 143.7 89 *L 0 *D DEL005
*I *1427:I I *C 143.9 91.2 *L 0.00105 *D DEL1

*CAP
1 *1223:Z 0.000509751016

*RES
1 *1427:I *1223:Z 2.05859
*END

*D_NET *284 0.000563877

*CONN
*I *1224:I I *C 139.1 186.4 *L 0.00103 *D DEL01
*I *1648:Q O *C 138.9 189.6 *L 0 *D DFCNQD1

*CAP
1 *1648:Q 6.10236e-07
2 *1224:I 0.000563265039

*RES
1 *1224:I *1648:Q 2.53678
*END

*D_NET *285 0.000288082

*CONN
*I *1225:I I *C 138.5 197.2 *L 0.00103 *D DEL01
*I *1650:Q O *C 138.3 199.6 *L 0 *D DFCNQD1

*CAP
1 *1650:Q 2.04268e-06
2 *1225:I 0.00028604

*RES
1 *1225:I *1650:Q 1.33205
*END

*D_NET *286 0.000736434

*CONN
*I *1226:Z O *C 141.1 192.4 *L 0 *D DEL01
*I *1460:I I *C 139.1 193.6 *L 0.00105 *D DEL1

*CAP
1 *1460:I 7.98678e-05
2 *286:2 0.000656565

*RES
1 *1460:I *286:2 1.05158
2 *1226:Z *286:2 2.38679004
*END

*D_NET *287 0.000557096

*CONN
*I *1227:I I *C 137.9 114.4 *L 0.000643 *D CKBD0
*I *1639:Q O *C 138.7 114 *L 0 *D DFCNQD1

*CAP
1 *1639:Q 3.58885e-05
2 *1227:I 0.00039121
3 *287:2 0.000129997

*RES
1 *1227:I *287:2 1.4605
2 *1639:Q *287:2 0.675004
*END

*D_NET *288 0.00606298

*CONN
*I *1228:I I *C 145.1 154 *L 0.00103 *D DEL015
*I *1315:Z O *C 145.1 134.6 *L 0 *D DEL005

*CAP
1 *1315:Z 0.000225041
2 *288:2 0.00138013
3 *288:4 0.000240225
4 *288:5 0.000908799
5 *288:6 0.000191767
6 *288:2 *335:2 0.000415905
7 *288:2 *178:3 0.000372601016
8 *288:2 *854:3 0.000601396992
9 *288:2 *855:9 0.000386861016
10 *288:4 *934:3 0.000575625
11 *288:2 *75:21 0.000764621016

*RES
1 *288:5 *288:6 4.83885
2 *288:2 *288:3 10.5527
3 *1228:I *288:6 1.95303
4 *288:2 *288:4 1.04922
5 *288:3 *288:5 3.01625
6 *1315:Z *288:4 0.450055
*END

*D_NET *289 0.000449474

*CONN
*I *1229:I I *C 138.7 222.4 *L 0.00103 *D DEL01
*I *1662:Q O *C 140.7 222 *L 0 *D DFCNQD1

*CAP
1 *1229:I 6.5093e-05
2 *289:2 0.000384381992

*RES
1 *1662:Q *289:2 1.70904005
2 *1229:I *289:2 0.45
*END

*D_NET *290 0.00252294

*CONN
*I *1013:I I *C 138.5 100 *L 0.000968 *D CKBD1
*I *1018:Z O *C 138.3 91.6 *L 0 *D CKBD1

*CAP
1 *290:2 0.000554743
2 *290:3 0.00149045
3 *290:4 8.66729e-05
4 *290:5 0.000391085

*RES
1 *1013:I *290:2 1.40915
2 *290:4 *290:5 1.53277
3 *290:2 *290:4 1.20547
4 *290:3 *290:5 4.11230993
5 *1018:Z *290:3 1.56878
*END

*D_NET *291 0.00791204

*CONN
*I *1231:Z O *C 144.9 150 *L 0 *D DEL015
*I *1408:I I *C 142.9 121.6 *L 0.00105 *D DEL1

*CAP
1 *291:2 0.000169593
2 *291:3 0.000759586016
3 *291:4 0.000189876
4 *291:5 0.000511108
5 *291:6 0.000111095
6 *291:7 3.32301e-05
7 *291:6 *311:3 0.00233054
8 *291:4 *779:2 0.000903143984
9 *291:5 *866:4 0.00185623
10 *291:2 *842:11 0.000690143984
11 *291:3 *235:2 0.000357493008

*RES
1 *291:7 *291:3 0.854771
2 *291:6 *291:3 20.8169003
3 *291:2 *291:7 7.39055
4 *291:5 *291:6 1.14764
5 *291:4 *291:2 0.450097
6 *1231:Z *291:5 0.450097
7 *1408:I *291:4 0.450097
*END

*D_NET *292 1.0544e-05

*CONN
*I *1232:I I *C 138.3 6.4 *L 0.00103 *D BUFFD2
*I *1561:Z O *C 138.1 6 *L 0 *D BUFFD1

*CAP
1 *1561:Z 1.05440002e-05

*RES
1 *1561:Z *1232:I 0.157646
*END

*D_NET *293 0.00667411

*CONN
*I *1233:Z O *C 141.1 145.6 *L 0 *D DEL015
*I *1414:I I *C 139.1 96.4 *L 0.00105 *D DEL1

*CAP
1 *1233:Z 0.000132136
2 *293:2 0.000275956
3 *293:3 0.0024001
4 *293:4 0.000505034
5 *293:5 0.000157113
6 *293:2 *838:19 0.000313955
7 *293:3 *83:2 0.00160296
8 *293:3 *166:5 0.000222457012
9 *293:4 *250:4 0.000752511953
10 *293:3 *273:6 0.000311888008

*RES
1 *293:4 *293:3 30.468399
2 *293:2 *293:3 1.07999
3 *1233:Z *293:4 2.1172
4 *293:5 *293:2 0.929357
5 *1414:I *293:5 0.450034
*END

*D_NET *294 0.00537262

*CONN
*I *1234:Z O *C 151.7 114 *L 0 *D DEL015
*I *1413:I I *C 142.7 102 *L 0.00105 *D DEL1

*CAP
1 *294:2 0.000804233
2 *294:3 0.000160434
3 *294:4 0.000169521
4 *294:5 0.00155487
5 *294:2 *716:2 0.0013285
6 *294:3 *733:2 0.00135505

*RES
1 *294:3 *294:2 12.1134005
2 *294:5 *294:3 0.490554
3 *294:4 *294:5 6.77405
4 *1234:Z *294:4 0.603119
5 *1413:I *294:2 1.84596
*END

*D_NET *295 0.000550624

*CONN
*I *1235:I I *C 139.1 184.8 *L 0.00103 *D DEL015
*I *1671:Q O *C 141.5 185.2 *L 0 *D DFCNQD1

*CAP
1 *1235:I 8.44e-05
2 *295:2 0.000118109
3 *295:3 0.000348111992

*RES
1 *295:2 *295:3 1.60994995
2 *1235:I *295:3 0.674997
3 *1671:Q *295:2 0.224999
*END

*D_NET *296 0.000419516

*CONN
*I *1236:I I *C 141.3 174 *L 0.00103 *D DEL015
*I *1670:Q O *C 141.9 175.2 *L 0 *D DFCNQD1

*CAP
1 *1236:I 0.000419516016

*RES
1 *1236:I *1670:Q 1.90055
*END

*D_NET *297 0.00983099

*CONN
*I *1237:I I *C 137.5 136 *L 0.00105 *D DEL1
*I *1318:Z O *C 151.7 88.8 *L 0 *D CKBD1

*CAP
1 *1237:I 0.000278091
2 *297:2 5.31175e-05
3 *297:3 0.000208181
4 *297:4 0.000967068
5 *297:5 0.0059812
6 *297:4 *249:2 0.000710583984
7 *1237:I *781:2 0.00163272

*RES
1 *1237:I *297:2 2.10683
2 *297:4 *297:5 33.6436005
3 *297:3 *297:5 11.7601
4 *1318:Z *297:3 0.450217
5 *297:2 *297:4 0.224852
*END

*D_NET *298 0.00323256

*CONN
*I *1542:Z O *C 149.5 264.4 *L 0 *D BUFFD1
*I *1238:I I *C 137.5 257.2 *L 0.00373 *D CKBD12

*CAP
1 *1542:Z 0.000261939
2 *298:2 0.000630684
3 *298:3 0.00044732
4 *298:4 0.000773078047
5 *298:5 0.000340822
6 *298:6 1.35305e-05
7 *298:7 0.000765198

*RES
1 *298:5 *298:6 1.48228
2 *298:4 *298:7 3.78341
3 *298:3 *298:7 4.25394011
4 *298:4 *298:5 0.0926265
5 *298:2 *298:6 2.82845
6 *1542:Z *298:3 2.46366
7 *1238:I *298:2 0.224978
*END

*D_NET *299 0.00528743

*CONN
*I *1020:I I *C 150.5 40.8 *L 0.00072 *D BUFFD1
*I *1239:Z O *C 151.9 6 *L 0 *D DEL015

*CAP
1 *1020:I 0.000128969
2 *299:2 0.000664152
3 *299:3 8.01747e-05
4 *299:4 0.00116898
5 *299:5 0.000231312
6 *299:6 0.00120262
7 *299:8 0.000327635
8 *299:9 0.00033248
9 *299:4 *536:6 0.000560810039
10 *299:2 *485:3 0.000186261992
11 *1020:I *1607:CP 0.000404033984

*RES
1 *299:8 *299:9 3.87607
2 *299:6 *299:8 0.159247
3 *1020:I *299:2 0.900231
4 *299:7 *299:9 0.159247
5 *299:5 *299:6 12.1920996
6 *299:4 *299:7 4.86839
7 *299:3 *299:4 2.93789
8 *299:2 *299:5 3.67795
9 *1239:Z *299:3 0.224918
*END

*D_NET *300 0.000714284

*CONN
*I *1240:Z O *C 151.9 153.6 *L 0 *D DEL0
*I *1252:I I *C 149.1 152.4 *L 0.00287 *D BUFFD8

*CAP
1 *1252:I 0.000609005977
2 *1240:Z 4.87223e-05
3 *300:2 5.65562e-05

*RES
1 *1252:I *300:2 2.97336006
2 *1240:Z *300:2 0.449978
*END

*D_NET *301 0.00349558

*CONN
*I *1241:Z O *C 148.5 152.8 *L 0 *D DEL0
*I *1251:I I *C 141.3 145.6 *L 0.00373 *D CKBD12

*CAP
1 *1251:I 0.000810583
2 *301:2 0.00112249
3 *301:3 0.000255314
4 *301:4 0.00130718992

*RES
1 *1251:I *301:2 2.67194
2 *301:2 *301:4 4.34006
3 *301:3 *301:4 5.3628602
4 *1241:Z *301:3 0.449987
*END

*D_NET *302 0.00220642

*CONN
*I *1242:Z O *C 151.5 150 *L 0 *D DEL0
*I *1250:I I *C 143.9 146.4 *L 0.00373 *D CKBD12

*CAP
1 *1250:I 0.000726728
2 *1242:Z 0.000100208
3 *302:2 0.000876317969
4 *302:3 0.000503166

*RES
1 *1250:I *302:2 2.8671
2 *302:2 *302:3 3.1286099
3 *1242:Z *302:3 2.95202
*END

*D_NET *303 0.00201016

*CONN
*I *1243:Z O *C 151.5 146.4 *L 0 *D DEL0
*I *1249:I I *C 143.7 149.2 *L 0.00373 *D CKBD12

*CAP
1 *303:2 0.000163751
2 *303:3 0.00184642

*RES
1 *303:2 *303:3 5.80040979
2 *1249:I *303:3 1.64243
3 *1243:Z *303:2 0.224985
*END

*D_NET *304 0.00239051

*CONN
*I *1244:Z O *C 147.5 150 *L 0 *D DEL0
*I *1248:I I *C 139.5 146.4 *L 0.00373 *D CKBD12

*CAP
1 *1248:I 0.000692812
2 *304:2 0.00133183
3 *304:3 0.000365885

*RES
1 *304:2 *304:3 5.09487009
2 *1248:I *304:2 2.56244
3 *1244:Z *304:3 1.44063
*END

*D_NET *305 0.00264119

*CONN
*I *1245:Z O *C 144.3 52 *L 0 *D BUFFD1
*I *1574:D[8] I *C 134.265 42.875 *L 0.00183 *D sram00

*CAP
1 *1245:Z 3.94839e-05
2 *305:2 0.000443413
3 *305:3 1.35941e-06
4 *305:4 0.00032141
5 *305:5 0.000406668
6 *305:6 1.99651e-05
7 *305:7 5.65476e-05
8 *305:8 2.26637e-05
9 *305:9 0.00132969

*RES
1 *305:7 *305:8 0.268529
2 *305:6 *305:7 0.297248
3 *305:4 *305:9 1.39931
4 *305:3 *305:5 2.61103
5 *305:3 *305:4 0.285161
6 *1245:Z *305:2 1.50897
7 *305:5 *305:6 0.285161
8 *305:2 *305:9 6.33717012
9 *1245:Z *1574:D[8] 9.66975e-05
*END

*D_NET *306 0.00248469

*CONN
*I *1246:Z O *C 149.5 88.8 *L 0 *D BUFFD1
*I *1574:D[19] I *C 134.265 88.805 *L 0.00183 *D sram00

*CAP
1 *306:2 0.000122998
2 *306:3 0.000271351
3 *306:4 6.00037e-05
4 *306:5 0.000233319
5 *306:6 3.75979e-05
6 *306:7 0.000556831016
7 *306:8 4.56358e-05
8 *306:9 0.000551444
9 *306:10 9.43728e-05
10 *306:11 0.000511127

*RES
1 *306:10 *306:11 2.78660989
2 *306:9 *306:10 0.0926092
3 *306:2 *306:3 1.24891
4 *306:8 *306:9 2.42553
5 *306:7 *306:8 0.0926092
6 *306:6 *306:7 2.51146
7 *306:4 *306:5 1.04056
8 *306:3 *306:4 0.0926092
9 *306:5 *306:6 0.0926092
10 *1246:Z *306:2 0.225017
11 *1246:Z *1574:D[19] 8.50406e-05
*END

*D_NET *307 0.00311216

*CONN
*I *1247:Z O *C 142.5 55.6 *L 0 *D BUFFD1
*I *1574:D[9] I *C 134.265 46.805 *L 0.00183 *D sram00

*CAP
1 *1247:Z 0.000302031
2 *307:2 0.000377258
3 *307:4 0.00108138
4 *307:5 0.000211161
5 *307:6 0.00010011
6 *307:7 0.00104023

*RES
1 *307:2 *307:5 0.973361
2 *307:2 *307:3 2.00004
3 *1247:Z *307:4 4.45316
4 *307:6 *307:7 4.86687994
5 *307:3 *307:4 0.159219
6 *307:5 *307:6 0.21655
7 *1247:Z *1574:D[9] 7.42627e-05
*END

*D_NET *308 0.016229

*CONN
*I *1244:I I *C 145.1 150.4 *L 0.00104 *D DEL0
*I *1526:Z O *C 150.7 77.2 *L 0 *D BUFFD8

*CAP
1 *1244:I 0.000265984
2 *308:2 0.00213592
3 *308:3 0.000228764
4 *308:4 0.000433735
5 *308:5 0.000565114
6 *308:6 9.15185e-05
7 *308:7 0.00111217
8 *308:8 0.000316436
9 *308:9 9.31155e-05
10 *308:10 0.000601258
11 *308:11 7.17025e-06
12 *308:2 *800:4 0.000332253984
13 *308:8 *374:4 0.00199257
14 *308:7 *487:4 0.000797186953
15 *308:8 *784:4 0.00477716031
16 *308:5 *883:4 0.00032510502
17 *1244:I *335:2 0.000555898008
18 *308:2 *536:11 0.000487071016
19 *308:2 *1764:A1 0.000219380996
20 *308:3 *940:14 0.000591246016
21 *308:2 *184:7 0.000299943008

*RES
1 *308:2 *308:10 0.159274
2 *308:9 *308:3 2.28146
3 *308:8 *308:11 1.62736
4 *308:4 *308:5 3.03376
5 *1244:I *308:4 1.42906
6 *308:10 *308:11 3.64189
7 *308:2 *308:3 41.2575989
8 *308:7 *308:9 6.28282
9 *308:6 *308:7 2.114
10 *308:5 *308:8 3.2541
11 *1526:Z *308:6 0.224746
*END

*D_NET *309 0.0129923

*CONN
*I *1243:I I *C 149.1 146.8 *L 0.00104 *D DEL0
*I *1489:Z O *C 150.7 70 *L 0 *D BUFFD8

*CAP
1 *1243:I 0.000255403
2 *309:2 0.00029933
3 *309:3 0.000695667
4 *309:4 0.00196638
5 *309:5 3.53759e-05
6 *309:6 0.000253303
7 *309:8 0.000673733
8 *309:9 1.89032e-06
9 *309:10 0.000373623
10 *309:11 0.000143274
11 *309:12 0.000235209
12 *309:4 *310:3 0.000665966953
13 *309:10 *933:2 0.000294472988
14 *309:2 *719 0.000982195
15 *309:3 *75:43 0.00151877
16 *309:4 *167:5 0.00459773031

*RES
1 *309:2 *309:9 0.159152
2 *309:10 *309:12 20.2136002
3 *309:8 *309:9 3.49858
4 *309:5 *309:6 3.59543
5 *1489:Z *309:3 1.33151
6 *309:3 *309:7 3.08713
7 *309:5 *309:4 1.19087
8 *309:4 *309:11 18.1017
9 *309:11 *309:12 0.159152
10 *309:7 *309:8 0.159152
11 *1243:I *309:10 1.78707
12 *309:6 *309:2 4.11236
*END

*D_NET *310 0.0115828

*CONN
*I *1242:I I *C 149.1 150.4 *L 0.00104 *D DEL0
*I *1505:Z O *C 150.7 70.8 *L 0 *D BUFFD8

*CAP
1 *1505:Z 9.78323e-05
2 *310:2 0.000227601
3 *310:3 0.000920598
4 *310:4 0.000265959
5 *310:5 0.000331555
6 *310:6 0.000327582
7 *310:7 0.000342675
8 *310:8 0.0001708
9 *310:9 0.000205635
10 *310:10 0.00030904
11 *310:11 0.000450903
12 *310:12 1.44937e-06
13 *310:13 0.000437359
14 *310:14 0.000288874
15 *310:15 0.000147511
16 *310:16 0.000472144
17 *310:17 0.00163766
18 *310:18 0.00015933
19 *310:4 *933:3 0.00109938
20 *310:4 *186:2 0.00115549008
21 *310:4 *228:2 0.000566819023
22 *310:2 *75:42 0.00130064
23 *310:3 *309:4 0.000665966953

*RES
1 *310:7 *310:9 2.54179
2 *310:14 *310:15 1.65068
3 *310:13 *310:14 2.53922
4 *310:11 *310:12 3.01203
5 *310:10 *310:13 2.55834
6 *310:9 *310:12 1.64126
7 *310:5 *310:17 3.70854
8 *310:7 *310:3 0.159219
9 *310:17 *310:18 18.6998997
10 *310:6 *310:2 2.75037
11 *310:10 *310:11 0.159219
12 *310:2 *310:8 1.65096
13 *310:3 *310:8 7.54262
14 *310:15 *310:16 2.36859
15 *1505:Z *310:16 1.99251
16 *310:4 *310:18 0.943612
17 *310:5 *310:6 2.76578
18 *1242:I *310:4 1.63442
*END

*D_NET *311 0.01523

*CONN
*I *1241:I I *C 146.1 152.4 *L 0.00104 *D DEL0
*I *1504:Z O *C 150.7 66.4 *L 0 *D BUFFD8

*CAP
1 *311:2 0.000522196
2 *311:3 0.00445891
3 *311:4 0.00153706
4 *311:5 9.8656e-05
5 *311:6 0.000185405
6 *311:2 *230:4 0.000606193008
7 *311:2 *866:4 0.00330883
8 *311:2 *137:5 0.00165488
9 *311:3 *235:2 0.000527363008
10 *311:3 *291:6 0.00233054

*RES
1 *311:6 *311:3 4.60141
2 *311:2 *311:3 58.1260986
3 *311:5 *311:6 0.449675
4 *311:4 *311:2 6.34335
5 *1504:Z *311:5 0.449675
6 *1241:I *311:4 0.449675
*END

*D_NET *312 0.00128873

*CONN
*I *1240:I I *C 149.5 154 *L 0.00104 *D DEL0
*I *1316:Z O *C 150.7 149.2 *L 0 *D BUFFD8

*CAP
1 *1240:I 0.000983187969
2 *1316:Z 0.000305541

*RES
1 *1240:I *1316:Z 5.52661
*END

*D_NET *313 0.0038857

*CONN
*I *1253:Z O *C 147.1 74.4 *L 0 *D BUFFD1
*I *1314:I I *C 147.9 94.8 *L 0.000643 *D CKBD0

*CAP
1 *1314:I 3.36033e-05
2 *1253:Z 0.000130757
3 *313:2 3.35429e-05
4 *313:3 0.000874774
5 *313:4 0.000832679
6 *313:5 0.00198039

*RES
1 *313:2 *313:3 3.54766
2 *1314:I *313:2 0.325112
3 *313:4 *313:5 7.73939991
4 *313:3 *313:4 3.02911
5 *1253:Z *313:5 0.510992
*END

*D_NET *314 0.00154735

*CONN
*I *1063:I I *C 138.3 74.8 *L 0.00182 *D DEL005
*I *1254:Z O *C 143.3 77.2 *L 0 *D CKBD1

*CAP
1 *1063:I 0.000124757
2 *1254:Z 0.000118694
3 *314:2 0.00112881008
4 *314:3 0.000175087

*RES
1 *314:2 *314:3 4.36214018
2 *1063:I *314:2 0.602776
3 *1254:Z *314:3 1.02857
*END

*D_NET *315 0.00296153

*CONN
*I *1255:Z O *C 145.1 235.6 *L 0 *D BUFFD1
*I *1574:D[48] I *C 134.195 251.455 *L 0.00183 *D sram00

*CAP
1 *1255:Z 0.000171524
2 *315:2 0.000163225
3 *315:4 1.70017e-05
4 *315:5 0.0012445
5 *315:6 2.40355e-05
6 *315:8 2.41963e-05
7 *315:9 0.00131703

*RES
1 *315:7 *315:8 0.268463
2 *315:3 *315:5 9.1579
3 *315:3 *315:4 0.285117
4 *1255:Z *315:2 0.384826
5 *315:6 *315:9 0.586067
6 *315:5 *315:6 0.285121
7 *315:4 *315:7 0.2185
8 *315:2 *315:9 6.95032
9 *1255:Z *1574:D[48] 0.0001
*END

*D_NET *316 0.0123067

*CONN
*I *1256:Z O *C 143.3 6 *L 0 *D DEL0
*I *1390:I I *C 143.9 42.4 *L 0.00104 *D DEL0
*I *1465:I I *C 145.5 64 *L 0.00105 *D DEL1

*CAP
1 *1390:I 0.000202968
2 *1256:Z 0.000241
3 *316:3 0.00109172
4 *316:4 2.83196e-07
5 *316:5 0.000716286
6 *316:6 0.000579136
7 *316:7 0.000434739
8 *316:8 3.69987e-05
9 *316:9 0.000364756
10 *316:10 0.000101384
11 *316:11 0.000834528
12 *316:12 2.85528e-05
13 *316:13 0.000764046
14 *316:5 *1598:CDN 0.000371488984
15 *316:3 *1579:Z 0.00237427
16 *316:9 *940:12 0.000960962031
17 *316:3 *482:3 0.00248516984
18 *316:6 *487:3 0.000718418984

*RES
1 *1465:I *316:6 1.80805
2 *316:3 *316:8 4.31743
3 *316:11 *316:12 0.159171
4 *316:7 *316:12 3.06387
5 *1256:Z *316:5 1.7015
6 *316:6 *316:10 1.98639
7 *1390:I *316:9 1.29708
8 *316:4 *316:5 2.61105
9 *316:9 *316:13 21.2886009
10 *316:8 *316:13 0.602575
11 *316:7 *316:9 2.35345
12 *316:10 *316:11 9.03635
13 *316:3 *316:4 0.722765
*END

*D_NET *317 0.00118876

*CONN
*I *1257:Z O *C 148.3 275.2 *L 0 *D DEL1
*I *1410:I I *C 145.1 271.2 *L 0.000975 *D CKBD2

*CAP
1 *317:2 0.000412978
2 *317:3 0.000775776953

*RES
1 *317:2 *317:3 3.10953999
2 *1257:Z *317:2 1.96083
3 *1410:I *317:3 0.449995
*END

*D_NET *318 0.0089237

*CONN
*I *1091:Z O *C 140.3 218.4 *L 0 *D DEL015
*I *1574:D[62] I *C 134.195 310.255 *L 0.00183 *D sram00

*CAP
1 *318:2 6.65691e-05
2 *318:3 0.00160936
3 *318:4 6.7794e-05
4 *318:5 2.35273e-05
5 *318:6 7.23136e-05
6 *318:7 0.00276815
7 *318:8 0.00031916
8 *318:10 0.000303616
9 *318:3 *461:3 0.00151033
10 *318:3 *463:3 0.00218285984

*RES
1 *318:7 *318:10 34.2353
2 *318:6 *318:8 5.00799
3 *318:4 *318:10 0.384213
4 *318:2 *318:3 2.99489
5 *318:8 *318:9 0.159216
6 *318:6 *318:7 0.159213
7 *318:4 *318:5 0.881329
8 *318:3 *318:9 18.3393
9 *1091:Z *318:2 0.225
10 *1091:Z *1574:D[62] 0.0001
*END

*D_NET *319 0.00807884

*CONN
*I *1086:I I *C 140.9 285.6 *L 0.00103 *D DEL015
*I *1259:Z O *C 142.7 217.6 *L 0 *D BUFFD0

*CAP
1 *1086:I 6.75682e-05
2 *319:2 0.000283889
3 *319:3 0.000940448
4 *319:4 0.00334195
5 *319:5 0.000132842
6 *319:5 *79:5 0.000288017012
7 *319:2 *36:2 0.000998613984
8 *319:2 *464:4 0.00184429
9 *1086:I *85:5 0.000181171992

*RES
1 *319:4 *319:5 0.159056
2 *319:3 *319:4 40.2467003
3 *319:2 *319:5 2.8581
4 *1086:I *319:3 1.32158
5 *1259:Z *319:2 1.58319
*END

*D_NET *320 0.00775622

*CONN
*I *1081:Z O *C 147.5 240 *L 0 *D DEL015
*I *1574:D[60] I *C 134.195 301.855 *L 0.00183 *D sram00

*CAP
1 *320:2 1.02109e-06
2 *320:3 0.00024726
3 *320:4 5.30966e-05
4 *320:5 7.94092e-05
5 *320:6 0.00514746
6 *320:3 *460:3 0.00032528498
7 *320:3 *463:4 0.00190265

*RES
1 *320:2 *320:5 0.350907
2 *320:3 *320:6 39.3415
3 *320:3 *320:4 1.88856
4 *320:5 *320:6 6.64611
5 *1081:Z *320:2 0.225
6 *1081:Z *1574:D[60] 0.0001
*END

*D_NET *321 0.00454195

*CONN
*I *1127:I I *C 139.7 159.6 *L 0.00103 *D DEL015
*I *1261:Z O *C 139.7 139.2 *L 0 *D BUFFD1

*CAP
1 *1261:Z 0.000603025
2 *321:2 0.00213733
3 *321:3 0.00180161

*RES
1 *321:2 *321:3 9.22873974
2 *1261:Z *321:2 7.7721
3 *1127:I *321:3 0.450059
*END

*D_NET *322 0.00850851

*CONN
*I *1087:Z O *C 146.3 67.2 *L 0 *D CKBD0
*I *1574:D[1] I *C 134.265 13.205 *L 0.00183 *D sram00

*CAP
1 *1087:Z 0.000106199
2 *322:2 0.000724434
3 *322:3 6.49863e-06
4 *322:4 0.000157976
5 *322:5 0.00090122
6 *322:6 2.73171e-05
7 *322:7 0.000378847
8 *322:8 5.71488e-07
9 *322:9 0.000773664
10 *322:10 0.000123621
11 *322:11 0.000566965
12 *322:12 0.000761369
13 *322:14 2.38392e-06
14 *322:15 0.0006859
15 *322:16 0.000224921
16 *322:17 9.1438e-07
17 *322:18 2.84927e-05
18 *322:19 4.60129e-05
19 *322:20 0.000161992
20 *322:21 0.00107007
21 *322:22 5.17768e-05
22 *322:23 0.00011931
23 *322:24 3.01746e-05
24 *322:10 *328:2 0.000905673984
25 *322:2 *640:3 0.000652215

*RES
1 *322:21 *322:22 0.159234
2 *322:8 *322:9 3.37064
3 *322:3 *322:4 0.136316
4 *322:13 *322:15 0.159234
5 *322:22 *322:23 0.719243
6 *322:18 *322:20 0.159246
7 *322:23 *322:24 0.394483
8 *322:6 *322:7 1.6701
9 *322:5 *322:6 0.722135
10 *322:7 *322:8 0.092599
11 *322:17 *322:21 8.73164
12 *322:10 *322:11 0.159246
13 *322:14 *322:15 8.03408
14 *322:2 *322:19 0.159246
15 *322:12 *322:14 0.159234
16 *322:19 *322:20 1.85628
17 *1087:Z *322:3 0.384228
18 *322:16 *322:17 0.159234
19 *322:10 *322:12 5.20003
20 *322:13 *322:16 1.35406
21 *322:4 *322:5 3.27852
22 *322:9 *322:2 6.68984
23 *322:11 *322:18 3.37298
24 *1087:Z *1574:D[1] 0.0001
*END

*D_NET *323 0.00321107

*CONN
*I *1255:I I *C 144.5 235.2 *L 0.00072 *D BUFFD1
*I *1263:Z O *C 144.5 218.4 *L 0 *D CKBD0

*CAP
1 *1263:Z 0.000813416016
2 *323:2 0.000622161
3 *323:3 0.000534855
4 *323:4 0.000810574
5 *323:5 0.000430061

*RES
1 *323:2 *323:5 1.4859
2 *1263:Z *323:4 3.23012
3 *323:2 *323:3 2.6217
4 *1255:I *323:3 2.08619
5 *323:4 *323:5 3.28853011
*END

*D_NET *324 0.00270999

*CONN
*I *1245:I I *C 143.7 51.6 *L 0.00072 *D BUFFD1
*I *1264:Z O *C 143.9 62.8 *L 0 *D CKBD0

*CAP
1 *1245:I 0.000413069
2 *1264:Z 0.0002055
3 *324:2 0.000948277031
4 *324:3 0.000125612
5 *324:4 0.00012745
6 *324:5 0.00089008

*RES
1 *324:3 *324:5 0.602716
2 *1264:Z *324:4 0.44998
3 *324:4 *324:5 2.86984
4 *324:2 *324:3 3.85286999
5 *1245:I *324:2 1.66417
*END

*D_NET *325 0.00185402

*CONN
*I *1247:I I *C 141.9 55.2 *L 0.00072 *D BUFFD1
*I *1265:Z O *C 143.1 62.8 *L 0 *D CKBD0

*CAP
1 *325:2 0.00109859
2 *325:3 0.000755426

*RES
1 *325:2 *325:3 4.23254013
2 *1265:Z *325:2 2.90018
3 *1247:I *325:3 0.225009
*END

*D_NET *326 0.00687473

*CONN
*I *1266:Z O *C 145.9 8.8 *L 0 *D DEL01
*I *1574:D[11] I *C 134.265 55.205 *L 0.00183 *D sram00

*CAP
1 *326:2 0.00097893
2 *326:3 0.00128175
3 *326:4 0.000115042
4 *326:5 9.16695e-05
5 *326:6 2.12207e-05
6 *326:7 0.000789938
7 *326:8 1.35148e-05
8 *326:9 0.000235912
9 *326:10 0.000156427
10 *326:11 3.25254e-05
11 *326:12 0.000123686
12 *326:13 8.5274e-06
13 *326:15 0.000402861
14 *326:17 0.000123823
15 *326:18 9.77326e-05
16 *326:19 5.98874e-05
17 *326:20 4.90912e-05
18 *326:22 0.000358522
19 *326:9 *328:2 0.00107303
20 *326:12 *484:5 0.000206892988
21 *326:2 *636:4 0.000394126016
22 *326:3 *71:2 0.000259647988

*RES
1 *326:4 *326:5 0.745275
2 *326:3 *326:20 12.8133
3 *326:14 *326:3 0.159234
4 *326:9 *326:14 0.592897
5 *326:7 *326:8 0.092597
6 *326:6 *326:7 4.33715
7 *326:8 *326:9 1.16194
8 *326:16 *326:19 0.611204
9 *326:11 *326:22 2.03464
10 *326:12 *326:13 0.160094
11 *326:10 *326:22 0.35102
12 *326:11 *326:12 0.127079
13 *326:13 *326:15 2.36875
14 *326:20 *326:2 0.159234
15 *326:19 *326:21 0.159234
16 *326:17 *326:18 2.10788
17 *326:16 *326:17 0.159234
18 *326:2 *326:21 11.0537
19 *326:15 *326:18 0.159246
20 *326:5 *326:6 0.092597
21 *1266:Z *326:4 0.225
22 *1266:Z *1574:D[11] 0.0001
*END

*D_NET *327 0.00112346

*CONN
*I *1246:I I *C 148.9 89.2 *L 0.00072 *D BUFFD1
*I *1267:Z O *C 151.3 88 *L 0 *D CKBD0

*CAP
1 *1246:I 7.56007e-06
2 *327:2 0.000130911
3 *327:3 0.000984987969

*RES
1 *327:2 *327:3 3.64696002
2 *1246:I *327:3 0.544184
3 *1267:Z *327:2 0.224986
*END

*D_NET *328 0.00791167

*CONN
*I *1268:Z O *C 151.7 12.4 *L 0 *D DEL01
*I *1574:D[13] I *C 134.265 63.605 *L 0.00183 *D sram00

*CAP
1 *1268:Z 0.000129405
2 *328:2 0.00266015
3 *328:3 2.23252e-05
4 *328:4 6.65291e-05
5 *328:5 5.16321e-05
6 *328:6 0.000479911
7 *328:7 4.05101e-05
8 *328:8 0.000383222
9 *328:9 3.15394e-05
10 *328:10 0.000221831
11 *328:11 7.23337e-05
12 *328:12 0.000130379
13 *328:13 5.06985e-05
14 *328:14 4.87095e-07
15 *328:15 1.08785e-05
16 *328:17 0.000190901
17 *328:18 0.000481494
18 *328:20 0.00014625
19 *328:21 2.27311e-06
20 *328:22 0.000232101
21 *328:23 0.000170321
22 *328:24 6.73815e-06
23 *328:2 *71:2 0.000350933984
24 *328:2 *322:10 0.000905673984
25 *328:2 *326:9 0.00107303

*RES
1 *328:19 *328:22 1.48035
2 *328:8 *328:9 0.094496
3 *328:3 *328:4 0.997219
4 *328:2 *328:23 24.7681
5 *328:22 *328:23 0.159246
6 *328:12 *328:13 0.646189
7 *328:17 *328:24 1.39889
8 *328:12 *328:24 0.384246
9 *328:6 *328:7 0.092597
10 *328:5 *328:6 2.57392
11 *328:7 *328:8 1.82944
12 *328:11 *328:2 3.86842
13 *328:9 *328:10 1.41827
14 *328:10 *328:11 0.092597
15 *328:13 *328:14 0.218507
16 *328:19 *328:20 0.159246
17 *1268:Z *328:3 0.350967
18 *328:18 *328:21 0.159246
19 *328:16 *328:17 0.159246
20 *328:20 *328:21 0.987926
21 *328:16 *328:18 3.36792
22 *328:14 *328:15 0.268468
23 *328:4 *328:5 0.092631
24 *1268:Z *1574:D[13] 0.0001
*END

*D_NET *329 0.00385837

*CONN
*I *1269:Z O *C 147.1 261.6 *L 0 *D DEL01
*I *1574:D[54] I *C 134.195 276.655 *L 0.00183 *D sram00

*CAP
1 *1269:Z 0.0018906
2 *329:3 0.000194902
3 *329:4 0.00065351
4 *329:5 1.55783e-06
5 *329:6 5.87648e-05
6 *329:7 0.000970557
7 *329:8 3.35799e-05
8 *329:9 5.48991e-05

*RES
1 *329:7 *329:9 8.28514
2 *329:2 *329:4 2.38351
3 *329:2 *329:3 0.159213
4 *329:8 *329:9 0.476809
5 *329:4 *329:5 0.159213
6 *329:3 *329:6 0.696291
7 *1269:Z *329:5 7.29737
8 *329:6 *329:8 0.225
9 *1269:Z *1574:D[54] 0.0001
*END

*D_NET *330 0.00730545

*CONN
*I *1270:Z O *C 139.5 27.6 *L 0 *D DEL01
*I *1574:D[12] I *C 134.265 59.675 *L 0.00183 *D sram00

*CAP
1 *1270:Z 0.000375396
2 *330:2 0.000777382
3 *330:3 0.00018013
4 *330:5 6.77806e-05
5 *330:6 0.000832147031
6 *330:7 2.98397e-06
7 *330:8 0.000167242
8 *330:10 0.000369301
9 *330:11 1.47675e-05
10 *330:12 0.00012572
11 *330:14 0.00053907
12 *330:15 2.66653e-06
13 *330:16 0.000156716
14 *330:17 8.90874e-05
15 *330:18 0.000255047
16 *330:19 0.000531896
17 *330:20 4.77943e-05
18 *330:21 0.000353429
19 *330:6 *1616:CDN 0.00130785
20 *330:2 *534:4 0.00110906008

*RES
1 *330:3 *330:4 0.159256
2 *330:13 *330:14 0.537918
3 *330:3 *330:13 0.665057
4 *330:6 *330:7 0.159256
5 *330:5 *330:6 6.22734022
6 *330:7 *330:8 0.848258
7 *330:2 *330:17 0.538203
8 *330:10 *330:11 1.91735
9 *330:9 *330:10 0.159256
10 *330:14 *330:15 4.29935
11 *330:12 *330:15 0.159256
12 *330:5 *330:19 2.54297
13 *330:19 *330:20 0.0454204
14 *330:16 *330:17 0.458765
15 *1270:Z *330:18 1.75267
16 *330:9 *330:12 0.611084
17 *330:20 *330:21 1.77938
18 *330:16 *330:18 1.17751
19 *330:4 *330:2 4.69322
20 *330:8 *330:11 0.159256
21 *1270:Z *1574:D[12] 9.50217e-05
*END

*D_NET *331 0.00746576

*CONN
*I *1271:Z O *C 151.9 44.8 *L 0 *D DEL01
*I *1574:D[18] I *C 134.265 84.875 *L 0.00183 *D sram00

*CAP
1 *1271:Z 0.000172405
2 *331:2 2.22265e-05
3 *331:3 2.99499e-05
4 *331:4 1.60906e-05
5 *331:5 0.000184977
6 *331:6 1.71633e-06
7 *331:7 3.19237e-05
8 *331:8 1.5447e-06
9 *331:9 0.000280577
10 *331:10 8.93778e-05
11 *331:11 0.000818045
12 *331:12 3.00358e-05
13 *331:13 0.000214241
14 *331:14 3.75018e-05
15 *331:15 0.000445516
16 *331:16 8.47008e-05
17 *331:17 0.000153955
18 *331:18 0.000170303
19 *331:19 0.00281199
20 *331:20 0.0005763
21 *331:22 0.000104138
22 *331:16 *616:2 0.000345241016
23 *331:16 *799:2 0.000460615
24 *331:15 *475:4 0.000382446992

*RES
1 *331:19 *331:22 20.7782
2 *331:16 *331:22 0.384246
3 *331:7 *331:8 0.092597
4 *331:2 *331:3 0.619433
5 *331:18 *331:20 3.22112
6 *331:18 *331:19 0.159246
7 *331:12 *331:13 1.04055
8 *331:5 *331:6 0.092597
9 *331:4 *331:5 1.04069
10 *331:6 *331:7 0.285119
11 *331:15 *331:21 1.47444
12 *331:10 *331:11 3.57019
13 *331:8 *331:9 1.67008
14 *331:9 *331:10 0.092597
15 *331:13 *331:14 0.092597
16 *1271:Z *331:2 0.728867
17 *331:16 *331:17 1.7627
18 *331:11 *331:12 0.092597
19 *331:20 *331:21 0.159234
20 *331:14 *331:15 1.52752
21 *331:3 *331:4 0.092631
22 *1271:Z *1574:D[18] 0.0001
*END

*D_NET *332 0.00338867

*CONN
*I *1105:Z O *C 141.5 163.6 *L 0 *D DEL015
*I *1574:A[6] I *C 134.265 150.16 *L 0.00555 *D sram00

*CAP
1 *1105:Z 1.28263e-05
2 *332:2 0.000313824
3 *332:3 7.12758e-05
4 *332:4 0.000867297
5 *332:5 0.00157116
6 *332:6 0.000283904
7 *332:7 0.000128982
8 *332:8 1.10282e-06
9 *332:9 0.000118098
10 *332:10 2.01624e-05

*RES
1 *332:9 *332:10 0.268607
2 *332:2 *332:3 0.644334
3 *332:7 *332:8 0.159232
4 *332:3 *332:4 3.55131
5 *1105:Z *332:2 0.261601
6 *332:6 *332:9 0.737379
7 *332:5 *332:8 7.63899
8 *332:5 *332:6 1.38495
9 *332:4 *332:7 0.54632
10 *1105:Z *1574:A[6] 0.0001
*END

*D_NET *333 0.00112719

*CONN
*I *1273:Z O *C 139.5 52.8 *L 0 *D DEL01
*I *1574:D[10] I *C 134.265 51.275 *L 0.00183 *D sram00

*CAP
1 *333:2 2.47878e-05
2 *333:3 0.000111616
3 *333:4 0.000220174
4 *333:5 0.00077062

*RES
1 *333:2 *333:4 0.535448
2 *333:4 *333:5 1.23248
3 *333:3 *333:5 3.31549001
4 *1273:Z *333:3 0.224975
5 *1273:Z *1574:D[10] 0.000101181
*END

*D_NET *334 0.00390197

*CONN
*I *1274:Z O *C 145.5 67.2 *L 0 *D DEL01
*I *1574:D[17] I *C 134.265 80.405 *L 0.00183 *D sram00

*CAP
1 *1274:Z 0.000330407
2 *334:2 4.72644e-05
3 *334:3 0.000219622
4 *334:4 3.63655e-06
5 *334:6 0.000144824
6 *334:7 0.000106802
7 *334:8 9.0048e-06
8 *334:9 0.00028627
9 *334:10 2.66248e-06
10 *334:11 0.000414567
11 *334:12 6.35964e-05
12 *334:13 0.000450543
13 *334:14 6.14101e-05
14 *334:15 0.000214297
15 *334:16 2.73824e-06
16 *334:17 0.00036411
17 *334:18 5.98299e-05
18 *334:19 0.00070929
19 *334:21 9.00047e-05
20 *334:22 0.000273661
21 *334:23 1.48276e-05
22 *334:24 2.98717e-06
23 *334:25 2.96336e-05

*RES
1 *334:2 *334:3 0.738962
2 *334:6 *334:8 0.351362
3 *334:22 *334:23 0.159232
4 *334:18 *334:19 1.27573
5 *334:12 *334:13 2.0478
6 *334:24 *334:25 0.268573
7 *334:4 *334:7 0.34798
8 *334:5 *334:6 0.159232
9 *334:21 *334:24 0.218683
10 *334:20 *334:22 1.23035
11 *1274:Z *334:5 0.986994
12 *334:8 *334:9 0.159232
13 *334:9 *334:10 1.11312
14 *334:13 *334:14 0.0925999
15 *334:19 *334:23 2.73607993
16 *334:17 *334:18 0.0925999
17 *334:16 *334:17 1.45479
18 *334:15 *334:16 0.344431
19 *334:11 *334:12 0.0925999
20 *334:20 *334:21 0.159232
21 *334:14 *334:15 0.411022
22 *334:2 *334:11 2.25617
23 *334:3 *334:4 0.159232
24 *334:7 *334:10 0.159232
25 *1274:Z *1574:D[17] 8.34985e-05
*END

*D_NET *335 0.00931324

*CONN
*I *1044:I I *C 146.3 175.6 *L 0.00103 *D DEL015
*I *1080:Z O *C 148.7 139.2 *L 0 *D CKBD0

*CAP
1 *1044:I 0.00013077
2 *1080:Z 3.02761e-05
3 *335:2 0.00218275
4 *335:3 0.000165724
5 *335:4 0.00289234
6 *335:5 0.000135581
7 *335:6 0.000173139
8 *335:4 *369:2 0.001214
9 *335:4 *1045:I 0.000421160977
10 *335:2 *1244:I 0.000555898008
11 *335:4 *797:3 0.000995673984
12 *335:2 *288:2 0.000415905

*RES
1 *335:2 *335:6 11.3745
2 *1080:Z *335:5 0.449926
3 *1044:I *335:3 1.34355
4 *335:2 *335:5 2.21671
5 *335:4 *335:6 0.98705
6 *335:3 *335:4 19.4372997
*END

*D_NET *336 0.00610905

*CONN
*I *1276:Z O *C 151.9 131.2 *L 0 *D DEL01
*I *1574:D[25] I *C 134.265 114.005 *L 0.00183 *D sram00

*CAP
1 *336:2 0.00107782992
2 *336:3 9.74792e-05
3 *336:4 0.000752861
4 *336:5 9.13117e-05
5 *336:6 3.66595e-05
6 *336:7 0.000307305
7 *336:8 4.53927e-06
8 *336:9 0.0004086
9 *336:10 1.62493e-05
10 *336:12 2.49166e-05
11 *336:13 0.000583263
12 *336:14 0.000120028
13 *336:15 1.36507e-06
14 *336:2 *536:11 0.000183990996
15 *336:3 *799:7 0.000450401016
16 *336:4 *105:2 0.00139786
17 *336:4 *783:4 0.000554382969

*RES
1 *336:5 *336:2 5.37569
2 *336:12 *336:13 9.87492
3 *336:7 *336:8 0.0926
4 *336:6 *336:7 1.41829
5 *336:8 *336:4 2.87761
6 *336:3 *336:15 1.30739
7 *336:3 *336:9 1.83143
8 *336:11 *336:13 0.159254
9 *336:11 *336:14 1.28285
10 *336:10 *336:12 0.317229
11 *336:14 *336:15 0.159254
12 *336:2 *336:6 0.0926
13 *336:4 *336:10 0.533667
14 *1276:Z *336:5 0.225
15 *1276:Z *1574:D[25] 0.0001
*END

*D_NET *337 0.00436045

*CONN
*I *1027:I I *C 143.5 159.6 *L 0.000968 *D CKBD1
*I *1277:Z O *C 147.7 145.6 *L 0 *D DEL01

*CAP
1 *1027:I 0.000264448
2 *337:2 0.000689521
3 *337:3 0.000500877
4 *337:4 0.000723596
5 *337:5 0.00218076984
6 *337:6 1.23123e-06

*RES
1 *337:5 *337:6 0.159306
2 *337:4 *337:6 2.80329
3 *1277:Z *337:4 0.450064
4 *337:2 *337:5 8.99248981
5 *1027:I *337:3 1.76609
6 *337:2 *337:3 2.81441
*END

*D_NET *338 0.00814409

*CONN
*I *1088:I I *C 138.1 164.8 *L 0.00103 *D DEL01
*I *1278:Z O *C 151.5 142.8 *L 0 *D DEL01

*CAP
1 *338:2 0.000616438
2 *338:3 0.0018603
3 *338:4 9.00699e-05
4 *338:5 0.000574284
5 *338:6 0.000273786
6 *338:7 2.10911e-05
7 *338:2 *619:8 0.000399760977
8 *338:5 *1744:ZN 0.000293399004
9 *338:2 *66:4 0.000651645
10 *338:3 *776:3 0.00105872
11 *338:2 *4:2 0.00230459

*RES
1 *338:2 *338:3 18.3584003
2 *338:7 *338:3 4.69325
3 *338:5 *338:6 0.092722
4 *338:4 *338:5 3.20689
5 *1088:I *338:2 3.33463
6 *338:6 *338:7 1.88862
7 *1278:Z *338:4 0.224942
*END

*D_NET *339 0.00173769

*CONN
*I *1279:Z O *C 139.9 113.2 *L 0 *D DEL01
*I *1574:D[24] I *C 134.265 110.075 *L 0.00183 *D sram00

*CAP
1 *339:2 0.000611016
2 *339:3 0.00104216
3 *339:4 3.01349e-05
4 *339:5 5.4386e-05

*RES
1 *339:2 *339:3 4.27916002
2 *339:4 *339:5 0.394381
3 *339:3 *339:4 0.0453799
4 *1279:Z *339:2 1.82381
5 *1279:Z *1574:D[24] 0.00013059
*END

*D_NET *340 0.00280312

*CONN
*I *1280:Z O *C 151.9 260.8 *L 0 *D DEL01
*I *1574:D[50] I *C 134.195 259.855 *L 0.00183 *D sram00

*CAP
1 *340:2 2.83419e-05
2 *340:3 0.000221165
3 *340:4 0.00178939
4 *340:5 6.04518e-05
5 *340:6 0.000703769

*RES
1 *340:2 *340:3 0.270703
2 *340:4 *340:5 0.183876
3 *340:3 *340:4 8.27162
4 *340:5 *340:6 4.04559
5 *1280:Z *340:3 0.225
6 *1280:Z *1574:D[50] 0.0001
*END

*D_NET *341 0.00279773

*CONN
*I *1281:Z O *C 146.1 272.4 *L 0 *D DEL01
*I *1574:D[55] I *C 134.195 280.585 *L 0.00183 *D sram00

*CAP
1 *1281:Z 0.000550734
2 *341:2 0.00113423
3 *341:4 0.000375983
4 *341:5 5.57293e-05
5 *341:6 0.000410078
6 *341:7 9.72667e-06
7 *341:8 6.85194e-05
8 *341:9 0.000192733

*RES
1 *341:8 *341:9 0.350904
2 *341:6 *341:7 0.159213
3 *341:5 *341:9 1.7125
4 *341:4 *341:5 1.62258
5 *341:3 *341:6 1.46952
6 *341:3 *341:4 0.159213
7 *341:2 *341:8 7.94046
8 *1281:Z *341:7 1.94268
9 *1281:Z *1574:D[55] 0.0001
*END

*D_NET *342 0.00313383

*CONN
*I *1282:Z O *C 148.7 247.2 *L 0 *D DEL01
*I *1574:D[49] I *C 134.195 255.385 *L 0.00183 *D sram00

*CAP
1 *342:2 0.000103401
2 *342:3 0.000210957
3 *342:4 1.36089e-05
4 *342:5 0.000395636
5 *342:6 7.50745e-05
6 *342:7 0.00123185
7 *342:8 2.73118e-05
8 *342:9 5.74995e-05
9 *342:11 1.88908e-05
10 *342:12 0.000101165
11 *342:13 0.0002006
12 *342:14 0.000694242
13 *342:15 3.59019e-06

*RES
1 *342:2 *342:3 1.12296
2 *342:12 *342:14 2.51747
3 *342:12 *342:13 0.15918
4 *342:5 *342:6 0.0925583
5 *342:4 *342:5 2.14401
6 *342:6 *342:7 5.43053007
7 *342:10 *342:11 0.520299
8 *342:8 *342:9 0.268477
9 *342:9 *342:10 0.0835262
10 *342:8 *342:13 1.12222
11 *342:7 *342:15 1.4105
12 *342:14 *342:15 0.15918
13 *342:3 *342:4 0.0925583
14 *1282:Z *342:2 0.224974
15 *1282:Z *1574:D[49] 8.28633e-05
*END

*D_NET *343 0.00471299

*CONN
*I *1283:Z O *C 151.9 110.4 *L 0 *D DEL01
*I *1574:D[26] I *C 134.265 118.475 *L 0.00183 *D sram00

*CAP
1 *343:3 0.000623543
2 *343:4 5.7675e-05
3 *343:5 0.000493662
4 *343:6 0.00104876008
5 *343:7 2.92856e-06
6 *343:8 9.11214e-05
7 *343:9 0.000916943
8 *343:10 8.04313e-05
9 *343:11 0.000223227
10 *343:12 4.98815e-05
11 *343:13 0.000415551
12 *343:14 6.08756e-05
13 *343:15 0.000127576
14 *343:16 1.0322e-05
15 *343:17 8.51362e-05
16 *343:18 4.1928e-06
17 *343:19 0.000335568
18 *343:20 3.05658e-05
19 *343:21 5.50185e-05

*RES
1 *343:2 *343:3 0.159222
2 *343:18 *343:19 1.5442
3 *343:12 *343:13 1.72268
4 *343:6 *343:16 2.6174
5 *343:6 *343:7 1.46593
6 *343:4 *343:17 0.619361
7 *343:10 *343:11 1.04059
8 *343:8 *343:9 4.20757008
9 *343:9 *343:10 0.0925799
10 *343:13 *343:14 0.0925799
11 *343:19 *343:20 0.0925799
12 *343:17 *343:18 0.0925799
13 *343:5 *343:7 0.159222
14 *343:2 *343:5 1.69032
15 *343:15 *343:16 0.0925799
16 *343:11 *343:12 0.0925799
17 *343:20 *343:21 0.394396
18 *343:14 *343:15 0.411024
19 *343:3 *343:4 2.30859
20 *1283:Z *343:8 0.225029
21 *1283:Z *1574:D[26] 0.000128405
*END

*D_NET *344 0.00457071

*CONN
*I *1085:Z O *C 151.9 168 *L 0 *D DEL015
*I *1574:A[3] I *C 134.265 155 *L 0.00555 *D sram00

*CAP
1 *344:2 8.15051e-05
2 *344:3 0.00140486
3 *344:4 0.000161636
4 *344:5 0.00061342
5 *344:6 0.00230931

*RES
1 *344:3 *344:6 8.74724
2 *344:3 *344:4 1.24539
3 *344:5 *344:6 11.8425
4 *1085:Z *344:2 0.225
5 *344:2 *344:5 0.225
6 *1085:Z *1574:A[3] 0.0001
*END

*D_NET *345 0.00417505

*CONN
*I *1285:Z O *C 147.3 171.6 *L 0 *D DEL01
*I *1574:D[32] I *C 134.195 184.255 *L 0.00183 *D sram00

*CAP
1 *1285:Z 0.000361801
2 *345:2 0.000410786
3 *345:4 0.00117548
4 *345:6 0.00017612
5 *345:7 0.00107954
6 *345:8 4.91106e-05
7 *345:9 0.000922214

*RES
1 *345:2 *345:5 0.159224
2 *345:8 *345:9 1.94703
3 *345:6 *345:7 6.79884
4 *345:4 *345:5 4.80679
5 *345:3 *345:4 0.159224
6 *345:2 *345:8 1.57071
7 *1285:Z *345:3 1.18072
8 *345:6 *345:9 1.3441
9 *1285:Z *1574:D[32] 0.0001
*END

*D_NET *346 0.00271345

*CONN
*I *1286:Z O *C 148.5 92.4 *L 0 *D DEL01
*I *1574:D[20] I *C 134.265 93.275 *L 0.00183 *D sram00

*CAP
1 *346:2 8.41024e-05
2 *346:3 0.00171649
3 *346:4 3.93141e-05
4 *346:5 0.000873528

*RES
1 *346:2 *346:3 6.94834
2 *346:4 *346:5 4.06429
3 *346:3 *346:4 0.045384
4 *1286:Z *346:2 0.225
5 *1286:Z *1574:D[20] 0.0001
*END

*D_NET *347 0.00236173

*CONN
*I *1287:Z O *C 146.1 204 *L 0 *D DEL01
*I *1574:D[38] I *C 134.195 209.455 *L 0.00183 *D sram00

*CAP
1 *1287:Z 0.000134364
2 *347:2 9.24545e-05
3 *347:3 0.000266874
4 *347:4 1.0645e-05
5 *347:6 7.08371e-05
6 *347:7 0.000167921
7 *347:8 1.60533e-06
8 *347:10 5.00457e-05
9 *347:11 6.92162e-05
10 *347:12 0.000146864
11 *347:13 1.79236e-06
12 *347:15 2.26616e-05
13 *347:16 0.00102141
14 *347:17 6.91382e-05
15 *347:18 0.000210859
16 *347:19 2.50462e-05

*RES
1 *347:6 *347:9 0.348535
2 *347:7 *347:8 0.159219
3 *347:2 *347:3 0.841447
4 *347:18 *347:19 0.0925963
5 *347:12 *347:19 0.619397
6 *347:12 *347:13 0.362057
7 *347:5 *347:6 0.159219
8 *1287:Z *347:4 0.383248
9 *347:9 *347:10 0.159219
10 *347:10 *347:14 0.223946
11 *347:11 *347:13 0.159219
12 *347:17 *347:18 1.79594
13 *347:5 *347:7 1.09994
14 *347:2 *347:16 5.40372992
15 *347:16 *347:17 0.0925963
16 *347:8 *347:11 0.344412
17 *347:14 *347:15 0.268471
18 *347:3 *347:4 0.159219
19 *1287:Z *1574:D[38] 8.24544e-05
*END

*D_NET *348 0.00186267

*CONN
*I *1058:I I *C 137.7 258.4 *L 0.00072 *D BUFFD1
*I *1288:Z O *C 142.7 250.8 *L 0 *D DEL02

*CAP
1 *1288:Z 0.000137158
2 *348:2 0.000311031
3 *348:3 4.11369e-05
4 *348:4 0.00137336

*RES
1 *348:2 *348:4 3.62441993
2 *1058:I *348:2 1.2387
3 *1288:Z *348:3 0.450011
4 *348:3 *348:4 3.51005
*END

*D_NET *349 0.00223046

*CONN
*I *1289:Z O *C 147.1 181.6 *L 0 *D DEL01
*I *1574:D[33] I *C 134.195 188.185 *L 0.00183 *D sram00

*CAP
1 *349:2 8.04409e-05
2 *349:3 0.000180823
3 *349:5 0.000147938
4 *349:6 0.000431172
5 *349:7 0.00021134
6 *349:8 7.12181e-07
7 *349:10 1.11812e-05
8 *349:11 0.00116682008

*RES
1 *349:9 *349:10 0.268531
2 *349:9 *349:11 1.45834
3 *349:7 *349:8 0.159232
4 *349:4 *349:5 0.159232
5 *349:6 *349:11 8.03333
6 *349:5 *349:6 0.891004
7 *349:4 *349:7 1.1002
8 *349:3 *349:8 1.11242
9 *1289:Z *349:2 0.225
10 *349:2 *349:3 0.225
11 *1289:Z *1574:D[33] 0.0001
*END

*D_NET *350 0.00277921

*CONN
*I *1290:Z O *C 145.3 199.6 *L 0 *D DEL01
*I *1574:D[37] I *C 134.195 204.985 *L 0.00183 *D sram00

*CAP
1 *1290:Z 0.000473566
2 *350:2 5.48606e-05
3 *350:3 0.000770198984
4 *350:4 4.75035e-05
5 *350:5 0.000356406
6 *350:6 7.75899e-05
7 *350:7 0.000593935
8 *350:8 4.7339e-05
9 *350:9 0.000357816

*RES
1 *350:2 *350:5 2.13023
2 *350:2 *350:3 2.7683
3 *1290:Z *350:4 1.73087
4 *350:8 *350:9 2.22575
5 *350:7 *350:8 0.0926083
6 *350:6 *350:7 3.18091011
7 *350:3 *350:4 0.285105
8 *350:5 *350:6 0.0926083
9 *1290:Z *1574:D[37] 9.70737e-05
*END

*D_NET *351 0.00180411

*CONN
*I *1291:Z O *C 147.9 268.8 *L 0 *D DEL01
*I *1574:D[53] I *C 134.195 272.185 *L 0.00183 *D sram00

*CAP
1 *1291:Z 0.000124325
2 *351:3 0.000115468
3 *351:4 0.000223957
4 *351:5 8.43305e-05
5 *351:6 5.77252e-06
6 *351:7 0.000120999
7 *351:8 0.00112925992

*RES
1 *351:6 *351:8 1.48404
2 *351:4 *351:6 1.86175
3 *351:2 *351:3 0.159213
4 *351:7 *351:8 7.02574
5 *351:3 *351:5 0.380258
6 *1291:Z *351:2 0.33425
7 *351:5 *351:7 0.225
8 *1291:Z *1574:D[53] 0.0001
*END

*D_NET *352 0.00289196

*CONN
*I *1292:Z O *C 143.7 113.2 *L 0 *D DEL01
*I *1574:D[23] I *C 134.265 105.605 *L 0.00183 *D sram00

*CAP
1 *352:2 0.00032897
2 *352:3 0.000291
3 *352:4 3.07882e-05
4 *352:5 0.000127849
5 *352:6 5.43785e-06
6 *352:7 0.000260654
7 *352:8 4.43946e-05
8 *352:9 6.3581e-05
9 *352:10 5.68172e-05
10 *352:11 0.000297464
11 *352:12 0.000181564
12 *352:13 4.27767e-06
13 *352:14 5.85062e-05
14 *352:15 0.000350864
15 *352:16 0.000264332
16 *352:18 8.23175e-06
17 *352:19 0.000517226992

*RES
1 *352:7 *352:8 0.0925903
2 *352:2 *352:3 1.37482
3 *352:18 *352:19 2.74569988
4 *352:12 *352:13 0.26847
5 *352:5 *352:6 0.0925903
6 *352:4 *352:5 0.411042
7 *352:6 *352:7 1.29237
8 *352:10 *352:11 0.921671
9 *352:8 *352:9 0.411042
10 *352:9 *352:10 0.0925903
11 *352:13 *352:14 0.0894481
12 *352:17 *352:19 0.159247
13 *1292:Z *352:2 0.854135
14 *352:11 *352:16 0.789489
15 *352:16 *352:18 0.159331
16 *352:14 *352:15 1.77937
17 *352:12 *352:17 0.712317
18 *352:3 *352:4 0.0925903
19 *1292:Z *1574:D[23] 8.37921e-05
*END

*D_NET *353 0.00236837

*CONN
*I *1293:Z O *C 144.7 92.4 *L 0 *D DEL01
*I *1574:D[21] I *C 134.265 97.205 *L 0.00183 *D sram00

*CAP
1 *1293:Z 0.00062312
2 *353:2 6.42551e-05
3 *353:3 0.000638582
4 *353:4 3.01659e-05
5 *353:5 0.00101224992

*RES
1 *353:2 *353:3 2.75654
2 *353:4 *353:5 4.38338995
3 *353:3 *353:4 0.0925692
4 *1293:Z *353:2 2.49181
5 *1293:Z *1574:D[21] 6.68852e-05
*END

*D_NET *354 0.00219794

*CONN
*I *1294:Z O *C 143.9 258 *L 0 *D DEL01
*I *1574:D[52] I *C 134.195 268.255 *L 0.00183 *D sram00

*CAP
1 *1294:Z 0.000213714
2 *354:2 4.56565e-05
3 *354:4 5.15067e-05
4 *354:5 0.000743008984
5 *354:6 0.000724551
6 *354:7 2.42738e-05
7 *354:9 2.26638e-05
8 *354:10 3.60649e-05
9 *354:11 4.29581e-05
10 *354:12 0.00027505
11 *354:13 1.84916e-05

*RES
1 *354:4 *354:8 0.21849
2 *354:2 *354:10 0.61939
3 *354:12 *354:13 0.0926078
4 *354:6 *354:13 4.27062
5 *354:6 *354:7 0.36105
6 *354:3 *354:5 5.25467014
7 *354:10 *354:11 0.0926078
8 *354:8 *354:9 0.268442
9 *354:5 *354:7 0.28512
10 *1294:Z *354:2 0.544662
11 *354:11 *354:12 1.52334
12 *354:3 *354:4 0.28512
13 *1294:Z *1574:D[52] 8.01799e-05
*END

*D_NET *355 0.00220126

*CONN
*I *1295:Z O *C 151.3 239.2 *L 0 *D DEL01
*I *1574:D[46] I *C 134.195 243.055 *L 0.00183 *D sram00

*CAP
1 *355:2 3.00287e-05
2 *355:3 7.00078e-05
3 *355:4 0.000411746
4 *355:6 2.5942e-05
5 *355:7 0.00166351

*RES
1 *355:3 *355:4 0.854714
2 *355:5 *355:7 1.97108
3 *355:5 *355:6 0.394382
4 *355:4 *355:7 10.5498
5 *1295:Z *355:2 0.225
6 *355:2 *355:3 0.225
7 *1295:Z *1574:D[46] 0.0001
*END

*D_NET *356 0.00280163

*CONN
*I *1296:Z O *C 145.7 106 *L 0 *D DEL01
*I *1574:D[22] I *C 134.265 101.675 *L 0.00183 *D sram00

*CAP
1 *356:2 0.000811232
2 *356:3 0.000246168
3 *356:4 4.47287e-05
4 *356:5 0.000522806
5 *356:6 0.000177283
6 *356:7 0.000999418984

*RES
1 *356:2 *356:3 1.2485
2 *356:6 *356:7 4.67524004
3 *356:4 *356:5 2.11932
4 *356:3 *356:4 0.0925974
5 *1296:Z *356:2 2.30345
6 *356:5 *356:6 0.297196
7 *1296:Z *1574:D[22] 7.13385e-05
*END

*D_NET *357 0.00223846

*CONN
*I *1297:Z O *C 150.9 225.6 *L 0 *D DEL01
*I *1574:D[41] I *C 134.195 221.785 *L 0.00183 *D sram00

*CAP
1 *357:2 7.10246e-05
2 *357:3 0.000227766
3 *357:4 0.000527652
4 *357:5 0.000519584
5 *357:6 0.000844600938
6 *357:7 4.78395e-05

*RES
1 *357:2 *357:3 0.980493
2 *357:6 *357:7 0.0925776
3 *357:3 *357:5 2.66402
4 *357:5 *357:6 5.90766001
5 *357:4 *357:7 4.27083
6 *1297:Z *357:2 0.224999
7 *1297:Z *1574:D[41] 9.01437e-05
*END

*D_NET *358 0.0024617

*CONN
*I *1298:Z O *C 148.7 221.2 *L 0 *D DEL01
*I *1574:D[40] I *C 134.195 217.855 *L 0.00183 *D sram00

*CAP
1 *358:2 0.000186494
2 *358:3 0.000122183
3 *358:4 2.73543e-06
4 *358:5 0.00013113
5 *358:6 0.000151816
6 *358:7 0.00186736

*RES
1 *358:3 *358:7 0.837882
2 *358:4 *358:5 0.745471
3 *358:3 *358:4 0.159214
4 *358:2 *358:7 8.65215
5 *1298:Z *358:2 0.350907
6 *358:5 *358:6 1.35814
7 *1298:Z *1574:D[40] 0.0001
*END

*D_NET *359 0.0023433

*CONN
*I *1299:Z O *C 145.1 207.6 *L 0 *D DEL01
*I *1574:D[39] I *C 134.195 213.385 *L 0.00183 *D sram00

*CAP
1 *1299:Z 0.000854638
2 *359:2 5.3777e-05
3 *359:3 0.00046684
4 *359:4 3.04722e-05
5 *359:5 0.000937556953

*RES
1 *359:2 *359:3 1.92116
2 *359:4 *359:5 5.3046298
3 *359:3 *359:4 0.336153
4 *1299:Z *359:2 3.22587
5 *1299:Z *1574:D[39] 8.09422e-05
*END

*D_NET *360 0.00304254

*CONN
*I *1300:Z O *C 144.5 135.6 *L 0 *D DEL01
*I *1574:D[29] I *C 134.265 130.805 *L 0.00183 *D sram00

*CAP
1 *360:2 2.92424e-06
2 *360:3 0.00101397
3 *360:4 8.8207e-05
4 *360:5 0.000740019
5 *360:6 2.48019e-05
6 *360:7 5.44157e-05
7 *360:8 3.588e-05
8 *360:9 9.67321e-05
9 *360:10 0.000269742
10 *360:11 7.0089e-06
11 *360:12 7.33072e-05
12 *360:13 7.99603e-05
13 *360:14 0.00055556

*RES
1 *360:7 *360:8 0.269175
2 *360:12 *360:13 0.155539
3 *360:5 *360:6 0.285195
4 *360:6 *360:7 0.215495
5 *360:10 *360:11 0.093192
6 *360:2 *360:4 0.285195
7 *360:9 *360:10 0.993609
8 *360:13 *360:14 1.97879
9 *360:3 *360:14 3.91753006
10 *360:2 *360:5 3.02142
11 *360:11 *360:12 0.336005
12 *360:3 *360:4 0.361231
13 *1300:Z *360:9 0.225
14 *1300:Z *1574:D[29] 0.000119554
*END

*D_NET *361 0.00208013

*CONN
*I *1301:Z O *C 139.9 131.2 *L 0 *D DEL01
*I *1574:D[28] I *C 134.265 126.875 *L 0.00183 *D sram00

*CAP
1 *361:2 0.00018064
2 *361:3 3.43753e-05
3 *361:4 5.9005e-05
4 *361:5 0.000162861
5 *361:6 4.77324e-05
6 *361:7 0.00036347
7 *361:8 5.88855e-05
8 *361:9 0.000212877
9 *361:10 9.01406e-05
10 *361:11 0.000870137969

*RES
1 *361:10 *361:11 2.78381991
2 *361:8 *361:9 1.14983
3 *361:7 *361:8 0.0926014
4 *361:6 *361:7 1.72859
5 *361:4 *361:5 0.662865
6 *361:3 *361:4 0.0930687
7 *361:5 *361:6 0.0926014
8 *361:3 *361:11 0.552848
9 *1301:Z *361:2 0.225004
10 *361:2 *361:10 0.225004
11 *1301:Z *1574:D[28] 8.49554e-05
*END

*D_NET *362 0.00166479

*CONN
*I *1302:Z O *C 145.7 239.2 *L 0 *D DEL01
*I *1574:D[45] I *C 134.195 238.585 *L 0.00183 *D sram00

*CAP
1 *362:2 0.000136473
2 *362:3 0.00152832

*RES
1 *362:2 *362:3 7.48743
2 *1302:Z *362:2 0.225
3 *1302:Z *1574:D[45] 0.0001
*END

*D_NET *363 0.00157678

*CONN
*I *1303:Z O *C 144.5 224.8 *L 0 *D DEL01
*I *1574:D[42] I *C 134.195 226.255 *L 0.00183 *D sram00

*CAP
1 *363:3 2.26557e-05
2 *363:4 9.70706e-05
3 *363:5 0.00145706

*RES
1 *363:2 *363:5 1.0897
2 *363:2 *363:3 0.268468
3 *363:4 *363:5 6.68635
4 *1303:Z *363:4 0.225
5 *1303:Z *1574:D[42] 0.0001
*END

*D_NET *364 0.00164102

*CONN
*I *1304:Z O *C 148.1 232.8 *L 0 *D DEL01
*I *1574:D[44] I *C 134.195 234.655 *L 0.00183 *D sram00

*CAP
1 *364:2 9.71186e-05
2 *364:3 0.00024558
3 *364:4 0.000434043
4 *364:5 0.000127115
5 *364:6 0.000565698047
6 *364:7 0.000171457

*RES
1 *364:6 *364:7 0.0925708
2 *364:3 *364:5 0.70452
3 *364:5 *364:6 5.02627993
4 *364:4 *364:7 4.1449
5 *1304:Z *364:2 0.225023
6 *364:2 *364:3 0.225023
7 *1304:Z *1574:D[44] 7.66949e-05
*END

*D_NET *365 0.00124902

*CONN
*I *1305:Z O *C 144.3 247.2 *L 0 *D DEL01
*I *1574:D[47] I *C 134.195 246.985 *L 0.00183 *D sram00

*CAP
1 *1305:Z 6.68994e-06
2 *365:2 0.000148997
3 *365:3 0.00109333

*RES
1 *365:2 *365:3 6.52020979
2 *1305:Z *365:2 0.384829
3 *1305:Z *1574:D[47] 9.94905e-05
*END

*D_NET *366 0.00145661

*CONN
*I *1306:Z O *C 147.9 229.2 *L 0 *D DEL01
*I *1574:D[43] I *C 134.195 230.185 *L 0.00183 *D sram00

*CAP
1 *366:2 0.000122292
2 *366:3 6.97434e-05
3 *366:4 2.61924e-05
4 *366:5 4.71863e-05
5 *366:6 0.0011912

*RES
1 *366:5 *366:6 8.78696
2 *1306:Z *366:2 0.225
3 *366:2 *366:3 0.225
4 *366:3 *366:5 0.225
5 *366:4 *366:6 0.225
6 *1306:Z *1574:D[43] 0.0001
*END

*D_NET *367 0.00300285

*CONN
*I *1307:Z O *C 144.7 138.4 *L 0 *D DEL01
*I *1574:D[30] I *C 134.265 135.275 *L 0.00183 *D sram00

*CAP
1 *367:2 0.000283795
2 *367:3 8.20409e-05
3 *367:4 0.000514447
4 *367:5 5.56171e-06
5 *367:6 0.00015734
6 *367:7 0.000585988
7 *367:8 3.92157e-05
8 *367:9 7.1712e-05
9 *367:10 5.80915e-05
10 *367:11 0.000259369
11 *367:12 4.13609e-05
12 *367:13 0.00074385
13 *367:14 5.80347e-05
14 *367:15 6.77393e-05
15 *367:16 3.43123e-05

*RES
1 *367:7 *367:8 0.0925962
2 *367:2 *367:3 0.411704
3 *367:12 *367:13 3.04943991
4 *367:5 *367:6 0.346282
5 *367:4 *367:5 1.40639
6 *367:6 *367:7 2.2721
7 *367:10 *367:11 1.16648
8 *367:8 *367:9 0.411053
9 *367:9 *367:10 0.0925962
10 *367:13 *367:14 0.0925962
11 *1307:Z *367:2 0.91312
12 *367:15 *367:16 0.268715
13 *367:11 *367:12 0.0925962
14 *367:14 *367:15 0.28514
15 *367:3 *367:4 0.36857
16 *1307:Z *1574:D[30] 9.30615e-05
*END

*D_NET *368 0.00247444

*CONN
*I *1308:Z O *C 144.7 142 *L 0 *D DEL01
*I *1574:D[31] I *C 134.265 139.205 *L 0.00183 *D sram00

*CAP
1 *368:2 0.000503222
2 *368:3 0.00197123

*RES
1 *368:2 *368:3 8.01592
2 *1308:Z *368:2 1.4577
3 *1308:Z *1574:D[31] 0.0001
*END

*D_NET *369 0.00591162

*CONN
*I *1089:Z O *C 146.5 167.2 *L 0 *D DEL015
*I *1574:A[4] I *C 134.265 153.41 *L 0.00555 *D sram00

*CAP
1 *369:2 0.000168098
2 *369:3 0.000262924
3 *369:4 0.00126464
4 *369:5 0.000204994
5 *369:7 0.000361532
6 *369:8 0.00121406
7 *369:9 9.06967e-05
8 *369:5 *616:4 0.000343835
9 *369:5 *249:3 0.000439048008
10 *369:5 *865:3 0.000347766992
11 *369:2 *335:4 0.001214

*RES
1 *369:2 *369:9 0.657678
2 *369:2 *369:4 8.4804
3 *369:3 *369:6 0.450784
4 *369:5 *369:8 2.95067
5 *369:5 *369:7 2.11357
6 *369:4 *369:8 6.4398
7 *1089:Z *369:6 0.225
8 *369:6 *369:9 0.225
9 *1089:Z *1574:A[4] 0.0001
*END

*D_NET *370 0.00165594

*CONN
*I *1310:Z O *C 143.3 192.4 *L 0 *D DEL01
*I *1574:D[35] I *C 134.195 196.585 *L 0.00183 *D sram00

*CAP
1 *370:3 0.000128143
2 *370:4 0.000163698
3 *370:5 1.59923e-06
4 *370:8 0.000143819
5 *370:9 0.00121867

*RES
1 *370:2 *370:4 1.11301
2 *370:2 *370:3 0.159246
3 *370:8 *370:9 5.59888983
4 *370:6 *370:7 0.394441
5 *370:5 *370:9 1.13762
6 *370:4 *370:5 0.159246
7 *370:3 *370:6 0.58692
8 *1310:Z *370:8 0.225029
9 *1310:Z *1574:D[35] 8.54323e-05
*END

*D_NET *371 0.00194772

*CONN
*I *1311:Z O *C 145.3 189.6 *L 0 *D DEL01
*I *1574:D[34] I *C 134.195 192.655 *L 0.00183 *D sram00

*CAP
1 *1311:Z 0.000276164
2 *371:2 5.56197e-05
3 *371:3 0.000376529
4 *371:5 2.75992e-05
5 *371:6 5.0752e-05
6 *371:7 9.31571e-05
7 *371:8 0.00102245
8 *371:9 4.5463e-05

*RES
1 *371:8 *371:9 0.0926193
2 *371:7 *371:8 5.01230001
3 *371:6 *371:7 0.0926193
4 *371:4 *371:5 0.268527
5 *371:3 *371:9 1.62661
6 *371:3 *371:4 0.803822
7 *371:2 *371:6 0.619348
8 *1311:Z *371:2 0.864395
9 *1311:Z *1574:D[34] 7.64816e-05
*END

*D_NET *372 0.00264003

*CONN
*I *1312:Z O *C 140.3 116.8 *L 0 *D DEL01
*I *1574:D[27] I *C 134.265 122.405 *L 0.00183 *D sram00

*CAP
1 *1312:Z 0.000240986
2 *372:2 0.00013857
3 *372:4 4.60888e-05
4 *372:5 0.00221439

*RES
1 *372:2 *372:5 4.41470003
2 *372:3 *372:5 4.30867
3 *372:3 *372:4 0.397576
4 *1312:Z *372:2 0.644394
5 *1312:Z *1574:D[27] 6.7363e-05
*END

*D_NET *373 0.0012625

*CONN
*I *1313:Z O *C 144.5 200.4 *L 0 *D DEL01
*I *1574:D[36] I *C 134.195 201.055 *L 0.00183 *D sram00

*CAP
1 *373:2 5.13571e-05
2 *373:3 0.000149675
3 *373:4 0.00070797
4 *373:5 0.000219624
5 *373:6 0.000133881

*RES
1 *373:4 *373:6 6.2853899
2 *373:2 *373:3 0.384205
3 *373:3 *373:5 0.788167
4 *373:5 *373:6 0.350925
5 *1313:Z *373:2 0.224999
6 *1313:Z *1574:D[36] 9.59074e-05
*END

*D_NET *374 0.0157884

*CONN
*I *1188:I I *C 147.9 156 *L 0.00103 *D DEL01
*I *1314:Z O *C 148.5 95.2 *L 0 *D CKBD0

*CAP
1 *1314:Z 0.000770157
2 *374:2 0.000239286
3 *374:3 0.000869893
4 *374:4 0.000451309
5 *374:5 0.00135181
6 *374:6 0.0008299
7 *374:7 0.00146093
8 *374:8 8.74084e-05
9 *374:9 1.85027e-06
10 *374:10 0.000742001
11 *374:8 *1768:ZN 0.00134028
12 *374:2 *863:20 0.000959545
13 *374:3 *979:I 0.000997879063
14 *374:4 *537:12 0.00242284984
15 *374:5 *848:4 0.00127078
16 *374:4 *308:8 0.00199257

*RES
1 *374:9 *374:10 0.46486
2 *374:4 *374:5 13.1364
3 *374:8 *374:4 0.503508
4 *374:3 *374:9 4.1519
5 *1188:I *374:2 0.953671
6 *1314:Z *374:6 2.95899
7 *374:8 *374:10 17.8367004
8 *374:2 *374:5 12.1022
9 *374:7 *374:3 4.66248
10 *374:6 *374:7 3.98833
*END

*D_NET *375 0.00617901

*CONN
*I *1228:Z O *C 147.3 153.6 *L 0 *D DEL015
*I *1394:I I *C 142.7 130.8 *L 0.00105 *D DEL1

*CAP
1 *1394:I 0.00026074
2 *375:2 3.55582e-05
3 *375:3 0.00128603992
4 *375:4 0.00039163
5 *375:5 0.000819486
6 *375:7 0.000367003
7 *375:4 *851:4 0.00030113
8 *375:4 *883:3 0.00090725
9 *375:4 *908:4 0.000361548008
10 *375:2 *626:30 0.00031233502
11 *375:3 *153:4 0.000755305
12 *1394:I *869:4 0.000380991016

*RES
1 *375:4 *375:3 9.70003986
2 *1394:I *375:5 1.93939
3 *375:6 *375:7 1.98335
4 *375:2 *375:5 6.70696
5 *375:3 *375:2 0.41295
6 *375:4 *375:7 2.45476
7 *1228:Z *375:6 0.224977
*END

*D_NET *376 0.00218644

*CONN
*I *1497:Z O *C 150.7 142 *L 0 *D BUFFD8
*I *1316:I I *C 149.1 148.8 *L 0.00287 *D BUFFD8

*CAP
1 *376:2 7.10475e-05
2 *376:3 0.000270679
3 *376:4 0.00184473

*RES
1 *376:3 *376:4 6.28337002
2 *1316:I *376:3 0.767301
3 *376:2 *376:4 1.20872
4 *1497:Z *376:2 0.225022
*END

*D_NET *377 0.000957626

*CONN
*I *1317:Z O *C 144.7 275.2 *L 0 *D DEL1
*I *1669:CDN I *C 141.5 271.2 *L 0.00163 *D DFCNQD1

*CAP
1 *1669:CDN 0.000341131992
2 *377:2 0.000308833
3 *377:3 0.000307662

*RES
1 *377:2 *377:3 2.23947001
2 *1317:Z *377:2 1.10634
3 *1669:CDN *377:3 1.45721
*END

*D_NET *378 0.00720483

*CONN
*I *1028:Z O *C 145.3 135.6 *L 0 *D BUFFD0
*I *1574:WEN I *C 134.195 175.12 *L 0.00612 *D sram00

*CAP
1 *378:2 8.66223e-05
2 *378:4 9.12004e-05
3 *378:5 0.00018028
4 *378:7 0.000360681
5 *378:8 0.000359742
6 *378:9 3.10828e-06
7 *378:11 8.23575e-05
8 *378:12 0.00016245
9 *378:14 0.000555226
10 *378:15 1.15657e-06
11 *378:16 0.000291167
12 *378:17 4.37569e-05
13 *378:18 0.000473808
14 *378:19 1.18067e-06
15 *378:20 9.86217e-05
16 *378:21 6.69847e-06
17 *378:22 0.000148475
18 *378:23 1.09633e-05
19 *378:24 1.68426e-05
20 *378:25 0.000380439
21 *378:26 0.000527324
22 *378:27 3.12274e-05
23 *378:28 0.00157908
24 *378:7 *165:2 0.000211835996
25 *378:7 *249:3 0.00150061

*RES
1 *378:21 *378:22 0.285257
2 *378:6 *378:8 3.9819
3 *378:4 *378:27 0.602836
4 *378:22 *378:23 0.463448
5 *378:20 *378:23 0.159252
6 *378:18 *378:19 5.13235
7 *378:24 *378:25 0.159252
8 *378:13 *378:16 2.23366
9 *378:6 *378:7 0.159252
10 *378:11 *378:24 0.349985
11 *378:10 *378:11 0.159252
12 *378:8 *378:9 0.159252
13 *378:25 *378:27 2.13526
14 *378:13 *378:14 0.159252
15 *378:26 *378:28 5.51626015
16 *378:21 *378:28 2.93556
17 *378:16 *378:19 0.159252
18 *378:5 *378:26 0.241235
19 *378:9 *378:20 0.489878
20 *378:17 *378:18 0.159252
21 *378:3 *378:26 1.88334
22 *378:7 *378:17 2.87117
23 *378:10 *378:12 1.11317
24 *378:14 *378:15 5.01022
25 *378:12 *378:15 0.159252
26 *1028:Z *378:2 0.22499
27 *378:2 *378:3 0.22499
28 *1028:Z *1574:WEN 8.41714e-05
*END

*D_NET *379 0.000529567

*CONN
*I *1254:I I *C 142.7 76.8 *L 0.000968 *D CKBD1
*I *1319:Z O *C 142.1 78.2 *L 0 *D DEL005

*CAP
1 *1254:I 0.000521826016
2 *1319:Z 7.7396e-06

*RES
1 *1254:I *1319:Z 2.20243
*END

*D_NET *380 0.00217512

*CONN
*I *1320:Z O *C 151.7 84.4 *L 0 *D DEL01
*I *1426:I I *C 142.5 80.4 *L 0.00105 *D DEL1

*CAP
1 *1426:I 0.000604845
2 *380:2 0.00015609
3 *380:3 0.00117876992
4 *380:4 0.000235412

*RES
1 *380:3 *380:4 0.0925651
2 *380:2 *380:3 5.40190983
3 *1426:I *380:4 3.23244
4 *1320:Z *380:2 0.225025
*END

*D_NET *381 0.00274004

*CONN
*I *1321:Z O *C 140.5 73.6 *L 0 *D DEL01
*I *1431:I I *C 138.7 84 *L 0.00105 *D DEL1

*CAP
1 *1431:I 0.000397588
2 *1321:Z 0.000326597
3 *381:2 0.000267229
4 *381:3 0.000525895
5 *381:4 0.00122271

*RES
1 *381:3 *381:4 2.15149
2 *381:2 *381:3 2.09595
3 *1321:Z *381:4 3.38642001
4 *1431:I *381:2 2.81187
*END

*D_NET *382 0.000375977

*CONN
*I *1322:Z O *C 145.7 13.2 *L 0 *D DEL015
*I *1469:I I *C 145.9 15.6 *L 0.00105 *D DEL1

*CAP
1 *1469:I 0.000268705996
2 *1322:Z 0.000107269

*RES
1 *1469:I *1322:Z 1.80949
*END

*D_NET *383 0.00190061

*CONN
*I *1323:Z O *C 145.3 63.6 *L 0 *D DEL015
*I *1468:I I *C 143.3 56.8 *L 0.00105 *D DEL1

*CAP
1 *1468:I 0.000445417
2 *1323:Z 5.47222e-06
3 *383:2 0.000246287
4 *383:3 0.00120343008

*RES
1 *383:2 *383:3 4.51929998
2 *1468:I *383:3 2.21986
3 *1323:Z *383:2 1.00673
*END

*D_NET *384 0.00176084

*CONN
*I *1324:Z O *C 151.5 16 *L 0 *D DEL015
*I *1470:I I *C 146.1 20.8 *L 0.00105 *D DEL1

*CAP
1 *1470:I 0.00127942
2 *1324:Z 0.000241652
3 *384:2 0.000239758

*RES
1 *1470:I *384:2 5.46365023
2 *1324:Z *384:2 2.70015
*END

*D_NET *385 0.00225441

*CONN
*I *1325:Z O *C 139.7 9.6 *L 0 *D DEL015
*I *1472:I I *C 137.5 20.8 *L 0.00105 *D DEL1

*CAP
1 *1325:Z 9.31343e-06
2 *385:2 0.000754819
3 *385:3 7.74179e-05
4 *385:5 0.00141286

*RES
1 *385:2 *385:3 2.79189
2 *385:4 *385:5 4.61065006
3 *385:3 *385:5 1.35816
4 *1325:Z *385:2 0.271492
5 *1472:I *385:4 0.449977
*END

*D_NET *386 0.00222078

*CONN
*I *1326:Z O *C 143.1 16 *L 0 *D DEL015
*I *1471:I I *C 140.9 24.4 *L 0.00105 *D DEL1

*CAP
1 *1326:Z 0.000370419
2 *386:2 0.00038153
3 *386:3 0.00097613
4 *386:4 0.000492705

*RES
1 *386:2 *386:4 1.89524
2 *386:3 *386:4 1.35814
3 *1326:Z *386:2 2.69417
4 *1471:I *386:3 2.84758997
*END

*D_NET *387 0.00149333

*CONN
*I *1327:Z O *C 143.1 20.4 *L 0 *D DEL015
*I *1473:I I *C 137.5 24.4 *L 0.00105 *D DEL1

*CAP
1 *387:2 0.000576556
2 *387:3 0.000859736953
3 *387:4 5.70403e-05

*RES
1 *387:2 *387:4 2.21252
2 *387:3 *387:4 3.75035
3 *1473:I *387:3 0.450024
4 *1327:Z *387:2 0.225012
*END

*D_NET *388 0.00150734

*CONN
*I *1328:Z O *C 148.5 27.6 *L 0 *D DEL015
*I *1474:I I *C 139.7 28 *L 0.00105 *D DEL1

*CAP
1 *388:2 0.0013059
2 *388:3 0.00020144

*RES
1 *1328:Z *388:3 0.57592
2 *388:2 *388:3 5.79510021
3 *1474:I *388:2 0.450001
*END

*D_NET *389 0.0020747

*CONN
*I *1329:Z O *C 140.5 49.2 *L 0 *D DEL015
*I *1475:I I *C 142.7 55.2 *L 0.00105 *D DEL1

*CAP
1 *389:2 0.000797617969
2 *389:3 0.000705886
3 *389:4 0.000571191

*RES
1 *389:2 *389:4 1.98309
2 *1475:I *389:2 2.73913002
3 *389:3 *389:4 2.37726
4 *1329:Z *389:3 0.224987
*END

*D_NET *390 0.000524762

*CONN
*I *1330:Z O *C 148.3 174.4 *L 0 *D DEL0
*I *1613:B1 I *C 149.3 174 *L 0.000651 *D INR2D0

*CAP
1 *1613:B1 0.000133551
2 *1330:Z 0.000391214023

*RES
1 *1613:B1 *1330:Z 2.17597
*END

*D_NET *391 0.00211771

*CONN
*I *1331:Z O *C 151.5 272.4 *L 0 *D DEL0
*I *1542:I I *C 148.9 264 *L 0.00072 *D BUFFD1

*CAP
1 *1331:Z 5.69194e-05
2 *391:2 3.25412e-05
3 *391:3 0.000820661
4 *391:4 0.00120758

*RES
1 *391:2 *391:3 3.97729993
2 *1331:Z *391:2 0.654468
3 *391:3 *391:4 2.30381
4 *1542:I *391:4 3.90016
*END

*D_NET *392 0.00299834

*CONN
*I *1332:Z O *C 148.9 265.2 *L 0 *D DEL0
*I *1530:I I *C 141.9 257.2 *L 0.00373 *D CKBD12

*CAP
1 *1530:I 0.000261867
2 *392:2 0.00199807
3 *392:3 0.000738373

*RES
1 *392:2 *392:3 3.75329
2 *1332:Z *392:2 7.76021004
3 *1530:I *392:3 1.09673
*END

*D_NET *393 0.00230869

*CONN
*I *1333:Z O *C 151.5 282.4 *L 0 *D DEL0
*I *1519:I I *C 147.7 271.6 *L 0.00373 *D CKBD12

*CAP
1 *1333:Z 6.07122e-05
2 *393:2 3.40003e-05
3 *393:3 0.000532967
4 *393:4 0.000816493984
5 *393:5 0.000335144
6 *393:6 0.000529379

*RES
1 *393:4 *393:5 3.27451
2 *393:2 *393:3 3.50787997
3 *1333:Z *393:2 0.647611
4 *393:3 *393:5 2.23947
5 *1519:I *393:6 1.70304
6 *393:4 *393:6 0.225023
*END

*D_NET *394 0.0024371

*CONN
*I *1334:Z O *C 151.5 278.8 *L 0 *D DEL0
*I *1538:I I *C 147.7 268 *L 0.00373 *D CKBD12

*CAP
1 *1538:I 0.000461893
2 *394:2 0.000271928
3 *394:3 0.000630704
4 *394:4 2.85071e-05
5 *394:5 0.000673957969
6 *394:6 0.000370098

*RES
1 *394:2 *394:3 2.49045
2 *1334:Z *394:6 1.63068
3 *394:4 *394:5 2.57370996
4 *394:3 *394:4 0.285113
5 *394:2 *394:6 1.50069
6 *1538:I *394:5 2.16171
*END

*D_NET *395 0.00185502

*CONN
*I *1335:Z O *C 151.5 289.6 *L 0 *D DEL0
*I *1528:I I *C 147.7 279.6 *L 0.00373 *D CKBD12

*CAP
1 *1528:I 0.000527674023
2 *395:2 0.00049314
3 *395:3 0.000377661
4 *395:4 8.9705e-05
5 *395:5 0.00036684

*RES
1 *395:4 *395:5 2.16106
2 *395:2 *395:5 2.391
3 *395:2 *395:3 1.63677
4 *1528:I *395:3 2.65349007
5 *1335:Z *395:4 0.224998
*END

*D_NET *396 0.00202978

*CONN
*I *1336:Z O *C 151.5 294 *L 0 *D DEL0
*I *1529:I I *C 147.7 283.2 *L 0.00373 *D CKBD12

*CAP
1 *1529:I 0.000165233
2 *396:2 0.000461086
3 *396:3 0.000473777
4 *396:4 1.4569e-06
5 *396:5 0.000745922031
6 *396:6 0.000182295

*RES
1 *396:2 *396:3 2.72812
2 *396:4 *396:5 3.37219
3 *1336:Z *396:6 0.72861
4 *396:3 *396:4 0.159203
5 *396:2 *396:6 3.00295
6 *1529:I *396:5 0.821591
*END

*D_NET *397 0.00231372

*CONN
*I *1337:Z O *C 151.5 300.4 *L 0 *D DEL0
*I *1539:I I *C 147.7 286.8 *L 0.00373 *D CKBD12

*CAP
1 *397:2 0.00133283
2 *397:3 0.000490687
3 *397:4 0.000226074
4 *397:5 0.000264146

*RES
1 *397:3 *397:5 2.12827
2 *397:2 *397:4 6.2915802
3 *397:2 *397:5 1.70893
4 *1337:Z *397:4 1.45721
5 *1539:I *397:3 0.225028
*END

*D_NET *398 0.0019858

*CONN
*I *1338:Z O *C 151.5 301.2 *L 0 *D DEL0
*I *1540:I I *C 147.7 290.4 *L 0.00373 *D CKBD12

*CAP
1 *1540:I 0.000243757
2 *398:2 0.000275541
3 *398:3 0.000602883984
4 *398:4 0.000251393
5 *398:5 0.000376624
6 *398:6 0.000235606

*RES
1 *1338:Z *398:6 1.58314
2 *398:4 *398:5 1.87193
3 *398:2 *398:6 1.55121
4 *398:2 *398:3 3.11430001
5 *398:3 *398:4 1.15926
6 *1540:I *398:5 1.68222
*END

*D_NET *399 0.00221904

*CONN
*I *1339:Z O *C 145.3 250.8 *L 0 *D DEL0
*I *1531:I I *C 147.7 240 *L 0.00373 *D CKBD12

*CAP
1 *1531:I 0.000193926
2 *1339:Z 0.000517617
3 *399:2 0.000547552
4 *399:3 1.3147e-05
5 *399:4 0.000946802969

*RES
1 *399:3 *399:4 0.286142
2 *399:2 *399:3 2.35893
3 *1531:I *399:2 1.37483
4 *1339:Z *399:5 1.77885
5 *399:4 *399:5 3.42888999
*END

*D_NET *400 0.00218955

*CONN
*I *1340:Z O *C 151.5 268.8 *L 0 *D DEL0
*I *1520:I I *C 144.5 264.4 *L 0.00373 *D CKBD12

*CAP
1 *1340:Z 8.96895e-05
2 *400:2 3.89325e-05
3 *400:3 0.00206094

*RES
1 *400:2 *400:3 3.23075
2 *1340:Z *400:2 0.818016
3 *1520:I *400:3 6.47692013
*END

*D_NET *401 0.0018018

*CONN
*I *1341:Z O *C 151.5 286 *L 0 *D DEL0
*I *1541:I I *C 147.7 276 *L 0.00373 *D CKBD12

*CAP
1 *1541:I 0.000407388
2 *401:2 0.000993346953
3 *401:3 8.67464e-05
4 *401:4 0.000314321

*RES
1 *1541:I *401:2 2.13021
2 *401:3 *401:4 1.90929
3 *401:2 *401:4 4.99429989
4 *1341:Z *401:3 0.224963
*END

*D_NET *402 0.000455253

*CONN
*I *1342:Z O *C 140.5 45.6 *L 0 *D DEL0
*I *1484:I I *C 140.9 44.4 *L 0.00287 *D BUFFD8

*CAP
1 *1484:I 0.000442234023
2 *1342:Z 1.3017e-05

*RES
1 *1484:I *1342:Z 1.53394
*END

*D_NET *403 2.4441e-05

*CONN
*I *1343:Z O *C 140.3 38.4 *L 0 *D DEL0
*I *1501:I I *C 140.7 38.8 *L 0.00287 *D BUFFD8

*CAP
1 *1343:Z 2.4441001e-05

*RES
1 *1343:Z *1501:I 0.316316
*END

*D_NET *404 0.00297123

*CONN
*I *1344:Z O *C 148.7 258 *L 0 *D DEL0
*I *1534:I I *C 140.3 250 *L 0.00373 *D CKBD12

*CAP
1 *1534:I 0.000112997
2 *404:2 0.000599528
3 *404:3 0.00108010992
4 *404:4 0.000571889
5 *404:5 0.00031824
6 *404:6 0.000288491

*RES
1 *404:4 *404:6 2.88563991
2 *1344:Z *404:2 1.9874
3 *404:5 *404:6 1.191
4 *404:2 *404:3 2.53255
5 *404:3 *404:5 2.84614
6 *1534:I *404:4 0.350886
*END

*D_NET *405 0.00285849

*CONN
*I *1345:Z O *C 151.9 242.8 *L 0 *D DEL0
*I *1532:I I *C 144.7 232 *L 0.00373 *D CKBD12

*CAP
1 *1345:Z 4.39687e-05
2 *405:2 3.85467e-05
3 *405:3 0.002776

*RES
1 *405:2 *405:3 7.28235006
2 *1345:Z *405:2 0.476926
3 *1532:I *405:3 6.07159
*END

*D_NET *406 0.00275443

*CONN
*I *1346:Z O *C 148.7 257.2 *L 0 *D DEL0
*I *1521:I I *C 147.7 243.6 *L 0.00373 *D CKBD12

*CAP
1 *406:2 0.00082769
2 *406:3 0.00096836
3 *406:4 0.000958371

*RES
1 *1521:I *406:4 1.33132
2 *406:2 *406:3 3.24602
3 *1346:Z *406:3 3.59021997
4 *406:2 *406:4 2.94948
*END

*D_NET *407 0.00220911

*CONN
*I *1347:Z O *C 151.5 250 *L 0 *D DEL0
*I *1533:I I *C 149.1 236.8 *L 0.00287 *D BUFFD8

*CAP
1 *1533:I 0.000139164
2 *1347:Z 6.11383e-05
3 *407:2 3.60026e-05
4 *407:3 0.00197277

*RES
1 *407:2 *407:3 7.34937
2 *1347:Z *407:2 0.647959
3 *1533:I *407:3 3.77326
*END

*D_NET *408 0.00209994

*CONN
*I *1348:Z O *C 140.5 44.8 *L 0 *D DEL0
*I *1524:I I *C 147.7 48.4 *L 0.00373 *D CKBD12

*CAP
1 *1524:I 9.22975e-05
2 *408:2 0.00132357
3 *408:3 0.000684072

*RES
1 *1524:I *408:3 2.76049
2 *408:2 *408:3 5.24426985
3 *1348:Z *408:2 0.22502
*END

*D_NET *409 0.00200459

*CONN
*I *1349:Z O *C 151.5 235.6 *L 0 *D DEL0
*I *1535:I I *C 147.7 228.4 *L 0.00373 *D CKBD12

*CAP
1 *409:2 0.000434384
2 *409:3 0.000984552031
3 *409:4 0.000241019
4 *409:5 0.000344635

*RES
1 *409:2 *409:4 1.48403
2 *409:3 *409:4 3.43193007
3 *409:2 *409:5 1.72811
4 *1349:Z *409:5 1.58316
5 *1535:I *409:3 0.225021
*END

*D_NET *410 0.00338513

*CONN
*I *1350:Z O *C 151.5 265.2 *L 0 *D DEL0
*I *1536:I I *C 149.1 251.2 *L 0.00287 *D BUFFD8

*CAP
1 *1536:I 0.000149827
2 *410:2 0.00049226
3 *410:3 0.00218684
4 *410:4 0.000556195

*RES
1 *410:2 *410:4 2.72504
2 *410:2 *410:3 8.65631008
3 *1350:Z *410:4 1.58317
4 *1536:I *410:3 0.745223
*END

*D_NET *411 0.00419939

*CONN
*I *1351:Z O *C 144.1 236.4 *L 0 *D DEL0
*I *1522:I I *C 149.1 220.8 *L 0.00287 *D BUFFD8

*CAP
1 *1522:I 0.000409489
2 *411:2 0.00158081
3 *411:3 0.00139963
4 *411:4 2.87047e-06
5 *411:5 0.000751292
6 *411:6 5.53109e-05

*RES
1 *411:5 *411:6 3.15797
2 *411:3 *411:4 4.94309
3 *411:2 *411:6 5.99087
4 *1522:I *411:3 2.13112
5 *411:2 *411:4 0.159242
6 *1351:Z *411:5 0.224968
*END

*D_NET *412 0.00236448

*CONN
*I *1352:Z O *C 145.5 206.8 *L 0 *D DEL0
*I *1537:I I *C 149.1 199.4 *L 0.00275 *D CKBD8

*CAP
1 *1537:I 0.00115852
2 *412:2 0.000284808
3 *412:4 0.000921159

*RES
1 *412:2 *412:4 2.36539
2 *412:3 *412:4 2.18492
3 *1537:I *412:2 4.40818024
4 *1352:Z *412:3 0.224996
*END

*D_NET *413 0.00522825

*CONN
*I *1353:Z O *C 142.5 235.6 *L 0 *D DEL0
*I *1499:I I *C 149.1 215.2 *L 0.00287 *D BUFFD8

*CAP
1 *1499:I 0.000145312
2 *1353:Z 0.000363792
3 *413:2 0.000864488
4 *413:3 0.000573464
5 *413:4 0.000664085
6 *413:5 0.00104557
7 *413:6 0.000506328
8 *413:4 *79:4 0.000417163984
9 *1353:Z *470:43 0.000279668984
10 *1499:I *859:9 0.000368376992

*RES
1 *413:5 *413:6 4.0611
2 *413:3 *413:4 2.99482
3 *1353:Z *413:6 3.66142
4 *1499:I *413:2 1.48726
5 *413:3 *413:5 2.5181
6 *413:2 *413:4 6.01737022
*END

*D_NET *414 0.00170694

*CONN
*I *1354:Z O *C 151.5 232 *L 0 *D DEL0
*I *1498:I I *C 149.1 222.4 *L 0.00287 *D BUFFD8

*CAP
1 *1498:I 0.00127830992
2 *414:2 9.37642e-05
3 *414:3 0.000334875

*RES
1 *1498:I *414:3 6.05771017
2 *414:2 *414:3 1.65751
3 *1354:Z *414:2 0.224983
*END

*D_NET *415 0.00171827

*CONN
*I *1355:Z O *C 145.9 41.2 *L 0 *D DEL0
*I *1493:I I *C 143.5 49.6 *L 0.00287 *D BUFFD8

*CAP
1 *1493:I 0.000557753
2 *1355:Z 0.000910735
3 *415:2 0.000249797

*RES
1 *1355:Z *415:2 3.87662005
2 *1493:I *415:2 3.82279
*END

*D_NET *416 0.0013957

*CONN
*I *1356:Z O *C 146.1 23.2 *L 0 *D DEL0
*I *1525:I I *C 149.1 28 *L 0.00287 *D BUFFD8

*CAP
1 *1356:Z 0.000408902
2 *416:2 0.00039146
3 *416:3 0.000595338984

*RES
1 *416:2 *416:3 1.86177
2 *1525:I *416:3 2.28878999
3 *1356:Z *416:2 1.73601
*END

*D_NET *417 0.00274829

*CONN
*I *1357:Z O *C 148.7 204 *L 0 *D DEL0
*I *1514:I I *C 147.7 193.2 *L 0.00373 *D CKBD12

*CAP
1 *1357:Z 0.000138822
2 *417:2 0.0008779
3 *417:3 0.00173157

*RES
1 *1514:I *417:3 0.450042
2 *1357:Z *417:2 3.73296
3 *417:2 *417:3 5.97769022
*END

*D_NET *418 0.00146358

*CONN
*I *1358:Z O *C 151.5 206.8 *L 0 *D DEL0
*I *1507:I I *C 149.1 200.6 *L 0.00275 *D CKBD8

*CAP
1 *1507:I 0.000777086953
2 *418:2 0.000599757
3 *418:3 8.67383e-05

*RES
1 *418:2 *418:3 3.08491993
2 *1507:I *418:2 2.88171
3 *1358:Z *418:3 0.225005
*END

*D_NET *419 0.00224866

*CONN
*I *1359:Z O *C 151.5 218.4 *L 0 *D DEL0
*I *1513:I I *C 149.1 204.4 *L 0.00287 *D BUFFD8

*CAP
1 *1359:Z 0.000426571
2 *419:3 0.000491966
3 *419:4 0.00133013

*RES
1 *1359:Z *419:2 2.18566
2 *419:2 *419:4 7.78305006
3 *419:3 *419:4 2.23957
4 *1513:I *419:3 0.22505
*END

*D_NET *420 0.00372081

*CONN
*I *1360:Z O *C 143.3 225.6 *L 0 *D DEL0
*I *1500:I I *C 149.1 208 *L 0.00287 *D BUFFD8

*CAP
1 *1500:I 0.000482137
2 *420:2 0.000333646
3 *420:3 0.000333676
4 *420:4 0.000628969
5 *420:5 0.00194239

*RES
1 *1360:Z *420:5 6.87042999
2 *420:2 *420:4 2.74394
3 *420:2 *420:3 1.26986
4 *1500:I *420:4 2.43583
5 *420:3 *420:5 3.4717
*END

*D_NET *421 0.00483577

*CONN
*I *1361:Z O *C 142.7 232 *L 0 *D DEL0
*I *1523:I I *C 149.1 211.6 *L 0.00287 *D BUFFD8

*CAP
1 *1523:I 0.000973076
2 *421:2 5.67138e-05
3 *421:3 0.000369269
4 *421:4 0.000569107
5 *421:5 0.000752225
6 *421:6 0.00211539

*RES
1 *421:3 *421:4 1.52296
2 *1523:I *421:2 3.63133
3 *421:3 *421:6 4.95280981
4 *1361:Z *421:5 2.73895
5 *421:4 *421:5 2.06218
6 *421:2 *421:6 4.68679
*END

*D_NET *422 0.00117205

*CONN
*I *1362:Z O *C 151.9 20.4 *L 0 *D DEL0
*I *1509:I I *C 149.1 26.4 *L 0.00287 *D BUFFD8

*CAP
1 *1362:Z 1.01212e-05
2 *422:2 0.000557962
3 *422:3 0.000561164023
4 *422:4 4.27969e-05

*RES
1 *1362:Z *422:2 0.536045
2 *422:3 *422:4 2.27268
3 *422:2 *422:4 3.38344002
4 *1509:I *422:3 0.449983
*END

*D_NET *423 0.00221359

*CONN
*I *1363:Z O *C 145.9 196 *L 0 *D DEL0
*I *1515:I I *C 149.1 186.2 *L 0.00275 *D CKBD8

*CAP
1 *1515:I 0.000245727
2 *1363:Z 0.000658399
3 *423:2 0.00123694
4 *423:3 7.25158e-05

*RES
1 *423:2 *423:3 4.90361023
2 *1515:I *423:2 1.52781
3 *1363:Z *423:3 2.60025
*END

*D_NET *424 0.00114337

*CONN
*I *1364:Z O *C 151.9 192.4 *L 0 *D DEL0
*I *1516:I I *C 149.1 188.6 *L 0.00275 *D CKBD8

*CAP
1 *1516:I 0.000701495
2 *424:2 8.70567e-05
3 *424:3 0.00035482

*RES
1 *1516:I *424:3 2.84418011
2 *424:2 *424:3 1.79853
3 *1364:Z *424:2 0.224979
*END

*D_NET *425 0.0020104

*CONN
*I *1365:Z O *C 145.9 19.6 *L 0 *D DEL0
*I *1502:I I *C 145.9 26.4 *L 0.00287 *D BUFFD8

*CAP
1 *1502:I 1.20958e-05
2 *1365:Z 0.000133139
3 *425:2 0.00186517

*RES
1 *1502:I *425:2 6.80639982
2 *1365:Z *425:2 0.450014
*END

*D_NET *426 0.00441155

*CONN
*I *1366:Z O *C 140.1 85.2 *L 0 *D DEL0
*I *1506:I I *C 143.9 98.4 *L 0.00287 *D BUFFD8

*CAP
1 *1366:Z 0.000283313
2 *426:2 0.000672825
3 *426:3 0.00247856
4 *426:4 0.000976863

*RES
1 *1366:Z *426:3 1.84152
2 *426:2 *426:4 3.67441
3 *1506:I *426:2 2.14326
4 *426:3 *426:4 8.07153988
*END

*D_NET *427 0.00161739

*CONN
*I *1367:Z O *C 148.7 178 *L 0 *D DEL0
*I *1517:I I *C 149.1 170.4 *L 0.00287 *D BUFFD8

*CAP
1 *427:2 0.000476292
2 *427:3 0.000631053984
3 *427:4 0.000510043

*RES
1 *427:3 *427:4 1.72896
2 *1367:Z *427:3 2.57907009
3 *427:2 *427:4 1.8713
4 *1517:I *427:2 0.224984
*END

*D_NET *428 0.00115256

*CONN
*I *1368:Z O *C 151.5 182.4 *L 0 *D DEL0
*I *1508:I I *C 149.1 177.6 *L 0.00287 *D BUFFD8

*CAP
1 *1508:I 0.000818461016
2 *428:2 6.00967e-05
3 *428:3 0.000274007

*RES
1 *1508:I *428:3 3.85645008
2 *428:2 *428:3 1.86191
3 *1368:Z *428:2 0.225022
*END

*D_NET *429 0.00117489

*CONN
*I *1369:Z O *C 151.5 185.2 *L 0 *D DEL0
*I *1518:I I *C 149.1 181.2 *L 0.00287 *D BUFFD8

*CAP
1 *1518:I 0.000799697969
2 *429:2 0.000375194

*RES
1 *1518:I *429:2 3.24102998
2 *1369:Z *429:2 1.6308
*END

*D_NET *430 0.00323668

*CONN
*I *1370:Z O *C 146.1 31.2 *L 0 *D DEL0
*I *1492:I I *C 143.3 46 *L 0.00287 *D BUFFD8

*CAP
1 *1370:Z 0.000108344
2 *430:2 0.000996251
3 *430:3 2.40475e-06
4 *430:4 0.00212966984

*RES
1 *430:4 *430:5 2.53217
2 *430:2 *430:3 0.159254
3 *430:3 *430:4 5.91996002
4 *1492:I *430:2 3.79311
5 *1370:Z *430:5 0.450031
*END

*D_NET *431 0.00110413

*CONN
*I *1371:Z O *C 146.1 59.2 *L 0 *D DEL0
*I *1503:I I *C 149.1 60.4 *L 0.00287 *D BUFFD8

*CAP
1 *1503:I 0.000279174
2 *1371:Z 7.46364e-05
3 *431:2 0.000750313984

*RES
1 *1371:Z *431:2 0.384858
2 *1503:I *431:2 3.82848001
*END

*D_NET *432 0.000842607

*CONN
*I *1372:Z O *C 148.7 60 *L 0 *D DEL0
*I *1511:I I *C 149.1 64 *L 0.00287 *D BUFFD8

*CAP
1 *1511:I 7.13318e-05
2 *1372:Z 0.00077128

*RES
1 *1372:Z *1511:I 3.11114
*END

*D_NET *433 0.0010447

*CONN
*I *1373:Z O *C 146.5 52.8 *L 0 *D DEL0
*I *1510:I I *C 149.1 55.2 *L 0.00287 *D BUFFD8

*CAP
1 *1510:I 0.000108064
2 *433:2 0.000936642969

*RES
1 *1510:I *433:2 1.18186
2 *1373:Z *433:2 2.56311011
*END

*D_NET *434 0.00489681

*CONN
*I *1131:I I *C 145.3 87.6 *L 0.00072 *D BUFFD1
*I *1374:Z O *C 148.3 66.4 *L 0 *D DEL0

*CAP
1 *1131:I 1.21106e-05
2 *1374:Z 0.00075433
3 *434:2 5.24479e-05
4 *434:3 0.000180595
5 *434:4 0.0018465
6 *434:5 0.00205082016

*RES
1 *1374:Z *434:2 2.80242
2 *434:3 *434:5 6.12121
3 *434:3 *434:4 0.842534
4 *1131:I *434:4 6.69045019
5 *434:2 *434:5 2.04033
*END

*D_NET *435 0.00271387

*CONN
*I *1375:Z O *C 140.3 80.8 *L 0 *D DEL0
*I *1527:I I *C 149.1 85.6 *L 0.00287 *D BUFFD8

*CAP
1 *435:2 0.000377944
2 *435:3 0.000920256
3 *435:4 0.00141567

*RES
1 *435:2 *435:4 5.86568022
2 *435:3 *435:4 3.17951
3 *1527:I *435:2 0.864422
4 *1375:Z *435:3 0.225011
*END

*D_NET *436 0.00207719

*CONN
*I *1376:Z O *C 151.5 178.8 *L 0 *D DEL0
*I *1491:I I *C 149.1 172 *L 0.00287 *D BUFFD8

*CAP
1 *1491:I 0.00026549
2 *1376:Z 9.25482e-05
3 *436:2 0.00037558
4 *436:3 0.000668551
5 *436:4 0.00067503

*RES
1 *436:3 *436:4 2.7849
2 *1376:Z *436:2 2.5224
3 *1491:I *436:3 0.652552
4 *436:2 *436:4 3.35154009
*END

*D_NET *437 2.3023e-05

*CONN
*I *1377:Z O *C 145.5 106.8 *L 0 *D DEL0
*I *1486:I I *C 145.9 107 *L 0.00275 *D CKBD8

*CAP
1 *1486:I 4.40694e-06
2 *1377:Z 1.86159998e-05

*RES
1 *1377:Z *1486:I 0.228993
*END

*D_NET *438 0.00320094

*CONN
*I *1378:Z O *C 145.9 81.6 *L 0 *D DEL0
*I *1495:I I *C 149.1 92.8 *L 0.00287 *D BUFFD8

*CAP
1 *1495:I 8.32647e-06
2 *1378:Z 0.00027768
3 *438:2 9.52307e-05
4 *438:3 0.00171596
5 *438:4 0.00110375

*RES
1 *438:2 *438:3 4.74283981
2 *1495:I *438:2 0.319514
3 *438:3 *438:4 3.67495
4 *1378:Z *438:4 3.08557
*END

*D_NET *439 0.0020429

*CONN
*I *1379:Z O *C 151.7 78 *L 0 *D DEL0
*I *1494:I I *C 149.1 91.2 *L 0.00287 *D BUFFD8

*CAP
1 *1379:Z 3.13062e-05
2 *439:2 0.000634972
3 *439:3 0.0013118
4 *439:4 6.48344e-05

*RES
1 *439:2 *439:4 2.27021
2 *1379:Z *439:3 0.709273
3 *439:3 *439:4 8.03090954
4 *1494:I *439:2 0.224987
*END

*D_NET *440 0.0014928

*CONN
*I *1380:Z O *C 151.7 102.4 *L 0 *D DEL0
*I *1512:I I *C 149.1 107 *L 0.00275 *D CKBD8

*CAP
1 *1512:I 0.000265125
2 *440:2 0.00116205
3 *440:3 6.56252e-05

*RES
1 *440:2 *440:3 3.2831099
2 *1512:I *440:2 2.46549
3 *1380:Z *440:3 0.224982
*END

*D_NET *441 0.00248967

*CONN
*I *1381:Z O *C 140.3 117.6 *L 0 *D DEL0
*I *1487:I I *C 149.1 121.6 *L 0.00287 *D BUFFD8

*CAP
1 *1487:I 0.000176003
2 *1381:Z 0.00069285
3 *441:2 0.000341206
4 *441:3 0.000366278
5 *441:4 0.000913325

*RES
1 *1487:I *441:3 2.29823
2 *1381:Z *441:2 2.25006
3 *441:3 *441:4 3.17589998
4 *441:2 *441:4 1.44354
*END

*D_NET *442 0.00219838

*CONN
*I *1382:Z O *C 142.5 131.2 *L 0 *D DEL0
*I *1485:I I *C 149.1 134.4 *L 0.00287 *D BUFFD8

*CAP
1 *1485:I 7.02673e-05
2 *442:2 0.00108531
3 *442:3 6.43883e-05
4 *442:4 0.00097841

*RES
1 *442:2 *442:4 3.94503999
2 *1485:I *442:3 0.857018
3 *442:3 *442:4 3.31815
4 *1382:Z *442:2 0.225015
*END

*D_NET *443 0.00110369

*CONN
*I *1383:Z O *C 146.3 99.6 *L 0 *D DEL0
*I *1480:I I *C 146.3 105.6 *L 0.00287 *D BUFFD8

*CAP
1 *443:2 0.00110369

*RES
1 *1480:I *443:2 3.68559003
2 *1383:Z *443:2 0.225007
*END

*D_NET *444 0.00290264

*CONN
*I *1384:Z O *C 144.9 120.4 *L 0 *D DEL0
*I *1488:I I *C 149.1 128.8 *L 0.00287 *D BUFFD8

*CAP
1 *1384:Z 0.000701337
2 *444:2 0.000337544
3 *444:3 0.000794376
4 *444:4 0.000114743
5 *444:5 0.000954641016

*RES
1 *444:2 *444:5 1.63267
2 *444:2 *444:3 2.80468
3 *444:4 *444:5 3.41402006
4 *1384:Z *444:3 2.47779
5 *1488:I *444:4 0.224993
*END

*D_NET *445 0.000935652

*CONN
*I *1385:Z O *C 151.5 124 *L 0 *D DEL0
*I *1482:I I *C 149.1 127.2 *L 0.00287 *D BUFFD8

*CAP
1 *445:3 6.56592e-05
2 *445:4 0.000869991016

*RES
1 *445:2 *445:4 2.18300009
2 *445:3 *445:4 1.73611
3 *1385:Z *445:3 0.225009
4 *1482:I *445:2 0.225009
*END

*D_NET *446 0.00218157

*CONN
*I *1151:I I *C 148.1 120 *L 0.00072 *D BUFFD1
*I *1386:Z O *C 148.3 110.4 *L 0 *D DEL0

*CAP
1 *1151:I 5.85874e-05
2 *1386:Z 0.000609582
3 *446:2 0.000485142
4 *446:3 0.00102826

*RES
1 *1151:I *446:3 2.78356
2 *446:2 *446:3 2.97236991
3 *1386:Z *446:2 2.2564
*END

*D_NET *447 0.00209622

*CONN
*I *1387:Z O *C 145.9 114 *L 0 *D DEL0
*I *1483:I I *C 149.1 120 *L 0.00287 *D BUFFD8

*CAP
1 *1483:I 2.09893e-06
2 *447:2 0.00115591
3 *447:3 0.000938204

*RES
1 *447:2 *447:3 2.99203
2 *1483:I *447:2 3.92186999
3 *1387:Z *447:3 0.450019
*END

*D_NET *448 0.00110929

*CONN
*I *1388:Z O *C 151.9 135.6 *L 0 *D DEL0
*I *1479:I I *C 149.1 138 *L 0.00287 *D BUFFD8

*CAP
1 *448:2 0.000105988
2 *448:3 0.00100331

*RES
1 *1479:I *448:3 1.70824
2 *448:2 *448:3 2.28625989
3 *1388:Z *448:2 0.225012
*END

*D_NET *449 0.00153009

*CONN
*I *1389:Z O *C 147.7 139.2 *L 0 *D DEL0
*I *1481:I I *C 145.3 143.2 *L 0.00287 *D BUFFD8

*CAP
1 *1389:Z 0.000540977
2 *449:2 6.89542e-05
3 *449:3 0.000920162031

*RES
1 *449:2 *449:3 1.97034001
2 *1481:I *449:3 1.4194
3 *1389:Z *449:2 1.70384
*END

*D_NET *450 0.00677934

*CONN
*I *1239:I I *C 149.7 6.4 *L 0.00103 *D DEL015
*I *1390:Z O *C 146.3 42 *L 0 *D DEL0

*CAP
1 *1239:I 0.00071558
2 *450:2 0.00131213
3 *450:3 6.40698e-07
4 *450:4 0.000955041
5 *450:5 0.00101783
6 *450:6 0.00113752
7 *450:7 0.000528776
8 *450:8 4.04241e-05
9 *450:5 *536:7 0.000569549961
10 *450:4 *1469:Z 0.000290480996
11 *450:2 *629:21 0.000211400996

*RES
1 *450:4 *450:5 6.33797979
2 *450:3 *450:4 0.413048
3 *1390:Z *450:2 4.18812
4 *1239:I *450:3 3.65931
5 *450:2 *450:8 1.48401
6 *450:6 *450:8 5.3734
7 *450:6 *450:7 2.39241
8 *450:5 *450:7 4.4739
*END

*D_NET *451 0.00271638

*CONN
*I *1261:I I *C 139.1 139.6 *L 0.00072 *D BUFFD1
*I *1391:Z O *C 140.9 128.4 *L 0 *D DEL1

*CAP
1 *1261:I 0.000265962
2 *1391:Z 7.75316e-05
3 *451:2 0.000847319
4 *451:3 4.71237e-05
5 *451:4 0.00141533
6 *451:5 6.31051e-05

*RES
1 *451:4 *451:5 2.46858
2 *451:3 *451:4 2.90945
3 *451:2 *451:5 3.36006999
4 *1391:Z *451:2 0.384222
5 *1261:I *451:3 1.0836
*END

*D_NET *452 0.00301843

*CONN
*I *1272:I I *C 145.9 141.6 *L 0.000643 *D CKBD0
*I *1392:Z O *C 146.1 132 *L 0 *D DEL1

*CAP
1 *1272:I 0.00069749
2 *1392:Z 0.00010899
3 *452:2 0.000183372
4 *452:3 0.00202858

*RES
1 *1272:I *452:2 3.57628
2 *1392:Z *452:3 2.29078
3 *452:2 *452:3 5.46916008
*END

*D_NET *453 0.00488767

*CONN
*I *1393:Z O *C 151.1 132 *L 0 *D DEL1
*I *1574:A[8] I *C 134.265 146.91 *L 0.00555 *D sram00

*CAP
1 *453:2 0.00013092
2 *453:3 0.00126835
3 *453:4 3.78084e-05
4 *453:5 0.000334023
5 *453:6 8.12556e-05
6 *453:7 0.00236881
7 *453:8 6.11947e-05
8 *453:9 4.6881e-05
9 *453:10 0.000135474
10 *453:11 0.000422941

*RES
1 *453:10 *453:11 2.93096
2 *453:8 *453:10 0.997585
3 *453:2 *453:3 5.82591
4 *453:8 *453:9 0.377683
5 *453:7 *453:11 6.37768984
6 *453:6 *453:7 3.63387
7 *453:4 *453:5 1.54421
8 *453:3 *453:4 0.0926447
9 *453:5 *453:6 0.0926447
10 *1393:Z *453:2 0.224994
11 *1393:Z *1574:A[8] 9.73158e-05
*END

*D_NET *454 0.00524357

*CONN
*I *1394:Z O *C 145.9 131.2 *L 0 *D DEL1
*I *1574:A[7] I *C 134.265 148.5 *L 0.00555 *D sram00

*CAP
1 *454:2 3.00199e-05
2 *454:3 0.000119038
3 *454:4 0.000132362
4 *454:5 3.09377e-06
5 *454:6 0.000212954
6 *454:7 3.80843e-05
7 *454:8 0.000420237
8 *454:9 3.8734e-05
9 *454:10 0.000486021
10 *454:11 4.10543e-05
11 *454:12 0.000675833984
12 *454:13 9.88253e-05
13 *454:14 0.000321236
14 *454:16 6.88158e-05
15 *454:17 0.000245883
16 *454:18 1.88823e-05
17 *454:12 *799:3 0.00173014
18 *454:10 *105:2 0.000562356992

*RES
1 *454:7 *454:8 1.67011
2 *454:2 *454:3 0.343744
3 *454:13 *454:16 0.708269
4 *454:5 *454:6 1.16648
5 *454:4 *454:5 0.0926
6 *454:6 *454:7 0.0926
7 *454:15 *454:17 3.62034
8 *454:12 *454:18 8.85971
9 *454:10 *454:11 0.0926
10 *454:8 *454:9 0.0926
11 *454:9 *454:10 2.29964
12 *454:13 *454:14 1.5531
13 *454:17 *454:18 0.159254
14 *454:15 *454:16 0.159254
15 *454:11 *454:12 0.394376
16 *454:3 *454:4 0.619376
17 *1394:Z *454:3 0.225
18 *1394:Z *1574:A[7] 0.0001
*END

*D_NET *455 0.00622847

*CONN
*I *1275:I I *C 150.1 139.6 *L 0.00103 *D DEL01
*I *1395:Z O *C 151.9 124.8 *L 0 *D DEL1

*CAP
1 *455:2 0.00122259
2 *455:3 0.00133689
3 *455:4 2.85391e-05
4 *455:5 0.000128416
5 *455:6 0.000164462
6 *455:7 0.000771861
7 *455:4 *739:3 0.000294337988
8 *455:3 *796:3 0.000574055
9 *455:2 *868:2 0.000830077031
10 *455:2 *913:3 0.000877251953

*RES
1 *455:6 *455:7 0.159258
2 *455:2 *455:6 3.56583
3 *1275:I *455:3 0.864967
4 *455:5 *455:7 8.39675045
5 *455:4 *455:2 6.13087
6 *455:3 *455:5 4.56596
7 *1395:Z *455:4 0.224986
*END

*D_NET *456 0.00407393

*CONN
*I *1278:I I *C 149.7 143.2 *L 0.00103 *D DEL01
*I *1396:Z O *C 146.9 128.4 *L 0 *D DEL1

*CAP
1 *1278:I 5.41523e-06
2 *1396:Z 0.00012584
3 *456:2 0.00078511
4 *456:3 0.00128118
5 *456:4 2.58054e-06
6 *456:5 0.00121624
7 *456:6 0.000657569

*RES
1 *456:5 *456:6 2.38033
2 *456:2 *456:3 4.91718006
3 *456:3 *456:4 0.159214
4 *1278:I *456:2 3.03887
5 *456:4 *456:5 4.156
6 *1396:Z *456:6 0.450031
*END

*D_NET *457 0.00322339

*CONN
*I *1284:I I *C 146.9 141.6 *L 0.00103 *D DEL01
*I *1397:Z O *C 147.1 127.6 *L 0 *D DEL1

*CAP
1 *1397:Z 0.000616
2 *457:2 0.000355727
3 *457:3 0.00136883
4 *457:4 0.000882831

*RES
1 *457:2 *457:3 4.65695
2 *457:3 *457:4 3.37397
3 *1284:I *457:2 1.29342
4 *1397:Z *457:4 2.05021
*END

*D_NET *458 0.00415218

*CONN
*I *1277:I I *C 145.9 145.2 *L 0.00103 *D DEL01
*I *1398:Z O *C 146.1 124.8 *L 0 *D DEL1

*CAP
1 *1398:Z 0.0011539
2 *458:3 0.00134911
3 *458:4 0.00164917

*RES
1 *458:2 *458:3 0.159282
2 *1277:I *458:4 6.19142008
3 *1398:Z *458:2 4.40086
4 *458:3 *458:4 5.39983
*END

*D_NET *459 0.00271927

*CONN
*I *1309:I I *C 145.9 136 *L 0.00103 *D DEL01
*I *1399:Z O *C 147.1 124 *L 0 *D DEL1

*CAP
1 *1309:I 1.93526e-05
2 *459:2 0.00126827
3 *459:4 0.00018203
4 *459:5 0.0007909
5 *459:6 0.000458714

*RES
1 *459:4 *459:5 3.20056
2 *459:2 *459:3 3.21803999
3 *1309:I *459:4 1.34136
4 *459:3 *459:5 0.159242
5 *459:2 *459:6 3.01888
6 *1399:Z *459:6 0.224992
*END

*D_NET *460 0.0120064

*CONN
*I *1400:Z O *C 141.7 175.2 *L 0 *D DEL1
*I *1574:D[56] I *C 134.195 285.055 *L 0.00183 *D sram00
*I *1698:B1 I *C 143.7 174 *L 0.000689 *D MOAI22D0

*CAP
1 *1698:B1 0.000441376
2 *460:3 0.000514444
3 *460:4 0.00590439
4 *460:5 7.24366e-05
5 *460:6 3.63985e-05
6 *460:7 0.00016046
7 *460:8 5.5859e-05
8 *460:9 4.54981e-05
9 *460:10 0.000157847
10 *460:11 0.00017037
11 *460:13 0.000968974
12 *460:14 0.000649496
13 *1698:B1 *852:9 0.00044223
14 *460:3 *320:3 0.00032528498
15 *460:4 *462:5 0.00206143

*RES
1 *460:4 *460:11 1.93471
2 *460:9 *460:10 2.64399
3 *460:13 *460:14 0.159213
4 *460:4 *460:14 47.2679
5 *460:7 *460:8 0.093212
6 *460:12 *460:3 0.159213
7 *460:5 *460:7 1.43052
8 *460:8 *460:11 0.453516
9 *460:3 *460:15 15.2355
10 *460:9 *460:15 0.384213
11 *1698:B1 *460:5 2.49828
12 *460:12 *460:13 6.26233
13 *1400:Z *460:6 0.225
14 *460:6 *460:11 0.225
15 *1400:Z *1574:D[56] 0.0001
*END

*D_NET *461 0.0110011

*CONN
*I *1401:Z O *C 144.7 186 *L 0 *D DEL1
*I *1574:D[57] I *C 134.195 288.985 *L 0.00183 *D sram00
*I *1699:B1 I *C 143.3 182.8 *L 0.000689 *D MOAI22D0

*CAP
1 *461:3 0.000421964
2 *461:4 0.000106661
3 *461:5 0.000410878
4 *461:6 0.00110728
5 *461:7 0.000331265
6 *461:9 0.000100421
7 *461:10 0.000377088
8 *461:11 9.19252e-07
9 *461:13 0.000326724
10 *461:15 0.00111851
11 *461:16 1.69922e-06
12 *461:17 0.000293882
13 *461:18 1.19503e-05
14 *461:19 0.00147211
15 *461:20 0.000204102
16 *461:21 0.00182555
17 *461:22 0.000415362
18 *461:24 3.89985e-05
19 *461:25 0.000139197
20 *461:26 4.72997e-05
21 *461:27 0.000254215
22 *461:28 4.44026e-05
23 *461:29 5.06145e-05
24 *461:30 1.8385e-06
25 *461:5 *841:5 0.000387785
26 *461:3 *318:3 0.00151033

*RES
1 *461:6 *461:11 2.47811
2 *461:8 *461:10 2.10774
3 *461:25 *461:28 0.159213
4 *461:24 *461:29 0.209057
5 *461:23 *461:24 0.159213
6 *461:19 *461:20 13.9496
7 *461:14 *461:17 1.86568
8 *461:3 *461:26 3.75236
9 *461:6 *461:7 5.03618
10 *461:8 *461:9 0.159232
11 *461:22 *461:25 0.644901
12 *461:5 *461:7 2.69846
13 *461:12 *461:3 0.159216
14 *461:21 *461:23 21.0339
15 *461:10 *461:11 0.159232
16 *461:14 *461:15 0.159216
17 *461:27 *461:28 1.36378
18 *461:17 *461:20 0.159216
19 *461:26 *461:27 0.159216
20 *461:18 *461:19 0.159232
21 *461:4 *461:7 1.10633
22 *461:29 *461:30 0.394367
23 *461:9 *461:18 0.349035
24 *461:12 *461:13 2.24209
25 *461:21 *461:22 1.72363
26 *461:15 *461:16 13.1872
27 *461:13 *461:16 0.159216
28 *1699:B1 *461:5 0.225
29 *1401:Z *461:4 0.225
30 *1401:Z *1574:D[57] 0.0001
*END

*D_NET *462 0.0130139

*CONN
*I *1084:Z O *C 143.1 182.4 *L 0 *D DEL0
*I *1700:B1 I *C 145.9 188.4 *L 0.000689 *D MOAI22D0
*I *1574:D[58] I *C 134.195 293.455 *L 0.00183 *D sram00

*CAP
1 *1084:Z 8.44734e-05
2 *462:3 0.000359346
3 *462:4 0.000173538
4 *462:5 0.000876704
5 *462:6 0.000257761
6 *462:9 0.000208846
7 *462:10 0.000486974
8 *462:11 0.00547032
9 *462:13 2.26208e-05
10 *462:11 *44:3 0.000395601016
11 *462:5 *460:4 0.00206143
12 *462:5 *464:5 0.00211876016
13 *1084:Z *852:11 0.000497624023

*RES
1 *462:5 *462:10 2.21481
2 *462:8 *462:9 3.03835
3 *462:6 *462:7 0.268463
4 *462:7 *462:8 0.093113
5 *462:5 *462:12 0.84394
6 *462:6 *462:11 58.8978
7 *462:3 *462:10 2.1881
8 *1084:Z *462:4 0.384224
9 *1700:B1 *462:3 1.02425
10 *462:12 *462:13 0.159232
11 *462:11 *462:13 7.41399
12 *462:4 *462:10 3.25474
13 *1084:Z *1574:D[58] 0.0001
*END

*D_NET *463 0.0126274

*CONN
*I *1082:Z O *C 140.5 221.2 *L 0 *D DEL0
*I *1705:B1 I *C 145.7 208 *L 0.000689 *D MOAI22D0
*I *1574:D[63] I *C 134.195 314.185 *L 0.00183 *D sram00

*CAP
1 *1705:B1 0.00106117
2 *463:3 0.000106872
3 *463:4 0.00149043
4 *463:6 0.000351576
5 *463:7 5.88899e-05
6 *463:8 8.19169e-05
7 *463:9 0.000421704
8 *463:10 1.57003e-05
9 *463:11 0.000475691
10 *463:12 2.01074e-05
11 *463:13 4.51177e-05
12 *463:14 4.5338e-05
13 *463:15 1.9226e-05
14 *463:17 0.000381875
15 *463:18 0.000120259
16 *463:19 0.000235725
17 *463:21 0.00361024
18 *463:3 *318:3 0.00218285984
19 *463:4 *320:3 0.00190265

*RES
1 *463:10 *463:11 3.08704
2 *463:5 *463:6 0.159214
3 *463:15 *463:21 2.61718
4 *463:19 *463:20 1.73137
5 *463:9 *463:10 0.2185
6 *1705:B1 *463:5 3.76244
7 *463:11 *463:12 0.2185
8 *463:12 *463:3 0.772079
9 *463:17 *463:21 3.13343
10 *463:3 *463:16 0.586076
11 *463:18 *463:21 31.0825
12 *463:4 *463:20 0.159213
13 *463:18 *463:19 0.159213
14 *463:13 *463:4 26.4046
15 *463:7 *463:9 2.00431
16 *463:13 *463:14 1.51085
17 *463:16 *463:17 0.159216
18 *463:6 *463:7 1.45422
19 *1082:Z *463:8 0.225
20 *463:8 *463:15 0.225
21 *1082:Z *1574:D[63] 0.0001
*END

*D_NET *464 0.0144205

*CONN
*I *1083:Z O *C 140.5 182.4 *L 0 *D DEL0
*I *1701:B1 I *C 145.9 193.6 *L 0.000689 *D MOAI22D0
*I *1574:D[59] I *C 134.195 297.385 *L 0.00183 *D sram00

*CAP
1 *1083:Z 2.86425e-05
2 *464:3 0.000242575
3 *464:4 0.00123817
4 *464:5 0.000953317
5 *464:6 0.000201452
6 *464:7 3.02792e-05
7 *464:8 4.60326e-05
8 *464:9 0.000222798
9 *464:10 3.4712e-05
10 *464:11 0.000345347
11 *464:12 0.000133256
12 *464:13 0.00446925031
13 *464:14 0.000163126
14 *464:15 1.29573e-06
15 *464:9 *1715:A2 0.000290877012
16 *464:14 *79:5 0.00072111
17 *464:3 *73:6 0.00133516
18 *464:4 *319:2 0.00184429
19 *464:5 *462:5 0.00211876016

*RES
1 *464:5 *464:4 8.30042
2 *464:3 *464:14 0.159216
3 *464:8 *464:9 1.29235
4 *464:7 *464:8 0.092595
5 *464:9 *464:10 0.092595
6 *464:11 *464:12 3.77712
7 *464:6 *464:7 0.619368
8 *464:14 *464:15 1.85629
9 *464:13 *464:15 0.159216
10 *1083:Z *464:5 0.609224
11 *1701:B1 *464:6 0.384851
12 *464:11 *464:13 48.0127
13 *464:4 *464:3 16.0817
14 *464:10 *464:4 1.90522
15 *1083:Z *1574:D[59] 0.0001
*END

*D_NET *465 0.00210346

*CONN
*I *1259:I I *C 142.1 217.2 *L 0.000697 *D BUFFD0
*I *1405:Z O *C 142.1 214.8 *L 0 *D DEL1
*I *1703:B1 I *C 141.5 206.4 *L 0.000689 *D MOAI22D0

*CAP
1 *1259:I 0.000402481
2 *1703:B1 0.00133222
3 *465:3 0.000272949
4 *465:4 9.58076e-05

*RES
1 *465:3 *465:4 0.435126
2 *1405:Z *465:3 0.822518
3 *1405:Z *1259:I 1.38913
4 *1703:B1 *465:4 5.32917023
*END

*D_NET *466 0.000769405

*CONN
*I *1258:I I *C 142.5 210 *L 0.000697 *D BUFFD0
*I *1406:Z O *C 142.3 210.4 *L 0 *D DEL1
*I *1704:B1 I *C 141.5 208 *L 0.000689 *D MOAI22D0

*CAP
1 *1258:I 2.35834e-06
2 *1704:B1 0.000287887
3 *1406:Z 9.75423e-05
4 *466:3 0.000381615

*RES
1 *1406:Z *466:3 1.22387
2 *1406:Z *1258:I 0.193823
3 *1704:B1 *466:3 1.76766002
*END

*D_NET *467 0.0025767

*CONN
*I *1260:I I *C 150.5 213.6 *L 0.000697 *D BUFFD0
*I *1407:Z O *C 148.7 211.2 *L 0 *D DEL1
*I *1702:B1 I *C 145.7 206.4 *L 0.000689 *D MOAI22D0

*CAP
1 *1260:I 7.56122e-05
2 *1702:B1 0.0010408
3 *467:3 7.56758e-05
4 *467:4 0.000578185
5 *467:5 0.000806435

*RES
1 *1702:B1 *467:4 4.04555988
2 *467:4 *467:5 2.17186
3 *467:3 *467:5 2.73546
4 *1407:Z *467:5 0.450014
5 *1260:I *467:3 0.978673
*END

*D_NET *468 0.0157398

*CONN
*I *1408:Z O *C 146.1 121.2 *L 0 *D DEL1
*I *1574:D[7] I *C 134.265 38.405 *L 0.00183 *D sram00
*I *1741:B1 I *C 143.1 87.6 *L 0.000689 *D MOAI22D0

*CAP
1 *468:3 0.00511916031
2 *468:4 0.000621861
3 *468:5 0.000104828
4 *468:6 8.50655e-05
5 *468:7 0.000836282
6 *468:8 0.000195986
7 *468:9 4.35092e-05
8 *468:10 0.00024801
9 *468:11 4.8196e-05
10 *468:12 0.000354869
11 *468:14 0.000150368
12 *468:15 9.56889e-05
13 *468:16 0.000329717
14 *468:17 0.00057429
15 *468:6 *735:3 0.00311436
16 *468:3 *726:4 0.000657866016
17 *468:4 *716:2 0.00172813
18 *468:3 *53:7 0.000815771016
19 *468:3 *1739:A1 0.000615786016

*RES
1 *468:9 *468:10 1.41827
2 *468:7 *468:14 2.56402
3 *468:14 *468:15 1.18585
4 *468:3 *468:8 0.938947
5 *468:8 *468:9 0.092872
6 *468:10 *468:11 0.089449
7 *468:5 *468:7 3.05146
8 *468:11 *468:12 3.03838
9 *468:15 *468:4 8.17591
10 *468:3 *468:17 32.9535
11 *468:13 *468:17 0.659196
12 *468:16 *468:17 2.22394
13 *468:4 *468:16 7.95638
14 *1741:B1 *468:6 0.225
15 *1408:Z *468:5 0.225
16 *468:6 *468:13 0.225
17 *1408:Z *1574:D[7] 0.0001
*END

*D_NET *469 0.01826

*CONN
*I *1409:Z O *C 148.7 117.6 *L 0 *D DEL1
*I *1574:D[6] I *C 134.265 34.475 *L 0.00183 *D sram00
*I *1742:B1 I *C 140.5 80.4 *L 0.000689 *D MOAI22D0

*CAP
1 *469:3 1.6817e-05
2 *469:4 0.00404727
3 *469:5 0.00109897
4 *469:6 8.0956e-05
5 *469:7 0.000129136
6 *469:8 0.000379856
7 *469:9 5.8765e-05
8 *469:10 0.000649349
9 *469:11 3.5998e-05
10 *469:12 6.427e-06
11 *469:13 7.5919e-05
12 *469:14 0.000291396
13 *469:15 0.000661722
14 *469:17 4.755e-06
15 *469:18 0.000120381
16 *469:19 4.489e-06
17 *469:20 0.000503839
18 *469:21 2e-07
19 *469:22 9.002e-05
20 *469:23 8.3e-08
21 *469:25 1.31151e-09
22 *469:26 0.000243996
23 *469:27 0.000148947
24 *469:15 *871:2 0.000556673984
25 *469:3 *803:8 0.00178901
26 *469:4 *846:10 0.00130096992
27 *469:4 *58:2 0.00191207
28 *469:5 *798:3 0.000904668984
29 *469:5 *53:4 0.000996146016
30 *469:3 *474:7 0.00215116

*RES
1 *469:11 *469:5 3.12314
2 *469:5 *469:15 15.4108
3 *469:19 *469:27 0.471564
4 *469:19 *469:21 0.159246
5 *469:17 *469:27 0.633962
6 *469:25 *469:26 5.48442
7 *469:23 *469:25 0.159246
8 *469:18 *469:24 4.51512
9 *469:9 *469:10 2.55146
10 *469:8 *469:9 0.0926
11 *469:10 *469:11 0.0926
12 *469:12 *469:13 0.045382
13 *469:6 *469:8 1.87845
14 *469:4 *469:12 0.268465
15 *469:24 *469:26 0.159246
16 *469:4 *469:20 33.3963
17 *469:3 *469:27 1.35816
18 *469:20 *469:22 0.159246
19 *469:17 *469:18 0.159246
20 *469:13 *469:14 2.54058
21 *469:21 *469:22 3.42274
22 *469:16 *469:23 0.351592
23 *469:15 *469:16 0.159246
24 *1742:B1 *469:7 0.225
25 *1409:Z *469:6 0.225
26 *469:7 *469:3 0.225
27 *1409:Z *1574:D[6] 0.0001
*END

*D_NET *470 0.0510997

*CONN
*I *1410:Z O *C 145.9 271.4 *L 0 *D CKBD2
*I *1665:CDN I *C 139.3 254.8 *L 0.00163 *D DFCNQD1
*I *1666:CDN I *C 140.9 262 *L 0.00163 *D DFCNQD1
*I *1664:CDN I *C 149.1 254.8 *L 0.00163 *D DFCNQD1
*I *1661:CDN I *C 139.7 246 *L 0.00163 *D DFCNQD1
*I *1658:CDN I *C 142.5 233.2 *L 0.00163 *D DFCNQD1
*I *1645:CDN I *C 140.5 143.2 *L 0.00163 *D DFCNQD1
*I *1643:CDN I *C 139.3 134.4 *L 0.00163 *D DFCNQD1
*I *1640:CDN I *C 138.9 120 *L 0.00163 *D DFCNQD1
*I *1573:I I *C 149.7 110.8 *L 0.000977 *D CKBD3
*I *1680:CDN I *C 149.9 109.4 *L 0.00157 *D EDFCNQD1
*I *1679:CDN I *C 149.7 112.8 *L 0.00237 *D EDFCNQD4
*I *1588:CDN I *C 149.9 116.4 *L 0.00163 *D DFCNQD1
*I *1639:CDN I *C 139.5 114.4 *L 0.00163 *D DFCNQD1
*I *1641:CDN I *C 139.3 121.6 *L 0.00163 *D DFCNQD1
*I *1642:CDN I *C 140.3 127.2 *L 0.00163 *D DFCNQD1
*I *1644:CDN I *C 140.7 139.6 *L 0.00163 *D DFCNQD1
*I *1646:CDN I *C 142.7 170.4 *L 0.00163 *D DFCNQD1
*I *1670:CDN I *C 142.7 175.6 *L 0.00163 *D DFCNQD1
*I *1647:CDN I *C 142.5 179.2 *L 0.00163 *D DFCNQD1
*I *1671:CDN I *C 142.3 184.8 *L 0.00163 *D DFCNQD1
*I *1653:CDN I *C 139.9 204.4 *L 0.00163 *D DFCNQD1
*I *1650:CDN I *C 139.1 199.2 *L 0.00163 *D DFCNQD1
*I *1649:CDN I *C 139.9 195.6 *L 0.00163 *D DFCNQD1
*I *1648:CDN I *C 139.7 190 *L 0.00163 *D DFCNQD1
*I *1672:CDN I *C 146.9 190 *L 0.00163 *D DFCNQD1
*I *1673:CDN I *C 146.9 195.6 *L 0.00163 *D DFCNQD1
*I *1651:CDN I *C 147.1 197.2 *L 0.00163 *D DFCNQD1
*I *1652:CDN I *C 147.5 202.8 *L 0.00163 *D DFCNQD1
*I *1674:CDN I *C 147.5 210 *L 0.00163 *D DFCNQD1
*I *1677:CDN I *C 146.9 213.6 *L 0.00163 *D DFCNQD1
*I *1676:CDN I *C 139.9 211.6 *L 0.00163 *D DFCNQD1
*I *1675:CDN I *C 139.7 213.6 *L 0.00163 *D DFCNQD1
*I *1654:CDN I *C 146.5 217.2 *L 0.00163 *D DFCNQD1
*I *1655:CDN I *C 146.3 224.4 *L 0.00163 *D DFCNQD1
*I *1662:CDN I *C 141.5 222.4 *L 0.00163 *D DFCNQD1
*I *1656:CDN I *C 143.5 228 *L 0.00163 *D DFCNQD1
*I *1657:CDN I *C 142.3 229.6 *L 0.00163 *D DFCNQD1
*I *1659:CDN I *C 141.1 240.4 *L 0.00163 *D DFCNQD1
*I *1660:CDN I *C 146.9 246 *L 0.00163 *D DFCNQD1
*I *1663:CDN I *C 148.1 249.6 *L 0.00163 *D DFCNQD1
*I *1668:CDN I *C 148.7 260.4 *L 0.00163 *D DFCNQD1
*I *1667:CDN I *C 143.3 267.6 *L 0.00163 *D DFCNQD1

*CAP
1 *1668:CDN 0.000324826
2 *1662:CDN 0.000232275
3 *1655:CDN 2.4115e-05
4 *1677:CDN 8.46005e-05
5 *1674:CDN 2.28472e-05
6 *1673:CDN 8.37025e-05
7 *1672:CDN 5.13995e-05
8 *1670:CDN 4.1389e-05
9 *1646:CDN 0.000103539
10 *1639:CDN 0.000178181
11 *1679:CDN 9.41356e-05
12 *1680:CDN 0.000569251
13 *1640:CDN 9.8124e-05
14 *1664:CDN 0.000267167
15 *1666:CDN 5.48068e-05
16 *470:43 0.000828203
17 *470:44 0.00070327
18 *470:45 0.000150237
19 *470:46 0.000808182
20 *470:47 0.000547513
21 *470:48 0.000498966
22 *470:49 0.000305518
23 *470:50 0.000111304
24 *470:52 0.000521312
25 *470:53 0.000221525
26 *470:54 0.000157025
27 *470:55 0.000476964
28 *470:56 0.000142815
29 *470:57 0.000616768
30 *470:58 0.000607999
31 *470:59 0.000628337
32 *470:60 0.000147622
33 *470:61 0.00165886
34 *470:62 0.000471787
35 *470:63 0.000223902
36 *470:64 0.000470308
37 *470:65 0.000214948
38 *470:66 0.00053436
39 *470:67 6.3391e-07
40 *470:68 0.000653165
41 *470:69 9.52714e-05
42 *470:70 2.00738e-06
43 *470:71 0.000433462
44 *470:72 0.00143763
45 *470:73 3.02692e-05
46 *470:74 0.000435839
47 *470:75 2.05228e-05
48 *470:76 0.000974135
49 *470:77 0.000653931
50 *470:78 0.000162096
51 *470:79 0.000214684
52 *470:80 0.00106201
53 *470:81 0.000672024
54 *470:83 0.000329976
55 *470:84 0.000806703
56 *470:85 0.000448491
57 *470:86 0.000344345
58 *470:87 0.000259348
59 *470:88 0.00158509
60 *470:89 4.82036e-05
61 *470:90 0.00126906
62 *470:91 0.000423927
63 *470:92 0.000922841
64 *470:93 0.000282512
65 *470:94 0.000660587
66 *470:95 0.000262201
67 *470:96 0.00173097
68 *470:97 5.17957e-05
69 *470:98 0.000893945
70 *470:99 0.000229739
71 *470:100 0.000462833
72 *470:101 0.000199259
73 *470:102 0.00111996
74 *470:103 0.000419833
75 *470:104 0.00112337
76 *470:105 0.000340119
77 *470:106 0.000490329
78 *470:107 0.000492944
79 *470:108 0.000233279
80 *470:109 0.00041249
81 *470:110 0.000551766
82 *470:111 0.00013431
83 *470:112 0.000840881
84 *470:113 0.000247146
85 *470:114 0.000925667
86 *470:115 0.000334493
87 *470:116 0.000730291
88 *470:117 0.000314155
89 *470:118 0.000664628
90 *470:119 0.000696561
91 *470:120 0.00022443
92 *470:72 *233:2 0.000230744004
93 *470:71 *273:2 0.000806743984
94 *1666:CDN *618:7 0.00157509
95 *1662:CDN *841:7 0.00131827
96 *1646:CDN *61:3 0.000753736953
97 *1640:CDN *780:2 0.000549398008
98 *1677:CDN *859:11 0.00119699
99 *1670:CDN *852:19 0.000806928984
100 *470:43 *1353:Z 0.000279668984
101 *1672:CDN *936:11 0.000427170977
102 *470:44 *44:3 0.000714519063
103 *470:45 *992:Z 0.000806127031

*RES
1 *470:71 *470:99 1.74227
2 *470:50 *470:81 3.39835
3 *470:103 *470:112 1.484
4 *470:76 *470:100 1.3429
5 *470:71 *470:92 4.69095
6 *1668:CDN *470:48 2.75528
7 *470:53 *470:106 2.18321
8 *470:62 *470:97 0.959017
9 *470:57 *470:115 1.98766
10 *470:120 *470:45 1.40946
11 *470:76 *470:77 2.61188
12 *470:72 *470:110 4.6865
13 *1639:CDN *470:72 1.57663
14 *470:72 *470:78 2.53565
15 *470:78 *470:93 0.865002
16 *470:56 *470:96 3.5643
17 *1664:CDN *470:47 1.30456
18 *470:44 *470:51 3.98361
19 *470:52 *470:79 2.05085
20 *470:106 *470:109 1.70577
21 *1677:CDN *470:53 0.476825
22 *1662:CDN *470:66 1.69243
23 *470:75 *470:92 0.911166
24 *470:43 *470:67 2.86248
25 *1646:CDN *470:60 0.38419
26 *470:59 *470:63 1.54443
27 *470:65 *470:86 2.05438
28 *1666:CDN *470:115 0.449985
29 *470:47 *470:48 1.67678
30 *470:73 *470:102 1.23539
31 *470:54 *470:81 0.738932
32 *470:107 *470:113 3.35894
33 *470:53 *470:96 3.79052
34 *470:50 *470:80 0.521148
35 *1670:CDN *470:59 0.38419
36 *470:95 *470:107 1.12849
37 *470:58 *470:84 2.37891
38 *470:82 *470:116 2.35882
39 *470:88 *470:114 3.90232
40 *470:59 *470:97 2.99407
41 *470:65 *470:83 1.70899
42 *470:60 *470:63 2.37093
43 *470:68 *470:89 2.98794
44 *470:52 *470:95 0.897976
45 *470:55 *470:56 2.08613
46 *470:49 *470:79 2.19072
47 *470:91 *470:101 1.13585
48 *470:88 *470:99 2.82537
49 *470:70 *470:104 1.02389
50 *470:57 *470:58 2.13475
51 *470:114 *470:45 4.05002
52 *470:69 *470:104 4.49249
53 *470:68 *470:103 0.772214
54 *1674:CDN *470:80 5.20397
55 *470:47 *470:49 1.69105
56 *470:84 *470:116 3.36553
57 *1680:CDN *470:105 1.89779
58 *1655:CDN *470:55 0.384803
59 *470:44 *470:111 0.728657
60 *470:61 *470:108 0.644304
61 *470:64 *470:112 2.34916
62 *470:64 *470:87 1.7797
63 *1673:CDN *470:54 0.706572
64 *470:46 *470:117 3.3798
65 *1640:CDN *470:78 0.619458
66 *470:73 *470:94 2.93088
67 *1672:CDN *470:111 0.449985
68 *470:101 *470:102 4.79033
69 *470:67 *470:98 1.02389
70 *470:55 *470:118 3.31538
71 *470:60 *470:61 7.06572
72 *470:51 *470:54 0.285113
73 *470:74 *470:94 1.87218
74 *470:90 *470:113 1.23217
75 *470:46 *470:105 1.25257
76 *470:43 *470:85 1.81114
77 *470:62 *470:87 2.62783
78 *1679:CDN *470:46 0.575134
79 *470:70 *470:90 5.01962
80 *470:111 *470:112 3.43961
81 *470:108 *470:119 10.0511999
82 *470:85 *470:86 2.75681
83 *470:91 *470:109 2.00438
84 *470:74 *470:89 1.0084
85 *470:69 *470:115 1.23217
86 *470:119 *470:120 0.982023
87 *470:77 *470:93 1.4021
88 *470:65 *470:66 3.983
89 *470:98 *470:113 3.37274
90 *470:110 *470:117 2.58427
91 *1588:CDN *470:117 0.769606
92 *470:75 *470:76 4.24357
93 *1573:I *470:105 0.449985
94 *1665:CDN *470:104 0.224993
95 *1648:CDN *470:103 0.224993
96 *1653:CDN *470:102 0.224993
97 *1676:CDN *470:101 0.224993
98 *1642:CDN *470:100 0.224993
99 *1644:CDN *470:99 0.224993
100 *1659:CDN *470:98 0.224993
101 *1647:CDN *470:97 0.224993
102 *1654:CDN *470:96 0.224993
103 *1660:CDN *470:95 0.224993
104 *1650:CDN *470:94 0.224993
105 *1641:CDN *470:93 0.224993
106 *1643:CDN *470:92 0.224993
107 *1675:CDN *470:91 0.224993
108 *1661:CDN *470:90 0.224993
109 *1649:CDN *470:89 0.224993
110 *1645:CDN *470:88 0.224993
111 *1671:CDN *470:87 0.224993
112 *1657:CDN *470:86 0.224993
113 *1658:CDN *470:85 0.224993
114 *1667:CDN *470:84 0.224993
115 *1656:CDN *470:83 0.224993
116 *1410:Z *470:82 0.224993
117 *1651:CDN *470:81 0.224993
118 *1652:CDN *470:80 0.224993
119 *1663:CDN *470:79 0.224993
120 *470:66 *470:118 0.224993
*END

*D_NET *471 0.00303071

*CONN
*I *1411:Z O *C 151.9 175.2 *L 0 *D DEL1
*I *1574:CEN I *C 134.195 177.81 *L 0.00171 *D sram00

*CAP
1 *471:2 0.000361588
2 *471:3 8.24988e-07
3 *471:4 9.66717e-05
4 *471:6 3.65322e-05
5 *471:7 0.000100077
6 *471:8 0.000253367
7 *471:9 3.01967e-05
8 *471:10 6.11232e-05
9 *471:11 3.06621e-05
10 *471:12 0.000235524
11 *471:13 1.89113e-05
12 *471:14 5.71252e-05
13 *471:15 1.34325e-05
14 *471:16 0.000137985
15 *471:17 3.74947e-05
16 *471:18 0.000259152
17 *471:19 7.49365e-05
18 *471:20 0.000531969
19 *471:21 0.000693148984

*RES
1 *471:7 *471:8 1.3521
2 *471:2 *471:3 0.487047
3 *471:18 *471:19 0.0925958
4 *471:12 *471:13 0.0925958
5 *471:5 *471:6 0.394413
6 *471:4 *471:5 0.599493
7 *471:10 *471:11 0.0925958
8 *471:8 *471:9 0.0926345
9 *471:9 *471:10 0.411051
10 *471:13 *471:14 0.411013
11 *471:19 *471:20 1.8318
12 *471:17 *471:18 1.29236
13 *471:16 *471:17 0.0925958
14 *471:15 *471:16 0.662836
15 *471:11 *471:12 1.16644
16 *471:20 *471:21 2.53588009
17 *471:14 *471:15 0.0925958
18 *471:2 *471:21 2.25612
19 *471:3 *471:4 0.159228
20 *1411:Z *471:7 0.225008
21 *1411:Z *1574:CEN 0.000116083
*END

*D_NET *472 0.0168951

*CONN
*I *1412:Z O *C 145.3 116.8 *L 0 *D DEL1
*I *1574:D[4] I *C 134.265 26.075 *L 0.00183 *D sram00
*I *1747:B1 I *C 141.5 71.2 *L 0.000689 *D MOAI22D0

*CAP
1 *472:3 0.000588353
2 *472:4 0.000461472
3 *472:5 0.000182877
4 *472:6 0.000666949
5 *472:7 2.82903e-05
6 *472:8 7.32782e-05
7 *472:9 4.72214e-05
8 *472:10 3.45652e-05
9 *472:11 7.02471e-05
10 *472:12 6.17919e-05
11 *472:13 0.000266843
12 *472:14 3.20659e-05
13 *472:16 1.1114e-05
14 *472:17 0.000105025
15 *472:20 0.000103164
16 *472:21 0.000181015
17 *472:22 2.55251e-06
18 *472:24 0.000205051
19 *472:25 1.11672e-06
20 *472:26 0.00348497
21 *472:27 0.000326296
22 *472:28 0.000112204
23 *472:29 0.000102207
24 *472:30 0.000545917
25 *472:31 2.3398e-06
26 *472:3 *1068:I 0.000723128984
27 *472:4 *841:20 0.00103721
28 *472:3 *537:9 0.001474
29 *472:5 *847:14 0.00161308
30 *472:6 *733:5 0.00227674
31 *472:7 *738:5 0.000675683047
32 *472:8 *45:3 0.00139834

*RES
1 *472:14 *472:4 0.394376
2 *472:6 *472:28 8.66513
3 *472:24 *472:25 0.159234
4 *472:22 *472:5 3.51397
5 *472:21 *472:22 0.159246
6 *472:15 *472:16 0.159246
7 *472:26 *472:27 4.65865
8 *472:12 *472:13 1.75601
9 *472:11 *472:12 0.0926
10 *472:13 *472:14 0.0926
11 *472:16 *472:27 5.18402
12 *472:28 *472:30 0.159234
13 *472:18 *472:21 1.60651
14 *472:18 *472:20 0.159246
15 *472:23 *472:24 2.23392
16 *472:9 *472:11 0.745284
17 *472:7 *472:3 5.36475
18 *472:5 *472:29 0.159246
19 *472:7 *472:25 1.33597
20 *472:17 *472:31 2.62275
21 *472:17 *472:19 0.159246
22 *472:15 *472:31 0.631983
23 *472:29 *472:30 7.89808
24 *472:19 *472:20 1.3524
25 *472:23 *472:6 0.159234
26 *472:4 *472:26 21.8782
27 *1747:B1 *472:10 0.225
28 *1412:Z *472:9 0.225
29 *472:10 *472:8 0.225
30 *472:8 *472:31 0.225
31 *1412:Z *1574:D[4] 0.0001
*END

*D_NET *473 0.0146899

*CONN
*I *1413:Z O *C 145.9 102.4 *L 0 *D DEL1
*I *1738:B1 I *C 141.5 64 *L 0.000689 *D MOAI22D0
*I *1574:D[3] I *C 134.265 21.605 *L 0.00183 *D sram00

*CAP
1 *473:3 0.000570851
2 *473:4 0.000135075
3 *473:5 0.000128623
4 *473:6 0.000409262
5 *473:7 0.000276389
6 *473:8 0.00017428
7 *473:9 0.000912958
8 *473:10 0.000305808
9 *473:11 3.66969e-06
10 *473:12 9.29655e-06
11 *473:13 0.000161864
12 *473:14 0.000419813
13 *473:15 0.00200411016
14 *473:17 2.17123e-06
15 *473:18 0.000675407
16 *473:19 4.48314e-05
17 *473:20 3.66663e-05
18 *473:21 0.00140754
19 *473:10 *735:2 0.00267068
20 *473:3 *796:8 0.000758467031
21 *473:3 *737:7 0.00358214

*RES
1 *473:8 *473:9 4.37476
2 *473:14 *473:21 17.2345
3 *473:19 *473:20 0.285181
4 *473:6 *473:7 1.46451
5 *473:7 *473:8 0.34201
6 *473:16 *473:19 0.363173
7 *473:16 *473:18 0.159234
8 *473:4 *473:3 2.06399
9 *473:3 *473:11 0.536704
10 *473:15 *473:21 21.4723
11 *473:12 *473:14 6.10971
12 *473:10 *473:21 1.43736
13 *473:6 *473:20 1.01622
14 *473:15 *473:17 0.159234
15 *473:17 *473:18 4.12295
16 *473:11 *473:13 0.159254
17 *473:12 *473:13 0.811121
18 *1738:B1 *473:5 0.225
19 *1413:Z *473:4 0.225
20 *473:5 *473:10 0.225
21 *1413:Z *1574:D[3] 0.0001
*END

*D_NET *474 0.013572

*CONN
*I *1414:Z O *C 142.3 96 *L 0 *D DEL1
*I *1748:B1 I *C 140.7 73.2 *L 0.000689 *D MOAI22D0
*I *1574:D[5] I *C 134.265 30.005 *L 0.00183 *D sram00

*CAP
1 *474:3 0.000723558
2 *474:4 8.63946e-05
3 *474:5 0.000131958
4 *474:6 7.1104e-05
5 *474:7 0.00180236
6 *474:8 0.00126979
7 *474:9 8.77668e-05
8 *474:10 0.000220845
9 *474:11 0.00183529
10 *474:12 7.14401e-05
11 *474:13 2.48402e-05
12 *474:14 0.000314633
13 *474:15 0.000380164
14 *474:16 0.000194269
15 *474:17 5.84739e-05
16 *474:7 *469:3 0.00215116
17 *474:7 *475:5 0.00156792
18 *474:3 *618:18 0.000577981992
19 *474:3 *803:9 0.000927625
20 *474:3 *58:7 0.00107446

*RES
1 *474:8 *474:10 0.980442
2 *474:9 *474:15 1.98308
3 *474:13 *474:14 2.03114
4 *474:11 *474:17 16.3456
5 *474:6 *474:7 9.75066
6 *474:7 *474:8 5.63802
7 *474:3 *474:6 0.311672
8 *474:11 *474:12 0.588994
9 *474:3 *474:15 8.35528
10 *474:16 *474:17 0.159246
11 *474:12 *474:13 0.08963
12 *1748:B1 *474:5 0.334287
13 *474:5 *474:7 0.662965
14 *474:4 *474:9 0.270759
15 *474:10 *474:16 8.01237
16 *1414:Z *474:9 0.225
17 *1414:Z *1574:D[5] 0.0001
*END

*D_NET *475 0.0146477

*CONN
*I *1415:Z O *C 145.1 85.2 *L 0 *D DEL1
*I *1574:D[2] I *C 134.265 17.675 *L 0.00183 *D sram00
*I *1739:B1 I *C 141.7 56.8 *L 0.000689 *D MOAI22D0

*CAP
1 *475:3 0.000846106
2 *475:4 4.07103e-05
3 *475:5 0.00125013
4 *475:6 0.00169825
5 *475:7 0.000376499
6 *475:8 0.000661782
7 *475:9 5.62326e-06
8 *475:10 8.92206e-05
9 *475:11 0.000395546
10 *475:12 0.00120133
11 *475:13 7.2299e-06
12 *475:14 1.1091e-05
13 *475:15 0.00136137
14 *475:16 7.93475e-05
15 *475:17 9.84718e-06
16 *475:18 7.40093e-05
17 *475:20 2.43588e-06
18 *475:21 0.000376188
19 *475:22 9.36778e-05
20 *475:24 0.000130864
21 *475:25 0.000353099
22 *475:26 2.43588e-06
23 *475:27 0.000137083
24 *475:29 1.3216e-06
25 *475:30 0.0010997
26 *475:31 0.000207231
27 *475:3 *636:4 0.00218524
28 *475:4 *331:15 0.000382446992
29 *475:5 *474:7 0.00156792

*RES
1 *475:17 *475:18 0.429034
2 *1415:Z *475:6 6.56361
3 *475:10 *475:30 0.384234
4 *475:27 *475:29 0.159234
5 *475:10 *475:11 2.20911
6 *475:18 *475:20 0.159246
7 *475:23 *475:4 0.47302
8 *475:28 *475:30 7.71251
9 *475:7 *475:8 2.75729
10 *475:8 *475:9 0.092757
11 *475:22 *475:24 0.159246
12 *475:16 *475:31 0.791377
13 *475:20 *475:21 1.60119
14 *475:5 *475:12 4.83744
15 *475:16 *475:17 0.159246
16 *475:23 *475:25 0.159234
17 *475:13 *475:31 0.476074
18 *475:9 *475:31 0.619375
19 *475:12 *475:14 0.159246
20 *475:19 *475:22 0.468269
21 *475:19 *475:21 0.159246
22 *475:29 *475:3 12.0101
23 *475:13 *475:15 0.159246
24 *475:6 *475:5 5.05994
25 *1739:B1 *475:7 0.854039
26 *475:28 *475:3 0.159234
27 *475:26 *475:27 1.23873
28 *475:24 *475:25 3.22112
29 *475:14 *475:15 8.30408
30 *475:4 *475:26 0.159234
31 *1415:Z *1574:D[2] 0.0001
*END

*D_NET *476 0.0130468

*CONN
*I *1416:Z O *C 142.5 88 *L 0 *D DEL1
*I *1574:D[0] I *C 134.265 9.275 *L 0.00183 *D sram00
*I *1740:B1 I *C 140.7 46 *L 0.000689 *D MOAI22D0

*CAP
1 *476:3 0.000171061
2 *476:4 0.00388983
3 *476:5 5.65653e-05
4 *476:6 0.000119838
5 *476:7 0.000105652
6 *476:8 0.000481428
7 *476:9 0.00051716
8 *476:10 2.80749e-05
9 *476:11 0.000251547
10 *476:12 7.1226e-07
11 *476:13 0.000157825
12 *476:15 0.000162217
13 *476:16 0.000133667
14 *476:17 1.1871e-07
15 *476:18 4.1133e-05
16 *476:19 0.000131827
17 *476:20 5.46066e-06
18 *476:21 0.00102275
19 *476:11 *612:3 0.000348527031
20 *476:3 *477:3 0.00036295
21 *476:4 *1600:CP 0.000414255
22 *476:5 *839:17 0.00194779
23 *476:6 *537:9 0.00269641

*RES
1 *476:8 *476:5 0.696564
2 *476:5 *476:12 0.159246
3 *476:10 *476:21 0.602716
4 *476:14 *476:3 2.86404
5 *476:19 *476:20 0.159246
6 *476:14 *476:15 0.159246
7 *476:4 *476:9 3.65125
8 *476:16 *476:18 1.3148
9 *476:7 *476:8 1.56503
10 *476:11 *476:12 6.73737
11 *476:13 *476:15 2.88275
12 *476:4 *476:21 24.3976
13 *476:20 *476:21 3.80049
14 *476:18 *476:19 4.46275
15 *476:3 *476:17 0.159246
16 *476:16 *476:17 2.45738
17 *476:11 *476:13 2.80162
18 *1740:B1 *476:6 0.225
19 *1416:Z *476:7 0.225
20 *476:6 *476:10 0.225
21 *1416:Z *1574:D[0] 0.0001
*END

*D_NET *477 0.00648339

*CONN
*I *1262:I I *C 147.9 69.6 *L 0.00072 *D BUFFD1
*I *1417:Z O *C 146.3 70.8 *L 0 *D DEL1
*I *1743:B1 I *C 140.7 49.6 *L 0.000689 *D MOAI22D0

*CAP
1 *1262:I 0.000116446
2 *1743:B1 0.000246689
3 *1417:Z 0.00015862
4 *477:3 0.00223792
5 *477:4 0.000420743
6 *477:5 0.000301224
7 *477:6 0.000406845
8 *477:7 0.000328952
9 *477:8 7.1302e-05
10 *1743:B1 *537:9 0.000386557031
11 *1417:Z *633:57 0.000323769004
12 *1417:Z *853:10 0.000274869004
13 *1743:B1 *1743:A1 0.000286422988
14 *1262:I *1729:A2 0.000254388008
15 *477:3 *476:3 0.00036295
16 *477:6 *1422:Z 0.000305715

*RES
1 *1262:I *477:7 1.53304
2 *477:5 *477:8 1.13181
3 *477:6 *477:7 0.486942
4 *477:4 *477:5 2.32718
5 *477:3 *477:8 11.3486004
6 *477:3 *477:6 4.37504
7 *1743:B1 *477:4 1.16835
8 *1417:Z *477:7 2.57359
*END

*D_NET *478 0.000965692

*CONN
*I *1263:I I *C 143.9 218.8 *L 0.000643 *D CKBD0
*I *1418:Z O *C 143.9 221.2 *L 0 *D DEL1
*I *1690:A1 I *C 145.7 220.6 *L 0.00073 *D AO22D0

*CAP
1 *1263:I 0.000206928
2 *1690:A1 0.000281375
3 *478:3 0.000477383984

*RES
1 *1690:A1 *478:3 2.6754601
2 *1263:I *478:3 1.33136
3 *1418:Z *478:3 0.224983
*END

*D_NET *479 0.001038

*CONN
*I *1264:I I *C 143.3 62.4 *L 0.000643 *D CKBD0
*I *1419:Z O *C 141.3 63.6 *L 0 *D DEL1
*I *1719:B1 I *C 140.9 62.4 *L 0.000689 *D MOAI22D0

*CAP
1 *479:3 0.000437679
2 *479:4 0.000116742
3 *479:5 0.000483576016

*RES
1 *479:4 *479:5 2.00406003
2 *1419:Z *479:3 1.4029
3 *1264:I *479:4 0.450008
4 *1719:B1 *479:3 0.225004
5 *479:3 *479:5 0.225004
*END

*D_NET *480 0.00492728

*CONN
*I *1420:Z O *C 145.5 78 *L 0 *D DEL1
*I *1574:D[15] I *C 134.265 72.005 *L 0.00183 *D sram00
*I *1735:B1 I *C 148.1 84 *L 0.000689 *D MOAI22D0

*CAP
1 *480:3 0.00069992
2 *480:4 3.36156e-06
3 *480:5 0.0007117
4 *480:6 0.00012733
5 *480:8 0.000957825
6 *480:9 1.19847e-06
7 *480:10 0.00034608
8 *480:11 3.85118e-05
9 *480:12 0.000753735
10 *480:13 0.000130122
11 *480:14 0.000543301
12 *480:15 0.000334519
13 *480:16 0.000279682

*RES
1 *480:8 *480:9 0.0999355
2 *480:3 *480:4 0.159215
3 *480:6 *480:15 1.00703
4 *480:8 *480:14 4.29749012
5 *480:3 *480:15 2.5498
6 *480:7 *480:14 0.61981
7 *480:11 *480:16 1.10041
8 *480:9 *480:10 1.54421
9 *480:10 *480:11 0.0925912
10 *480:5 *480:14 1.28067
11 *480:12 *480:16 3.71217
12 *480:12 *480:13 0.515022
13 *480:4 *480:5 2.43426
14 *1420:Z *480:7 0.224986
15 *1735:B1 *480:6 0.224986
16 *1420:Z *1574:D[15] 0.000131149
*END

*D_NET *481 0.00309591

*CONN
*I *1267:I I *C 150.7 87.6 *L 0.000643 *D CKBD0
*I *1421:Z O *C 149.3 88 *L 0 *D DEL1
*I *1752:B1 I *C 145.1 94.8 *L 0.00101 *D MOAI22D1

*CAP
1 *1267:I 0.000103299
2 *1421:Z 7.34282e-05
3 *481:3 0.000591416
4 *481:4 0.00122197
5 *481:5 0.00110581

*RES
1 *481:3 *481:4 4.65085983
2 *481:3 *481:5 3.73241
3 *1752:B1 *481:5 0.854649
4 *1267:I *481:4 2.50661
5 *1421:Z *481:4 0.384213
*END

*D_NET *482 0.0110256

*CONN
*I *1266:I I *C 144.1 8.4 *L 0.00103 *D DEL01
*I *1422:Z O *C 146.1 70 *L 0 *D DEL1
*I *1729:B1 I *C 146.3 69.6 *L 0.000689 *D MOAI22D0

*CAP
1 *1422:Z 0.000191673
2 *482:3 0.0010338
3 *482:4 0.000657821
4 *482:5 0.000214525
5 *482:6 0.000127449
6 *482:7 0.000414134
7 *482:8 0.00133361
8 *482:9 0.000164628
9 *482:10 3.18064e-05
10 *482:11 7.92006e-05
11 *482:12 0.000185629
12 *482:3 *1579:Z 0.00106091
13 *482:5 *736:2 0.00273955
14 *1422:Z *477:6 0.000305715
15 *482:3 *316:3 0.00248516984

*RES
1 *482:11 *482:12 2.64556
2 *482:10 *482:11 2.48311
3 *482:9 *482:10 1.63195
4 *482:3 *482:12 6.0055
5 *482:5 *482:6 4.436
6 *1422:Z *482:5 2.20821
7 *482:8 *482:9 2.61937
8 *482:7 *482:8 17.3397007
9 *482:6 *482:7 3.19854
10 *482:4 *482:3 2.59027
11 *1422:Z *1729:B1 0.157427
12 *1266:I *482:4 0.224895
*END

*D_NET *483 0.00164747

*CONN
*I *1265:I I *C 142.5 62.4 *L 0.000643 *D CKBD0
*I *1423:Z O *C 140.9 60 *L 0 *D DEL1
*I *1725:B1 I *C 145.9 60.4 *L 0.000689 *D MOAI22D0

*CAP
1 *1725:B1 0.000278964
2 *483:3 0.00136851

*RES
1 *1265:I *483:3 1.79402
2 *1725:B1 *483:3 2.88599992
3 *1423:Z *483:3 1.58317
*END

*D_NET *484 0.00903137

*CONN
*I *1270:I I *C 137.7 28 *L 0.00103 *D DEL01
*I *1424:Z O *C 146.1 73.6 *L 0 *D DEL1
*I *1732:B1 I *C 147.1 71.2 *L 0.000689 *D MOAI22D0

*CAP
1 *1270:I 6.37333e-05
2 *1732:B1 0.000166382
3 *484:3 0.000660707
4 *484:4 0.000783984
5 *484:5 0.000466677
6 *484:6 0.000918372969
7 *484:7 0.00052238
8 *484:9 0.000843233
9 *484:10 0.000828547
10 *484:11 1.83576e-06
11 *484:12 0.000231026
12 *484:13 0.000231194
13 *484:14 3.15023e-05
14 *484:15 0.000768149
15 *484:15 *1747:A2 0.000506761016
16 *484:3 *617:3 0.000676995
17 *484:3 *1557:I 0.000605675
18 *484:4 *71:2 0.000517328008
19 *484:5 *326:12 0.000206892988

*RES
1 *484:6 *484:14 3.97324
2 *484:5 *484:4 1.43157
3 *1270:I *484:10 1.49863
4 *484:8 *484:13 1.90687
5 *484:7 *484:12 6.20744991
6 *484:3 *484:7 0.159221
7 *484:6 *484:3 4.19857
8 *484:14 *484:15 2.69255
9 *1732:B1 *484:15 1.25397
10 *1424:Z *484:15 1.24933
11 *484:4 *484:13 3.84082
12 *484:9 *484:11 0.159221
13 *484:5 *484:12 1.77057
14 *484:10 *484:11 5.00671
15 *484:8 *484:9 5.47083
*END

*D_NET *485 0.00965358

*CONN
*I *1268:I I *C 149.9 12 *L 0.00103 *D DEL01
*I *1425:Z O *C 147.1 77.2 *L 0 *D DEL1
*I *1733:B1 I *C 147.3 76.8 *L 0.000689 *D MOAI22D0

*CAP
1 *1733:B1 9.54589e-05
2 *485:3 0.00443681
3 *485:4 0.000972327
4 *485:5 9.9521e-05
5 *485:6 0.00023208
6 *485:7 0.000215967
7 *485:9 0.000896366
8 *485:10 0.000458068
9 *485:11 0.000394022
10 *485:11 *75:19 0.00035454
11 *485:3 *935:11 0.00131228
12 *485:3 *299:2 0.000186261992

*RES
1 *485:6 *485:7 1.48492
2 *485:8 *485:9 0.15914
3 *485:3 *485:11 25.3757
4 *485:4 *485:6 2.94661
5 *1733:B1 *485:5 0.636561
6 *1268:I *485:3 1.37534
7 *485:10 *485:11 2.1513
8 *485:8 *485:10 4.88804
9 *485:7 *485:9 6.41207
10 *485:4 *485:5 1.95305
11 *1425:Z *485:5 0.224965
*END

*D_NET *486 0.0043255

*CONN
*I *1426:Z O *C 145.7 80.8 *L 0 *D DEL1
*I *1734:B1 I *C 147.1 78.4 *L 0.000689 *D MOAI22D0
*I *1574:D[14] I *C 134.265 68.075 *L 0.00183 *D sram00

*CAP
1 *1734:B1 0.000305611
2 *486:3 7.63699e-05
3 *486:4 0.000298412
4 *486:5 0.000144249
5 *486:6 0.000105517
6 *486:7 3.49901e-05
7 *486:8 0.000680721
8 *486:9 6.72887e-05
9 *486:10 0.000863024
10 *486:11 0.00143407
11 *486:12 0.000114052
12 *486:13 0.000144249
13 *486:14 5.69602e-05

*RES
1 *486:8 *486:9 0.092599
2 *486:11 *486:14 7.28035
3 *486:13 *486:14 0.159246
4 *486:6 *486:7 0.092599
5 *486:10 *486:13 0.696564
6 *1734:B1 *486:3 1.27673
7 *486:11 *486:12 0.755442
8 *486:9 *486:10 3.55358
9 *486:3 *486:6 0.767295
10 *486:4 *486:8 3.20623
11 *486:5 *486:7 0.648545
12 *486:4 *486:5 0.419359
13 *1426:Z *486:5 0.225
14 *1426:Z *1574:D[14] 0.0001
*END

*D_NET *487 0.00917338

*CONN
*I *1271:I I *C 150.1 44.4 *L 0.00103 *D DEL01
*I *1427:Z O *C 147.1 91.6 *L 0 *D DEL1
*I *1751:B1 I *C 144.9 92.8 *L 0.000689 *D MOAI22D0

*CAP
1 *1271:I 0.000142837
2 *1751:B1 0.000644927
3 *1427:Z 7.23403e-05
4 *487:3 0.00135416
5 *487:4 0.00180328
6 *487:5 0.000894169
7 *487:6 0.000233558
8 *487:7 0.000431648
9 *487:8 0.000215342
10 *487:9 0.000369654
11 *487:10 0.000260799
12 *487:11 0.000291755
13 *487:12 0.000295112
14 *487:3 *316:6 0.000718418984
15 *487:4 *308:7 0.000797186953
16 *487:4 *1585:ZN 0.000648195039

*RES
1 *487:6 *487:10 1.87899
2 *487:11 *487:12 2.40368
3 *487:7 *487:8 2.61208
4 *487:4 *487:8 1.68296
5 *1751:B1 *487:6 2.60658
6 *487:10 *487:11 2.27516
7 *487:5 *487:3 3.77791
8 *487:3 *487:9 8.93911
9 *487:4 *487:12 9.00879955
10 *1427:Z *487:6 0.926916
11 *1271:I *487:5 1.84215
12 *487:7 *487:9 1.4211
*END

*D_NET *488 0.00156467

*CONN
*I *1269:I I *C 145.3 262 *L 0.00103 *D DEL01
*I *1428:Z O *C 150.5 261.6 *L 0 *D DEL1
*I *1696:A1 I *C 144.9 258.6 *L 0.00073 *D AO22D0

*CAP
1 *1696:A1 0.000667093
2 *1428:Z 7.27728e-05
3 *488:3 0.00072118
4 *488:4 0.000103618

*RES
1 *488:3 *488:4 3.49850988
2 *1428:Z *488:4 0.450019
3 *1696:A1 *488:3 2.93681
4 *1269:I *488:3 0.225009
*END

*D_NET *489 0.0036857

*CONN
*I *1273:I I *C 137.7 53.2 *L 0.00103 *D DEL01
*I *1429:Z O *C 144.3 60 *L 0 *D DEL1
*I *1726:B1 I *C 144.1 62.4 *L 0.000689 *D MOAI22D0

*CAP
1 *1273:I 0.000426516
2 *1726:B1 0.000263213
3 *489:3 0.00185221
4 *489:4 0.000376999
5 *489:5 0.000766745

*RES
1 *489:3 *489:4 6.55478001
2 *1273:I *489:5 5.23244
3 *1726:B1 *489:3 1.46946
4 *489:4 *489:5 1.51087
5 *1429:Z *489:3 0.225041
*END

*D_NET *490 0.00495813

*CONN
*I *1274:I I *C 143.7 67.6 *L 0.00103 *D DEL01
*I *1430:Z O *C 140.7 88.8 *L 0 *D DEL1
*I *1750:B1 I *C 140.9 89.2 *L 0.00101 *D MOAI22D1

*CAP
1 *1274:I 1.13567e-05
2 *1430:Z 1.44365e-06
3 *490:3 0.00126145992
4 *490:4 1.50139e-06
5 *490:5 0.000745923
6 *490:6 0.000876121
7 *490:8 0.000987532
8 *490:9 0.00107277

*RES
1 *490:6 *490:9 2.45141
2 *1274:I *490:8 0.834807
3 *490:5 *490:6 4.10392
4 *490:3 *490:8 2.864
5 *490:3 *490:4 5.21592999
6 *490:7 *490:9 2.60598
7 *490:4 *490:5 0.28636
8 *1430:Z *1750:B1 0.155198
9 *1430:Z *490:7 0.224997
*END

*D_NET *491 0.00355741

*CONN
*I *1431:Z O *C 141.9 84.4 *L 0 *D DEL1
*I *1574:D[16] I *C 134.265 76.475 *L 0.00183 *D sram00
*I *1749:B1 I *C 140.3 85.6 *L 0.000689 *D MOAI22D0

*CAP
1 *491:3 0.000115859
2 *491:4 1.41153e-05
3 *491:5 0.000249789
4 *491:7 0.000234447
5 *491:8 0.000248052
6 *491:9 2.32958e-06
7 *491:10 0.0002381
8 *491:11 0.000247322
9 *491:12 0.000603169
10 *491:13 0.000116052
11 *491:14 0.000903367969
12 *491:16 0.000172031
13 *491:17 0.000412805

*RES
1 *491:8 *491:9 0.159216
2 *491:3 *491:4 0.159216
3 *491:13 *491:17 1.42654
4 *491:10 *491:14 3.65350008
5 *491:6 *491:7 0.159216
6 *491:7 *491:12 0.881543
7 *491:11 *491:12 2.141
8 *491:9 *491:10 0.361135
9 *491:5 *491:11 1.12717
10 *491:14 *491:15 0.0930434
11 *491:6 *491:8 0.987631
12 *1749:B1 *491:3 0.467558
13 *491:15 *491:16 0.897989
14 *491:4 *491:5 0.570135
15 *1431:Z *491:13 0.224999
16 *491:5 *491:17 0.224999
17 *1431:Z *1574:D[16] 0.000111496
*END

*D_NET *492 0.00139763

*CONN
*I *1281:I I *C 144.3 272.8 *L 0.00103 *D DEL01
*I *1432:Z O *C 143.9 272.4 *L 0 *D DEL1
*I *1697:A1 I *C 142.7 265.8 *L 0.00073 *D AO22D0

*CAP
1 *1697:A1 0.000174374
2 *1432:Z 2.11847e-05
3 *492:3 0.000157775
4 *492:4 7.19568e-05
5 *492:5 0.000969508984
6 *492:6 2.8404e-06

*RES
1 *492:3 *492:4 0.536916
2 *1432:Z *492:3 0.376623
3 *492:5 *492:6 0.159227
4 *492:4 *492:5 3.88210011
5 *1697:A1 *492:6 0.943691
6 *1432:Z *1281:I 0.26911
*END

*D_NET *493 0.000729564

*CONN
*I *1285:I I *C 145.5 172 *L 0.00103 *D DEL01
*I *1433:Z O *C 143.5 171.6 *L 0 *D DEL1
*I *1736:B1 I *C 143.7 172 *L 0.000689 *D MOAI22D0

*CAP
1 *1285:I 8.57538e-05
2 *1736:B1 5.45812e-05
3 *1433:Z 2.35519e-06
4 *493:3 0.000586871016

*RES
1 *1285:I *493:3 0.449993
2 *1736:B1 *493:3 1.58314002
3 *1433:Z *1736:B1 0.18579
*END

*D_NET *494 0.00323656

*CONN
*I *1176:Z O *C 151.9 257.2 *L 0 *D DEL01
*I *1280:I I *C 150.1 260.4 *L 0.00103 *D DEL01
*I *1692:A1 I *C 145.1 253 *L 0.00073 *D AO22D0

*CAP
1 *1176:Z 3.77982e-06
2 *494:3 0.000633183
3 *494:5 0.000460275
4 *494:6 0.000707841
5 *494:7 0.000820233984
6 *494:8 0.000611255

*RES
1 *494:6 *494:7 3.10862
2 *494:5 *494:8 3.13614011
3 *1280:I *494:3 2.53352
4 *1176:Z *494:5 0.552232
5 *494:4 *494:7 2.942
6 *494:3 *494:5 1.76733
7 *1692:A1 *494:6 0.450016
8 *494:4 *494:8 0.225008
*END

*D_NET *495 0.00180046

*CONN
*I *1282:I I *C 146.9 247.6 *L 0.00103 *D DEL01
*I *1435:Z O *C 148.7 250.8 *L 0 *D DEL1
*I *1691:A1 I *C 145.1 247.8 *L 0.00073 *D AO22D0

*CAP
1 *495:3 0.000245152
2 *495:4 0.000573456
3 *495:5 0.000981853047

*RES
1 *495:3 *495:4 1.85402
2 *1435:Z *495:5 1.75095
3 *495:3 *495:5 2.69874001
4 *1691:A1 *495:4 0.45001
5 *1282:I *495:3 0.225005
*END

*D_NET *496 0.00186501

*CONN
*I *1286:I I *C 146.7 92.8 *L 0.00103 *D DEL01
*I *1436:Z O *C 141.3 95.2 *L 0 *D DEL1
*I *1753:B1 I *C 142.9 94.8 *L 0.00101 *D MOAI22D1

*CAP
1 *1286:I 1.75641e-05
2 *1753:B1 0.000102054
3 *1436:Z 4.77636e-05
4 *496:3 0.000718844
5 *496:4 0.000978796016

*RES
1 *496:3 *496:4 1.8902
2 *1436:Z *496:4 1.87697
3 *1286:I *496:3 2.76164007
4 *1753:B1 *496:4 0.450005
*END

*D_NET *497 0.0013889

*CONN
*I *1290:I I *C 143.5 199.2 *L 0.00103 *D DEL01
*I *1437:Z O *C 148.7 199.6 *L 0 *D DEL1
*I *1717:B1 I *C 143.7 197.2 *L 0.000689 *D MOAI22D0

*CAP
1 *1290:I 0.000163929
2 *1717:B1 0.000297475
3 *497:3 0.000135468
4 *497:4 0.00079203

*RES
1 *1290:I *497:4 0.769675
2 *497:3 *497:4 3.49826002
3 *1437:Z *497:3 0.575908
4 *1717:B1 *497:4 1.42576
*END

*D_NET *498 0.00116245

*CONN
*I *1288:I I *C 140.3 251.2 *L 0.00105 *D DEL02
*I *1438:Z O *C 141.7 253.6 *L 0 *D DEL1
*I *1693:A1 I *C 143.5 253 *L 0.00073 *D AO22D0

*CAP
1 *1288:I 0.00041339
2 *498:3 0.000402988
3 *498:4 0.000346072

*RES
1 *498:3 *498:4 1.65184
2 *1693:A1 *498:3 0.609831
3 *1288:I *498:4 2.86616993
4 *1438:Z *498:4 0.225013
*END

*D_NET *499 0.00146363

*CONN
*I *1287:I I *C 144.3 204.4 *L 0.00103 *D DEL01
*I *1439:Z O *C 148.5 200.4 *L 0 *D DEL1
*I *1718:B1 I *C 143.7 202.8 *L 0.000689 *D MOAI22D0

*CAP
1 *1287:I 9.06727e-05
2 *1439:Z 0.00016681
3 *499:3 0.000834115
4 *499:4 0.000303392
5 *499:5 6.86282e-05

*RES
1 *1287:I *499:4 1.85132
2 *499:3 *499:5 3.28864002
3 *499:3 *499:4 0.629516
4 *1439:Z *499:5 0.609846
5 *1718:B1 *499:4 0.22501
*END

*D_NET *500 0.00172459

*CONN
*I *1289:I I *C 145.3 181.2 *L 0.00103 *D DEL01
*I *1440:Z O *C 144.9 181.6 *L 0 *D DEL1
*I *1737:B1 I *C 143.1 177.6 *L 0.000689 *D MOAI22D0

*CAP
1 *1289:I 0.000114012
2 *1440:Z 8.45688e-06
3 *500:4 0.000583338
4 *500:5 0.00101879

*RES
1 *1440:Z *1289:I 0.268017
2 *500:4 *500:5 1.75348
3 *500:3 *500:5 3.58172011
4 *1289:I *500:3 0.225005
5 *1737:B1 *500:4 0.225005
*END

*D_NET *501 0.0019898

*CONN
*I *1293:I I *C 142.9 92.8 *L 0.00103 *D DEL01
*I *1441:Z O *C 140.9 98.8 *L 0 *D DEL1
*I *1754:B1 I *C 141.1 98.4 *L 0.00101 *D MOAI22D1

*CAP
1 *1293:I 0.000391647
2 *1754:B1 9.43248e-05
3 *501:3 0.000256791
4 *501:4 0.00124704

*RES
1 *1754:B1 *501:3 0.70969
2 *501:3 *501:4 3.64814997
3 *1293:I *501:4 2.52786
4 *1441:Z *501:3 0.225003
*END

*D_NET *502 0.00178045

*CONN
*I *1279:I I *C 138.1 112.8 *L 0.00103 *D DEL01
*I *1442:Z O *C 145.3 110.4 *L 0 *D DEL1
*I *1706:A1 I *C 140.3 112.6 *L 0.00073 *D AO22D0

*CAP
1 *1706:A1 5.43221e-05
2 *1442:Z 0.000176516
3 *502:3 0.00066867
4 *502:4 0.000456351
5 *502:5 0.000424598

*RES
1 *502:4 *502:5 1.60995
2 *1442:Z *502:3 0.602879
3 *1706:A1 *502:5 0.675016
4 *502:3 *502:5 4.06150007
5 *1279:I *502:4 0.225026
*END

*D_NET *503 0.00140178

*CONN
*I *1292:I I *C 141.9 112.8 *L 0.00103 *D DEL01
*I *1443:Z O *C 141.3 106.8 *L 0 *D DEL1
*I *1756:B1 I *C 141.5 107.2 *L 0.000689 *D MOAI22D0

*CAP
1 *1292:I 9.22701e-05
2 *1756:B1 0.00011919
3 *503:3 0.00051747
4 *503:4 0.000672851953

*RES
1 *1756:B1 *503:3 0.784122
2 *1292:I *503:4 2.80227995
3 *503:3 *503:4 1.94696
4 *1443:Z *503:3 0.225
*END

*D_NET *504 0.00186538

*CONN
*I *1296:I I *C 143.9 105.6 *L 0.00103 *D DEL01
*I *1444:Z O *C 140.9 102.4 *L 0 *D DEL1
*I *1755:B1 I *C 141.1 102 *L 0.00101 *D MOAI22D1

*CAP
1 *1296:I 0.000394104
2 *1755:B1 0.000147956
3 *504:3 0.000546057
4 *504:4 0.00077726

*RES
1 *1755:B1 *504:4 0.721099
2 *504:3 *504:4 4.17953014
3 *1296:I *504:3 1.95762
4 *1444:Z *504:4 0.224997
*END

*D_NET *505 0.0018775

*CONN
*I *1291:I I *C 146.1 269.2 *L 0.00103 *D DEL01
*I *1445:Z O *C 145.7 268.8 *L 0 *D DEL1
*I *1695:A1 I *C 142.3 263.8 *L 0.00073 *D AO22D0

*CAP
1 *1291:I 5.97183e-06
2 *1445:Z 2.74301e-05
3 *505:3 9.31794e-05
4 *505:4 0.000317312
5 *505:5 0.000776515
6 *505:6 4.3118e-05
7 *505:7 0.000100004
8 *505:8 0.000513968

*RES
1 *505:3 *505:5 2.96708012
2 *505:4 *505:7 1.14657
3 *1445:Z *1291:I 0.266845
4 *505:6 *505:7 0.270694
5 *505:5 *505:8 2.82868
6 *1695:A1 *505:4 0.449979
7 *1445:Z *505:3 0.225012
8 *505:7 *505:8 0.225012
*END

*D_NET *506 0.00331417

*CONN
*I *1283:I I *C 150.1 110.8 *L 0.00103 *D DEL01
*I *1446:Z O *C 145.3 117.6 *L 0 *D DEL1
*I *1708:A1 I *C 140.7 118.2 *L 0.00073 *D AO22D0

*CAP
1 *1283:I 0.000124211
2 *506:3 0.000643529
3 *506:4 0.000569903
4 *506:5 8.25554e-05
5 *506:6 0.0010321
6 *506:7 0.000861871

*RES
1 *506:5 *506:7 3.05764
2 *506:6 *506:7 3.70981002
3 *506:3 *506:5 2.62929
4 *506:3 *506:4 2.29288
5 *1446:Z *506:7 0.450027
6 *1283:I *506:4 0.623132
7 *1708:A1 *506:6 0.450027
*END

*D_NET *507 0.00149116

*CONN
*I *1299:I I *C 143.3 208 *L 0.00103 *D DEL01
*I *1447:Z O *C 141.3 206.8 *L 0 *D DEL1
*I *1720:B1 I *C 141.1 202.8 *L 0.000689 *D MOAI22D0

*CAP
1 *1299:I 0.000275595
2 *1720:B1 0.000498376016
3 *507:3 0.00035232
4 *507:4 0.000364875

*RES
1 *1299:I *507:4 2.19416
2 *1720:B1 *507:3 2.48147011
3 *507:3 *507:4 1.44501
4 *1447:Z *507:3 0.224989
*END

*D_NET *508 0.000877526

*CONN
*I *1294:I I *C 142.1 258.4 *L 0.00103 *D DEL01
*I *1448:Z O *C 141.9 260.8 *L 0 *D DEL1
*I *1694:A1 I *C 143.3 260.2 *L 0.00073 *D AO22D0

*CAP
1 *1294:I 0.000405852
2 *508:3 0.000466026016
3 *508:4 5.64621e-06

*RES
1 *508:3 *508:4 1.40892994
2 *1294:I *508:4 1.31859
3 *1694:A1 *508:3 0.609828
4 *1448:Z *508:4 0.225004
*END

*D_NET *509 0.00757285

*CONN
*I *1276:I I *C 150.1 130.8 *L 0.00103 *D DEL01
*I *1449:Z O *C 141.9 110.4 *L 0 *D DEL1
*I *1707:A1 I *C 140.7 116.2 *L 0.00073 *D AO22D0

*CAP
1 *1449:Z 0.000467409
2 *509:3 0.000732025
3 *509:4 0.00117642
4 *509:5 0.000648355
5 *509:6 0.00043016
6 *509:8 0.000404652
7 *509:9 0.000614212
8 *509:10 0.00106015
9 *509:3 *73:7 0.000398886992
10 *509:3 *846:32 0.00114978
11 *509:4 *615:6 0.000236915
12 *509:3 *53:4 0.000253875996

*RES
1 *509:4 *509:10 8.38716984
2 *509:3 *509:9 1.35823
3 *509:5 *509:8 1.53612
4 *1276:I *509:5 2.2871
5 *509:7 *509:9 2.62995
6 *509:3 *509:6 2.15387
7 *1449:Z *509:9 2.51221
8 *509:8 *509:4 5.93434
9 *509:6 *509:10 2.37118
10 *1707:A1 *509:7 0.449971
*END

*D_NET *510 0.00167797

*CONN
*I *1295:I I *C 149.5 238.8 *L 0.00103 *D DEL01
*I *1450:Z O *C 149.3 242.8 *L 0 *D DEL1
*I *1730:A1 I *C 144.9 244.2 *L 0.00073 *D AO22D0

*CAP
1 *1295:I 0.000607338
2 *1450:Z 0.000111668
3 *510:3 6.37635e-05
4 *510:5 0.000895188984

*RES
1 *510:3 *510:5 2.86898994
2 *510:4 *510:5 1.33534
3 *1295:I *1450:Z 2.47263
4 *1450:Z *510:3 0.350919
5 *1730:A1 *510:4 0.449987
*END

*D_NET *511 0.00223865

*CONN
*I *1298:I I *C 146.9 220.8 *L 0.00103 *D DEL01
*I *1451:Z O *C 148.9 218.4 *L 0 *D DEL1
*I *1721:A1 I *C 146.9 215.4 *L 0.00073 *D AO22D0

*CAP
1 *1298:I 0.000105384
2 *511:3 0.000408744
3 *511:4 8.18236e-05
4 *511:5 0.000585029
5 *511:6 0.000429255
6 *511:7 0.00062842

*RES
1 *511:5 *511:7 2.15967
2 *1298:I *511:3 1.83219
3 *511:4 *511:6 1.86176
4 *511:3 *511:7 2.16763997
5 *1721:A1 *511:5 0.449993
6 *1451:Z *511:4 0.225013
7 *511:3 *511:6 0.225013
*END

*D_NET *512 0.00124241

*CONN
*I *1297:I I *C 149.1 226 *L 0.00103 *D DEL01
*I *1452:Z O *C 148.7 225.6 *L 0 *D DEL1
*I *1722:A1 I *C 146.5 222.6 *L 0.00073 *D AO22D0

*CAP
1 *1452:Z 1.85111e-05
2 *512:3 0.000286243
3 *512:4 0.000532305
4 *512:5 0.000405343

*RES
1 *512:3 *512:5 1.60996
2 *1452:Z *512:3 0.728618
3 *512:4 *512:5 1.86767006
4 *1452:Z *1297:I 0.263211
5 *1722:A1 *512:4 0.449989
*END

*D_NET *513 0.00141866

*CONN
*I *1300:I I *C 142.7 136 *L 0.00103 *D DEL01
*I *1453:Z O *C 141.7 132 *L 0 *D DEL1
*I *1711:A1 I *C 141.1 136.2 *L 0.00073 *D AO22D0

*CAP
1 *1300:I 0.000105187
2 *1711:A1 8.08153e-06
3 *1453:Z 0.000755525
4 *513:3 0.000549878

*RES
1 *1453:Z *513:3 3.13937998
2 *1711:A1 *513:3 0.539054
3 *1300:I *513:3 2.1051
*END

*D_NET *514 0.00142692

*CONN
*I *1303:I I *C 142.7 224.4 *L 0.00103 *D DEL01
*I *1454:Z O *C 142.5 228.4 *L 0 *D DEL1
*I *1723:A1 I *C 144.7 226.2 *L 0.00073 *D AO22D0

*CAP
1 *1303:I 0.000343845
2 *1454:Z 0.000107859
3 *514:3 0.000294429
4 *514:4 0.000680782031

*RES
1 *514:3 *514:4 2.19901991
2 *1303:I *514:3 1.37486
3 *1454:Z *514:3 1.56276
4 *1723:A1 *514:4 0.449998
*END

*D_NET *515 0.000846666

*CONN
*I *1311:I I *C 143.5 190 *L 0.00103 *D DEL01
*I *1455:Z O *C 142.1 188.8 *L 0 *D DEL1
*I *1716:B1 I *C 142.3 188.4 *L 0.000689 *D MOAI22D0

*CAP
1 *1716:B1 0.000273148
2 *1455:Z 2.37921e-06
3 *515:3 0.000571142031

*RES
1 *1716:B1 *515:3 0.93528
2 *1311:I *515:3 1.98049998
3 *1455:Z *1716:B1 0.187546
*END

*D_NET *516 0.000865202

*CONN
*I *1307:I I *C 142.9 138 *L 0.00103 *D DEL01
*I *1456:Z O *C 140.9 138.4 *L 0 *D DEL1
*I *1712:A1 I *C 141.3 137.8 *L 0.00073 *D AO22D0

*CAP
1 *1307:I 4.27268e-05
2 *1712:A1 7.25801e-05
3 *1456:Z 9.56062e-05
4 *516:3 0.000550333984
5 *516:4 0.000103953

*RES
1 *1456:Z *516:3 0.758619
2 *516:3 *516:4 1.50361001
3 *1307:I *516:4 0.450009
4 *1712:A1 *516:3 0.609878
*END

*D_NET *517 0.00122891

*CONN
*I *1302:I I *C 143.9 238.8 *L 0.00103 *D DEL01
*I *1457:Z O *C 143.5 239.2 *L 0 *D DEL1
*I *1728:A1 I *C 142.9 242.2 *L 0.00073 *D AO22D0

*CAP
1 *1302:I 5.18958e-06
2 *1457:Z 1.70121e-05
3 *517:3 3.43972e-05
4 *517:4 0.0001095
5 *517:6 0.00106280992

*RES
1 *517:3 *517:4 0.343604
2 *517:5 *517:6 3.36950994
3 *517:4 *517:6 0.544635
4 *1457:Z *1302:I 0.269773
5 *1728:A1 *517:5 0.449981
6 *1457:Z *517:4 0.22499
*END

*D_NET *518 0.00103446

*CONN
*I *1308:I I *C 142.9 141.6 *L 0.00103 *D DEL01
*I *1458:Z O *C 140.9 142 *L 0 *D DEL1
*I *1713:A1 I *C 141.3 141.4 *L 0.00073 *D AO22D0

*CAP
1 *1308:I 0.000136571
2 *1713:A1 1.16579e-05
3 *1458:Z 0.000192319
4 *518:3 0.000693917969

*RES
1 *1713:A1 *518:3 0.834894
2 *1458:Z *518:3 1.13682
3 *1308:I *518:3 1.74398005
*END

*D_NET *519 0.00106483

*CONN
*I *1305:I I *C 142.5 247.6 *L 0.00103 *D DEL01
*I *1459:Z O *C 142.1 247.2 *L 0 *D DEL1
*I *1731:A1 I *C 142.9 244.2 *L 0.00073 *D AO22D0

*CAP
1 *1305:I 0.000140881
2 *1731:A1 0.000899337969
3 *1459:Z 2.46054e-05

*RES
1 *1459:Z *1305:I 0.271507
2 *1305:I *1731:A1 3.57155991
*END

*D_NET *520 0.000520231

*CONN
*I *1310:I I *C 141.5 192 *L 0.00103 *D DEL01
*I *1460:Z O *C 142.3 193.2 *L 0 *D DEL1
*I *1715:B1 I *C 142.9 193.6 *L 0.000689 *D MOAI22D0

*CAP
1 *1310:I 0.000471021992
2 *1460:Z 4.92117e-05

*RES
1 *1310:I *1460:Z 1.77461004
2 *1460:Z *1715:B1 0.481968
*END

*D_NET *521 0.00151562

*CONN
*I *1304:I I *C 146.3 233.2 *L 0.00103 *D DEL01
*I *1461:Z O *C 141.5 232.8 *L 0 *D DEL1
*I *1727:A1 I *C 142.9 235 *L 0.00073 *D AO22D0

*CAP
1 *1304:I 0.000226689
2 *521:3 0.00128892008

*RES
1 *1727:A1 *521:3 1.9328
2 *1304:I *521:3 2.93961
3 *1461:Z *521:3 1.45725
*END

*D_NET *522 0.00162588

*CONN
*I *1306:I I *C 146.1 229.6 *L 0.00103 *D DEL01
*I *1462:Z O *C 141.3 229.2 *L 0 *D DEL1
*I *1724:A1 I *C 143.1 231.4 *L 0.00073 *D AO22D0

*CAP
1 *1306:I 0.000312118
2 *1462:Z 0.000549248
3 *522:3 0.000764517031

*RES
1 *1462:Z *522:3 2.00243
2 *1724:A1 *522:3 1.3143
3 *1306:I *522:3 3.32575989
*END

*D_NET *523 0.00235711

*CONN
*I *1301:I I *C 138.1 130.8 *L 0.00103 *D DEL01
*I *1463:Z O *C 142.7 124.8 *L 0 *D DEL1
*I *1710:A1 I *C 141.3 129 *L 0.00073 *D AO22D0

*CAP
1 *1301:I 0.000900819
2 *1463:Z 0.000122588
3 *523:3 0.00101143
4 *523:4 0.000199246
5 *523:5 0.00012302

*RES
1 *523:4 *523:5 0.864505
2 *1301:I *523:5 3.37208
3 *1463:Z *523:3 0.907445
4 *523:3 *523:4 3.66422009
5 *1710:A1 *523:4 0.449976
*END

*D_NET *524 0.00286096

*CONN
*I *1312:I I *C 138.5 116.4 *L 0.00103 *D DEL01
*I *1464:Z O *C 140.9 124 *L 0 *D DEL1
*I *1709:A1 I *C 141.3 123.4 *L 0.00073 *D AO22D0

*CAP
1 *1709:A1 0.000172526
2 *1464:Z 1.04151e-05
3 *524:3 0.000204448
4 *524:4 0.000212311
5 *524:5 0.000461726
6 *524:6 9.31889e-05
7 *524:7 0.00170638

*RES
1 *524:5 *524:6 1.51092
2 *524:4 *524:7 0.449953
3 *1464:Z *524:3 0.464804
4 *524:5 *524:7 6.57630014
5 *1709:A1 *524:3 1.18951
6 *1312:I *524:4 0.224977
7 *524:3 *524:6 0.224977
*END

*D_NET *525 0.00336038

*CONN
*I *1465:Z O *C 148.7 63.6 *L 0 *D DEL1
*I *1593:D I *C 149.5 46 *L 0.000971 *D DFCNQD1

*CAP
1 *1593:D 0.000249512
2 *525:2 0.000626758
3 *525:3 0.000412493
4 *525:4 0.00049385
5 *525:5 0.000331136
6 *525:6 0.00124661008

*RES
1 *525:2 *525:3 2.47796
2 *1465:Z *525:5 1.17536
3 *525:5 *525:6 4.86227989
4 *525:4 *525:6 2.14765
5 *525:3 *525:4 1.63127
6 *1593:D *525:2 1.12966
*END

*D_NET *526 0.000668882

*CONN
*I *1466:Z O *C 146.5 96 *L 0 *D DEL1
*I *1586:D I *C 147.9 98.4 *L 0.000971 *D DFCNQD1

*CAP
1 *1586:D 0.000203268
2 *1466:Z 0.000465613008

*RES
1 *1466:Z *1586:D 2.59819
*END

*D_NET *527 0.000691088

*CONN
*I *1313:I I *C 142.7 200.8 *L 0.00103 *D DEL01
*I *1467:Z O *C 140.7 200.4 *L 0 *D DEL1
*I *1714:B1 I *C 140.9 200.8 *L 0.000689 *D MOAI22D0

*CAP
1 *1714:B1 0.000223739
2 *1467:Z 2.36979e-06
3 *527:3 0.000464981992

*RES
1 *1313:I *527:3 1.58314002
2 *1467:Z *1714:B1 0.203304
3 *1714:B1 *527:3 0.449993
*END

*D_NET *528 0.00266866

*CONN
*I *1123:I I *C 142.3 46 *L 0.000643 *D CKBD0
*I *1468:Z O *C 146.5 56.4 *L 0 *D DEL1

*CAP
1 *1468:Z 0.000366283
2 *528:2 0.000633535
3 *528:3 0.0010824
4 *528:4 0.000586447

*RES
1 *528:2 *528:3 1.98654
2 *528:3 *528:4 5.49858999
3 *1468:Z *528:4 3.50626
4 *1123:I *528:2 0.449965
*END

*D_NET *529 0.00565508

*CONN
*I *1048:I I *C 137.7 33.6 *L 0.000968 *D CKBD1
*I *1469:Z O *C 149.1 16 *L 0 *D DEL1
*I *1685:D I *C 138.7 35 *L 0.000758 *D EDFCNQD1

*CAP
1 *1048:I 0.00032357
2 *1685:D 4.50331e-06
3 *1469:Z 0.000299181
4 *529:3 0.000370624
5 *529:4 0.000658881
6 *529:5 0.000128813
7 *529:6 2.97248e-07
8 *529:7 0.000525164
9 *529:8 0.000848124
10 *529:9 0.00023331
11 *529:10 0.000974008984
12 *529:3 *1600:CP 0.000452820977
13 *1469:Z *450:4 0.000290480996
14 *529:4 *84:6 0.000545297031

*RES
1 *529:3 *529:9 1.48268
2 *529:7 *529:8 1.92405
3 *529:6 *529:7 2.47835
4 *529:4 *529:6 3.75319
5 *529:5 *529:10 5.05246019
6 *529:3 *529:8 2.53548
7 *1469:Z *529:5 1.9922
8 *1685:D *529:9 1.21131
9 *529:4 *529:10 1.71921
10 *1048:I *529:9 1.70263
*END

*D_NET *530 0.00352637

*CONN
*I *1050:I I *C 145.9 10 *L 0.000968 *D CKBD1
*I *1470:Z O *C 149.3 20.4 *L 0 *D DEL1
*I *1682:D I *C 144.1 6.2 *L 0.000758 *D EDFCNQD1

*CAP
1 *1682:D 0.000317071
2 *1470:Z 0.000268669
3 *530:3 0.000505159
4 *530:4 2.85736e-06
5 *530:5 0.00125676
6 *530:6 0.000693668
7 *530:7 0.000482204

*RES
1 *530:5 *530:7 1.86177
2 *530:6 *530:7 2.89967
3 *530:4 *530:5 5.52645016
4 *530:3 *530:4 0.159209
5 *1470:Z *530:3 2.63277
6 *1050:I *530:7 1.15452
7 *1682:D *530:6 1.34029
*END

*D_NET *531 0.00159779

*CONN
*I *1052:I I *C 150.7 22.8 *L 0.00072 *D BUFFD1
*I *1471:Z O *C 144.1 24 *L 0 *D DEL1
*I *1683:D I *C 144.7 24.2 *L 0.000758 *D EDFCNQD1

*CAP
1 *1052:I 0.000415794
2 *1683:D 9.8467e-05
3 *1471:Z 3.87294e-05
4 *531:3 0.00014729
5 *531:4 0.000897501016

*RES
1 *1683:D *531:4 0.450006
2 *531:3 *531:4 3.88610005
3 *1471:Z *531:4 0.903808
4 *1052:I *531:3 1.78348
*END

*D_NET *532 0.0028358

*CONN
*I *1051:I I *C 137.7 12 *L 0.000968 *D CKBD1
*I *1472:Z O *C 140.7 20.4 *L 0 *D DEL1
*I *1681:D I *C 145.3 9.8 *L 0.000758 *D EDFCNQD1

*CAP
1 *1051:I 0.00057994
2 *1681:D 0.000258242
3 *1472:Z 0.000588933
4 *532:3 9.30867e-05
5 *532:5 0.0013156

*RES
1 *532:4 *532:5 3.71745992
2 *532:3 *532:5 3.24671
3 *1051:I *532:5 2.85202
4 *1472:Z *532:4 2.76002
5 *1681:D *532:3 1.03691
*END

*D_NET *533 0.00256263

*CONN
*I *1054:I I *C 137.5 19.2 *L 0.000643 *D CKBD0
*I *1473:Z O *C 140.7 24 *L 0 *D DEL1
*I *1684:D I *C 139.9 26.6 *L 0.000758 *D EDFCNQD1

*CAP
1 *1054:I 0.000258741
2 *1684:D 0.000114847
3 *533:3 0.000384648
4 *533:4 0.00115792
5 *533:5 0.000646499

*RES
1 *1473:Z *533:5 0.827713
2 *1054:I *533:4 1.20429
3 *533:3 *533:5 1.98767
4 *533:3 *533:4 4.26689005
5 *1684:D *533:5 2.18983
*END

*D_NET *534 0.00528486

*CONN
*I *1053:I I *C 140.9 48 *L 0.00072 *D BUFFD1
*I *1474:Z O *C 142.9 27.6 *L 0 *D DEL1
*I *1687:D I *C 139.7 37.4 *L 0.000758 *D EDFCNQD1

*CAP
1 *1053:I 7.77354e-05
2 *1474:Z 0.000649708
3 *534:3 0.000205118
4 *534:4 0.000783631953
5 *534:5 0.000434139
6 *534:6 0.000310499
7 *534:7 0.000443454
8 *534:4 *1015:Z 0.000219568008
9 *1474:Z *633:58 0.000434895977
10 *534:5 *1614:Q 0.000617065
11 *534:4 *330:2 0.00110906008

*RES
1 *534:5 *534:6 2.31333
2 *534:4 *534:6 2.94112
3 *534:3 *534:4 2.74245
4 *1053:I *534:7 1.66972
5 *1474:Z *534:3 3.63136
6 *534:5 *534:7 7.05705023
7 *1687:D *534:6 0.450003
*END

*D_NET *535 0.00233436

*CONN
*I *1475:Z O *C 145.9 55.6 *L 0 *D DEL1
*I *1689:D I *C 144.9 51.8 *L 0.000758 *D EDFCNQD1
*I *1599:D I *C 149.7 49.6 *L 0.000971 *D DFCNQD1

*CAP
1 *1599:D 0.000831863984
2 *1689:D 0.000470025
3 *535:3 0.000345706
4 *535:4 0.000686765

*RES
1 *535:3 *535:4 2.61724
2 *1599:D *535:3 2.97556996
3 *1689:D *535:4 1.78908
4 *1475:Z *535:4 1.5834
*END

*D_NET *536 0.033931

*CONN
*I *1077:I I *C 141.9 166.8 *L 0.00103 *D DEL015
*I *1476:Z O *C 146.9 12.4 *L 0 *D BUFFD2
*I *1766:I0 I *C 148.3 136 *L 0.000706 *D MUX2ND0
*I *1777:I I *C 148.1 134.6 *L 0.00062 *D CKND0
*I *1757:B2 I *C 146.9 132.2 *L 0.000881 *D AOI221D0
*I *1611:A2 I *C 146.5 121.6 *L 0.000606 *D CKND2D0

*CAP
1 *1077:I 0.000100161
2 *536:6 0.000380354
3 *536:7 6.39597e-05
4 *536:8 0.000384465
5 *536:9 0.000868075
6 *536:10 0.000911834
7 *536:11 0.000460359
8 *536:12 0.00167259
9 *536:13 0.000183481
10 *536:14 7.05457e-05
11 *536:15 0.000412445
12 *536:16 0.000505136
13 *536:17 0.000809552
14 *536:18 0.000478394
15 *536:20 0.00289675
16 *536:21 0.000382962
17 *536:22 0.000383272
18 *536:23 5.35281e-05
19 *536:24 0.000709126
20 *536:25 8.23917e-05
21 *536:26 4.19915e-05
22 *536:27 0.00165959
23 *536:28 8.13751e-05
24 *536:29 0.000653388
25 *536:30 9.56522e-05
26 *536:31 5.6136e-05
27 *536:32 0.00025606
28 *536:33 0.000635972
29 *536:34 1.40561e-05
30 *536:35 0.000381327
31 *536:37 0.000526043
32 *536:38 0.00108771
33 *536:39 0.000157402
34 *536:40 6.8645e-05
35 *536:41 0.00065962
36 *536:25 *800:3 0.000664577031
37 *536:12 *913:3 0.000522678984
38 *536:28 *940:14 0.00258118016
39 *536:20 *279:3 0.00100431
40 *536:11 *308:2 0.000487071016
41 *536:11 *336:2 0.000183990996
42 *536:25 *613:13 0.00462076
43 *536:12 *739:2 0.00121386
44 *536:11 *937:6 0.000252786992
45 *536:6 *299:4 0.000560810039
46 *536:7 *450:5 0.000569549961
47 *536:8 *992:Z 0.000990107031
48 *536:8 *12:2 0.00137883
49 *536:9 *16:9 0.000716191016

*RES
1 *536:12 *536:13 4.63267
2 *536:25 *536:26 0.159349
3 *536:14 *536:16 1.78389
4 *536:15 *536:19 1.11023
5 *536:6 *536:18 1.82129
6 *536:17 *536:39 2.77126
7 *1611:A2 *536:22 0.659608
8 *536:14 *536:15 1.569
9 *536:36 *536:38 10.6725
10 *536:25 *536:27 14.8549995
11 *536:36 *536:37 0.159122
12 *536:12 *536:22 2.96483
13 *536:19 *536:20 4.91714
14 *536:7 *536:10 3.66094
15 *536:8 *536:41 13.8447
16 *536:9 *536:8 8.4457
17 *536:20 *536:40 6.76109
18 *536:35 *536:37 4.73807
19 *536:28 *536:29 7.96471
20 *536:31 *536:33 10.3452
21 *536:22 *536:23 1.4432
22 *536:13 *536:21 1.14151
23 *536:31 *536:32 0.804676
24 *536:11 *536:16 1.78117
25 *536:38 *536:39 1.38903
26 *536:40 *536:41 0.861343
27 *536:27 *536:28 0.958811
28 *536:34 *536:35 2.93945
29 *536:7 *536:17 2.12502
30 *536:11 *536:21 2.11369
31 *536:33 *536:34 1.23671
32 *536:29 *536:30 0.964931
33 *536:10 *536:18 3.69335
34 *536:30 *536:32 2.43556
35 *1077:I *536:9 1.1644
36 *536:23 *536:24 4.44612
37 *536:24 *536:26 2.15699
38 *1757:B2 *536:16 0.449939
39 *1766:I0 *536:15 0.449939
40 *1476:Z *536:6 0.225083
41 *1777:I *536:14 0.225083
*END

*D_NET *537 0.0286908

*CONN
*I *1126:I I *C 147.1 159.6 *L 0.00103 *D DEL01
*I *1477:Z O *C 140.7 16 *L 0 *D DEL1
*I *1776:I I *C 148.1 125 *L 0.00062 *D CKND0
*I *1758:A2 I *C 147.5 163.2 *L 0.000606 *D CKND2D0
*I *1612:A1 I *C 148.7 146.6 *L 0.000617 *D CKND2D0
*I *1746:A1 I *C 147.1 138 *L 0.000682 *D IND3D0
*I *1757:A2 I *C 146.9 132.6 *L 0.000727 *D AOI221D0
*I *1767:B1 I *C 146.9 125.2 *L 0.000894 *D INR3D0
*I *1771:A1 I *C 145.5 120 *L 0.000647 *D NR2D0

*CAP
1 *1767:B1 0.00030657
2 *1757:A2 4.21123e-05
3 *1758:A2 0.000210203
4 *1776:I 5.43054e-05
5 *1477:Z 0.00015933
6 *537:9 0.00335746
7 *537:10 0.000246731
8 *537:11 8.83232e-05
9 *537:12 0.000100209
10 *537:13 0.000692087
11 *537:14 0.000274857
12 *537:15 0.000646542
13 *537:16 0.000129616
14 *537:17 0.000675232
15 *537:18 0.000403295
16 *537:19 0.000186534
17 *537:20 0.00037978
18 *537:21 0.000501506
19 *537:22 0.000514519
20 *537:23 0.000111941
21 *537:25 0.000181974
22 *537:26 0.000297809
23 *537:27 0.000201186
24 *537:28 0.000498893
25 *537:29 0.000320197
26 *537:30 0.000641368
27 *537:31 0.00156528
28 *537:32 0.000635118
29 *537:33 0.00183711
30 *537:34 0.000630251
31 *537:21 *732:3 0.000663277969
32 *1757:A2 *848:5 0.000676097969
33 *537:25 *45:3 0.00137411
34 *1757:A2 *178:4 0.00108619
35 *537:12 *374:4 0.00242284984
36 *537:9 *472:3 0.001474
37 *537:9 *476:6 0.00269641
38 *537:22 *736:3 0.000667345
39 *1758:A2 *851:5 0.000395368008
40 *537:9 *1743:B1 0.000386557031
41 *537:9 *839:22 0.000958323984

*RES
1 *537:14 *537:32 2.79042
2 *537:14 *537:17 2.42659
3 *1767:B1 *537:20 1.30414
4 *537:12 *537:15 3.83197
5 *537:22 *537:30 2.13349
6 *537:12 *537:19 0.351013
7 *537:19 *537:33 3.26301
8 *537:13 *537:15 4.36158
9 *537:16 *537:33 1.65206
10 *537:25 *537:29 2.22412
11 *537:10 *537:11 2.44825
12 *1477:Z *537:9 0.45004
13 *537:21 *537:34 6.57332
14 *537:30 *537:31 12.3756
15 *1776:I *537:20 1.28867
16 *537:13 *537:23 0.609189
17 *537:17 *537:21 1.83729
18 *537:24 *537:26 3.61977
19 *537:23 *537:32 5.90091
20 *537:24 *537:25 0.15915
21 *537:9 *537:27 28.9722996
22 *537:11 *537:18 0.393011
23 *1758:A2 *537:10 1.05039
24 *537:22 *537:34 2.32049
25 *537:28 *537:29 3.58882
26 *537:18 *537:33 10.1117
27 *1757:A2 *537:13 0.659587
28 *537:28 *537:31 7.4429
29 *537:26 *537:27 1.90051
30 *1771:A1 *537:17 0.22502
31 *1126:I *537:11 0.22502
32 *1612:A1 *537:16 0.22502
33 *1746:A1 *537:15 0.22502
34 *537:20 *537:32 0.22502
*END

*D_NET *538 0.0224585

*CONN
*I *1049:I I *C 144.1 103.6 *L 0.000643 *D CKBD0
*I *1478:Z O *C 145.1 48.4 *L 0 *D DEL1
*I *1784:B1 I *C 148.3 78.4 *L 0.000658 *D IND2D0
*I *1771:A2 I *C 145.1 120 *L 0.000664 *D NR2D0
*I *1757:C I *C 146.3 132.2 *L 0.000701 *D AOI221D0
*I *1770:A2 I *C 148.1 148.8 *L 0.000664 *D NR2D0
*I *1612:A2 I *C 148.3 146.8 *L 0.000606 *D CKND2D0
*I *1766:S I *C 148.1 136 *L 0.00146 *D MUX2ND0
*I *1768:A3 I *C 147.3 131 *L 0.00185 *D NR3D1
*I *1767:A1 I *C 146.3 125.2 *L 0.000718 *D INR3D0

*CAP
1 *1767:A1 0.000135151
2 *1766:S 0.000295069
3 *1770:A2 0.00025324
4 *1784:B1 0.000162942
5 *1478:Z 0.000284245
6 *538:10 0.00153383
7 *538:11 0.000470394
8 *538:12 0.00144984
9 *538:13 0.000464628
10 *538:14 0.000611524
11 *538:15 0.000485282
12 *538:16 0.000371423
13 *538:17 0.00154872
14 *538:18 0.00018837
15 *538:19 0.000476893
16 *538:20 0.000876509
17 *538:21 0.000298164
18 *538:22 0.000330115
19 *538:23 0.000696457
20 *538:24 0.000662451
21 *538:25 8.5075e-06
22 *538:26 0.000569625
23 *538:27 0.000888774
24 *538:28 0.000234831
25 *538:29 0.000381656
26 *538:30 8.72728e-05
27 *538:31 0.000163297
28 *538:32 0.000668855
29 *538:33 0.000183029
30 *538:34 0.000211955
31 *538:12 *847:7 0.00131871
32 *1767:A1 *739:3 0.00475194969
33 *538:10 *629:45 0.000799008047
34 *538:11 *717:2 0.000595711992

*RES
1 *538:15 *538:16 1.39014
2 *538:12 *538:20 5.73766
3 *538:17 *538:34 3.07434
4 *1770:A2 *538:18 1.62052
5 *538:12 *538:13 2.54914
6 *538:31 *538:32 2.34845
7 *538:29 *538:32 1.11815
8 *538:16 *538:17 3.95476
9 *1784:B1 *538:32 2.81986
10 *538:27 *538:34 9.47422
11 *538:10 *538:31 16.6278992
12 *538:23 *538:34 2.10919
13 *538:29 *538:30 4.34904
14 *1478:Z *538:10 2.46059
15 *538:26 *538:33 1.27647
16 *538:25 *538:26 2.87111
17 *538:14 *538:15 1.82502
18 *538:27 *538:28 3.46837
19 *1767:A1 *538:12 1.12323
20 *538:11 *538:33 2.40655
21 *538:19 *538:11 1.49163
22 *538:18 *538:22 0.933949
23 *538:28 *538:30 0.958814
24 *538:13 *538:21 0.943337
25 *538:22 *538:24 3.36409
26 *1049:I *538:23 0.674899
27 *538:24 *538:25 0.159337
28 *538:14 *538:21 2.60902
29 *538:19 *538:20 1.34092
30 *1766:S *538:33 1.76311
31 *1771:A2 *538:21 0.225051
32 *1768:A3 *538:20 0.225051
33 *1757:C *538:19 0.225051
34 *1612:A2 *538:18 0.225051
*END

*D_NET *539 0.00485027

*CONN
*I *1164:I I *C 148.1 138 *L 0.000968 *D CKBD1
*I *1574:Q[29] O *C 134.265 130.135 *L 0 *D sram00

*CAP
1 *1164:I 7.41309e-05
2 *539:2 0.000259565
3 *539:3 1.07606e-05
4 *539:4 0.000243771
5 *539:5 0.000300627
6 *539:6 0.00156362
7 *539:7 0.00103903
8 *539:8 6.39668e-05
9 *539:9 0.000484606
10 *539:10 2.76768e-05
11 *539:11 0.000480598
12 *539:12 5.26336e-05
13 *539:13 0.000249306

*RES
1 *539:7 *539:8 0.0926425
2 *539:2 *539:3 0.159213
3 *539:6 *539:13 1.35819
4 *539:4 *539:7 4.37158
5 *539:5 *539:6 5.87177992
6 *539:5 *539:12 1.19217
7 *539:10 *539:11 2.04781
8 *539:8 *539:9 1.64714
9 *539:9 *539:10 0.0926425
10 *1164:I *539:2 1.17613
11 *539:11 *539:12 0.0926425
12 *539:3 *539:4 0.623321
13 *1164:I *1574:Q[29] 8.95963e-05
*END

*D_NET *540 0.00263548

*CONN
*I *1163:I I *C 142.9 98.4 *L 0.00072 *D BUFFD1
*I *1574:Q[20] O *C 134.265 93.945 *L 0 *D sram00

*CAP
1 *540:2 7.76453e-05
2 *540:3 0.000357544
3 *540:5 8.89966e-05
4 *540:6 0.000637848
5 *540:7 4.20339e-06
6 *540:8 4.82429e-05
7 *540:9 2.26599e-05
8 *540:10 0.00139832

*RES
1 *540:4 *540:6 3.1569
2 *540:2 *540:3 1.09524
3 *540:8 *540:9 0.26848
4 *540:7 *540:8 0.225125
5 *540:6 *540:7 0.159204
6 *540:5 *540:10 0.593285
7 *540:4 *540:5 0.159204
8 *540:2 *540:10 5.82233
9 *1163:I *540:3 0.449983
10 *1163:I *1574:Q[20] 8.88417e-05
*END

*D_NET *541 0.00268324

*CONN
*I *1158:I I *C 144.5 139.6 *L 0.000968 *D CKBD1
*I *1574:Q[30] O *C 134.265 135.945 *L 0 *D sram00

*CAP
1 *541:2 0.000530434
2 *541:3 0.000219047
3 *541:4 5.3815e-05
4 *541:5 0.00187994

*RES
1 *541:2 *541:5 7.26921
2 *541:3 *541:5 1.14065
3 *541:3 *541:4 0.395847
4 *1158:I *541:2 1.96809
5 *1158:I *1574:Q[30] 0.0001
*END

*D_NET *542 0.00336088

*CONN
*I *1167:I I *C 147.3 123.6 *L 0.000968 *D CKBD1
*I *1574:Q[26] O *C 134.265 119.145 *L 0 *D sram00

*CAP
1 *1167:I 0.000242718
2 *542:2 9.88248e-05
3 *542:3 0.000301467
4 *542:4 8.20583e-05
5 *542:5 0.000867928984
6 *542:6 6.55698e-05
7 *542:7 0.000855599
8 *542:8 0.000811471
9 *542:9 3.52549e-05

*RES
1 *542:2 *542:3 1.62664
2 *542:8 *542:9 0.394578
3 *542:7 *542:8 3.73523998
4 *542:6 *542:7 3.35896
5 *542:4 *542:5 3.68537
6 *542:3 *542:4 0.218748
7 *1167:I *542:2 1.05738
8 *542:5 *542:6 0.0926173
9 *1167:I *1574:Q[26] 0.00011399
*END

*D_NET *543 0.00313468

*CONN
*I *1150:I I *C 146.9 114.4 *L 0.000968 *D CKBD1
*I *1574:Q[24] O *C 134.265 110.745 *L 0 *D sram00

*CAP
1 *1150:I 0.000150599
2 *543:2 9.70941e-05
3 *543:3 0.000852728984
4 *543:4 0.000144991
5 *543:5 0.000579481
6 *543:6 0.000100074
7 *543:7 2.4215e-05
8 *543:8 8.51233e-05
9 *543:9 0.000363615
10 *543:10 5.96071e-05
11 *543:11 0.000123157
12 *543:13 8.84933e-05
13 *543:14 0.000375716
14 *543:15 1.49636e-06
15 *543:16 6.81038e-05
16 *543:17 2.01813e-05

*RES
1 *543:7 *543:8 0.0926155
2 *543:2 *543:3 3.8294301
3 *543:12 *543:14 1.42306
4 *543:12 *543:13 0.159228
5 *543:5 *543:6 0.218479
6 *543:4 *543:5 2.40753
7 *543:6 *543:7 0.28515
8 *543:10 *543:11 0.394361
9 *543:8 *543:9 1.79604
10 *543:9 *543:10 0.0926155
11 *543:11 *543:13 0.586311
12 *1150:I *543:2 0.659703
13 *543:16 *543:17 0.268614
14 *543:15 *543:16 0.222569
15 *543:14 *543:15 0.159228
16 *543:3 *543:4 0.344401
17 *1150:I *1574:Q[24] 0.000116865
*END

*D_NET *544 0.0022568

*CONN
*I *1166:I I *C 138.1 42.4 *L 0.000968 *D CKBD1
*I *1574:Q[5] O *C 134.265 29.335 *L 0 *D sram00

*CAP
1 *1166:I 0.000107838
2 *544:2 0.000155174
3 *544:3 3.52991e-05
4 *544:4 0.000288706
5 *544:5 5.99618e-05
6 *544:6 0.00160983

*RES
1 *544:4 *544:6 1.98767
2 *544:2 *544:3 0.2411
3 *1166:I *544:3 1.01933
4 *544:5 *544:6 8.41153
5 *544:3 *544:5 0.225
6 *1166:I *1574:Q[5] 0.0001
*END

*D_NET *545 0.00236743

*CONN
*I *1149:I I *C 141.9 132.4 *L 0.000968 *D CKBD1
*I *1574:Q[28] O *C 134.265 127.545 *L 0 *D sram00

*CAP
1 *545:2 0.000211185
2 *545:3 2.3039e-06
3 *545:4 0.00036686
4 *545:5 0.00117958
5 *545:7 0.000107455
6 *545:8 0.000412003
7 *545:9 1.38594e-06
8 *545:10 6.64532e-05
9 *545:11 2.01771e-05

*RES
1 *545:10 *545:11 0.268606
2 *545:9 *545:10 0.219894
3 *545:6 *545:8 1.58296
4 *545:2 *545:3 0.159204
5 *545:8 *545:9 0.159276
6 *545:6 *545:7 0.159276
7 *545:4 *545:5 4.75766993
8 *545:3 *545:4 0.63137
9 *1149:I *545:2 1.0125
10 *545:5 *545:7 0.715364
11 *1149:I *1574:Q[28] 7.25963e-05
*END

*D_NET *546 0.00442842

*CONN
*I *1377:I I *C 143.1 107.2 *L 0.00104 *D DEL0
*I *1574:Q[21] O *C 134.265 96.535 *L 0 *D sram00

*CAP
1 *546:2 3.99937e-05
2 *546:3 9.1126e-05
3 *546:4 0.000799655
4 *546:5 0.000623805
5 *546:6 0.00287389

*RES
1 *546:4 *546:6 11.3421
2 *546:2 *546:3 0.343744
3 *546:3 *546:4 1.23226
4 *546:5 *546:6 4.92945
5 *1377:I *546:3 0.45
6 *1377:I *1574:Q[21] 0.0001
*END

*D_NET *547 0.00126192

*CONN
*I *1142:I I *C 137.5 116.4 *L 0.000968 *D CKBD1
*I *1574:Q[25] O *C 134.265 113.335 *L 0 *D sram00

*CAP
1 *1142:I 0.000311346
2 *547:2 6.35464e-05
3 *547:3 0.000812587969
4 *547:4 7.44454e-05

*RES
1 *547:2 *547:3 3.27276993
2 *547:3 *547:4 0.39761
3 *1142:I *547:2 2.03779
4 *1142:I *1574:Q[25] 9.9877e-05
*END

*D_NET *548 0.00321824

*CONN
*I *1139:I I *C 145.5 116.4 *L 0.000968 *D CKBD1
*I *1574:Q[27] O *C 134.265 121.735 *L 0 *D sram00

*CAP
1 *548:2 0.00148144
2 *548:3 0.000171891
3 *548:4 0.000341047
4 *548:6 0.00112208
5 *548:7 0.000101769

*RES
1 *548:2 *548:3 2.63142
2 *548:3 *548:5 0.435913
3 *548:2 *548:7 2.98683
4 *548:5 *548:6 4.70641994
5 *548:4 *548:7 1.24734
6 *1139:I *548:4 0.449988
7 *1139:I *1574:Q[27] 7.18143e-05
*END

*D_NET *549 0.00317676

*CONN
*I *1574:Q[13] O *C 134.265 62.935 *L 0 *D sram00
*I *1489:I I *C 149.1 69.6 *L 0.00287 *D BUFFD8

*CAP
1 *549:2 0.000114187
2 *549:3 5.06581e-05
3 *549:4 0.00120329
4 *549:5 0.000314928
5 *549:6 0.000516165
6 *549:7 0.000265225
7 *549:8 0.000197069
8 *549:9 9.47429e-06
9 *549:10 0.000247635
10 *549:11 0.000258138

*RES
1 *549:10 *549:11 0.092769
2 *549:9 *549:10 1.67151
3 *549:8 *549:9 0.102716
4 *549:7 *549:8 1.09209
5 *549:6 *549:7 1.1275
6 *549:4 *549:11 7.17273
7 *549:3 *549:5 1.3525
8 *549:5 *549:6 2.37365
9 *1489:I *549:2 0.225
10 *549:2 *549:3 0.225
11 *1489:I *1574:Q[13] 0.0001
*END

*D_NET *550 0.00304804

*CONN
*I *1374:I I *C 145.9 66 *L 0.00104 *D DEL0
*I *1574:Q[15] O *C 134.265 71.335 *L 0 *D sram00

*CAP
1 *1374:I 0.000715522
2 *550:3 0.000278644
3 *550:4 8.61065e-05
4 *550:5 0.000860998984
5 *550:6 5.7597e-05
6 *550:7 0.000191657
7 *550:8 6.59922e-05
8 *550:9 0.000290691
9 *550:10 3.46843e-06
10 *550:11 0.000497352

*RES
1 *550:10 *550:11 2.53478
2 *550:9 *550:10 0.305245
3 *550:2 *550:3 0.159226
4 *550:8 *550:9 0.60567
5 *550:7 *550:8 0.0925686
6 *550:6 *550:7 0.815468
7 *550:4 *550:5 4.10180998
8 *550:3 *550:4 0.926688
9 *1374:I *550:2 2.9329
10 *550:5 *550:6 0.218497
11 *1374:I *1574:Q[15] 0.000125177
*END

*D_NET *551 0.00388589

*CONN
*I *1143:I I *C 148.3 179.2 *L 0.000968 *D CKBD1
*I *1574:Q[33] O *C 134.195 187.515 *L 0 *D sram00

*CAP
1 *551:2 0.000441599
2 *551:3 8.95345e-05
3 *551:4 0.000252685
4 *551:5 3.46391e-05
5 *551:6 0.000333076
6 *551:7 5.41612e-05
7 *551:8 0.000414668
8 *551:9 7.8522e-05
9 *551:10 0.00218697

*RES
1 *551:9 *551:10 3.58444
2 *551:7 *551:8 3.16423
3 *551:6 *551:7 0.0926019
4 *551:4 *551:5 0.0926019
5 *551:3 *551:4 0.967148
6 *551:5 *551:6 1.72665
7 *551:3 *551:10 5.46735001
8 *551:2 *551:9 2.2398
9 *1143:I *551:2 0.449995
10 *1143:I *1574:Q[33] 8.34251e-05
*END

*D_NET *552 0.00361309

*CONN
*I *1136:I I *C 143.7 33.6 *L 0.000968 *D CKBD1
*I *1574:Q[3] O *C 134.265 20.935 *L 0 *D sram00

*CAP
1 *552:2 8.82287e-05
2 *552:3 2.11703e-06
3 *552:4 0.00043957
4 *552:5 0.000176229
5 *552:6 0.000925715
6 *552:7 7.27229e-05
7 *552:8 3.3615e-05
8 *552:9 0.00187486

*RES
1 *552:2 *552:3 0.159828
2 *552:7 *552:8 0.39437
3 *552:6 *552:7 0.177583
4 *552:5 *552:9 8.3053
5 *552:4 *552:5 0.807379
6 *552:3 *552:4 1.16008
7 *1136:I *552:2 0.559267
8 *552:6 *552:9 5.15196
9 *1136:I *1574:Q[3] 0.0001
*END

*D_NET *553 0.00235345

*CONN
*I *1145:I I *C 145.3 37.2 *L 0.00072 *D BUFFD1
*I *1574:Q[6] O *C 134.265 35.145 *L 0 *D sram00

*CAP
1 *553:2 0.000250787
2 *553:3 6.63993e-05
3 *553:4 0.000246452
4 *553:5 0.000109051
5 *553:6 0.000606984961
6 *553:7 0.000387124
7 *553:8 9.04249e-05
8 *553:9 0.000139226
9 *553:10 0.000456996

*RES
1 *553:9 *553:10 2.29164
2 *553:2 *553:4 1.30064
3 *553:2 *553:3 0.772155
4 *553:8 *553:9 0.220339
5 *553:7 *553:8 0.475599
6 *553:6 *553:7 1.57729
7 *553:4 *553:5 0.220339
8 *553:5 *553:6 2.44250989
9 *1145:I *553:3 0.449995
10 *1145:I *1574:Q[6] 0.000111809
*END

*D_NET *554 0.00292012

*CONN
*I *1146:I I *C 147.3 78.4 *L 0.000968 *D CKBD1
*I *1574:Q[17] O *C 134.265 79.735 *L 0 *D sram00

*CAP
1 *554:2 0.000146015
2 *554:3 0.00140846
3 *554:5 2.6091e-05
4 *554:6 9.63259e-05
5 *554:7 0.00039635
6 *554:8 1.21643e-05
7 *554:9 0.000620788
8 *554:10 0.00021395

*RES
1 *554:9 *554:10 0.218482
2 *554:8 *554:9 2.86329
3 *554:7 *554:8 0.219753
4 *554:6 *554:7 1.54156
5 *554:4 *554:5 0.268504
6 *554:3 *554:4 1.05891
7 *554:2 *554:6 0.183863
8 *554:3 *554:10 4.9002099
9 *1146:I *554:6 0.449973
10 *1146:I *1574:Q[17] 7.47713e-05
*END

*D_NET *555 0.00243743

*CONN
*I *1137:I I *C 146.9 84 *L 0.000968 *D CKBD1
*I *1574:Q[18] O *C 134.265 85.545 *L 0 *D sram00

*CAP
1 *1137:I 0.000211852
2 *555:2 8.75246e-05
3 *555:3 0.0001546
4 *555:4 4.36739e-06
5 *555:5 0.000891641016
6 *555:6 5.12522e-05
7 *555:7 0.000313282
8 *555:8 5.95516e-05
9 *555:9 0.000537189
10 *555:10 7.58238e-05
11 *555:11 5.03406e-05

*RES
1 *555:10 *555:11 0.520298
2 *555:9 *555:10 0.0579647
3 *555:2 *555:5 3.94473004
4 *555:2 *555:3 0.493151
5 *1137:I *555:4 0.921416
6 *555:8 *555:9 2.92917
7 *555:7 *555:8 0.092575
8 *555:6 *555:7 1.4183
9 *555:3 *555:4 0.159207
10 *555:5 *555:6 0.092575
11 *1137:I *1574:Q[18] 0.000120384
*END

*D_NET *556 0.00345709

*CONN
*I *1386:I I *C 145.9 110.8 *L 0.00104 *D DEL0
*I *1574:Q[23] O *C 134.265 104.935 *L 0 *D sram00

*CAP
1 *1386:I 3.44681e-05
2 *556:2 0.000104143
3 *556:3 0.000804414
4 *556:4 7.09464e-06
5 *556:5 0.0005697
6 *556:6 0.00193728

*RES
1 *556:2 *556:3 3.24915
2 *556:4 *556:5 1.70883
3 *556:3 *556:4 0.159236
4 *1386:I *556:2 0.328092
5 *556:5 *556:6 7.95737
6 *1386:I *1574:Q[23] 0.0001
*END

*D_NET *557 0.00308828

*CONN
*I *1574:Q[31] O *C 134.265 138.535 *L 0 *D sram00
*I *1497:I I *C 149.1 141.6 *L 0.00287 *D BUFFD8

*CAP
1 *557:2 0.000198534
2 *557:3 0.000102431
3 *557:4 0.00172788
4 *557:5 0.0003026
5 *557:6 1.22337e-05
6 *557:8 0.000744622

*RES
1 *557:7 *557:8 1.06407
2 *557:4 *557:5 1.59112
3 *557:5 *557:6 0.268607
4 *557:4 *557:8 9.29572
5 *1497:I *557:2 0.225
6 *557:2 *557:3 0.225
7 *557:3 *557:7 0.225
8 *1497:I *1574:Q[31] 0.0001
*END

*D_NET *558 0.00323338

*CONN
*I *1148:I I *C 144.3 236.8 *L 0.00072 *D BUFFD1
*I *1574:Q[46] O *C 134.195 243.725 *L 0 *D sram00

*CAP
1 *558:2 2.86305e-05
2 *558:3 0.000169782
3 *558:4 0.000167019
4 *558:6 0.000493911
5 *558:8 2.78444e-05
6 *558:9 0.000114641
7 *558:10 0.00156098
8 *558:11 0.000670577

*RES
1 *558:10 *558:11 5.51909018
2 *558:2 *558:3 1.55199
3 *558:9 *558:11 2.30276
4 *558:8 *558:9 0.270666
5 *558:5 *558:10 2.97833
6 *558:2 *558:6 3.35797
7 *558:5 *558:6 0.15925
8 *558:4 *558:7 0.333153
9 *1148:I *558:7 0.225021
10 *558:7 *558:9 0.225021
11 *1148:I *1574:Q[46] 8.42146e-05
*END

*D_NET *559 0.000537957

*CONN
*I *1129:I I *C 139.3 235.2 *L 0.000968 *D CKBD1
*I *1574:Q[44] O *C 134.195 235.325 *L 0 *D sram00

*CAP
1 *559:2 0.000537957031

*RES
1 *1129:I *559:2 3.89624
2 *1129:I *1574:Q[44] 0.000118904
*END

*D_NET *560 0.0015025

*CONN
*I *1132:I I *C 140.9 224.4 *L 0.000968 *D CKBD1
*I *1574:Q[42] O *C 134.195 226.925 *L 0 *D sram00

*CAP
1 *560:2 3.99376e-05
2 *560:3 0.000243681
3 *560:5 0.000167946
4 *560:6 0.000210967
5 *560:7 0.000286272
6 *560:8 0.000553694023

*RES
1 *560:6 *560:8 1.98303998
2 *560:2 *560:3 1.72657
3 *560:7 *560:8 0.384226
4 *560:4 *560:5 1.57137
5 *560:3 *560:4 0.582119
6 *560:2 *560:7 1.34606
7 *1132:I *560:6 0.575916
8 *1132:I *1574:Q[42] 9.07764e-05
*END

*D_NET *561 0.00273676

*CONN
*I *1174:I I *C 137.9 37.2 *L 0.00072 *D BUFFD1
*I *1574:Q[4] O *C 134.265 26.745 *L 0 *D sram00

*CAP
1 *1174:I 1.20259e-05
2 *561:2 4.29597e-05
3 *561:3 0.00227780016
4 *561:4 0.000265265
5 *561:5 0.000131694
6 *561:6 7.02091e-06

*RES
1 *561:2 *561:5 0.714853
2 *561:3 *561:6 9.0989
3 *561:3 *561:4 2.32931
4 *1174:I *561:2 0.323116
5 *561:5 *561:6 0.15922
6 *1174:I *1574:Q[4] 0.0001
*END

*D_NET *562 0.00174794

*CONN
*I *1147:I I *C 138.3 19.2 *L 0.000968 *D CKBD1
*I *1574:Q[0] O *C 134.265 9.945 *L 0 *D sram00

*CAP
1 *562:2 0.000141808
2 *562:3 0.000775030938
3 *562:4 9.44914e-06
4 *562:5 8.59647e-05
5 *562:6 1.63202e-06
6 *562:7 0.000197048
7 *562:8 6.63096e-05
8 *562:9 6.24188e-05
9 *562:10 0.000408288

*RES
1 *562:8 *562:10 2.1423
2 *562:7 *562:9 0.728629
3 *562:6 *562:7 0.633879
4 *562:4 *562:5 0.344943
5 *562:3 *562:4 0.159192
6 *562:2 *562:8 0.343693
7 *562:5 *562:6 0.159192
8 *562:3 *562:10 5.11915016
9 *1147:I *562:8 0.450003
10 *1147:I *1574:Q[0] 7.8112e-05
*END

*D_NET *563 0.00336482

*CONN
*I *1162:I I *C 140.9 56.8 *L 0.000968 *D CKBD1
*I *1574:Q[9] O *C 134.265 46.135 *L 0 *D sram00

*CAP
1 *563:2 0.000161255
2 *563:3 0.000823237
3 *563:4 0.000245141
4 *563:5 4.27397e-05
5 *563:6 0.000227613
6 *563:7 0.00186481

*RES
1 *563:3 *563:7 7.79367
2 *563:2 *563:3 1.88843
3 *563:4 *563:5 0.092597
4 *1162:I *563:2 1.07723
5 *563:5 *563:6 1.52752
6 *563:4 *563:7 1.75252
7 *1162:I *1574:Q[9] 0.0001
*END

*D_NET *564 0.00375037

*CONN
*I *1574:Q[11] O *C 134.265 54.535 *L 0 *D sram00
*I *1504:I I *C 149.1 66 *L 0.00287 *D BUFFD8

*CAP
1 *564:2 0.000171121
2 *564:3 0.000145294
3 *564:4 9.7791e-05
4 *564:5 0.000200974
5 *564:6 4.788e-05
6 *564:7 0.000369561
7 *564:8 3.94148e-05
8 *564:9 0.000532432
9 *564:10 4.21467e-05
10 *564:11 0.000379194
11 *564:12 1.34258e-05
12 *564:13 7.77871e-05
13 *564:14 0.000252053
14 *564:15 0.00117786
15 *564:16 4.11581e-05
16 *564:17 0.000162278

*RES
1 *564:7 *564:8 0.092599
2 *564:2 *564:3 1.123
3 *564:12 *564:13 0.394375
4 *564:5 *564:6 0.092599
5 *564:4 *564:5 0.914656
6 *564:6 *564:7 2.04782
7 *564:10 *564:11 1.53174
8 *564:8 *564:9 2.29963
9 *564:9 *564:10 0.092599
10 *1504:I *564:2 0.350934
11 *564:16 *564:17 0.460303
12 *564:15 *564:16 0.301777
13 *564:13 *564:15 7.03178
14 *564:11 *564:12 0.092599
15 *564:14 *564:17 1.4852
16 *564:3 *564:4 0.218507
17 *1504:I *1574:Q[11] 0.0001
*END

*D_NET *565 0.0035816

*CONN
*I *1574:Q[12] O *C 134.265 60.345 *L 0 *D sram00
*I *1505:I I *C 149.1 71.2 *L 0.00287 *D BUFFD8

*CAP
1 *565:2 0.000102549
2 *565:3 0.000262108
3 *565:4 0.000454282
4 *565:5 0.000216074
5 *565:7 8.11907e-05
6 *565:8 0.000659528
7 *565:9 0.00108168992
8 *565:10 0.000125442
9 *565:11 7.85663e-06
10 *565:12 0.000218302
11 *565:13 0.000372579

*RES
1 *565:10 *565:11 0.268579
2 *565:9 *565:13 7.17273
3 *565:9 *565:10 0.991125
4 *565:6 *565:8 0.159246
5 *565:4 *565:6 1.35027
6 *565:2 *565:3 1.08318
7 *565:12 *565:13 0.470829
8 *565:7 *565:8 3.11598
9 *565:4 *565:12 1.66258
10 *565:3 *565:5 1.09791
11 *565:5 *565:7 0.159246
12 *1505:I *565:2 0.225
13 *1505:I *1574:Q[12] 0.0001
*END

*D_NET *566 0.000440622

*CONN
*I *1135:I I *C 137.7 87.6 *L 0.000968 *D CKBD1
*I *1574:Q[19] O *C 134.265 88.135 *L 0 *D sram00

*CAP
1 *1135:I 0.000336358008
2 *566:2 8.09343e-05
3 *566:4 2.33323e-05

*RES
1 *566:2 *566:3 0.545241
2 *566:3 *566:4 0.268501
3 *1135:I *566:2 2.34745002
4 *1135:I *1574:Q[19] 0.000107458
*END

*D_NET *567 0.00289414

*CONN
*I *1358:I I *C 149.1 206.4 *L 0.00104 *D DEL0
*I *1574:Q[40] O *C 134.195 218.525 *L 0 *D sram00

*CAP
1 *1358:I 3.78666e-05
2 *567:2 5.56038e-06
3 *567:3 1.7888e-06
4 *567:4 0.00107151
5 *567:5 0.000352976
6 *567:7 1.20475e-05
7 *567:8 0.0014124

*RES
1 *567:6 *567:8 1.67205
2 *567:2 *567:3 0.2707
3 *567:6 *567:7 0.268472
4 *567:4 *567:5 6.88155
5 *1358:I *567:3 0.716314
6 *567:5 *567:8 8.91287
7 *567:3 *567:4 0.225
8 *1358:I *1574:Q[40] 0.0001
*END

*D_NET *568 0.00265245

*CONN
*I *1157:I I *C 148.3 182.8 *L 0.000968 *D CKBD1
*I *1574:Q[34] O *C 134.195 193.325 *L 0 *D sram00

*CAP
1 *568:2 7.27747e-05
2 *568:3 0.000524264
3 *568:4 0.000291785
4 *568:6 9.73793e-05
5 *568:7 0.000350326
6 *568:9 3.17605e-06
7 *568:10 2.78983e-05
8 *568:11 0.00128483

*RES
1 *568:9 *568:10 0.268531
2 *568:2 *568:3 0.476809
3 *568:8 *568:11 0.714027
4 *568:7 *568:8 0.159232
5 *568:4 *568:11 9.04085
6 *568:3 *568:4 4.47532
7 *568:6 *568:9 0.301365
8 *568:5 *568:7 1.72991
9 *568:5 *568:6 0.159232
10 *1157:I *568:2 0.45
11 *1157:I *1574:Q[34] 0.0001
*END

*D_NET *569 0.000641137

*CONN
*I *1153:I I *C 137.9 13.6 *L 0.00072 *D BUFFD1
*I *1574:Q[1] O *C 134.265 12.535 *L 0 *D sram00

*CAP
1 *1153:I 0.000235725
2 *569:2 3.63136e-05
3 *569:3 0.000306677012
4 *569:4 6.24211e-05

*RES
1 *569:2 *569:3 1.0242
2 *569:3 *569:4 0.728626
3 *1153:I *569:2 2.18530989
4 *1153:I *1574:Q[1] 0.000100036
*END

*D_NET *570 0.00307577

*CONN
*I *1159:I I *C 142.9 51.6 *L 0.00072 *D BUFFD1
*I *1574:Q[8] O *C 134.265 43.545 *L 0 *D sram00

*CAP
1 *1159:I 0.000226754
2 *570:2 9.19603e-05
3 *570:3 0.00170436
4 *570:5 0.000593113
5 *570:6 0.000393354
6 *570:7 1.45638e-06
7 *570:8 4.5278e-05
8 *570:9 1.95051e-05

*RES
1 *570:4 *570:6 2.11727
2 *570:2 *570:3 6.55548
3 *570:8 *570:9 0.268537
4 *570:7 *570:8 0.218606
5 *570:6 *570:7 0.159234
6 *570:4 *570:5 0.159234
7 *570:3 *570:5 3.44318
8 *1159:I *570:2 1.15865
9 *1159:I *1574:Q[8] 0.0001
*END

*D_NET *571 0.00439081

*CONN
*I *1160:I I *C 150.7 58.8 *L 0.000968 *D CKBD1
*I *1574:Q[10] O *C 134.265 51.945 *L 0 *D sram00

*CAP
1 *1160:I 0.000252106
2 *571:2 3.93844e-05
3 *571:3 0.00116737
4 *571:4 0.000962557
5 *571:5 0.000448138
6 *571:6 0.000700012
7 *571:7 0.000135788
8 *571:9 0.000311281
9 *571:10 0.000372468
10 *571:11 1.71004e-06

*RES
1 *571:10 *571:11 0.159215
2 *571:8 *571:10 1.47838
3 *571:2 *571:3 5.13499022
4 *571:8 *571:9 0.159215
5 *571:6 *571:7 0.755408
6 *571:5 *571:9 1.1786
7 *571:4 *571:5 2.09988
8 *571:3 *571:4 3.43385
9 *1160:I *571:2 1.45801
10 *571:6 *571:11 3.23515
11 *1160:I *1574:Q[10] 7.83537e-05
*END

*D_NET *572 0.00291843

*CONN
*I *1380:I I *C 149.3 102 *L 0.00104 *D DEL0
*I *1574:Q[22] O *C 134.265 102.345 *L 0 *D sram00

*CAP
1 *1380:I 0.000190445
2 *572:2 6.53206e-05
3 *572:3 0.00111595
4 *572:4 3.77177e-05
5 *572:5 0.000646054
6 *572:6 4.41714e-05
7 *572:7 0.000818772

*RES
1 *572:2 *572:3 4.46555996
2 *572:6 *572:7 3.91977
3 *572:4 *572:5 2.45232
4 *572:3 *572:4 0.0926009
5 *1380:I *572:2 0.95381
6 *572:5 *572:6 0.0930098
7 *1380:I *1574:Q[22] 6.8139e-05
*END

*D_NET *573 0.00272933

*CONN
*I *1141:I I *C 150.1 217.2 *L 0.000968 *D CKBD1
*I *1574:Q[41] O *C 134.195 221.115 *L 0 *D sram00

*CAP
1 *573:2 0.000316182
2 *573:3 5.4221e-05
3 *573:4 9.6227e-05
4 *573:5 5.0396e-06
5 *573:6 0.000612192
6 *573:7 5.69712e-05
7 *573:8 0.000611787
8 *573:9 6.18293e-05
9 *573:10 0.000914875

*RES
1 *573:9 *573:10 2.99487
2 *573:7 *573:8 4.04558992
3 *573:6 *573:7 0.0925962
4 *573:4 *573:5 0.0925962
5 *573:3 *573:4 0.416313
6 *573:5 *573:6 2.92913
7 *573:3 *573:10 1.61
8 *573:2 *573:9 1.33345
9 *1141:I *573:2 0.450018
10 *1141:I *1574:Q[41] 0.000123462
*END

*D_NET *574 0.00303222

*CONN
*I *1357:I I *C 146.3 204.4 *L 0.00104 *D DEL0
*I *1574:Q[38] O *C 134.195 210.125 *L 0 *D sram00

*CAP
1 *574:2 0.000185875
2 *574:3 5.58759e-05
3 *574:4 7.79711e-05
4 *574:5 0.000231321
5 *574:6 0.000430421
6 *574:7 6.13035e-05
7 *574:8 9.09123e-05
8 *574:9 0.00047933
9 *574:11 9.19856e-05
10 *574:12 0.00132723

*RES
1 *574:10 *574:11 0.772052
2 *574:9 *574:10 0.218505
3 *574:2 *574:4 0.203186
4 *574:8 *574:9 3.18094
5 *574:7 *574:8 0.218505
6 *574:6 *574:7 0.411022
7 *574:4 *574:12 0.980435
8 *574:3 *574:12 4.48198986
9 *574:3 *574:5 1.33476
10 *574:5 *574:6 1.69285
11 *1357:I *574:4 0.450004
12 *1357:I *1574:Q[38] 6.83897e-05
*END

*D_NET *575 0.00179374

*CONN
*I *1363:I I *C 143.5 195.6 *L 0.00104 *D DEL0
*I *1574:Q[36] O *C 134.195 201.725 *L 0 *D sram00

*CAP
1 *575:2 7.65985e-05
2 *575:3 5.39403e-05
3 *575:4 0.000152005
4 *575:5 4.40427e-05
5 *575:6 0.00076581
6 *575:7 4.42881e-06
7 *575:8 0.000563534
8 *575:9 2.98565e-05
9 *575:10 7.26956e-05
10 *575:11 3.08147e-05

*RES
1 *575:9 *575:10 0.881344
2 *575:2 *575:3 0.271706
3 *575:9 *575:11 0.384245
4 *575:8 *575:11 4.12952995
5 *575:7 *575:8 0.39439
6 *575:6 *575:7 0.0925641
7 *575:4 *575:5 0.0925641
8 *575:3 *575:4 0.966661
9 *575:5 *575:6 3.93634
10 *1363:I *575:3 0.450029
11 *1363:I *1574:Q[36] 0.000126023
*END

*D_NET *576 0.00330181

*CONN
*I *1364:I I *C 149.5 192 *L 0.00104 *D DEL0
*I *1574:Q[37] O *C 134.195 204.315 *L 0 *D sram00

*CAP
1 *576:2 0.00016945
2 *576:3 0.000112362
3 *576:4 6.74689e-05
4 *576:5 0.000277833
5 *576:6 7.29279e-05
6 *576:7 0.00121272
7 *576:8 0.00113976
8 *576:9 1.73391e-05
9 *576:10 9.382e-05
10 *576:11 0.000138158

*RES
1 *576:9 *576:10 1.76266
2 *576:2 *576:3 0.997081
3 *576:9 *576:11 0.384216
4 *576:8 *576:11 7.89519
5 *576:7 *576:8 0.125904
6 *576:6 *576:7 5.659
7 *576:4 *576:5 1.54416
8 *576:3 *576:4 0.092595
9 *1364:I *576:2 0.575927
10 *576:5 *576:6 0.092595
11 *1364:I *1574:Q[37] 0.0001
*END

*D_NET *577 0.00249513

*CONN
*I *1155:I I *C 145.5 177.6 *L 0.00072 *D BUFFD1
*I *1574:Q[32] O *C 134.195 184.925 *L 0 *D sram00

*CAP
1 *577:2 0.000607269
2 *577:3 1.89803e-05
3 *577:4 1.82551e-05
4 *577:6 0.000127835
5 *577:7 8.39483e-05
6 *577:8 0.00163883

*RES
1 *577:7 *577:8 6.24799013
2 *577:4 *577:5 0.0453803
3 *577:3 *577:4 0.268468
4 *577:2 *577:7 1.92447
5 *577:5 *577:6 1.02392
6 *577:3 *577:8 3.49953
7 *1155:I *577:2 0.224995
8 *1155:I *1574:Q[32] 9.53368e-05
*END

*D_NET *578 0.00428591

*CONN
*I *1154:I I *C 148.3 184.8 *L 0.000968 *D CKBD1
*I *1574:Q[35] O *C 134.195 195.915 *L 0 *D sram00

*CAP
1 *1154:I 0.000526538
2 *578:3 0.000533595
3 *578:4 6.42249e-05
4 *578:5 5.76438e-05
5 *578:6 0.000161804
6 *578:7 2.95752e-05
7 *578:8 0.000165293
8 *578:9 9.13949e-05
9 *578:10 0.000648064
10 *578:11 2.61393e-05
11 *578:12 0.000176394
12 *578:13 3.01831e-05
13 *578:14 4.29752e-05
14 *578:15 0.00173209

*RES
1 *578:7 *578:8 1.16649
2 *578:2 *578:3 0.159187
3 *578:12 *578:13 0.0925771
4 *578:5 *578:6 1.12302
5 *578:5 *578:15 5.28495979
6 *578:6 *578:7 0.0925771
7 *578:4 *578:15 1.98767
8 *578:10 *578:11 0.0925771
9 *578:8 *578:9 0.0925771
10 *578:9 *578:10 3.43269
11 *578:13 *578:14 0.39434
12 *1154:I *578:2 2.40975
13 *578:11 *578:12 1.29237
14 *578:3 *578:4 1.72477
15 *1154:I *1574:Q[35] 8.06421e-05
*END

*D_NET *579 0.00111123

*CONN
*I *1184:I I *C 141.3 290.8 *L 0.00072 *D BUFFD1
*I *1574:Q[58] O *C 134.195 294.125 *L 0 *D sram00

*CAP
1 *579:2 0.000101771
2 *579:3 4.52266e-05
3 *579:4 6.89798e-05
4 *579:5 7.86579e-05
5 *579:6 5.42765e-05
6 *579:7 0.000762326016

*RES
1 *579:6 *579:7 2.13494
2 *579:4 *579:5 0.350932
3 *579:3 *579:6 0.602719
4 *579:5 *579:7 4.25507021
5 *1184:I *579:2 0.224973
6 *579:2 *579:4 0.224973
7 *1184:I *1574:Q[58] 0.000129854
*END

*D_NET *580 0.00290617

*CONN
*I *1179:I I *C 148.3 269.2 *L 0.000643 *D CKBD0
*I *1574:Q[55] O *C 134.195 279.915 *L 0 *D sram00

*CAP
1 *1179:I 0.000180591
2 *580:2 0.000121283
3 *580:3 0.000734029
4 *580:4 8.38983e-05
5 *580:5 2.45255e-05
6 *580:6 0.000340732
7 *580:7 0.00142111

*RES
1 *580:2 *580:3 4.6483
2 *580:3 *580:4 0.344404
3 *1179:I *580:2 0.929466
4 *580:5 *580:7 7.02383
5 *580:5 *580:6 2.26627
6 *580:4 *580:7 2.38203
7 *1179:I *1574:Q[55] 0.0001
*END

*D_NET *581 0.00318758

*CONN
*I *1183:I I *C 148.9 256.8 *L 0.000643 *D CKBD0
*I *1574:Q[51] O *C 134.195 263.115 *L 0 *D sram00

*CAP
1 *1183:I 0.000315974
2 *581:2 7.06375e-05
3 *581:3 4.37405e-05
4 *581:4 0.00132179
5 *581:5 0.00143542

*RES
1 *581:2 *581:5 2.23947
2 *581:3 *581:5 3.73525
3 *581:3 *581:4 7.61334
4 *1183:I *581:2 1.35739
5 *1183:I *1574:Q[51] 0.0001
*END

*D_NET *582 0.00107398

*CONN
*I *1134:I I *C 140.9 236.8 *L 0.000968 *D CKBD1
*I *1574:Q[45] O *C 134.195 237.915 *L 0 *D sram00

*CAP
1 *582:2 0.000326801
2 *582:4 2.71558e-05
3 *582:5 7.04029e-05
4 *582:6 7.36809e-05
5 *582:7 0.00057594

*RES
1 *582:2 *582:5 2.10675
2 *582:2 *582:3 0.737301
3 *582:6 *582:7 2.82191992
4 *582:3 *582:4 0.329746
5 *1134:I *582:6 0.45001
6 *582:5 *582:7 0.224984
7 *1134:I *1574:Q[45] 8.61182e-05
*END

*D_NET *583 0.000597113

*CONN
*I *1130:I I *C 137.5 233.2 *L 0.000968 *D CKBD1
*I *1574:Q[43] O *C 134.195 229.515 *L 0 *D sram00

*CAP
1 *1130:I 5.25992e-05
2 *583:2 0.000327856992
3 *583:3 0.000182566
4 *583:4 3.40889e-05

*RES
1 *583:2 *583:4 2.49132991
2 *583:2 *583:3 1.86242
3 *1130:I *583:4 0.865328
4 *1130:I *1574:Q[43] 0.000114044
*END

*D_NET *584 0.000967073

*CONN
*I *1161:I I *C 138.3 40.8 *L 0.00182 *D DEL005
*I *1574:Q[7] O *C 134.265 37.735 *L 0 *D sram00

*CAP
1 *584:2 0.000111643
2 *584:3 0.000290953
3 *584:4 0.000258311
4 *584:5 0.000306169004

*RES
1 *584:2 *584:4 1.31127
2 *584:4 *584:5 1.23233
3 *584:3 *584:5 1.86177003
4 *1161:I *584:3 0.85458
5 *1161:I *1574:Q[7] 0.000113633
*END

*D_NET *585 0.00138563

*CONN
*I *1152:I I *C 138.3 22.8 *L 0.000968 *D CKBD1
*I *1574:Q[2] O *C 134.265 18.345 *L 0 *D sram00

*CAP
1 *585:2 0.00015125
2 *585:4 0.000453586
3 *585:5 6.03331e-05
4 *585:6 0.000720467969

*RES
1 *585:4 *585:6 2.74312
2 *585:2 *585:3 0.337542
3 *585:5 *585:6 2.99582005
4 *1152:I *585:3 0.449995
5 *585:3 *585:5 0.224997
6 *1152:I *1574:Q[2] 9.14252e-05
*END

*D_NET *586 0.00368625

*CONN
*I *1574:Q[14] O *C 134.265 68.745 *L 0 *D sram00
*I *1526:I I *C 149.1 76.8 *L 0.00287 *D BUFFD8

*CAP
1 *586:2 0.000234769
2 *586:3 0.000192556
3 *586:4 2.63395e-05
4 *586:5 0.000334826
5 *586:6 4.28339e-05
6 *586:7 0.000213458
7 *586:8 4.0774e-05
8 *586:9 0.000355622
9 *586:10 1.64187e-05
10 *586:11 0.000165262
11 *586:12 1.02541e-05
12 *586:13 0.000412011
13 *586:14 6.42963e-05
14 *586:15 0.000992617031
15 *586:16 0.000275482
16 *586:17 1.56008e-06
17 *586:18 2.08868e-05
18 *586:19 0.000286266

*RES
1 *586:7 *586:8 0.0925871
2 *586:2 *586:3 1.12296
3 *586:12 *586:13 1.796
4 *586:5 *586:6 0.0925871
5 *586:4 *586:5 1.796
6 *586:6 *586:7 1.04057
7 *586:10 *586:11 0.562422
8 *586:8 *586:9 1.54419
9 *586:9 *586:10 0.0930575
10 *586:13 *586:14 0.0925871
11 *586:17 *586:18 0.268432
12 *586:15 *586:19 5.13783979
13 *586:14 *586:19 1.19211
14 *1526:I *586:2 0.384852
15 *586:16 *586:17 0.0580139
16 *586:15 *586:16 1.07898
17 *586:11 *586:12 0.0976829
18 *586:3 *586:4 0.0925871
19 *1526:I *1574:Q[14] 7.83972e-05
*END

*D_NET *587 0.00130643

*CONN
*I *1140:I I *C 137.9 82 *L 0.000968 *D CKBD1
*I *1574:Q[16] O *C 134.265 77.145 *L 0 *D sram00

*CAP
1 *1140:I 0.000341918
2 *587:2 4.1238e-05
3 *587:3 0.00087773
4 *587:4 4.55506e-05

*RES
1 *587:2 *587:3 3.78564
2 *587:3 *587:4 0.394472
3 *1140:I *587:2 2.34708
4 *1140:I *1574:Q[16] 0.000115529
*END

*D_NET *588 0.00253833

*CONN
*I *1200:I I *C 148.3 289.2 *L 0.000643 *D CKBD0
*I *1574:Q[60] O *C 134.195 302.525 *L 0 *D sram00

*CAP
1 *1200:I 0.001312
2 *588:2 5.1451e-05
3 *588:3 0.000104924
4 *588:5 8.11404e-05
5 *588:6 0.000949941
6 *588:7 1.69968e-05
7 *588:9 2.18617e-05

*RES
1 *588:4 *588:6 7.14323
2 *588:3 *588:7 0.711962
3 *588:2 *588:3 0.44597
4 *588:8 *588:9 0.268463
5 *588:6 *588:7 0.285117
6 *588:4 *588:5 0.285117
7 *1200:I *588:2 10.5809
8 *588:5 *588:8 0.29719
9 *1200:I *1574:Q[60] 0.0001
*END

*D_NET *589 0.00211662

*CONN
*I *1192:I I *C 148.3 294.4 *L 0.000643 *D CKBD0
*I *1574:Q[61] O *C 134.195 305.115 *L 0 *D sram00

*CAP
1 *589:2 0.000103631
2 *589:3 0.00068147
3 *589:4 0.00102049992
4 *589:5 2.09285e-05
5 *589:6 2.76867e-05
6 *589:7 0.000262401

*RES
1 *589:4 *589:6 8.15696
2 *589:2 *589:3 0.476808
3 *589:6 *589:7 1.35814
4 *589:3 *589:5 5.76479
5 *589:5 *589:7 1.35906
6 *1192:I *589:2 0.225
7 *1192:I *1574:Q[61] 0.0001
*END

*D_NET *590 0.00363347

*CONN
*I *1177:I I *C 146.9 267.6 *L 0.00072 *D BUFFD1
*I *1574:Q[54] O *C 134.195 277.325 *L 0 *D sram00

*CAP
1 *1177:I 0.000375251
2 *590:3 0.000137537
3 *590:4 1.05798e-05
4 *590:5 0.000680328
5 *590:6 5.84531e-05
6 *590:7 7.03388e-05
7 *590:8 0.000220257
8 *590:10 0.00059326
9 *590:11 1.53737e-06
10 *590:12 0.00108334992
11 *590:13 0.000402576

*RES
1 *590:7 *590:8 0.864675
2 *590:2 *590:3 0.159213
3 *590:6 *590:13 0.704466
4 *590:7 *590:12 7.52744
5 *590:9 *590:13 1.1585
6 *590:5 *590:6 2.07118
7 *590:4 *590:5 0.159213
8 *590:10 *590:11 2.0632
9 *590:9 *590:10 0.159213
10 *1177:I *590:2 1.69469
11 *590:8 *590:11 0.159213
12 *590:3 *590:4 0.395755
13 *1177:I *1574:Q[54] 0.0001
*END

*D_NET *591 0.0030339

*CONN
*I *1199:I I *C 143.9 253.2 *L 0.000643 *D CKBD0
*I *1574:Q[50] O *C 134.195 260.525 *L 0 *D sram00

*CAP
1 *591:2 0.000221053
2 *591:3 8.75748e-06
3 *591:4 0.00037666
4 *591:5 0.00192591
5 *591:6 8.31372e-05
6 *591:7 0.000369254
7 *591:9 4.91065e-05

*RES
1 *591:2 *591:3 0.159427
2 *591:8 *591:9 0.159243
3 *591:6 *591:7 2.39222
4 *591:4 *591:5 4.20617
5 *591:3 *591:4 1.1299
6 *1199:I *591:2 1.02084
7 *591:6 *591:9 0.334237
8 *591:5 *591:8 6.00124979
9 *1199:I *1574:Q[50] 9.15718e-05
*END

*D_NET *592 0.00151893

*CONN
*I *1171:I I *C 142.9 254.8 *L 0.00072 *D BUFFD1
*I *1574:Q[48] O *C 134.195 252.125 *L 0 *D sram00

*CAP
1 *592:2 0.00016554
2 *592:4 7.58483e-05
3 *592:5 0.000745458984
4 *592:6 0.000287867
5 *592:7 2.55027e-05
6 *592:9 0.000218707

*RES
1 *592:2 *592:3 0.234087
2 *592:8 *592:9 0.854538
3 *592:6 *592:7 0.268456
4 *592:5 *592:9 5.38852978
5 *592:5 *592:6 1.14051
6 *1171:I *592:3 0.450003
7 *592:3 *592:4 0.224961
8 *592:4 *592:8 0.224961
9 *1171:I *1574:Q[48] 8.22224e-05
*END

*D_NET *593 0.0036559

*CONN
*I *1144:I I *C 151.1 247.6 *L 0.000968 *D CKBD1
*I *1574:Q[49] O *C 134.195 254.715 *L 0 *D sram00

*CAP
1 *593:2 9.13008e-06
2 *593:3 0.000180511
3 *593:4 0.000673552
4 *593:5 8.66187e-05
5 *593:6 0.0007588
6 *593:7 5.10013e-05
7 *593:8 4.06004e-05
8 *593:9 5.00482e-05
9 *593:10 0.000379233
10 *593:11 0.000330539
11 *593:12 0.00109586

*RES
1 *593:10 *593:11 1.21198
2 *593:7 *593:10 1.38579
3 *593:7 *593:8 0.629496
4 *593:4 *593:5 0.0925852
5 *593:3 *593:12 1.72927
6 *593:3 *593:4 3.91968012
7 *593:9 *593:12 3.54013
8 *593:6 *593:11 0.998521
9 *593:5 *593:6 2.91243
10 *1144:I *593:2 0.450007
11 *593:2 *593:9 0.225004
12 *1144:I *1574:Q[49] 0.000119619
*END

*D_NET *594 0.00104221

*CONN
*I *1169:I I *C 141.7 267.6 *L 0.00072 *D BUFFD1
*I *1574:Q[52] O *C 134.195 268.925 *L 0 *D sram00

*CAP
1 *1169:I 0.000241171
2 *594:2 7.72288e-05
3 *594:3 0.000450725
4 *594:5 0.000273076

*RES
1 *594:2 *594:3 2.88563991
2 *594:4 *594:5 2.03112
3 *594:3 *594:4 0.218484
4 *1169:I *594:2 0.854517
5 *1169:I *1574:Q[52] 8.80627e-05
*END

*D_NET *595 0.00321399

*CONN
*I *1202:I I *C 148.3 235.2 *L 0.000643 *D CKBD0
*I *1574:Q[47] O *C 134.195 246.315 *L 0 *D sram00

*CAP
1 *1202:I 1.1247e-05
2 *595:2 0.000296424
3 *595:3 0.00134502
4 *595:4 2.72349e-05
5 *595:5 0.000386194
6 *595:6 7.4542e-05
7 *595:7 7.43778e-05
8 *595:8 0.00012737
9 *595:9 0.000871579

*RES
1 *595:7 *595:9 6.39464998
2 *595:2 *595:4 1.34155
3 *595:3 *595:6 6.00855
4 *595:3 *595:4 0.285113
5 *1202:I *595:2 0.324338
6 *595:5 *595:8 2.86899
7 *595:6 *595:7 0.225007
8 *595:8 *595:9 0.225007
9 *1202:I *1574:Q[47] 9.75746e-05
*END

*D_NET *596 0.00378779

*CONN
*I *1133:I I *C 150.7 262 *L 0.00072 *D BUFFD1
*I *1574:Q[53] O *C 134.195 271.515 *L 0 *D sram00

*CAP
1 *1133:I 5.8486e-05
2 *596:2 0.000154648
3 *596:3 3.2731e-05
4 *596:4 0.00161294
5 *596:5 0.00192898

*RES
1 *596:2 *596:5 1.87898
2 *596:3 *596:5 6.16556
3 *596:3 *596:4 9.38654
4 *1133:I *596:2 0.587051
5 *1133:I *1574:Q[53] 0.0001
*END

*D_NET *597 0.00243915

*CONN
*I *1352:I I *C 143.1 206.4 *L 0.00104 *D DEL0
*I *1574:Q[39] O *C 134.195 212.715 *L 0 *D sram00

*CAP
1 *1352:I 0.000161064
2 *597:2 0.000150099
3 *597:3 0.0010263
4 *597:4 2.86717e-06
5 *597:5 0.00109883

*RES
1 *597:2 *597:5 6.1812501
2 *597:2 *597:3 4.14369
3 *1352:I *597:4 0.855374
4 *597:3 *597:4 0.159209
5 *1352:I *1574:Q[39] 9.43184e-05
*END

*D_NET *598 0.0022953

*CONN
*I *1178:I I *C 148.3 278.4 *L 0.000643 *D CKBD0
*I *1574:Q[57] O *C 134.195 288.315 *L 0 *D sram00

*CAP
1 *1178:I 6.84847e-05
2 *598:2 0.000175395
3 *598:3 8.30528e-05
4 *598:5 5.383e-05
5 *598:6 1.327e-06
6 *598:7 2.26744e-05
7 *598:8 0.00189054

*RES
1 *598:2 *598:3 0.728617
2 *598:6 *598:7 0.268463
3 *598:4 *598:5 0.285117
4 *1178:I *598:2 0.789515
5 *598:5 *598:6 0.2185
6 *598:4 *598:8 5.62222
7 *598:3 *598:8 7.90515
8 *1178:I *1574:Q[57] 0.0001
*END

*D_NET *599 0.00169285

*CONN
*I *1185:I I *C 143.5 303.6 *L 0.00072 *D BUFFD1
*I *1574:Q[62] O *C 134.195 310.925 *L 0 *D sram00

*CAP
1 *599:3 0.000583373
2 *599:4 3.46296e-05
3 *599:5 6.33212e-05
4 *599:6 0.000300105
5 *599:7 0.000711426953

*RES
1 *599:4 *599:6 2.49128
2 *599:2 *599:3 0.159221
3 *599:3 *599:4 3.38279
4 *599:2 *599:7 1.47214
5 *599:5 *599:7 3.62440991
6 *1185:I *599:5 0.224977
7 *1185:I *1574:Q[62] 0.000110608
*END

*D_NET *600 0.000697827

*CONN
*I *1195:I I *C 141.3 312.4 *L 0.00072 *D BUFFD1
*I *1574:Q[63] O *C 134.195 313.515 *L 0 *D sram00

*CAP
1 *600:2 9.97768e-05
2 *600:3 2.45236e-06
3 *600:5 1.77012e-05
4 *600:6 0.000110698
5 *600:7 0.000467195977

*RES
1 *600:6 *600:7 4.13119984
2 *600:4 *600:5 0.268475
3 *600:3 *600:6 0.476813
4 *600:4 *600:7 0.711941
5 *1195:I *600:2 0.224979
6 *600:2 *600:3 0.224979
7 *1195:I *1574:Q[63] 0.000126074
*END

*D_NET *601 0.000983812

*CONN
*I *1198:I I *C 140.9 294.4 *L 0.00072 *D BUFFD1
*I *1574:Q[59] O *C 134.195 296.715 *L 0 *D sram00

*CAP
1 *601:2 6.36886e-05
2 *601:3 9.30165e-05
3 *601:4 0.000176263
4 *601:6 2.49922e-05
5 *601:7 0.000625855977

*RES
1 *601:2 *601:3 0.476788
2 *601:3 *601:4 0.38485
3 *601:5 *601:7 1.73215
4 *601:5 *601:6 0.268478
5 *601:4 *601:7 3.87724996
6 *1198:I *601:2 0.224994
7 *1198:I *1574:Q[59] 0.000118324
*END

*D_NET *602 0.00370121

*CONN
*I *1331:I I *C 149.1 272.8 *L 0.00104 *D DEL0
*I *1574:Q[56] O *C 134.195 285.725 *L 0 *D sram00

*CAP
1 *1331:I 0.000265626
2 *602:2 0.000586143
3 *602:3 0.000712526
4 *602:4 0.00211234
5 *602:5 2.45932e-05

*RES
1 *602:2 *602:3 5.18858
2 *1331:I *602:4 2.11204
3 *602:4 *602:5 9.33468
4 *602:3 *602:5 4.07084
5 *1331:I *1574:Q[56] 0.0001
*END

*D_NET *603 0.000875393

*CONN
*I *1543:Z O *C 143.7 16.8 *L 0 *D DEL2
*I *1606:D I *C 140.1 19.2 *L 0.000971 *D DFCNQD1

*CAP
1 *1606:D 0.000694651016
2 *603:2 0.000180746

*RES
1 *1606:D *603:2 3.48850012
2 *1543:Z *603:2 1.06285
*END

*D_NET *604 0.000906425

*CONN
*I *1544:Z O *C 151.9 37.6 *L 0 *D DEL2
*I *1607:D I *C 149.3 40.8 *L 0.000971 *D DFCNQD1

*CAP
1 *1607:D 8.7886e-05
2 *1544:Z 0.000157048
3 *604:2 0.000661491953

*RES
1 *1544:Z *604:2 2.31201005
2 *1607:D *604:2 2.2066
*END

*D_NET *605 0.00105858

*CONN
*I *1545:Z O *C 143.7 30.4 *L 0 *D DEL2
*I *1600:D I *C 140.3 31.6 *L 0.000971 *D DFCNQD1

*CAP
1 *1600:D 0.00076012
2 *1545:Z 7.75604e-05
3 *605:2 0.000220897

*RES
1 *1545:Z *605:2 0.946563
2 *1600:D *605:2 3.86625004
*END

*D_NET *606 0.000908583

*CONN
*I *1546:Z O *C 151.9 16.8 *L 0 *D DEL2
*I *1609:D I *C 149.3 19.2 *L 0.000971 *D DFCNQD1

*CAP
1 *1609:D 0.000803462031
2 *606:2 0.000105118

*RES
1 *1609:D *606:2 3.35940003
2 *1546:Z *606:2 0.224982
*END

*D_NET *607 0.00114075

*CONN
*I *1547:Z O *C 151.9 38.4 *L 0 *D DEL2
*I *1601:D I *C 149.7 42.4 *L 0.000971 *D DFCNQD1

*CAP
1 *607:3 9.13674e-05
2 *607:4 0.00104937992

*RES
1 *607:2 *607:4 2.49035001
2 *607:3 *607:4 1.67263
3 *1547:Z *607:3 0.224996
4 *1601:D *607:2 0.224996
*END

*D_NET *608 0.00158612

*CONN
*I *1548:Z O *C 151.9 56.4 *L 0 *D DEL2
*I *1604:D I *C 149.9 53.2 *L 0.000971 *D DFCNQD1

*CAP
1 *1604:D 0.000424509
2 *608:2 7.10565e-05
3 *608:3 0.00109055992

*RES
1 *608:2 *608:3 1.73615
2 *1604:D *608:3 4.35454988
3 *1548:Z *608:2 0.224983
*END

*D_NET *609 0.000553841

*CONN
*I *1549:Z O *C 151.9 30.4 *L 0 *D DEL2
*I *1595:D I *C 149.7 31.6 *L 0.000971 *D DFCNQD1

*CAP
1 *609:2 6.89901e-05
2 *609:3 0.000484854023

*RES
1 *1595:D *609:3 1.33144
2 *609:2 *609:3 1.61018002
3 *1549:Z *609:2 0.225007
*END

*D_NET *610 0.000601217

*CONN
*I *1550:Z O *C 151.9 9.6 *L 0 *D DEL2
*I *1610:D I *C 149.3 8.4 *L 0.000971 *D DFCNQD1

*CAP
1 *1610:D 7.04611e-05
2 *610:2 0.000459698008
3 *610:3 7.10573e-05

*RES
1 *610:2 *610:3 2.84303999
2 *1610:D *610:2 0.384229
3 *1550:Z *610:3 0.225019
*END

*D_NET *611 0.00143348

*CONN
*I *1551:Z O *C 143.7 12.4 *L 0 *D DEL2
*I *1598:D I *C 140.1 8.4 *L 0.000971 *D DFCNQD1

*CAP
1 *1598:D 0.000202086
2 *611:2 0.000559197
3 *611:3 0.0006722

*RES
1 *611:2 *611:3 2.86925006
2 *1551:Z *611:2 2.0188
3 *1598:D *611:3 0.827773
*END

*D_NET *612 0.00720787

*CONN
*I *1230:I I *C 138.5 87.6 *L 0.000968 *D CKBD1
*I *1552:Z O *C 140.7 48.4 *L 0 *D DEL1

*CAP
1 *1230:I 0.000531771
2 *612:2 0.0012844
3 *612:3 7.88455e-05
4 *612:4 0.000568774
5 *612:5 8.6391e-05
6 *612:6 0.000229403
7 *612:7 1.17592e-07
8 *612:8 0.000203885
9 *612:9 0.000413513
10 *612:10 6.0364e-06
11 *612:2 *838:10 0.000899585
12 *612:3 *839:18 0.00147575
13 *612:4 *846:10 0.000301856016
14 *612:2 *1616:CDN 0.00077899
15 *612:3 *476:11 0.000348527031

*RES
1 *612:8 *612:9 0.159273
2 *612:6 *612:7 3.30329
3 *612:5 *612:10 2.1015
4 *612:5 *612:6 0.159273
5 *612:2 *612:8 7.01057
6 *1552:Z *612:2 1.07954
7 *1230:I *612:3 2.35594
8 *612:9 *612:10 4.27419
9 *612:4 *612:7 2.27537
10 *612:3 *612:4 7.24368
*END

*D_NET *613 0.0248117

*CONN
*I *1553:Z O *C 149.3 114 *L 0 *D CKBD1
*I *1576:C1 I *C 144.5 38.6 *L 0.000684 *D AO222D0
*I *1581:C1 I *C 144.5 20.8 *L 0.00102 *D AO222D1
*I *1583:C1 I *C 144.7 12 *L 0.00102 *D AO222D1
*I *1578:C1 I *C 144.3 15.6 *L 0.00102 *D AO222D1
*I *1579:C1 I *C 144.7 17.2 *L 0.00102 *D AO222D1
*I *1582:C1 I *C 144.7 27.8 *L 0.000684 *D AO222D0
*I *1575:C1 I *C 144.7 30 *L 0.00102 *D AO222D1
*I *1580:C1 I *C 146.1 48.2 *L 0.000684 *D AO222D0
*I *1577:C1 I *C 146.9 55.4 *L 0.000684 *D AO222D0
*I *1585:B1 I *C 149.7 87.6 *L 0.000931 *D INR2D1
*I *1584:A1 I *C 150.3 89.2 *L 0.00172 *D NR2D2

*CAP
1 *1585:B1 0.000376544
2 *1577:C1 0.000183822
3 *1580:C1 0.000275159
4 *1583:C1 0.000776413
5 *613:12 0.000362226
6 *613:13 0.000198847
7 *613:14 0.000157255
8 *613:15 0.000337527
9 *613:16 0.000481919
10 *613:17 0.00047482
11 *613:18 0.000579394
12 *613:19 0.000255304
13 *613:20 0.000115075
14 *613:21 0.000165941
15 *613:22 0.000430252
16 *613:23 0.000690533
17 *613:24 0.000575885
18 *613:25 0.000548423
19 *613:26 0.000298337
20 *613:27 0.000505857
21 *613:28 9.70216e-05
22 *613:29 0.000818739
23 *613:30 0.000454004
24 *613:31 9.13772e-05
25 *613:32 0.00057914
26 *613:33 0.000874475
27 *1580:C1 *739:6 0.00614423
28 *613:12 *1683:E 0.000834447969
29 *613:13 *536:25 0.00462076
30 *613:14 *1318:I 0.00221181016
31 *613:15 *1234:I 0.00029621

*RES
1 *613:27 *613:28 0.479418
2 *613:18 *613:28 2.61413
3 *1585:B1 *613:14 1.69787
4 *1584:A1 *613:14 0.827876
5 *613:18 *613:19 1.96209
6 *613:30 *613:31 1.61709
7 *613:21 *613:23 1.44309
8 *613:17 *613:22 3.62544
9 *613:17 *613:23 4.37023
10 *613:19 *613:22 5.66187
11 *613:31 *613:33 15.0836
12 *613:27 *613:33 4.75828
13 *613:15 *613:13 6.15487
14 *613:24 *613:26 1.43618
15 *1577:C1 *613:33 1.22076
16 *1583:C1 *613:26 3.41554
17 *1580:C1 *613:28 1.81134
18 *613:13 *613:29 9.68111
19 *613:12 *613:25 2.11262
20 *613:29 *613:32 1.08105
21 *613:24 *613:25 2.47811
22 *613:30 *613:32 11.283
23 *613:14 *613:32 2.66338
24 *613:20 *613:15 2.36533
25 *613:16 *613:12 1.36253
26 *613:16 *613:21 2.36625
27 *1578:C1 *613:26 0.449958
28 *1581:C1 *613:25 0.449958
29 *1579:C1 *613:24 0.449958
30 *1575:C1 *613:23 0.449958
31 *1576:C1 *613:22 0.225094
32 *1582:C1 *613:21 0.225094
33 *1553:Z *613:20 0.225094
*END

*D_NET *614 0.0169718

*CONN
*I *986:I I *C 143.3 134.4 *L 0.00182 *D DEL005
*I *994:I I *C 145.3 138 *L 0.00182 *D DEL005
*I *1017:Z O *C 138.3 73.6 *L 0 *D CKBD1

*CAP
1 *986:I 0.000984582
2 *1017:Z 0.000377416
3 *614:3 0.00257995016
4 *614:4 0.000699521
5 *614:5 1.96838e-06
6 *614:6 0.000573703
7 *614:7 7.38928e-05
8 *614:8 0.000935687
9 *614:9 0.000111056
10 *614:10 0.000548586
11 *614:11 0.000419855
12 *614:3 *801:3 0.000844676016
13 *614:4 *865:4 0.00256358
14 *1017:Z *620:5 0.00132891
15 *614:3 *943:Z 0.00492850031

*RES
1 *614:10 *614:11 2.09975
2 *614:7 *614:3 40.6046982
3 *614:4 *614:5 0.159232
4 *986:I *614:11 3.71004
5 *614:3 *614:8 2.25093
6 *614:6 *614:7 1.90582
7 *614:5 *614:6 8.6425
8 *1017:Z *614:8 3.16852
9 *614:9 *614:11 1.73668
10 *614:4 *614:10 2.57683
11 *994:I *614:9 0.224907
*END

*D_NET *615 0.0163789

*CONN
*I *975:I I *C 138.3 139.6 *L 0.00182 *D DEL005
*I *1003:I I *C 147.7 127.2 *L 0.00182 *D DEL005
*I *1029:Z O *C 141.1 70.8 *L 0 *D DEL0

*CAP
1 *1003:I 0.000167729
2 *1029:Z 0.000154059
3 *615:3 7.04483e-05
4 *615:4 0.000923559
5 *615:5 0.00114385
6 *615:6 0.000867287
7 *615:7 0.00118654
8 *615:8 0.00116679
9 *615:9 0.000510537
10 *615:11 0.000289506
11 *615:12 0.000510374
12 *615:13 1.46654e-06
13 *615:14 0.000357999
14 *615:15 0.000505051
15 *615:16 0.000213717
16 *615:17 0.000414651
17 *615:18 0.000389665
18 *615:19 7.01948e-05
19 *615:20 0.000814021
20 *615:21 0.000182412
21 *615:22 3.87637e-05
22 *615:20 *733:3 0.00067825
23 *615:6 *509:4 0.000236915
24 *615:8 *781:2 0.00153817
25 *615:15 *801:2 0.000762508984
26 *615:3 *716:7 0.000928147031
27 *615:4 *1441:I 0.00094519
28 *615:5 *803:4 0.00131106

*RES
1 *615:10 *615:12 4.39745
2 *615:11 *615:4 12.6828003
3 *615:10 *615:4 0.15927
4 *615:21 *615:22 0.27403
5 *975:I *615:7 1.48317
6 *615:5 *615:19 4.11103
7 *615:3 *615:20 3.94286
8 *615:6 *615:22 4.43461
9 *615:8 *615:9 4.88242
10 *1003:I *615:6 0.420915
11 *615:8 *615:18 4.83927
12 *615:20 *615:21 3.71992
13 *615:18 *615:22 2.69637
14 *615:7 *615:3 2.76256
15 *615:15 *615:17 2.66889
16 *615:9 *615:11 0.285835
17 *615:17 *615:5 2.91312
18 *615:13 *615:14 3.12329
19 *615:12 *615:13 0.15927
20 *615:15 *615:16 3.73715
21 *615:14 *615:16 1.67263
22 *1029:Z *615:19 0.701912
*END

*D_NET *616 0.0181169

*CONN
*I *1031:I I *C 137.7 172 *L 0.00104 *D DEL0
*I *1556:Z O *C 138.1 70 *L 0 *D BUFFD2

*CAP
1 *1031:I 0.000118437
2 *1556:Z 4.02324e-05
3 *616:2 0.00205991
4 *616:3 0.00066602
5 *616:4 0.000459282
6 *616:5 0.00493751
7 *616:6 0.000613356
8 *616:7 0.000152717
9 *616:8 0.000534774
10 *616:9 1.65751e-06
11 *616:11 0.000101711
12 *616:13 0.00132127
13 *616:14 0.000225271
14 *616:5 *4:3 0.00286198
15 *616:5 *105:3 0.000823986016
16 *616:5 *783:3 0.000977518984
17 *616:4 *865:3 0.000630098984
18 *616:13 *871:2 0.000671072031
19 *616:2 *331:16 0.000345241016
20 *616:3 *264:4 0.000231002012
21 *616:4 *369:5 0.000343835

*RES
1 *616:5 *616:15 0.511457
2 *616:13 *616:14 12.532
3 *616:10 *616:3 6.09414
4 *616:4 *616:5 24.7007008
5 *616:2 *616:12 11.6614
6 *616:8 *616:9 8.53308
7 *616:7 *616:8 0.15943
8 *616:3 *616:14 0.15943
9 *616:6 *616:15 7.46343
10 *616:12 *616:13 0.15943
11 *616:10 *616:11 1.63802
12 *1031:I *616:4 0.760967
13 *1556:Z *616:2 0.575907
14 *616:6 *616:9 0.162445
15 *616:7 *616:11 2.39786
*END

*D_NET *617 0.0190146

*CONN
*I *965:I I *C 137.9 146.8 *L 0.00182 *D DEL005
*I *998:I I *C 138.9 69.6 *L 0.00103 *D DEL01
*I *1016:Z O *C 139.3 62.8 *L 0 *D CKBD1

*CAP
1 *965:I 8.10843e-05
2 *998:I 6.96158e-05
3 *1016:Z 3.52103e-05
4 *617:3 0.000394087
5 *617:4 0.000368065
6 *617:5 0.00100031
7 *617:6 0.000415616
8 *617:7 0.000596764
9 *617:8 0.0006865
10 *617:9 0.00439524969
11 *617:11 2.14615e-06
12 *617:12 0.000588112
13 *617:13 0.000168272
14 *617:14 7.43105e-05
15 *998:I *803:4 0.000756022969
16 *617:8 *2:2 0.00118990008
17 *617:3 *619:3 0.00113624
18 *617:3 *801:2 0.00089255
19 *617:7 *914:2 0.00162049
20 *617:3 *1557:I 0.000376280977
21 *617:3 *484:3 0.000676995
22 *617:4 *3:2 0.0030032
23 *617:5 *266:2 0.000487633984

*RES
1 *1016:Z *617:13 0.449833
2 *617:8 *617:5 21.9087
3 *617:4 *617:8 4.70692
4 *617:10 *617:12 0.159124
5 *965:I *617:4 0.384041
6 *617:6 *617:10 3.53389
7 *617:6 *617:14 1.80647
8 *617:3 *617:6 5.35668
9 *617:7 *617:5 0.159124
10 *617:7 *617:9 33.4243011
11 *617:9 *617:11 0.159124
12 *617:3 *617:13 2.12523
13 *998:I *617:14 0.449833
14 *617:11 *617:12 3.01418
*END

*D_NET *618 0.0364572

*CONN
*I *1558:Z O *C 138.1 78 *L 0 *D BUFFD2
*I *1697:B1 I *C 142.9 265.4 *L 0.000863 *D AO22D0
*I *1731:B1 I *C 142.7 243.8 *L 0.000863 *D AO22D0
*I *1779:I I *C 142.7 164.6 *L 0.000942 *D CKND1
*I *1713:B1 I *C 141.5 141.8 *L 0.000863 *D AO22D0

*CAP
1 *1713:B1 0.000161882
2 *1779:I 0.000130148
3 *1731:B1 0.000355574
4 *618:5 0.00134113
5 *618:6 0.000973011
6 *618:7 0.00125586
7 *618:8 2.32967e-05
8 *618:10 0.000299796
9 *618:12 0.00101035
10 *618:14 0.000382977
11 *618:15 3.1137e-05
12 *618:16 2.83742e-06
13 *618:17 0.00027635
14 *618:18 0.000564796
15 *618:19 0.00074669
16 *618:20 0.000102595
17 *618:21 1.77712e-05
18 *618:22 0.000167781
19 *618:23 2.2998e-05
20 *618:24 0.000311743
21 *618:25 0.000161285
22 *618:26 5.62257e-05
23 *618:27 0.000709728
24 *618:28 0.000325482
25 *618:29 0.000552849
26 *618:30 0.00233759
27 *618:31 2.61341e-06
28 *618:32 0.00127602
29 *618:33 0.000366475
30 *618:34 0.000488335
31 *618:35 0.000986974
32 *618:36 0.00489343031
33 *618:27 *716:3 0.000570936016
34 *618:30 *12:2 0.00224393016
35 *618:30 *16:3 0.000453566016
36 *618:18 *474:3 0.000577981992
37 *1731:B1 *620:7 0.00274147
38 *1731:B1 *91:7 0.00509301
39 *618:18 *1749:A1 0.000361958008
40 *618:5 *73:8 0.00134975
41 *618:6 *839:18 0.00115377
42 *618:7 *1666:CDN 0.00157509

*RES
1 *618:18 *618:19 2.53278
2 *618:8 *618:23 0.343346
3 *618:23 *618:29 2.34484
4 *618:14 *618:16 0.159469
5 *618:12 *618:15 4.37318
6 *618:11 *618:12 0.410876
7 *618:20 *618:22 0.821752
8 *1731:B1 *618:9 0.698082
9 *618:34 *618:35 7.97831
10 *618:21 *618:22 2.8322
11 *618:26 *618:36 0.544309
12 *1779:I *618:26 0.449929
13 *618:25 *618:36 53.3210983
14 *618:27 *618:34 2.47827
15 *618:19 *618:28 1.70941
16 *618:9 *618:10 0.159469
17 *1731:B1 *618:25 1.3148
18 *618:5 *618:21 0.284765
19 *618:10 *618:11 1.20415
20 *618:16 *618:17 1.22612
21 *618:30 *618:31 0.159469
22 *618:27 *618:31 5.64486
23 *618:15 *618:17 0.159469
24 *618:30 *618:36 15.5872
25 *618:7 *618:29 5.63185
26 *618:18 *618:6 5.0794
27 *618:13 *618:7 0.159469
28 *1713:B1 *618:27 0.449929
29 *618:20 *618:6 2.53034
30 *618:32 *618:33 1.88596
31 *618:13 *618:14 1.61503
32 *618:32 *618:35 8.44533
33 *618:24 *618:28 1.86155
34 *618:5 *618:33 10.7601
35 *1558:Z *618:24 0.225371
36 *1697:B1 *618:23 0.225371
*END

*D_NET *619 0.026308

*CONN
*I *1019:I I *C 138.3 179.2 *L 0.00105 *D DEL1
*I *1079:I I *C 143.5 109.2 *L 0.00182 *D DEL005
*I *1559:Z O *C 138.1 55.6 *L 0 *D BUFFD2

*CAP
1 *1019:I 7.18504e-05
2 *1079:I 0.000261625
3 *1559:Z 0.000226831
4 *619:3 0.00260294016
5 *619:4 0.00131543
6 *619:5 0.000646217
7 *619:6 0.00182418
8 *619:7 0.00100031
9 *619:8 0.00245976
10 *619:9 0.00219722
11 *619:11 0.00022421
12 *619:12 1.66817e-06
13 *619:13 0.000468636
14 *619:14 2.83589e-05
15 *619:15 0.000177581
16 *619:16 0.000118798
17 *619:17 0.00025666
18 *619:18 0.000370334
19 *619:19 0.000526824
20 *619:20 2.30366e-06
21 *619:15 *733:4 0.000668121016
22 *619:3 *801:4 0.00122594
23 *619:3 *8:3 0.000833639063
24 *619:4 *841:4 0.00165085
25 *619:5 *153:3 0.000514279023
26 *619:4 *233:6 0.000241929004
27 *619:3 *617:3 0.00113624
28 *619:6 *803:16 0.00406909
29 *619:7 *58:8 0.000786413047
30 *619:8 *338:2 0.000399760977

*RES
1 *619:8 *619:9 9.28284
2 *619:4 *619:6 5.91536
3 *619:10 *619:3 0.159243
4 *1559:Z *619:13 2.31657
5 *1019:I *619:9 9.42844
6 *619:12 *619:13 3.38355
7 *619:15 *619:18 2.00685
8 *619:6 *619:16 5.85887
9 *619:14 *619:17 1.28368
10 *619:6 *619:3 31.9148006
11 *619:19 *619:20 0.159243
12 *619:18 *619:7 5.37627
13 *619:17 *619:19 3.43857
14 *619:8 *619:14 2.32095
15 *619:20 *619:5 3.42348
16 *619:7 *619:5 10.6917
17 *619:11 *619:12 0.159243
18 *619:4 *619:15 5.20485
19 *619:10 *619:11 3.19265
20 *1079:I *619:16 1.07964
*END

*D_NET *620 0.0419493

*CONN
*I *1012:I I *C 149.7 174 *L 0.00103 *D DEL015
*I *1030:Z O *C 139.3 66.4 *L 0 *D BUFFD2
*I *1692:B1 I *C 145.3 253.4 *L 0.000863 *D AO22D0
*I *1723:B1 I *C 144.5 225.8 *L 0.000863 *D AO22D0
*I *1708:B1 I *C 140.9 117.8 *L 0.000863 *D AO22D0

*CAP
1 *1708:B1 9.58764e-06
2 *1723:B1 0.000161212
3 *620:5 0.00067232
4 *620:6 0.00352992
5 *620:7 0.000937434
6 *620:8 0.000140637
7 *620:9 3.96433e-05
8 *620:10 0.00044561
9 *620:11 0.000559422
10 *620:12 0.000390454
11 *620:14 2.36998e-06
12 *620:15 0.000615709
13 *620:16 0.00113921
14 *620:17 3.60883e-06
15 *620:18 0.00038259
16 *620:19 9.2483e-05
17 *620:20 0.000334113
18 *620:21 0.000423149
19 *620:22 0.000872583
20 *620:23 0.000295816
21 *620:24 0.00246408
22 *620:25 0.000281758
23 *620:26 0.000461338
24 *620:27 0.00125156
25 *620:28 0.000614201
26 *620:29 0.000611293
27 *620:30 0.000122754
28 *620:32 0.000102124
29 *620:33 0.00057682
30 *620:34 0.00347121
31 *620:35 0.000442432
32 *620:36 0.00121429
33 *620:34 *12:3 0.00204913
34 *620:5 *1017:Z 0.00132891
35 *620:20 *734:3 0.000783756016
36 *620:9 *841:8 0.00399807
37 *620:33 *36:2 0.000496605977
38 *620:11 *58:3 0.000683673047
39 *620:8 *70:4 0.000592188008
40 *620:11 *780:2 0.00139116
41 *620:21 *783:2 0.00203176
42 *620:21 *865:2 0.00102299
43 *620:5 *1554:I 0.000302653008
44 *620:6 *992:Z 0.00186519
45 *620:7 *1731:B1 0.00274147

*RES
1 *1692:B1 *620:8 0.718
2 *620:22 *620:23 2.27038
3 *620:6 *620:29 13.4946
4 *620:16 *620:17 0.159357
5 *620:26 *620:7 5.49631
6 *620:13 *620:16 6.69417
7 *620:6 *620:14 0.159357
8 *620:9 *620:10 4.80398
9 *620:13 *620:15 0.159357
10 *620:23 *620:5 4.5915
11 *1708:B1 *620:11 0.382575
12 *620:22 *620:25 7.27729
13 *620:24 *620:25 1.61207
14 *620:11 *620:12 1.5685
15 *620:12 *620:18 1.02776
16 *620:32 *620:33 7.15255
17 *620:21 *620:24 20.9485
18 *620:31 *620:35 3.88663
19 *620:27 *620:34 9.7888
20 *620:19 *620:20 1.77799
21 *620:17 *620:18 3.82098
22 *620:34 *620:35 39.1146011
23 *620:8 *620:26 2.74308
24 *620:14 *620:15 4.12
25 *620:20 *620:5 1.77978
26 *620:12 *620:21 2.99734
27 *620:29 *620:36 0.510896
28 *620:31 *620:33 0.159357
29 *1012:I *620:30 0.898246
30 *1723:B1 *620:35 2.30918
31 *620:9 *620:27 1.48375
32 *620:10 *620:28 3.023
33 *620:28 *620:36 4.34202
34 *620:7 *620:32 0.159357
35 *620:30 *620:34 5.65627
36 *1030:Z *620:19 0.225009
*END

*D_NET *621 0.00014916

*CONN
*I *1024:I I *C 139.5 6.4 *L 0.000975 *D CKBD2
*I *1232:Z O *C 138.9 6 *L 0 *D BUFFD2

*CAP
1 *1232:Z 0.00014916

*RES
1 *1024:I *1232:Z 1.08704
*END

*D_NET *622 0.00175715

*CONN
*I *1562:Z O *C 151.9 95.2 *L 0 *D DEL1
*I *1585:A1 I *C 150.3 87.6 *L 0.000708 *D INR2D1
*I *1584:A2 I *C 150.7 89.2 *L 0.00217 *D NR2D2

*CAP
1 *1585:A1 0.000404953
2 *622:3 0.000572531992
3 *622:4 0.000295749
4 *622:5 0.000483911

*RES
1 *622:3 *622:5 2.64977002
2 *622:3 *622:4 1.048
3 *1562:Z *622:5 1.77182
4 *1585:A1 *622:4 1.6595
5 *1584:A2 *622:4 0.225006
*END

*D_NET *623 0.000496487

*CONN
*I *1569:I I *C 142.1 312.4 *L 0.00352 *D CKND4
*I *1570:ZN O *C 139.3 312.2 *L 0 *D CKND1

*CAP
1 *1569:I 0.000168953
2 *623:2 0.000327535996

*RES
1 *1569:I *623:2 2.78855991
2 *1570:ZN *623:2 0.225005
*END

*D_NET *624 0.0041942

*CONN
*I *1568:I I *C 144.5 265.4 *L 0.0054 *D CKND6
*I *1569:ZN O *C 142.7 312 *L 0 *D CKND4

*CAP
1 *1568:I 6.79653e-05
2 *624:2 5.92666e-05
3 *624:3 0.000266584
4 *624:4 0.00380043

*RES
1 *624:2 *624:4 1.38064
2 *624:3 *624:4 29.6466007
3 *1568:I *624:2 0.450109
4 *1569:ZN *624:3 0.450109
*END

*D_NET *625 0.0328706

*CONN
*I *1567:I I *C 144.1 74.8 *L 0.00178 *D CKND2
*I *1568:ZN O *C 145.5 265.2 *L 0 *D CKND6
*I *1566:I I *C 145.3 74.6 *L 0.00267 *D CKND3
*I *1565:I I *C 144.7 112.8 *L 0.00178 *D CKND2
*I *1564:I I *C 145.1 213.6 *L 0.00178 *D CKND2
*I *1563:I I *C 145.1 192.2 *L 0.0054 *D CKND6

*CAP
1 *1564:I 0.00010956
2 *1566:I 7.27424e-05
3 *625:6 0.00106964
4 *625:7 0.00433435
5 *625:8 0.000221351
6 *625:9 0.000220384
7 *625:10 0.000585956
8 *625:11 0.000145039
9 *625:12 0.000321614
10 *625:13 0.0027773
11 *625:14 0.00487441
12 *625:10 *732:2 0.00059637
13 *1564:I *70:5 0.00165297
14 *625:13 *867:2 0.000680758
15 *625:6 *867:3 3.06e-06
16 *625:6 *867:2 0.000736489
17 *625:14 *867:3 0.00180541
18 *625:14 *867:2 0.00414954993
19 *625:13 *934:2 0.00623815
20 *625:6 *1716:A2 0.000874041016
21 *625:6 *936:14 0.000399476992
22 *625:7 *180:13 0.00100193

*RES
1 *625:6 *625:14 70.9877014
2 *1564:I *625:11 0.449522
3 *1566:I *625:10 0.449522
4 *1567:I *625:10 2.03747
5 *625:13 *625:14 27.3754
6 *625:8 *625:6 0.770145
7 *625:11 *625:7 0.544843
8 *625:6 *625:7 13.4738
9 *625:12 *625:7 32.7783
10 *625:9 *625:14 1.01061
11 *1568:ZN *625:12 0.449522
12 *1565:I *625:9 0.449522
13 *1563:I *625:8 0.225303
14 *625:10 *625:13 0.225303
*END

*D_NET *626 0.0256591

*CONN
*I *1673:CP I *C 150.3 195.6 *L 0.000642 *D DFCNQD1
*I *1563:ZN O *C 144.1 192.4 *L 0 *D CKND6
*I *1672:CP I *C 150.3 190 *L 0.000642 *D DFCNQD1
*I *1671:CP I *C 145.7 184.8 *L 0.000642 *D DFCNQD1
*I *1670:CP I *C 146.1 175.6 *L 0.000642 *D DFCNQD1
*I *1653:CP I *C 143.3 204.4 *L 0.000642 *D DFCNQD1
*I *1652:CP I *C 150.9 202.8 *L 0.000642 *D DFCNQD1
*I *1651:CP I *C 150.5 197.2 *L 0.000642 *D DFCNQD1
*I *1650:CP I *C 142.5 199.2 *L 0.000642 *D DFCNQD1
*I *1649:CP I *C 143.3 195.6 *L 0.000642 *D DFCNQD1
*I *1648:CP I *C 143.1 190 *L 0.000642 *D DFCNQD1
*I *1647:CP I *C 145.9 179.2 *L 0.000642 *D DFCNQD1
*I *1646:CP I *C 146.1 170.4 *L 0.000642 *D DFCNQD1
*I *1645:CP I *C 143.9 143.2 *L 0.000642 *D DFCNQD1
*I *1644:CP I *C 144.1 139.6 *L 0.000642 *D DFCNQD1
*I *1643:CP I *C 142.7 134.4 *L 0.000642 *D DFCNQD1
*I *1642:CP I *C 143.7 127.2 *L 0.000642 *D DFCNQD1
*I *1641:CP I *C 142.7 121.6 *L 0.000642 *D DFCNQD1
*I *1574:CLK I *C 134.195 180.925 *L 0.031 *D sram00

*CAP
1 *1641:CP 0.000599097
2 *1673:CP 7.00916e-05
3 *626:19 3.59762e-05
4 *626:20 4.4536e-05
5 *626:21 4.32645e-05
6 *626:22 0.000897017
7 *626:23 0.000205343
8 *626:24 0.000420518
9 *626:25 5.73138e-05
10 *626:26 5.21965e-05
11 *626:27 6.06323e-05
12 *626:28 2.17718e-05
13 *626:29 0.00120018
14 *626:30 8.52264e-05
15 *626:31 8.06363e-05
16 *626:32 5.995e-05
17 *626:33 0.000200908
18 *626:34 8.83588e-05
19 *626:35 4.02561e-05
20 *626:36 6.78585e-05
21 *626:38 0.00019238
22 *626:39 0.00116585
23 *626:40 0.000223301
24 *626:41 3.38052e-06
25 *626:42 4.99015e-05
26 *626:43 6.30204e-05
27 *626:44 5.57631e-05
28 *626:45 3.1014e-05
29 *626:46 8.29003e-05
30 *626:47 4.56836e-05
31 *626:48 5.53289e-05
32 *626:49 0.000102036
33 *626:50 5.14522e-05
34 *626:51 7.59532e-05
35 *626:52 7.53639e-05
36 *626:53 0.000275404
37 *626:55 7.5612e-05
38 *626:58 0.000318575
39 *626:59 6.4447e-05
40 *626:60 8.12566e-06
41 *626:61 9.95548e-06
42 *626:62 4.37607e-05
43 *626:63 9.81592e-05
44 *626:64 0.00067843
45 *626:65 0.000987919
46 *626:66 3.45185e-05
47 *626:67 0.000142633
48 *626:68 0.000202118
49 *626:69 0.000232512
50 *626:74 0.000135965
51 *626:75 6.86649e-05
52 *626:76 0.000620527
53 *626:77 4.87539e-05
54 *626:78 0.000267961
55 *626:79 0.000324096
56 *626:80 2.4501e-06
57 *626:81 1.00485e-05
58 *626:82 1.21265e-05
59 *626:83 0.000117295
60 *626:84 2.80676e-05
61 *626:85 0.000292586
62 *626:86 0.000304836
63 *626:87 0.000264952
64 *626:88 0.000673251
65 *626:89 0.000130476
66 *626:90 0.000129514
67 *626:91 7.17663e-05
68 *626:92 0.0020325
69 *626:93 0.000326639
70 *626:32 *868:2 0.00271506
71 *626:26 *913:2 0.00341203
72 *626:29 *181:9 0.000808871953
73 *626:29 *182:9 0.000406212969
74 *626:30 *375:2 0.00031233502
75 *626:29 *840:4 0.00105254992
76 *626:28 *864:9 0.000638568984
77 *626:25 *936:9 0.000674425

*RES
1 *626:71 *626:87 1.56994
2 *626:61 *626:77 0.16368
3 *626:29 *626:54 7.75016
4 *626:67 *626:90 0.86117
5 *626:21 *626:50 0.270876
6 *626:39 *626:53 5.25392
7 *626:42 *626:45 0.270743
8 *626:32 *626:52 0.343744
9 *626:62 *626:63 0.663355
10 *626:37 *626:40 0.599128
11 *626:83 *626:91 1.51132
12 *626:36 *626:49 0.281344
13 *626:87 *626:88 3.40046
14 *626:43 *626:74 0.854549
15 *626:22 *626:70 0.60277
16 *626:83 *626:85 3.27452
17 *626:68 *626:83 1.02411
18 *626:90 *626:91 1.88915
19 *626:81 *626:82 0.285866
20 *626:62 *626:79 2.4216
21 *626:30 *626:57 0.270793
22 *626:75 *626:88 1.48404
23 *626:66 *626:92 0.367561
24 *626:81 *626:93 0.151778
25 *626:33 *626:48 0.343625
26 *626:85 *626:86 3.66544
27 *626:80 *626:89 0.864915
28 *626:34 *626:35 0.333706
29 *626:22 *626:23 1.11669
30 *626:89 *626:90 2.39292
31 *626:53 *626:64 1.02413
32 *626:23 *626:24 1.91018
33 *626:69 *626:89 1.31813
34 *626:50 *626:58 0.602743
35 *626:25 *626:55 0.270743
36 *626:86 *626:87 2.26697
37 *626:52 *626:78 1.02413
38 *626:27 *626:46 0.270743
39 *626:28 *626:51 0.343679
40 *626:64 *626:82 4.34123
41 *626:37 *626:38 0.159236
42 *626:31 *626:47 0.343744
43 *626:60 *626:77 0.16368
44 *626:58 *626:84 1.61037
45 *626:19 *626:43 0.270763
46 *626:29 *626:65 6.38488
47 *626:88 *626:92 25.748
48 *626:79 *626:80 0.159216
49 *626:73 *626:85 1.23224
50 *626:72 *626:86 1.44404
51 *626:59 *626:76 3.70853
52 *626:20 *626:44 0.270876
53 *626:48 *626:63 0.460154
54 *1641:CP *626:41 2.68173
55 *626:26 *626:56 0.371103
56 *1673:CP *626:23 0.510242
57 *626:22 *626:74 3.86184
58 *626:38 *626:39 0.790616
59 *626:92 *626:93 2.87868
60 *626:40 *626:41 0.159236
61 *1644:CP *626:57 0.45
62 *1646:CP *626:56 0.45
63 *1670:CP *626:55 0.45
64 *1563:ZN *626:54 0.225
65 *1643:CP *626:53 0.225
66 *1642:CP *626:52 0.225
67 *1671:CP *626:51 0.225
68 *1672:CP *626:50 0.225
69 *1648:CP *626:49 0.225
70 *1649:CP *626:34 0.225
71 *1653:CP *626:48 0.225
72 *1645:CP *626:47 0.225
73 *1647:CP *626:46 0.225
74 *1650:CP *626:45 0.225
75 *1651:CP *626:44 0.225
76 *1652:CP *626:43 0.225
77 *626:24 *626:59 0.225
78 *626:34 *626:67 0.225
79 *626:39 *626:78 0.225
80 *626:44 *626:70 0.225
81 *626:45 *626:69 0.225
82 *626:46 *626:72 0.225
83 *626:47 *626:66 0.225
84 *626:49 *626:68 0.225
85 *626:51 *626:73 0.225
86 *626:54 *626:76 0.225
87 *626:55 *626:71 0.225
88 *626:56 *626:75 0.225
89 *626:57 *626:77 0.225
90 *626:59 *626:84 0.225
91 *626:76 *626:91 0.225
92 *626:77 *626:93 0.225
93 *1563:ZN *1574:CLK 0.0001
*END

*D_NET *627 0.0177887

*CONN
*I *1677:CP I *C 150.3 213.6 *L 0.000642 *D DFCNQD1
*I *1564:ZN O *C 144.83 213.305 *L 0 *D CKND2
*I *1676:CP I *C 143.3 211.6 *L 0.000642 *D DFCNQD1
*I *1675:CP I *C 143.1 213.6 *L 0.000642 *D DFCNQD1
*I *1674:CP I *C 150.9 210 *L 0.000642 *D DFCNQD1
*I *1669:CP I *C 144.9 271.2 *L 0.000642 *D DFCNQD1
*I *1668:CP I *C 145.3 260.4 *L 0.000642 *D DFCNQD1
*I *1667:CP I *C 146.7 267.6 *L 0.000642 *D DFCNQD1
*I *1666:CP I *C 144.3 262 *L 0.000642 *D DFCNQD1
*I *1665:CP I *C 142.7 254.8 *L 0.000642 *D DFCNQD1
*I *1664:CP I *C 145.7 254.8 *L 0.000642 *D DFCNQD1
*I *1663:CP I *C 144.7 249.6 *L 0.000642 *D DFCNQD1
*I *1662:CP I *C 144.9 222.4 *L 0.000642 *D DFCNQD1
*I *1661:CP I *C 143.1 246 *L 0.000642 *D DFCNQD1
*I *1660:CP I *C 150.3 246 *L 0.000642 *D DFCNQD1
*I *1659:CP I *C 144.5 240.4 *L 0.000642 *D DFCNQD1
*I *1658:CP I *C 145.9 233.2 *L 0.000642 *D DFCNQD1
*I *1657:CP I *C 145.7 229.6 *L 0.000642 *D DFCNQD1
*I *1656:CP I *C 146.9 228 *L 0.000642 *D DFCNQD1
*I *1655:CP I *C 149.7 224.4 *L 0.000642 *D DFCNQD1
*I *1654:CP I *C 149.9 217.2 *L 0.000642 *D DFCNQD1

*CAP
1 *1655:CP 0.000112016
2 *1659:CP 1.28493e-05
3 *1663:CP 8.22402e-05
4 *1666:CP 0.000110902
5 *1668:CP 1.34183e-05
6 *1674:CP 4.6229e-05
7 *1676:CP 0.000454396
8 *627:21 0.000799691
9 *627:22 0.000804551
10 *627:23 0.000854193
11 *627:24 0.000452143
12 *627:25 0.000802109
13 *627:26 0.000304329
14 *627:27 0.00133621
15 *627:28 0.00081932
16 *627:29 0.000672573
17 *627:30 0.000645452
18 *627:31 8.72187e-05
19 *627:32 0.000439057
20 *627:33 0.000145372
21 *627:34 0.000231975
22 *627:35 0.00155365
23 *627:36 0.000295913
24 *627:37 0.000148051
25 *627:38 0.000302764
26 *627:39 0.000241197
27 *627:40 0.000438156
28 *627:41 0.000608042
29 *627:42 0.000253714
30 *627:43 0.000174485
31 *627:44 0.00120793
32 *627:45 0.000878967
33 *627:46 0.000694431
34 *627:47 8.15527e-05
35 *627:48 5.23217e-05
36 *627:49 0.000543226
37 *627:50 0.000584382
38 *627:21 *1692:B2 0.000503767031

*RES
1 *627:25 *627:26 1.0852
2 *627:42 *627:46 3.39379
3 *1661:CP *627:44 1.72752
4 *1669:CP *627:22 2.36537
5 *627:26 *627:32 1.77928
6 *627:22 *627:23 3.52535
7 *627:24 *627:29 2.26876
8 *627:36 *627:46 1.23222
9 *1663:CP *627:29 0.384193
10 *1664:CP *627:43 0.953634
11 *627:21 *627:29 3.61471
12 *1677:CP *627:42 0.926794
13 *627:27 *627:48 3.31542
14 *627:42 *627:49 2.37007
15 *627:24 *627:35 3.67436
16 *627:31 *627:44 3.94387
17 *1676:CP *627:36 1.57405
18 *627:27 *627:38 1.13315
19 *627:26 *627:27 2.33502
20 *627:28 *627:30 2.38767
21 *627:40 *627:43 1.68403
22 *627:25 *627:41 3.00665
23 *627:25 *627:33 1.08926
24 *627:47 *627:49 0.910149
25 *1655:CP *627:48 0.449977
26 *627:23 *627:34 1.13315
27 *1658:CP *627:41 1.28853
28 *627:37 *627:45 3.77686
29 *627:22 *627:39 1.58312
30 *627:35 *627:50 5.21941996
31 *1668:CP *627:34 0.538699
32 *627:21 *627:34 3.62276
33 *627:28 *627:38 3.48537
34 *1674:CP *627:47 0.449977
35 *1666:CP *627:23 1.05271
36 *1659:CP *627:35 0.54069
37 *1665:CP *627:40 0.449977
38 *1667:CP *627:39 0.449977
39 *1662:CP *627:38 0.224989
40 *1654:CP *627:37 0.224989
41 *1675:CP *627:36 0.224989
42 *1564:ZN *627:30 0.224989
43 *1657:CP *627:33 0.224989
44 *1656:CP *627:32 0.224989
45 *1660:CP *627:31 0.224989
46 *627:21 *627:43 0.224989
47 *627:24 *627:44 0.224989
48 *627:28 *627:45 0.224989
49 *627:30 *627:46 0.224989
50 *627:41 *627:50 0.224989
*END

*D_NET *628 0.0213719

*CONN
*I *1680:CP I *C 146.1 109.4 *L 0.000705 *D EDFCNQD1
*I *1565:ZN O *C 144.43 112.505 *L 0 *D CKND2
*I *1679:CP I *C 146.1 113 *L 0.0011 *D EDFCNQD4
*I *1678:CP I *C 146.1 103.4 *L 0.000705 *D EDFCNQD1
*I *1640:CP I *C 142.3 120 *L 0.000642 *D DFCNQD1
*I *1639:CP I *C 142.9 114.4 *L 0.000642 *D DFCNQD1
*I *1638:CP I *C 142.9 109.2 *L 0.000642 *D DFCNQD1
*I *1637:CP I *C 143.5 105.6 *L 0.000642 *D DFCNQD1
*I *1636:CP I *C 142.9 103.6 *L 0.000642 *D DFCNQD1
*I *1635:CP I *C 143.5 100 *L 0.000642 *D DFCNQD1
*I *1634:CP I *C 142.5 92.8 *L 0.000642 *D DFCNQD1
*I *1633:CP I *C 146.7 96.4 *L 0.000642 *D DFCNQD1
*I *1632:CP I *C 148.1 89.2 *L 0.000642 *D DFCNQD1
*I *1631:CP I *C 142.7 91.2 *L 0.000642 *D DFCNQD1
*I *1630:CP I *C 142.9 82 *L 0.000642 *D DFCNQD1
*I *1629:CP I *C 150.3 82 *L 0.000642 *D DFCNQD1
*I *1621:CP I *C 146.7 84 *L 0.000642 *D DFCNQD1
*I *1620:CP I *C 142.5 76.8 *L 0.000642 *D DFCNQD1
*I *1596:CP I *C 146.5 100 *L 0.000642 *D DFCNQD1
*I *1588:CP I *C 146.5 116.4 *L 0.000642 *D DFCNQD1
*I *1586:CP I *C 146.9 98.4 *L 0.000642 *D DFCNQD1

*CAP
1 *1586:CP 9.43144e-05
2 *1588:CP 0.00025788
3 *1596:CP 8.84227e-05
4 *1631:CP 0.000352028
5 *1635:CP 0.000129189
6 *1636:CP 0.000299692
7 *1637:CP 4.06716e-05
8 *1638:CP 0.000381605
9 *1639:CP 6.2124e-05
10 *1640:CP 0.000608981
11 *1678:CP 0.000543769
12 *1680:CP 0.000304491
13 *628:21 4.78461e-05
14 *628:22 0.000268974
15 *628:23 0.00046024
16 *628:24 0.000186538
17 *628:25 0.000809417
18 *628:26 0.000900073
19 *628:27 0.0015569
20 *628:28 5.25737e-05
21 *628:29 0.000444252
22 *628:30 0.00020312
23 *628:31 0.000884773
24 *628:32 0.00102442
25 *628:33 0.000977092
26 *628:34 0.00104644
27 *628:35 0.000451806
28 *628:36 0.000124961
29 *628:37 0.000120874
30 *628:38 0.00057603
31 *628:39 0.000236903
32 *628:40 0.000265553
33 *628:41 0.000298361
34 *628:42 7.43587e-05
35 *628:43 0.000277028
36 *628:44 0.000263534
37 *628:45 5.93207e-05
38 *628:46 0.00091131
39 *628:47 0.000327012
40 *628:48 0.000747554
41 *628:49 0.00114881
42 *628:50 0.000335873
43 *1631:CP *858:11 0.000322681992
44 *1636:CP *860:10 0.000342586992
45 *1636:CP *842:13 0.000982173047
46 *1640:CP *869:2 0.00147932

*RES
1 *628:30 *628:31 5.78557
2 *1638:CP *628:35 2.55079
3 *628:48 *628:50 1.18314
4 *628:36 *628:46 2.49137
5 *628:34 *628:39 1.3314
6 *628:34 *628:49 3.51401
7 *628:21 *628:42 0.476787
8 *1596:CP *628:27 0.561154
9 *628:29 *628:45 3.16795
10 *628:34 *628:50 3.4993
11 *628:43 *628:44 0.503615
12 *1636:CP *628:44 2.26274
13 *1640:CP *628:45 2.11083
14 *628:22 *628:27 1.65934
15 *628:31 *628:32 3.38822
16 *628:33 *628:40 1.58321
17 *628:35 *628:47 1.10631
18 *628:25 *628:37 1.3627
19 *628:32 *628:33 4.91142
20 *1639:CP *628:35 1.48449
21 *628:21 *628:27 7.71143007
22 *1679:CP *628:28 0.701884
23 *628:33 *628:48 3.33339
24 *628:22 *628:41 1.08724
25 *1637:CP *628:44 0.449959
26 *1631:CP *628:40 1.3627
27 *1620:CP *628:49 1.58321
28 *628:30 *628:38 0.205447
29 *1680:CP *628:28 2.46524
30 *628:26 *628:46 1.53744
31 *628:42 *628:47 1.32776
32 *628:23 *628:41 2.37723
33 *628:24 *628:25 1.94115
34 *628:23 *628:24 0.792723
35 *1678:CP *628:43 3.56684
36 *628:29 *628:38 3.51613
37 *1586:CP *628:22 0.518794
38 *1588:CP *628:29 2.3384
39 *628:25 *628:26 3.73005
40 *1635:CP *628:32 1.43648
41 *1621:CP *628:26 0.224979
42 *1633:CP *628:41 0.224979
43 *1634:CP *628:40 0.224979
44 *1630:CP *628:39 0.224979
45 *1565:ZN *628:38 0.224979
46 *1632:CP *628:37 0.224979
47 *1629:CP *628:36 0.224979
48 *628:28 *628:42 0.224979
49 *628:30 *628:47 0.224979
50 *628:31 *628:43 0.224979
*END

*D_NET *629 0.0234666

*CONN
*I *1687:CP I *C 140.5 37.4 *L 0.000705 *D EDFCNQD1
*I *1566:ZN O *C 145.7 74.4 *L 0 *D CKND3
*I *1686:CP I *C 146.1 33.8 *L 0.000705 *D EDFCNQD1
*I *1685:CP I *C 139.5 35 *L 0.000705 *D EDFCNQD1
*I *1684:CP I *C 140.7 26.6 *L 0.000705 *D EDFCNQD1
*I *1683:CP I *C 145.5 24.2 *L 0.000705 *D EDFCNQD1
*I *1682:CP I *C 144.9 6.2 *L 0.000705 *D EDFCNQD1
*I *1681:CP I *C 144.5 9.8 *L 0.000705 *D EDFCNQD1
*I *1610:CP I *C 150.3 8.4 *L 0.000642 *D DFCNQD1
*I *1609:CP I *C 150.3 19.2 *L 0.000642 *D DFCNQD1
*I *1608:CP I *C 150.5 22.8 *L 0.000642 *D DFCNQD1
*I *1607:CP I *C 150.3 40.8 *L 0.000642 *D DFCNQD1
*I *1606:CP I *C 139.1 19.2 *L 0.000642 *D DFCNQD1
*I *1605:CP I *C 139.1 22.8 *L 0.000642 *D DFCNQD1
*I *1603:CP I *C 138.5 33.6 *L 0.000642 *D DFCNQD1
*I *1600:CP I *C 139.3 31.6 *L 0.000642 *D DFCNQD1
*I *1598:CP I *C 139.1 8.4 *L 0.000642 *D DFCNQD1
*I *1597:CP I *C 138.7 13.6 *L 0.000642 *D DFCNQD1
*I *1595:CP I *C 150.7 31.6 *L 0.000642 *D DFCNQD1
*I *1594:CP I *C 150.3 35.2 *L 0.000642 *D DFCNQD1
*I *1592:CP I *C 150.1 13.6 *L 0.000642 *D DFCNQD1

*CAP
1 *1594:CP 0.000467949
2 *1595:CP 3.34576e-05
3 *1600:CP 0.000275325
4 *1607:CP 2.89966e-05
5 *1608:CP 6.20539e-05
6 *1566:ZN 0.000136862
7 *1687:CP 6.52566e-05
8 *629:21 6.2397e-05
9 *629:22 0.000837298
10 *629:23 0.000122621
11 *629:24 0.000150245
12 *629:25 6.68008e-05
13 *629:26 0.00137371
14 *629:27 0.000263543
15 *629:28 0.000144297
16 *629:29 0.000411328
17 *629:30 0.000297229
18 *629:31 0.000823057
19 *629:32 0.000151217
20 *629:33 0.000875445
21 *629:34 0.000782565
22 *629:35 0.00045714
23 *629:36 0.000466634
24 *629:37 0.000207895
25 *629:38 0.000411557
26 *629:39 0.000203491
27 *629:40 0.000763634
28 *629:41 1.69862e-05
29 *629:42 0.000101974
30 *629:43 4.82705e-05
31 *629:44 0.000772442
32 *629:45 0.000478701
33 *629:46 0.000294884
34 *629:47 0.00023386
35 *629:48 0.00374811
36 *629:49 0.000186791
37 *629:50 0.000360999
38 *629:51 0.000689455
39 *629:52 0.000466748
40 *629:53 0.000407096
41 *629:54 0.000249016
42 *629:45 *538:10 0.000799008047
43 *1687:CP *633:59 0.0012211
44 *629:22 *935:10 0.00172056
45 *629:26 *84:4 0.000246079004
46 *1607:CP *1020:I 0.000404033984
47 *629:21 *450:2 0.000211400996
48 *1600:CP *476:4 0.000414255
49 *1600:CP *529:3 0.000452820977

*RES
1 *629:41 *629:51 3.40174
2 *1681:CP *629:39 1.55632
3 *629:36 *629:40 3.53638
4 *1566:ZN *629:45 0.450133
5 *629:22 *629:29 1.00719
6 *629:43 *629:48 3.25818
7 *629:40 *629:47 2.11404
8 *629:24 *629:44 3.33409
9 *1600:CP *629:54 2.06025
10 *629:37 *629:52 3.75155
11 *1595:CP *629:41 0.450133
12 *629:22 *629:44 2.84105
13 *629:49 *629:50 2.3929
14 *629:48 *629:49 2.1411
15 *629:26 *629:37 4.3185
16 *629:32 *629:47 0.450133
17 *629:34 *629:38 4.32279
18 *629:30 *629:53 1.70945
19 *629:52 *629:53 3.27468
20 *629:33 *629:39 3.89675
21 *1607:CP *629:43 0.674869
22 *629:50 *629:51 1.25932
23 *1687:CP *629:40 0.674869
24 *629:22 *629:42 3.31561
25 *1608:CP *629:42 0.674869
26 *629:46 *629:51 3.69017
27 *629:21 *629:36 3.19581
28 *629:47 *629:54 1.00752
29 *1605:CP *629:26 2.67836
30 *629:45 *629:48 21.6275005
31 *629:29 *629:46 1.71473
32 *629:23 *629:38 3.57433
33 *629:31 *629:46 3.52813
34 *629:35 *629:39 0.377861
35 *1594:CP *629:21 1.87016
36 *629:27 *629:54 1.27021
37 *629:28 *629:50 0.827664
38 *629:25 *629:35 3.49843
39 *629:37 *629:44 0.382811
40 *1597:CP *629:34 0.450133
41 *1598:CP *629:33 0.450133
42 *1685:CP *629:32 0.450133
43 *1684:CP *629:31 0.450133
44 *1682:CP *629:30 0.450133
45 *1683:CP *629:29 0.450133
46 *1686:CP *629:28 0.450133
47 *1603:CP *629:27 0.225066
48 *1606:CP *629:26 0.225066
49 *1610:CP *629:25 0.225066
50 *1609:CP *629:24 0.225066
51 *1592:CP *629:23 0.225066
52 *629:35 *629:53 0.225066
53 *629:36 *629:49 0.225066
54 *629:38 *629:52 0.225066
*END

*D_NET *630 0.0173742

*CONN
*I *1689:CP I *C 145.7 51.8 *L 0.000705 *D EDFCNQD1
*I *1567:ZN O *C 143.83 75.095 *L 0 *D CKND2
*I *1688:CP I *C 145.1 44.6 *L 0.000705 *D EDFCNQD1
*I *1628:CP I *C 150.1 80.4 *L 0.000642 *D DFCNQD1
*I *1627:CP I *C 151.5 74.8 *L 0.000642 *D DFCNQD1
*I *1626:CP I *C 150.5 73.2 *L 0.000642 *D DFCNQD1
*I *1625:CP I *C 150.7 67.6 *L 0.000642 *D DFCNQD1
*I *1624:CP I *C 150.9 62.4 *L 0.000642 *D DFCNQD1
*I *1623:CP I *C 150.5 58.8 *L 0.000642 *D DFCNQD1
*I *1622:CP I *C 143.3 58.8 *L 0.000642 *D DFCNQD1
*I *1619:CP I *C 143.3 74.8 *L 0.000642 *D DFCNQD1
*I *1618:CP I *C 143.3 67.6 *L 0.000642 *D DFCNQD1
*I *1617:CP I *C 145.5 66 *L 0.000642 *D DFCNQD1
*I *1616:CP I *C 143.9 53.2 *L 0.000642 *D DFCNQD1
*I *1615:CP I *C 142.7 51.6 *L 0.000642 *D DFCNQD1
*I *1614:CP I *C 143.5 42.4 *L 0.000642 *D DFCNQD1
*I *1604:CP I *C 150.9 53.2 *L 0.000642 *D DFCNQD1
*I *1602:CP I *C 139.1 40.8 *L 0.000642 *D DFCNQD1
*I *1601:CP I *C 150.7 42.4 *L 0.000642 *D DFCNQD1
*I *1599:CP I *C 150.7 49.6 *L 0.000642 *D DFCNQD1
*I *1593:CP I *C 150.5 46 *L 0.000642 *D DFCNQD1

*CAP
1 *1599:CP 3.54501e-05
2 *1602:CP 0.000299151
3 *1604:CP 0.000322947
4 *1614:CP 9.08725e-05
5 *1615:CP 0.000369036
6 *1617:CP 6.02796e-05
7 *1619:CP 1.70182e-05
8 *1624:CP 0.000322494
9 *1626:CP 0.000297592
10 *1628:CP 0.000125235
11 *1567:ZN 9.73245e-06
12 *630:21 3.5885e-06
13 *630:22 0.000690533
14 *630:23 0.00118774
15 *630:24 0.000701987
16 *630:25 0.000564772
17 *630:26 0.000899953
18 *630:27 0.000820281
19 *630:28 0.000582425
20 *630:29 0.00110209
21 *630:30 0.000859537
22 *630:31 0.000153454
23 *630:32 0.000112983
24 *630:33 0.000404323
25 *630:34 0.000673424
26 *630:35 9.17062e-05
27 *630:36 0.000124637
28 *630:37 0.000435024
29 *630:38 0.000877045
30 *630:39 0.000446859
31 *630:40 0.000617512
32 *630:41 0.000124583
33 *630:42 0.000165089
34 *630:43 0.000751882
35 *630:44 0.00117009
36 *630:45 0.000300202
37 *630:46 5.92284e-05
38 *630:47 0.000504891
39 *630:48 0.000746717
40 *630:49 0.000251848

*RES
1 *630:41 *630:44 4.52425
2 *630:30 *630:42 4.13052
3 *630:24 *630:25 2.37439
4 *630:26 *630:27 2.93413
5 *630:27 *630:46 0.728712
6 *1602:CP *630:34 1.30109
7 *630:40 *630:45 1.00725
8 *1601:CP *630:43 0.953686
9 *630:22 *630:23 4.84202003
10 *1626:CP *630:49 1.62484
11 *630:29 *630:37 1.0402
12 *1599:CP *630:46 0.450024
13 *630:31 *630:33 0.993362
14 *630:39 *630:40 1.70944
15 *630:38 *630:48 1.41701
16 *1614:CP *630:45 0.450024
17 *630:31 *630:38 3.45434
18 *630:29 *630:47 2.27967
19 *630:27 *630:28 2.27117
20 *630:40 *630:43 3.02176
21 *1615:CP *630:48 1.64014
22 *630:28 *630:43 2.65758
23 *630:25 *630:26 3.63477
24 *1628:CP *630:21 0.844635
25 *1617:CP *630:47 0.450024
26 *630:23 *630:24 3.27909
27 *630:34 *630:45 2.99494
28 *1623:CP *630:42 0.827789
29 *1688:CP *630:39 0.800896
30 *1689:CP *630:48 1.89407
31 *630:23 *630:36 0.95376
32 *1567:ZN *1619:CP 0.356413
33 *1624:CP *630:24 1.47434
34 *1604:CP *630:26 1.47434
35 *630:41 *630:49 0.475513
36 *630:28 *630:35 0.827789
37 *630:29 *630:32 4.73518
38 *630:30 *630:31 0.159884
39 *1627:CP *630:49 1.17098
40 *630:21 *630:22 3.01939
41 *1567:ZN *630:32 0.224975
42 *1616:CP *630:38 0.224975
43 *1622:CP *630:33 0.224975
44 *1618:CP *630:37 0.224975
45 *1625:CP *630:36 0.224975
46 *1593:CP *630:35 0.224975
47 *630:22 *630:41 0.224975
48 *630:25 *630:42 0.224975
49 *630:32 *630:44 0.224975
*END

*D_NET *631 0.00149312

*CONN
*I *1571:ZN O *C 137.9 175.2 *L 0 *D TIEL
*I *1574:EMA[0] I *C 134.195 170.78 *L 0.00755 *D sram00
*I *1574:EMA[2] I *C 134.195 179.915 *L 0.00755 *D sram00

*CAP
1 *631:3 6.85081e-05
2 *631:4 3.76875e-05
3 *631:6 4.12856e-05
4 *631:7 0.00022512
5 *631:8 1.19093e-06
6 *631:9 7.94039e-05
7 *631:10 1.16559e-06
8 *631:11 1.57271e-05
9 *631:12 1.28215e-05
10 *631:13 0.000553529961
11 *631:14 1.77035e-05
12 *631:15 0.000438972

*RES
1 *631:11 *631:12 0.394485
2 *631:10 *631:15 0.416083
3 *631:6 *631:12 0.352971
4 *631:5 *631:7 1.74069
5 *631:13 *631:14 0.268509
6 *631:9 *631:10 0.159237
7 *631:8 *631:9 0.345459
8 *631:7 *631:8 0.159237
9 *631:5 *631:6 0.159237
10 *631:4 *631:15 2.23945
11 *631:13 *631:15 3.23890996
12 *1571:ZN *631:3 0.225018
13 *631:3 *631:4 0.225018
14 *1571:ZN *1574:EMA[2] 9.88437e-05
15 *1574:EMA[2] *1574:EMA[0] 9.88437e-05
*END

*D_NET *632 0.00225552

*CONN
*I *1572:Z O *C 137.9 173.8 *L 0 *D TIEH
*I *1574:RETN I *C 134.195 178.555 *L 0.00453 *D sram00
*I *1574:EMA[1] I *C 134.195 169.62 *L 0.00755 *D sram00

*CAP
1 *632:3 0.000840735
2 *632:4 7.08663e-05
3 *632:5 3.16101e-05
4 *632:6 0.000223785
5 *632:7 1.58564e-05
6 *632:8 3.22772e-05
7 *632:9 0.000531484
8 *632:10 0.000285081
9 *632:11 0.000223824

*RES
1 *632:8 *632:11 2.23947
2 *632:7 *632:9 0.286276
3 *632:3 *632:4 0.66625
4 *632:8 *632:9 2.46186
5 *632:5 *632:6 2.19255
6 *632:4 *632:5 0.101812
7 *632:7 *632:10 0.989477
8 *632:3 *632:10 3.20323992
9 *1572:Z *632:10 0.224983
10 *1572:Z *1574:EMA[1] 9.77551e-05
11 *1574:EMA[1] *1574:RETN 9.77551e-05
*END

*D_NET *633 0.0516171

*CONN
*I *1637:CDN I *C 140.1 105.6 *L 0.00163 *D DFCNQD1
*I *1638:CDN I *C 139.5 109.2 *L 0.00163 *D DFCNQD1
*I *1636:CDN I *C 139.5 103.6 *L 0.00163 *D DFCNQD1
*I *1678:CDN I *C 149.9 103.4 *L 0.00157 *D EDFCNQD1
*I *1596:CDN I *C 149.9 100 *L 0.00163 *D DFCNQD1
*I *1635:CDN I *C 140.1 100 *L 0.00163 *D DFCNQD1
*I *1633:CDN I *C 150.1 96.4 *L 0.00163 *D DFCNQD1
*I *1634:CDN I *C 139.1 92.8 *L 0.00163 *D DFCNQD1
*I *1630:CDN I *C 139.5 82 *L 0.00163 *D DFCNQD1
*I *1620:CDN I *C 139.1 76.8 *L 0.00163 *D DFCNQD1
*I *1631:CDN I *C 139.3 91.2 *L 0.00163 *D DFCNQD1
*I *1621:CDN I *C 143.3 84 *L 0.00163 *D DFCNQD1
*I *1632:CDN I *C 144.7 89.2 *L 0.00163 *D DFCNQD1
*I *1629:CDN I *C 146.9 82 *L 0.00163 *D DFCNQD1
*I *1586:CDN I *C 150.3 98.4 *L 0.00163 *D DFCNQD1
*I *1619:CDN I *C 139.9 74.8 *L 0.00163 *D DFCNQD1
*I *1628:CDN I *C 146.7 80.4 *L 0.00163 *D DFCNQD1
*I *1627:CDN I *C 148.1 74.8 *L 0.00163 *D DFCNQD1
*I *1618:CDN I *C 139.9 67.6 *L 0.00163 *D DFCNQD1
*I *1626:CDN I *C 147.1 73.2 *L 0.00163 *D DFCNQD1
*I *1617:CDN I *C 142.1 66 *L 0.00163 *D DFCNQD1
*I *1625:CDN I *C 147.3 67.6 *L 0.00163 *D DFCNQD1
*I *1604:CDN I *C 147.5 53.2 *L 0.00163 *D DFCNQD1
*I *1622:CDN I *C 139.9 58.8 *L 0.00163 *D DFCNQD1
*I *1624:CDN I *C 147.5 62.4 *L 0.00163 *D DFCNQD1
*I *1623:CDN I *C 147.1 58.8 *L 0.00163 *D DFCNQD1
*I *1689:CDN I *C 149.5 51.8 *L 0.00157 *D EDFCNQD1
*I *1616:CDN I *C 140.5 53.2 *L 0.00163 *D DFCNQD1
*I *1615:CDN I *C 139.3 51.6 *L 0.00163 *D DFCNQD1
*I *1593:CDN I *C 147.1 46 *L 0.00163 *D DFCNQD1
*I *1614:CDN I *C 140.1 42.4 *L 0.00163 *D DFCNQD1
*I *1688:CDN I *C 148.9 44.6 *L 0.00157 *D EDFCNQD1
*I *1599:CDN I *C 147.3 49.6 *L 0.00163 *D DFCNQD1
*I *1601:CDN I *C 147.3 42.4 *L 0.00163 *D DFCNQD1
*I *1602:CDN I *C 142.5 40.8 *L 0.00163 *D DFCNQD1
*I *1687:CDN I *C 144.3 37.4 *L 0.00157 *D EDFCNQD1
*I *1607:CDN I *C 146.9 40.8 *L 0.00163 *D DFCNQD1
*I *1594:CDN I *C 146.9 35.2 *L 0.00163 *D DFCNQD1
*I *1686:CDN I *C 149.9 33.8 *L 0.00157 *D EDFCNQD1
*I *1603:CDN I *C 141.9 33.6 *L 0.00163 *D DFCNQD1
*I *1685:CDN I *C 143.3 35 *L 0.00157 *D EDFCNQD1
*I *1595:CDN I *C 147.3 31.6 *L 0.00163 *D DFCNQD1
*I *1600:CDN I *C 142.7 31.6 *L 0.00163 *D DFCNQD1
*I *1605:CDN I *C 142.5 22.8 *L 0.00163 *D DFCNQD1
*I *1597:CDN I *C 142.1 13.6 *L 0.00163 *D DFCNQD1
*I *1606:CDN I *C 142.5 19.2 *L 0.00163 *D DFCNQD1
*I *1608:CDN I *C 147.1 22.8 *L 0.00163 *D DFCNQD1
*I *1684:CDN I *C 144.5 26.6 *L 0.00157 *D EDFCNQD1
*I *1609:CDN I *C 146.9 19.2 *L 0.00163 *D DFCNQD1
*I *1681:CDN I *C 140.7 9.8 *L 0.00157 *D EDFCNQD1
*I *1683:CDN I *C 149.3 24.2 *L 0.00157 *D EDFCNQD1
*I *1598:CDN I *C 142.5 8.4 *L 0.00163 *D DFCNQD1
*I *1592:CDN I *C 146.7 13.6 *L 0.00163 *D DFCNQD1
*I *1610:CDN I *C 146.9 8.4 *L 0.00163 *D DFCNQD1
*I *1682:CDN I *C 148.7 6.2 *L 0.00157 *D EDFCNQD1
*I *1573:Z O *C 148.7 110.4 *L 0 *D CKBD3

*CAP
1 *1682:CDN 0.000323632
2 *1598:CDN 0.000116021
3 *1681:CDN 0.000657972
4 *1609:CDN 0.000506918
5 *1684:CDN 0.000108839
6 *1597:CDN 1.79332e-05
7 *1603:CDN 0.000194359
8 *1686:CDN 0.000278638
9 *1607:CDN 0.000158727
10 *1687:CDN 0.00020013
11 *1602:CDN 0.000157872
12 *1601:CDN 0.00050617
13 *1688:CDN 0.00022377
14 *1614:CDN 5.3415e-05
15 *1616:CDN 0.000146843
16 *1623:CDN 0.000107236
17 *1617:CDN 8.0582e-06
18 *1626:CDN 0.000291036
19 *1618:CDN 0.000319464
20 *1628:CDN 0.000437665
21 *1619:CDN 8.68233e-05
22 *1586:CDN 0.000220158
23 *1634:CDN 7.82949e-05
24 *1633:CDN 0.000432877
25 *1636:CDN 0.000178435
26 *633:56 0.000861137
27 *633:57 0.000182239
28 *633:58 0.000206991
29 *633:59 0.000559863
30 *633:60 0.000257478
31 *633:61 0.000233239
32 *633:62 2.31486e-05
33 *633:63 0.000866801
34 *633:64 4.7195e-05
35 *633:65 0.000193311
36 *633:66 0.00050025
37 *633:67 0.000123181
38 *633:68 0.000728679
39 *633:69 0.000123502
40 *633:70 0.00036621
41 *633:71 0.00091188
42 *633:72 0.000384699
43 *633:73 0.000511535
44 *633:74 0.000104564
45 *633:75 0.000763391
46 *633:76 2.71243e-05
47 *633:77 0.000585598
48 *633:78 0.000339342
49 *633:79 0.000660323
50 *633:80 0.000771108
51 *633:81 0.000359114
52 *633:82 0.000134147
53 *633:83 0.000362405
54 *633:84 0.00033947
55 *633:85 0.000425075
56 *633:86 4.70881e-05
57 *633:87 0.000320191
58 *633:88 0.000284174
59 *633:89 0.000675457
60 *633:90 0.000849338
61 *633:91 3.53321e-05
62 *633:92 0.000334383
63 *633:93 0.000657716
64 *633:94 0.00127405
65 *633:95 3.83245e-05
66 *633:96 0.000243264
67 *633:97 0.000164114
68 *633:98 4.34331e-05
69 *633:99 0.000320554
70 *633:100 0.000118158
71 *633:101 0.00029375
72 *633:102 0.000573928
73 *633:103 0.000491956
74 *633:104 0.000100076
75 *633:105 0.000285713
76 *633:106 0.00119956
77 *633:107 6.17724e-05
78 *633:108 0.000465046
79 *633:109 0.000468487
80 *633:110 0.000662226
81 *633:111 0.000622255
82 *633:112 0.000774592
83 *633:113 7.38704e-05
84 *633:114 0.000290117
85 *633:115 8.61821e-05
86 *633:116 0.000513416
87 *633:117 0.000271927
88 *633:118 0.00038705
89 *633:119 0.000199831
90 *633:120 0.000263997
91 *633:121 0.00115448
92 *633:122 0.00140078
93 *633:123 0.000763007
94 *633:124 0.000564566
95 *633:125 0.000850792
96 *633:126 0.00056401
97 *633:127 0.000598124
98 *633:128 0.00052793
99 *633:129 0.000637902
100 *633:130 0.000624863
101 *633:131 0.000672892
102 *633:132 7.98125e-05
103 *633:133 3.94788e-05
104 *633:134 0.000695848
105 *633:135 0.00065483
106 *633:136 0.00010341
107 *633:137 0.000257478
108 *633:138 0.000478063
109 *633:139 0.000895336
110 *1633:CDN *853:12 0.00117471
111 *1616:CDN *612:2 0.00077899
112 *633:56 *1501:Z 0.000183954004
113 *633:57 *1417:Z 0.000323769004
114 *633:58 *1474:Z 0.000434895977
115 *633:59 *1687:CP 0.0012211
116 *1598:CDN *316:5 0.000371488984
117 *1616:CDN *330:6 0.00130785
118 *1626:CDN *837:12 0.00088629
119 *633:60 *58:5 0.00105121008
120 *633:61 *1637:Q 0.000456221992
121 *1636:CDN *798:4 0.000607362969

*RES
1 *633:81 *633:84 1.752
2 *633:64 *633:71 2.60725
3 *1636:CDN *633:61 1.12332
4 *633:74 *633:100 0.503632
5 *633:94 *633:117 1.27904
6 *1616:CDN *633:90 1.05274
7 *633:56 *633:128 2.61748
8 *633:90 *633:118 1.65683
9 *633:79 *633:103 2.26656
10 *633:72 *633:111 0.629562
11 *1681:CDN *633:82 2.75275
12 *1601:CDN *633:72 2.04255
13 *633:70 *633:57 2.7605
14 *1637:CDN *633:91 0.376732
15 *633:80 *633:83 1.65745
16 *633:60 *633:122 5.77533007
17 *633:125 *633:126 0.881334
18 *1586:CDN *633:62 1.37562
19 *1630:CDN *633:135 0.449964
20 *633:75 *633:137 1.94764
21 *633:96 *633:135 0.476842
22 *1614:CDN *633:59 0.520287
23 *633:130 *633:134 2.8414
24 *633:68 *633:109 1.80893
25 *633:58 *633:115 1.43907
26 *633:68 *633:99 1.51204
27 *633:60 *633:91 1.60695
28 *1685:CDN *633:130 0.675034
29 *1619:CDN *633:129 0.449964
30 *1617:CDN *633:127 0.575894
31 *633:75 *633:102 1.83484
32 *1573:Z *633:65 1.19241
33 *1687:CDN *633:137 0.76968
34 *633:58 *633:79 2.53499
35 *633:120 *633:126 0.520287
36 *633:106 *633:129 2.18417
37 *633:95 *633:117 1.16827
38 *1598:CDN *633:82 0.602772
39 *1607:CDN *633:75 2.62285
40 *633:122 *633:131 1.36849
41 *1604:CDN *633:68 1.11619
42 *1688:CDN *633:72 2.18593
43 *633:57 *633:98 2.89595
44 *633:80 *633:103 0.503632
45 *633:87 *633:115 0.757078
46 *633:101 *633:125 2.23898
47 *633:92 *633:116 2.06053
48 *633:105 *633:123 2.8288
49 *1638:CDN *633:61 3.88594
50 *633:66 *633:131 1.35236
51 *633:69 *633:119 1.12297
52 *1603:CDN *633:87 1.12306
53 *633:78 *633:114 1.18034
54 *633:107 *633:108 2.14574
55 *633:62 *633:108 0.235204
56 *633:69 *633:97 2.67537
57 *1623:CDN *633:71 0.619427
58 *633:76 *633:113 0.12593
59 *633:119 *633:127 2.5015
60 *633:121 *633:132 4.93427
61 *633:88 *633:118 2.20673
62 *633:60 *633:116 2.39822
63 *633:96 *633:106 4.17217
64 *633:91 *633:61 0.411101
65 *633:93 *633:95 0.804665
66 *633:89 *633:59 2.63907
67 *633:87 *633:130 2.71811
68 *633:84 *633:104 1.65586
69 *1609:CDN *633:74 2.16742
70 *633:81 *633:86 0.487064
71 *633:123 *633:139 4.17798
72 *633:121 *633:129 0.864678
73 *633:63 *633:64 3.20465
74 *633:82 *633:85 0.650271
75 *633:77 *633:113 2.47559
76 *1634:CDN *633:95 0.384223
77 *633:69 *633:98 1.13901
78 *1628:CDN *633:101 1.6244
79 *1633:CDN *633:62 2.38738
80 *1684:CDN *633:79 2.09393
81 *1683:CDN *633:73 2.4377
82 *1626:CDN *633:70 1.20907
83 *633:59 *633:128 1.45793
84 *633:124 *633:134 0.251772
85 *1618:CDN *633:139 2.76173
86 *633:85 *633:86 2.26841
87 *633:71 *633:97 1.99831
88 *633:99 *633:111 2.37399
89 *633:88 *633:89 2.59439
90 *633:65 *633:66 2.77531
91 *1621:CDN *633:126 1.46586
92 *633:77 *633:112 1.91512
93 *633:90 *633:105 4.2825
94 *1602:CDN *633:128 2.55676
95 *633:120 *633:135 2.25149
96 *633:94 *633:136 3.8135
97 *633:56 *633:137 2.23951
98 *633:78 *633:125 3.70625
99 *1597:CDN *633:86 0.745357
100 *633:63 *633:109 1.33306
101 *1682:CDN *633:112 3.13521
102 *1686:CDN *633:124 3.34089
103 *633:80 *633:133 3.41879
104 *633:92 *633:93 3.08022
105 *633:67 *633:70 0.916407
106 *633:73 *633:100 0.629562
107 *633:83 *633:104 0.361134
108 *633:127 *633:139 2.05427
109 *633:107 *633:131 0.980474
110 *633:76 *633:138 3.12675
111 *633:110 *633:124 2.61448
112 *1615:CDN *633:118 0.224982
113 *1631:CDN *633:117 0.224982
114 *1635:CDN *633:116 0.224982
115 *1600:CDN *633:115 0.224982
116 *1632:CDN *633:114 0.224982
117 *1592:CDN *633:113 0.224982
118 *1610:CDN *633:112 0.224982
119 *1593:CDN *633:111 0.224982
120 *1595:CDN *633:110 0.224982
121 *1689:CDN *633:109 0.224982
122 *1596:CDN *633:108 0.224982
123 *1678:CDN *633:107 0.224982
124 *1620:CDN *633:106 0.224982
125 *1622:CDN *633:105 0.224982
126 *1606:CDN *633:104 0.224982
127 *1605:CDN *633:103 0.224982
128 *1594:CDN *633:102 0.224982
129 *1629:CDN *633:101 0.224982
130 *1608:CDN *633:100 0.224982
131 *1599:CDN *633:99 0.224982
132 *1625:CDN *633:98 0.224982
133 *1624:CDN *633:97 0.224982
134 *1627:CDN *633:67 0.224982
135 *633:67 *633:132 0.224982
136 *633:74 *633:133 0.224982
137 *633:81 *633:138 0.224982
138 *633:102 *633:134 0.224982
139 *633:114 *633:136 0.224982
*END

*D_NET *634 0.00944276

*CONN
*I *1570:I I *C 138.9 312.2 *L 0.000942 *D CKND1
*P *634 I *C 10 324 *L 0.5

*CAP
1 *1570:I 0.000943421
2 *634 4.43132e-05
3 *634:2 2.41475e-05
4 *634:3 0.00841757938
5 *634:4 1.33582e-05

*RES
1 *634:2 *634:3 24.7134
2 *634:3 *634:4 56.4679985
3 *1570:I *634:2 7.14983
4 *634 *634:4 0.557477
*END

*D_NET *635 0.00978137

*CONN
*I *1025:I I *C 141.5 316 *L 0.00072 *D BUFFD1
*P *635 I *C 15 324 *L 0.5

*CAP
1 *1025:I 0.000261333
2 *635 0.000390961
3 *635:2 2.61471e-05
4 *635:3 0.00906639938
5 *635:4 3.58312e-05
6 *635:5 6.91722e-07

*RES
1 *635:2 *635:3 26.3502
2 *635:4 *635:5 0.447483
3 *635:3 *635:4 53.3204002
4 *1025:I *635:2 1.73623
5 *635 *635:5 3.05671
*END

*D_NET *636 0.0181468

*CONN
*I *989:I I *C 151.3 40.8 *L 0.000697 *D BUFFD0
*P *636 I *C 0 5 *L 0.5

*CAP
1 *989:I 0.000284649
2 *636 6.78643e-05
3 *636:2 0.000444562
4 *636:3 0.00960579937
5 *636:4 0.00243212
6 *636:5 0.00273245
7 *636:4 *326:2 0.000394126016
8 *636:4 *475:3 0.00218524

*RES
1 *636:2 *636:4 9.92649
2 *636:4 *636:5 25.5063
3 *636:3 *636:5 23.832
4 *989:I *636:2 1.00341
5 *636 *636:3 62.9882011
*END

*D_NET *637 0.00840576

*CONN
*I *1056:I I *C 137.5 49.6 *L 0.000643 *D CKBD0
*P *637 I *C 0 48.2 *L 0.5

*CAP
1 *1056:I 0.000252844
2 *637 8.17717e-05
3 *637:2 0.000382335
4 *637:3 9.82187e-05
5 *637:4 0.00759052

*RES
1 *637 *637:4 63.0477982
2 *637:3 *637:4 22.2201
3 *1056:I *637:2 3.59512
4 *637:2 *637:3 0.225116
*END

*D_NET *638 0.0115488

*CONN
*I *1256:I I *C 140.9 6.4 *L 0.00104 *D DEL0
*P *638 I *C 0 44.6 *L 0.5

*CAP
1 *1256:I 0.000119637
2 *638 0.000284945
3 *638:2 0.000362902
4 *638:3 2.46553e-05
5 *638:4 0.00300642
6 *638:5 5.58853e-05
7 *638:6 0.00769421

*RES
1 *638:4 *638:6 62.0396004
2 *1256:I *638:2 0.674961
3 *638:4 *638:5 22.2851
4 *638:2 *638:3 1.86206
5 *638:3 *638:6 26.0016
6 *638 *638:5 1.69356
*END

*D_NET *639 0.0138834

*CONN
*I *1069:I I *C 150.7 24.4 *L 0.00182 *D DEL005
*P *639 I *C 0 41 *L 0.5

*CAP
1 *1069:I 0.000132853
2 *639 4.33751e-05
3 *639:2 0.000623176
4 *639:3 0.000221891
5 *639:4 0.00156221
6 *639:5 2.81542e-06
7 *639:8 0.000528684
8 *639:9 1.43411e-05
9 *639:10 0.0057659
10 *639:11 0.000781368
11 *639:4 *642:2 0.00420678

*RES
1 *639:8 *639:9 4.49942
2 *639:6 *639:11 3.37525
3 *639 *639:11 1.59303
4 *639:7 *639:10 59.8972015
5 *639:7 *639:8 0.772295
6 *639:3 *639:4 9.67974
7 *639:2 *639:3 2.33608
8 *1069:I *639:2 1.14245
9 *639:6 *639:9 0.772295
10 *639:5 *639:10 22.094
11 *639:4 *639:5 1.1068
*END

*D_NET *640 0.0129683

*CONN
*I *1323:I I *C 143.1 64 *L 0.00103 *D DEL015
*P *640 I *C 0 37.4 *L 0.5

*CAP
1 *640 0.000113851
2 *640:2 0.00019401
3 *640:3 0.00120566
4 *640:4 0.000654964
5 *640:5 8.13762e-06
6 *640:6 0.000634506
7 *640:7 0.000366953
8 *640:8 0.0049841
9 *640:4 *654:2 0.00206852
10 *640:4 *655:2 0.00208543984
11 *640:3 *322:2 0.000652215

*RES
1 *640:6 *640:7 2.56068
2 *640:2 *640:3 5.50359
3 *640:5 *640:6 10.1498
4 *640:4 *640:8 22.4675
5 *640:3 *640:4 5.39629
6 *1323:I *640:2 0.606401
7 *640:5 *640:8 62.7821007
8 *640 *640:7 0.348704
*END

*D_NET *641 0.0154643

*CONN
*I *1074:I I *C 150.7 13.6 *L 0.00182 *D DEL005
*P *641 I *C 0 33.8 *L 0.5

*CAP
1 *641 0.000393982
2 *641:2 0.000297253
3 *641:3 0.000505737
4 *641:4 2.03854e-05
5 *641:5 0.00532254
6 *641:6 0.000848959
7 *641:7 3.97962e-06
8 *641:8 0.000305619
9 *641:9 4.87301e-07
10 *641:2 *644:2 0.00402251
11 *641:3 *648:2 0.00374294

*RES
1 *641:8 *641:9 0.126481
2 *641:7 *641:8 3.43606
3 *641:6 *641:7 0.0929442
4 *1074:I *641:2 1.82247
5 *641:5 *641:9 21.978
6 *641:2 *641:6 6.36045
7 *641 *641:4 2.5047
8 *641:3 *641:5 62.7957993
9 *641:3 *641:4 10.037
*END

*D_NET *642 0.0123074

*CONN
*I *1068:I I *C 138.7 26.4 *L 0.00182 *D DEL005
*P *642 I *C 0 30.2 *L 0.5

*CAP
1 *1068:I 0.000352446
2 *642 0.000141766
3 *642:2 0.000489701
4 *642:4 0.000103373
5 *642:6 0.00629019
6 *1068:I *472:3 0.000723128984
7 *642:2 *639:4 0.00420678

*RES
1 *642:4 *642:6 26.0017
2 *642:3 *642:4 0.321961
3 *642:5 *642:6 63.1738014
4 *642:2 *642:3 3.48856
5 *1068:I *642:2 2.49375
6 *642 *642:5 0.430888
*END

*D_NET *643 0.0142022

*CONN
*I *1070:I I *C 138.3 8.4 *L 0.00182 *D DEL005
*P *643 I *C 0 26.6 *L 0.5

*CAP
1 *1070:I 0.000595867
2 *643 0.000170122
3 *643:2 0.000400397
4 *643:3 0.000591831
5 *643:4 3.15274e-05
6 *643:5 0.000523354
7 *643:6 2.04297e-05
8 *643:7 0.00826458
9 *643:4 *645:2 0.00360401

*RES
1 *643:2 *643:3 2.05627
2 *643:3 *643:4 4.25541
3 *1070:I *643:2 2.36581
4 *643 *643:6 1.11338
5 *643:5 *643:7 62.4177017
6 *643:5 *643:6 5.39831
7 *643:4 *643:7 26.1277
*END

*D_NET *644 0.014513

*CONN
*I *1073:I I *C 150.9 19.2 *L 0.00182 *D DEL005
*P *644 I *C 0 23 *L 0.5

*CAP
1 *644 2.73984e-05
2 *644:2 0.00575499
3 *644:3 0.000202239
4 *644:4 0.00015034
5 *644:9 0.000756092
6 *644:4 *646:2 0.00359948
7 *644:2 *641:2 0.00402251

*RES
1 *644:7 *644:8 2.35893
2 *644:5 *644:9 3.37525
3 *644 *644:9 1.59303
4 *644:5 *644:8 0.646169
5 *644:4 *644:2 31.6732
6 *644:3 *644:4 2.37081
7 *1073:I *644:3 1.18175
8 *644:6 *644:2 59.8972015
9 *644:6 *644:7 0.772295
*END

*D_NET *645 0.015091

*CONN
*I *1066:I I *C 150.9 8.4 *L 0.00182 *D DEL005
*P *645 I *C 0 19.4 *L 0.5

*CAP
1 *645 4.93144e-05
2 *645:2 0.00544995
3 *645:3 6.31191e-05
4 *645:4 0.000243661
5 *645:5 0.00173973
6 *645:6 5.65494e-05
7 *645:7 0.000104783
8 *645:8 0.000114596
9 *645:6 *646:2 0.0036654
10 *645:2 *643:4 0.00360401

*RES
1 *645:8 *645:2 22.0939
2 *645:6 *645:2 63.1738014
3 *645:4 *645:7 1.7409
4 *645:3 *645:8 1.34761
5 *645:3 *645:5 7.1246
6 *645:5 *645:7 9.66751
7 *1066:I *645:4 1.07963
8 *645 *645:6 1.36785
*END

*D_NET *646 0.0120473

*CONN
*I *1477:I I *C 137.5 15.6 *L 0.00105 *D DEL1
*P *646 I *C 0 15.8 *L 0.5

*CAP
1 *1477:I 0.000136298
2 *646 8.94583e-05
3 *646:2 0.0043915
4 *646:3 0.000150236
5 *646:4 1.49432e-05
6 *646:2 *644:4 0.00359948
7 *646:2 *645:6 0.0036654

*RES
1 *646:4 *646:2 63.1738014
2 *646 *646:4 0.361483
3 *646:3 *646:2 23.6063
4 *1477:I *646:3 1.50763
*END

*D_NET *647 0.0094051

*CONN
*I *1476:I I *C 146.3 12 *L 0.00103 *D BUFFD2
*P *647 I *C 0 12.2 *L 0.5

*CAP
1 *1476:I 0.000156498
2 *647 1.0248e-05
3 *647:2 0.000188296
4 *647:3 0.000100661
5 *647:4 0.00627669
6 *647:7 0.000736135
7 *647 *648 0.00193661

*RES
1 *647:6 *647:7 6.31784
2 *647:5 *647:6 0.0925153
3 *647:4 *647:5 56.664299
4 *647:3 *647:4 29.4043
5 *1476:I *647:2 0.675275
6 *647 *647:7 0.224803
7 *647:2 *647:3 0.224803
*END

*D_NET *648 0.0124582

*CONN
*I *1062:I I *C 137.5 22.8 *L 0.000643 *D CKBD0
*P *648 I *C 0 8.6 *L 0.5

*CAP
1 *1062:I 0.000792776
2 *648 0.000451235
3 *648:2 0.00472014
4 *648:3 9.45685e-05
5 *648:4 0.000476876
6 *648:6 2.78015e-05
7 *648:7 0.00021521
8 *648:2 *641:3 0.00374294
9 *648 *647 0.00193661

*RES
1 *648:4 *648:6 0.712892
2 *648 *648:5 3.68711
3 *648:6 *648:7 2.55453
4 *648:2 *648:7 21.978
5 *648:3 *648:4 4.88484
6 *1062:I *648:3 3.06141
7 *648:5 *648:2 62.7957993
*END

*D_NET *649 0.0111228

*CONN
*I *1558:I I *C 137.5 78.4 *L 0.00103 *D BUFFD2
*P *649 I *C 0 77 *L 0.5

*CAP
1 *1558:I 4.96357e-05
2 *649 4.5692e-05
3 *649:2 0.000524234
4 *649:4 9.96793e-05
5 *649:5 0.00891197938
6 *649:3 *650:2 0.00149151

*RES
1 *649:3 *649:5 63.0340996
2 *1558:I *649:2 2.36032
3 *649:4 *649:5 23.6012
4 *649 *649:3 0.612682
5 *649:2 *649:4 0.225067
*END

*D_NET *650 0.00845201

*CONN
*I *1554:I I *C 137.5 71.2 *L 0.00103 *D BUFFD2
*P *650 I *C 0 73.4 *L 0.5

*CAP
1 *1554:I 0.000202057
2 *650:2 0.00632975
3 *650:3 3.16801e-05
4 *650:4 9.43643e-05
5 *1554:I *620:5 0.000302653008
6 *650:2 *649:3 0.00149151

*RES
1 *650 *650:2 63.0340996
2 *650:4 *650:2 23.6012
3 *1554:I *650:3 2.76236
4 *650:3 *650:4 0.225067
*END

*D_NET *651 0.00794645

*CONN
*I *1556:I I *C 137.5 69.6 *L 0.00103 *D BUFFD2
*P *651 I *C 0 69.8 *L 0.5

*CAP
1 *1556:I 0.000281058
2 *651 0.000863945
3 *651:2 4.75763e-05
4 *651:3 3.87773e-05
5 *651:4 0.00670519
6 *651:5 9.82221e-06

*RES
1 *651:2 *651:3 0.449945
2 *651:5 *651:6 0.0927367
3 *651:3 *651:4 22.0894
4 *1556:I *651:2 2.41115
5 *651:4 *651:5 56.2739983
6 *651 *651:6 6.79382
*END

*D_NET *652 0.0135327

*CONN
*I *948:I I *C 150.9 51.6 *L 0.00182 *D DEL005
*P *652 I *C 0 66.2 *L 0.5

*CAP
1 *948:I 0.000186363
2 *652 5.5989e-05
3 *652:2 7.84988e-05
4 *652:3 0.00268347
5 *652:4 0.000242467
6 *652:5 0.000825666
7 *652:6 0.000359472
8 *652:7 2.44523e-05
9 *652:8 0.00748824
10 *652:2 *75:19 0.000603088984
11 *652:3 *801:2 0.000984945

*RES
1 *652:2 *652:5 5.07266
2 *652:7 *652:8 22.0893
3 *652:4 *652:7 1.45716
4 *652:3 *652:4 8.85648
5 *948:I *652:2 0.855062
6 *652 *652:8 63.0340996
7 *652:5 *652:6 1.52545
8 *652:3 *652:6 6.81741
*END

*D_NET *653 0.0080899

*CONN
*I *1555:I I *C 137.5 62.4 *L 0.00103 *D BUFFD2
*P *653 I *C 0 62.6 *L 0.5

*CAP
1 *1555:I 0.000283832
2 *653 0.00086352
3 *653:2 8.23134e-05
4 *653:3 0.000115917
5 *653:4 0.00673459
6 *653:5 9.86527e-06

*RES
1 *653:2 *653:3 0.449945
2 *653:5 *653:6 0.0927367
3 *653:3 *653:4 22.0894
4 *1555:I *653:2 2.41115
5 *653:4 *653:5 56.2739983
6 *653 *653:6 6.79382
*END

*D_NET *654 0.00886619

*CONN
*I *1560:I I *C 137.5 56.8 *L 0.00103 *D BUFFD2
*P *654 I *C 0 59 *L 0.5

*CAP
1 *1560:I 0.000156679
2 *654:2 5.28533e-05
3 *654:3 0.000101748
4 *654:4 0.00648641
5 *654:2 *640:4 0.00206852

*RES
1 *654 *654:4 63.0340996
2 *654:3 *654:4 23.6012
3 *1560:I *654:2 2.15929
4 *654:2 *654:3 0.225067
*END

*D_NET *655 0.00884387

*CONN
*I *1559:I I *C 137.5 55.2 *L 0.00103 *D BUFFD2
*P *655 I *C 0 55.4 *L 0.5

*CAP
1 *1559:I 0.000125169
2 *655:2 0.0064438
3 *655:3 3.71673e-05
4 *655:4 0.000152209
5 *655:2 *640:4 0.00208543984

*RES
1 *655:3 *655:4 0.576133
2 *655 *655:2 63.0340996
3 *655:4 *655:2 22.1595
4 *1559:I *655:3 2.41129
*END

*D_NET *656 0.00861747

*CONN
*I *1552:I I *C 137.5 48 *L 0.00105 *D DEL1
*P *656 I *C 0 51.8 *L 0.5

*CAP
1 *1552:I 0.000193481
2 *656 8.18574e-05
3 *656:2 0.000510871
4 *656:3 9.0244e-05
5 *656:4 0.00774102

*RES
1 *1552:I *656:2 0.779077
2 *656:2 *656:3 2.61808
3 *656 *656:4 63.0340996
4 *656:3 *656:4 23.6012
*END

*D_NET *657 0.0187098

*CONN
*I *1330:I I *C 145.9 174 *L 0.00104 *D DEL0
*P *657 I *C 155 5 *L 0.5

*CAP
1 *657 6.466e-05
2 *657:2 0.000277074
3 *657:3 0.000879124
4 *657:4 0.000781506
5 *657:5 0.000292297
6 *657:6 0.000135046
7 *657:7 0.00018183
8 *657:8 0.00915225
9 *657:5 *718:2 0.00172901
10 *657:5 *848:4 0.000294939004
11 *657:4 *184:2 0.00128084008
12 *657:4 *784:2 0.00113229
13 *657:3 *1120:I 0.00108076
14 *657:2 *863:25 0.00142828

*RES
1 *657:7 *657:8 28.1289
2 *657:5 *657:7 1.88803
3 *657:4 *657:5 2.72115
4 *657 *657:6 5.0152
5 *657:6 *657:8 60.0651016
6 *657:2 *657:3 8.60888
7 *1330:I *657:2 1.17865
8 *657:3 *657:4 8.95257
*END

*D_NET *658 0.00394281

*CONN
*P *658 I *C 155 37.4 *L 0.5
*I *1577:B2 I *C 148.3 55.4 *L 0.000899 *D AO222D0

*CAP
1 *1577:B2 7.0156e-06
2 *658 0.000156245
3 *658:2 0.000500165
4 *658:3 0.000685221
5 *658:4 0.000515849
6 *658:5 0.00204341
7 *658:6 3.49533e-05

*RES
1 *658:5 *658:6 4.44859
2 *658:4 *658:5 5.52373981
3 *658:2 *658:3 2.51264
4 *658 *658:6 0.843109
5 *658:3 *658:4 2.39245
6 *1577:B2 *658:2 1.86912
*END

*D_NET *659 0.00443336

*CONN
*P *659 I *C 155 33.8 *L 0.5
*I *1580:B2 I *C 147.5 48.2 *L 0.000899 *D AO222D0

*CAP
1 *659 0.000485948
2 *659:2 0.00109079
3 *659:3 0.000321632
4 *659:4 0.00055797
5 *659:5 0.00116744008
6 *659:6 0.000809593

*RES
1 *659:5 *659:6 5.7772398
2 *659:2 *659:3 2.52728
3 *659:4 *659:5 1.89028
4 *1580:B2 *659:2 2.65501
5 *659 *659:6 2.34912
6 *659:3 *659:4 2.17299
*END

*D_NET *660 0.00271748

*CONN
*P *660 I *C 155 30.2 *L 0.5
*I *1576:B2 I *C 145.9 38.6 *L 0.000899 *D AO222D0

*CAP
1 *1576:B2 4.72507e-05
2 *660 0.000405336
3 *660:2 0.00011157
4 *660:3 0.0014159
5 *660:4 0.000357178
6 *660:5 0.000380231

*RES
1 *660:3 *660:5 3.74874997
2 *660:2 *660:3 3.59225
3 *660:4 *660:5 2.26718
4 *1576:B2 *660:2 0.465562
5 *660 *660:4 2.84234
*END

*D_NET *661 0.00143125

*CONN
*P *661 I *C 155 26.6 *L 0.5
*I *1582:B2 I *C 146.1 27.8 *L 0.000899 *D AO222D0

*CAP
1 *661 6.04225e-05
2 *661:2 0.000630238008
3 *661:3 0.000371594
4 *661:4 0.000368997

*RES
1 *661:2 *661:4 2.13025
2 *661:3 *661:4 1.34596
3 *1582:B2 *661:2 0.987942
4 *661 *661:3 2.50835991
*END

*D_NET *662 0.00223308

*CONN
*P *662 I *C 155 23 *L 0.5
*I *1575:B1 I *C 145.5 30 *L 0.00104 *D AO222D1

*CAP
1 *662 7.01504e-05
2 *662:2 0.000588014
3 *662:3 0.000372373
4 *662:4 0.00106939008
5 *662:5 0.00013317

*RES
1 *662:4 *662:5 3.36728
2 *662:3 *662:4 4.78279018
3 *662:2 *662:5 2.96626
4 *662 *662:3 0.224996
5 *1575:B1 *662:2 0.224996
*END

*D_NET *663 0.00172862

*CONN
*P *663 I *C 155 19.4 *L 0.5
*I *1581:B2 I *C 144.9 20.8 *L 0.00101 *D AO222D1

*CAP
1 *663 0.000177414
2 *663:2 0.00151945
3 *663:3 3.17639e-05

*RES
1 *663:2 *663:3 6.86383009
2 *663 *663:3 0.842373
3 *1581:B2 *663:2 0.476853
*END

*D_NET *664 0.00190609

*CONN
*P *664 I *C 155 15.8 *L 0.5
*I *1579:B2 I *C 145.1 17.2 *L 0.00101 *D AO222D1

*CAP
1 *1579:B2 0.000245445
2 *664 0.000307905
3 *664:2 0.000581766016
4 *664:3 2.41282e-05
5 *664:4 0.000449647
6 *664:5 0.000297208

*RES
1 *664:2 *664:5 2.58821
2 *664 *664:3 2.10734
3 *664:4 *664:5 1.18577
4 *664:3 *664:4 2.84684992
5 *1579:B2 *664:2 0.980516
*END

*D_NET *665 0.00142668

*CONN
*P *665 I *C 155 12.2 *L 0.5
*I *1583:B1 I *C 145.5 12 *L 0.00104 *D AO222D1

*CAP
1 *1583:B1 7.81746e-05
2 *665 6.1184e-05
3 *665:2 0.000839726953
4 *665:3 0.000325448
5 *665:4 0.000122137

*RES
1 *665:3 *665:4 2.87973
2 *665:2 *665:4 3.73292994
3 *1583:B1 *665:2 0.575922
4 *665 *665:3 0.224992
*END

*D_NET *666 0.00238196

*CONN
*P *666 I *C 155 8.6 *L 0.5
*I *1578:B2 I *C 144.7 15.6 *L 0.00101 *D AO222D1

*CAP
1 *666 7.01338e-05
2 *666:2 0.000903794
3 *666:3 0.00123090992
4 *666:5 0.0001771

*RES
1 *666:3 *666:5 5.95811987
2 *666:2 *666:4 1.61017
3 *666:2 *666:5 4.51714
4 *666 *666:4 0.225011
5 *1578:B2 *666:3 0.225011
*END

*D_NET *667 0.00355818

*CONN
*I *1540:Z O *C 150.1 290.4 *L 0 *D CKBD12
*P *667 O *C 155 267.8 *L 0.5

*CAP
1 *667 7.10517e-05
2 *667:2 0.000298021
3 *667:3 0.00259408
4 *667:4 0.000595053

*RES
1 *667:3 *667:4 10.6120996
2 *667:2 *667:4 4.36314
3 *1540:Z *667:2 1.31162
4 *667 *667:3 3.65633
*END

*D_NET *668 0.00318929

*CONN
*I *1539:Z O *C 150.1 286.8 *L 0 *D CKBD12
*P *668 O *C 155 264.2 *L 0.5

*CAP
1 *668 0.000251925
2 *668:2 6.89748e-05
3 *668:3 0.00039997
4 *668:4 0.00023941
5 *668:5 0.000447456
6 *668:6 0.00144141
7 *668:7 0.000340145

*RES
1 *668:6 *668:7 1.88852
2 *668:5 *668:7 1.76708
3 *668:4 *668:6 11.0376997
4 *668:3 *668:5 3.17071
5 *668:2 *668:4 1.60995
6 *668 *668:3 1.46746
7 *1539:Z *668:2 0.225012
*END

*D_NET *669 0.00358548

*CONN
*I *1529:Z O *C 150.1 283.2 *L 0 *D CKBD12
*P *669 O *C 155 260.6 *L 0.5

*CAP
1 *669 0.000310255
2 *669:2 0.000230014
3 *669:3 0.000544532
4 *669:4 0.000250741
5 *669:5 0.00137624
6 *669:6 0.000491591
7 *669:7 0.000382117

*RES
1 *669:2 *669:3 1.6368
2 *1529:Z *669:4 1.45718
3 *669:6 *669:7 2.27576
4 *669:5 *669:6 2.61699
5 *669:4 *669:5 7.92181015
6 *669 *669:2 1.84507
7 *669:3 *669:7 2.79408
*END

*D_NET *670 0.00354328

*CONN
*I *1528:Z O *C 150.1 279.6 *L 0 *D CKBD12
*P *670 O *C 155 257 *L 0.5

*CAP
1 *670 0.000943801016
2 *670:2 0.000141509
3 *670:3 0.000359965
4 *670:4 0.000447555
5 *670:5 0.00041639
6 *670:6 0.000238244
7 *670:7 0.000654158
8 *670:8 0.000341661

*RES
1 *1528:Z *670:2 0.953581
2 *670:7 *670:8 1.79614
3 *670:6 *670:7 3.30758
4 *670:4 *670:5 2.53612
5 *670:3 *670:4 2.3685
6 *670:2 *670:3 2.1351
7 *670 *670:8 5.42999983
8 *670:5 *670:6 1.6702
*END

*D_NET *671 0.00467052

*CONN
*I *1541:Z O *C 150.1 276 *L 0 *D CKBD12
*P *671 O *C 155 253.4 *L 0.5

*CAP
1 *671 6.04094e-05
2 *671:2 0.000123782
3 *671:3 0.00146279
4 *671:4 0.000326697
5 *671:5 0.00269682

*RES
1 *1541:Z *671:2 0.619408
2 *671 *671:5 3.2467
3 *671:4 *671:5 8.34055996
4 *671:2 *671:3 6.36131
5 *671:3 *671:4 1.69036
*END

*D_NET *672 0.00368533

*CONN
*I *1519:Z O *C 150.1 271.6 *L 0 *D CKBD12
*P *672 O *C 155 249.8 *L 0.5

*CAP
1 *672 0.000316272
2 *672:2 9.29375e-05
3 *672:3 0.000399812
4 *672:4 5.12967e-05
5 *672:5 0.00282498

*RES
1 *672:2 *672:3 2.00529
2 *672:4 *672:5 4.69594
3 *672:3 *672:5 12.1458998
4 *672 *672:4 1.47228
5 *1519:Z *672:2 0.224993
*END

*D_NET *673 0.0039339

*CONN
*I *1538:Z O *C 150.1 268 *L 0 *D CKBD12
*P *673 O *C 155 246.2 *L 0.5

*CAP
1 *673 0.000340952
2 *673:2 0.000650157
3 *673:3 0.000938443
4 *673:4 0.00200432984

*RES
1 *673:3 *673:4 5.43927
2 *673 *673:3 2.22816
3 *673:2 *673:4 14.0313997
4 *1538:Z *673:2 0.225021
*END

*D_NET *674 0.00400131

*CONN
*I *1238:Z O *C 139.9 257.2 *L 0 *D CKBD12
*P *674 O *C 155 242.6 *L 0.5

*CAP
1 *674 7.38013e-05
2 *674:2 0.000588746
3 *674:3 0.000437711
4 *674:4 4.33842e-05
5 *674:5 0.000549961
6 *674:6 0.000956978047
7 *674:7 0.000828125
8 *674:8 0.000286035
9 *674:9 0.000236561

*RES
1 *674:6 *674:9 2.00278
2 *674:8 *674:9 1.25262
3 *674:5 *674:7 3.8783
4 *674:3 *674:5 1.78538
5 *674:2 *674:4 2.82847
6 *674:7 *674:8 1.64848
7 *674:6 *674:10 4.12852001
8 *674:3 *674:4 2.26629
9 *674 *674:10 0.225022
10 *1238:Z *674:2 0.225022
*END

*D_NET *675 0.00533181

*CONN
*I *1520:Z O *C 146.9 264.4 *L 0 *D CKBD12
*P *675 O *C 155 239 *L 0.5

*CAP
1 *1520:Z 0.000739781
2 *675 7.56136e-05
3 *675:2 0.00225653
4 *675:3 4.67593e-05
5 *675:4 0.000562419
6 *675:5 0.0005806
7 *675:6 0.000593856
8 *675:7 0.000476269

*RES
1 *675:5 *675:6 2.75836
2 *1520:Z *675:3 2.65917
3 *675:2 *675:6 7.43795013
4 *675:4 *675:7 3.1279
5 *675:4 *675:5 2.73986
6 *675:3 *675:7 2.53807
7 *675 *675:2 3.45862
*END

*D_NET *676 0.00483909

*CONN
*I *1530:Z O *C 144.3 257.2 *L 0 *D CKBD12
*P *676 O *C 155 235.4 *L 0.5

*CAP
1 *1530:Z 0.000365322
2 *676 8.66929e-05
3 *676:2 0.000454592
4 *676:3 0.00016416
5 *676:4 0.000498302
6 *676:5 0.00128918008
7 *676:6 0.000767292
8 *676:7 0.00121358

*RES
1 *676:3 *676:4 0.935052
2 *676:3 *676:7 5.62345
3 *676:2 *676:5 3.89299
4 *676:6 *676:7 2.97125
5 *676:5 *676:6 5.77782011
6 *1530:Z *676:4 2.95142
7 *676 *676:2 0.224991
*END

*D_NET *677 0.0022305

*CONN
*I *1536:Z O *C 150.7 250.8 *L 0 *D BUFFD8
*P *677 O *C 155 231.8 *L 0.5

*CAP
1 *677 0.000314454
2 *677:2 0.00134454
3 *677:3 0.000488556
4 *677:4 5.48608e-05
5 *677:5 2.80869e-05

*RES
1 *677:2 *677:4 10.1970997
2 *677 *677:5 2.22813
3 *677:3 *677:4 2.81114
4 *1536:Z *677:3 0.224991
5 *677:2 *677:5 0.224991
*END

*D_NET *678 0.00477746

*CONN
*I *1534:Z O *C 142.7 250 *L 0 *D CKBD12
*P *678 O *C 155 228.2 *L 0.5

*CAP
1 *678 0.000902085
2 *678:2 0.00120193008
3 *678:3 8.63644e-05
4 *678:4 0.000857096
5 *678:5 3.83128e-05
6 *678:6 0.00102108
7 *678:7 0.000195581
8 *678:8 0.000474995

*RES
1 *678:6 *678:7 5.80817986
2 *678:3 *678:4 4.11809
3 *678:2 *678:3 4.93513
4 *678:5 *678:8 2.61083
5 *678:5 *678:6 0.285109
6 *678 *678:8 5.2026
7 *678:4 *678:7 0.788681
8 *1534:Z *678:2 0.225021
*END

*D_NET *679 0.00325261

*CONN
*I *1521:Z O *C 150.1 243.6 *L 0 *D CKBD12
*P *679 O *C 155 224.6 *L 0.5

*CAP
1 *679 6.47154e-05
2 *679:2 0.000172503
3 *679:3 0.000576708
4 *679:4 0.000303284
5 *679:5 0.00155182
6 *679:6 0.000583575

*RES
1 *679 *679:6 3.12127
2 *679:5 *679:6 0.384209
3 *679:4 *679:5 9.11972046
4 *679:2 *679:3 2.63032
5 *1521:Z *679:2 0.953635
6 *679:3 *679:4 1.51332
*END

*D_NET *680 0.00337452

*CONN
*I *1531:Z O *C 150.1 240 *L 0 *D CKBD12
*P *680 O *C 155 221 *L 0.5

*CAP
1 *680 7.10592e-05
2 *680:2 6.91772e-05
3 *680:3 0.000728041
4 *680:4 0.000359482
5 *680:5 0.00115269008
6 *680:6 0.000722131
7 *680:7 4.92666e-05
8 *680:8 0.000222693

*RES
1 *680:7 *680:8 0.15917
2 *680:4 *680:6 4.66828
3 *680:2 *680:4 1.73583
4 *680:3 *680:5 0.384255
5 *680:6 *680:8 1.51329
6 *680:5 *680:7 6.39962006
7 *680 *680:3 4.12817
8 *1531:Z *680:2 0.224987
*END

*D_NET *681 0.00286902

*CONN
*I *1533:Z O *C 150.7 236.4 *L 0 *D BUFFD8
*P *681 O *C 155 217.4 *L 0.5

*CAP
1 *1533:Z 6.65026e-06
2 *681 6.53766e-05
3 *681:2 0.000491028
4 *681:3 0.00230595

*RES
1 *681:2 *681:3 11.7208004
2 *1533:Z *681:2 2.29602
3 *681 *681:3 1.73587
*END

*D_NET *682 0.00376802

*CONN
*I *1532:Z O *C 147.1 232 *L 0 *D CKBD12
*P *682 O *C 155 213.8 *L 0.5

*CAP
1 *682 6.04167e-05
2 *682:2 0.00177234
3 *682:3 0.000519546
4 *682:5 0.000628236
5 *682:6 0.000689383
6 *682:7 9.80892e-05

*RES
1 *682:3 *682:5 3.1705
2 *1532:Z *682:3 1.56874
3 *682:2 *682:7 4.91813993
4 *682:6 *682:7 0.68561
5 *682:4 *682:6 4.12664
6 *682:4 *682:5 0.159245
7 *682 *682:2 4.00229
*END

*D_NET *683 0.0033186

*CONN
*I *1535:Z O *C 150.1 228.4 *L 0 *D CKBD12
*P *683 O *C 155 210.2 *L 0.5

*CAP
1 *683 8.19295e-05
2 *683:2 8.09753e-05
3 *683:3 0.00105986
4 *683:4 8.62475e-05
5 *683:5 0.000475453
6 *683:6 0.000649371
7 *683:7 0.000884777

*RES
1 *683:4 *683:6 0.15921
2 *683:3 *683:4 6.51714993
3 *683 *683:7 4.25441
4 *683:5 *683:6 3.87652
5 *683:3 *683:7 0.510147
6 *683:2 *683:5 2.75062
7 *1535:Z *683:2 0.225041
*END

*D_NET *684 0.00314621

*CONN
*I *1498:Z O *C 150.7 222 *L 0 *D BUFFD8
*P *684 O *C 155 206.6 *L 0.5

*CAP
1 *684 0.000325401
2 *684:2 0.000193803
3 *684:3 0.000814922
4 *684:4 0.00110088
5 *684:5 0.000654985
6 *684:6 5.62241e-05

*RES
1 *684:3 *684:5 0.839078
2 *684:2 *684:4 4.88754988
3 *1498:Z *684:2 0.997258
4 *684:4 *684:5 2.2586
5 *684:3 *684:6 3.58818
6 *684 *684:6 2.10213
*END

*D_NET *685 0.00295582

*CONN
*I *1522:Z O *C 150.7 221.2 *L 0 *D BUFFD8
*P *685 O *C 155 203 *L 0.5

*CAP
1 *685 6.87246e-05
2 *685:2 0.000329079
3 *685:3 0.000338798
4 *685:4 0.000339098
5 *685:5 0.00115395
6 *685:6 0.00072616

*RES
1 *685 *685:6 3.62489
2 *685:5 *685:6 0.384189
3 *685:4 *685:5 6.94378996
4 *685:2 *685:3 2.26254
5 *1522:Z *685:2 1.47488
6 *685:3 *685:4 2.14048
*END

*D_NET *686 0.00214017

*CONN
*I *1499:Z O *C 150.7 214.8 *L 0 *D BUFFD8
*P *686 O *C 155 199.4 *L 0.5

*CAP
1 *686 7.62848e-05
2 *686:2 0.000298774
3 *686:3 0.000237201
4 *686:4 0.00152791

*RES
1 *1499:Z *686:3 1.33143
2 *686:3 *686:4 9.9415102
3 *686 *686:2 1.73615
4 *686:2 *686:4 0.224964
*END

*D_NET *687 0.00199463

*CONN
*I *1523:Z O *C 150.7 211.2 *L 0 *D BUFFD8
*P *687 O *C 155 195.8 *L 0.5

*CAP
1 *687 0.00031455
2 *687:2 0.00108902
3 *687:3 0.000506431
4 *687:4 3.07422e-05
5 *687:5 5.38902e-05

*RES
1 *687:2 *687:4 7.92600012
2 *687 *687:5 2.22931
3 *687:3 *687:4 2.81128
4 *1523:Z *687:3 0.224951
5 *687:2 *687:5 0.224951
*END

*D_NET *688 0.00266128

*CONN
*I *1500:Z O *C 150.7 207.6 *L 0 *D BUFFD8
*P *688 O *C 155 192.2 *L 0.5

*CAP
1 *688 0.000191475
2 *688:2 0.000187291
3 *688:3 2.46951e-05
4 *688:4 0.00191753
5 *688:5 0.000340319

*RES
1 *688:3 *688:4 3.71172
2 *688:2 *688:5 2.13032
3 *1500:Z *688:2 1.20545
4 *688:4 *688:5 7.65881014
5 *688 *688:3 0.843058
*END

*D_NET *689 0.00285836

*CONN
*I *1513:Z O *C 150.7 204 *L 0 *D BUFFD8
*P *689 O *C 155 188.6 *L 0.5

*CAP
1 *689 7.1049e-05
2 *689:2 7.14992e-05
3 *689:3 0.000720088
4 *689:4 0.000442622
5 *689:5 0.0015531

*RES
1 *689:2 *689:4 1.98761
2 *689:4 *689:5 9.93974018
3 *689:3 *689:5 0.384176
4 *689 *689:3 4.38033
5 *1513:Z *689:2 0.224924
*END

*D_NET *690 0.00212313

*CONN
*I *1507:Z O *C 150.7 200.4 *L 0 *D CKBD8
*P *690 O *C 155 185 *L 0.5

*CAP
1 *690 7.20363e-05
2 *690:3 0.00181643
3 *690:4 0.000234652

*RES
1 *690:2 *690:3 9.94929981
2 *690 *690:3 1.61014
3 *1507:Z *690:4 1.45727
4 *690:2 *690:4 0.224989
*END

*D_NET *691 0.00225971

*CONN
*I *1537:Z O *C 150.7 199.6 *L 0 *D CKBD8
*P *691 O *C 155 181.4 *L 0.5

*CAP
1 *691 7.10567e-05
2 *691:2 0.00024619
3 *691:3 0.000238598
4 *691:4 0.00170388

*RES
1 *1537:Z *691:3 1.33141
2 *691:3 *691:4 11.2096004
3 *691 *691:2 1.73611
4 *691:2 *691:4 0.224924
*END

*D_NET *692 0.00322919

*CONN
*I *1514:Z O *C 150.1 193.2 *L 0 *D CKBD12
*P *692 O *C 155 177.8 *L 0.5

*CAP
1 *1514:Z 0.000220391
2 *692 0.000288958
3 *692:2 0.000456087
4 *692:3 0.000958923984
5 *692:4 0.000734539
6 *692:5 6.83472e-05
7 *692:6 0.000501959

*RES
1 *692:5 *692:6 3.49309
2 *692:2 *692:4 3.69191
3 *1514:Z *692:2 2.26442
4 *692:4 *692:5 0.285208
5 *692:3 *692:6 5.94699001
6 *692 *692:3 1.75226
*END

*D_NET *693 0.00264681

*CONN
*I *1516:Z O *C 150.7 188.8 *L 0 *D CKBD8
*P *693 O *C 155 174.2 *L 0.5

*CAP
1 *1516:Z 7.0631e-05
2 *693 7.10538e-05
3 *693:2 8.09023e-05
4 *693:3 0.00162986
5 *693:4 0.000794375

*RES
1 *693:3 *693:4 1.62747
2 *693:2 *693:3 7.61896992
3 *1516:Z *693:2 0.777987
4 *693 *693:4 3.12125
*END

*D_NET *694 0.00224615

*CONN
*I *1515:Z O *C 150.7 186 *L 0 *D CKBD8
*P *694 O *C 155 170.6 *L 0.5

*CAP
1 *694 7.44951e-05
2 *694:2 0.000551755
3 *694:3 0.000208104
4 *694:4 0.00141181

*RES
1 *1515:Z *694:3 1.20543
2 *694:3 *694:4 9.94699001
3 *694:2 *694:4 0.384304
4 *694 *694:2 3.37314
*END

*D_NET *695 0.00243033

*CONN
*I *1518:Z O *C 150.7 181.6 *L 0 *D BUFFD8
*P *695 O *C 155 167 *L 0.5

*CAP
1 *695 6.28761e-05
2 *695:2 0.00074716
3 *695:3 0.000293973
4 *695:4 0.000580513
5 *695:5 0.000276906
6 *695:6 0.000468898

*RES
1 *1518:Z *695:3 1.37068
2 *695:5 *695:6 2.5404
3 *695:3 *695:4 3.31067991
4 *695:4 *695:5 1.63827
5 *695:2 *695:6 2.47634
6 *695 *695:2 1.73607
*END

*D_NET *696 0.00248903

*CONN
*I *1508:Z O *C 150.7 178 *L 0 *D BUFFD8
*P *696 O *C 155 163.4 *L 0.5

*CAP
1 *696 8.78973e-05
2 *696:2 0.00114748
3 *696:3 0.000354601
4 *696:4 0.000423553
5 *696:5 0.000475503

*RES
1 *1508:Z *696:3 1.49662
2 *696:4 *696:5 2.38247
3 *696:3 *696:4 2.31267
4 *696:2 *696:5 5.2638998
5 *696 *696:2 1.61019
*END

*D_NET *697 0.0017152

*CONN
*I *1491:Z O *C 150.7 171.6 *L 0 *D BUFFD8
*P *697 O *C 155 159.8 *L 0.5

*CAP
1 *697 0.000309526
2 *697:2 0.000791662969
3 *697:3 0.000535615
4 *697:4 2.45103e-05
5 *697:5 5.38889e-05

*RES
1 *697:2 *697:4 5.65564013
2 *697 *697:5 2.22857
3 *697:3 *697:4 2.8116
4 *1491:Z *697:3 0.224979
5 *697:2 *697:5 0.224979
*END

*D_NET *698 0.0026508

*CONN
*I *1517:Z O *C 150.7 170.8 *L 0 *D BUFFD8
*P *698 O *C 155 156.2 *L 0.5

*CAP
1 *698 4.92142e-05
2 *698:2 4.16785e-05
3 *698:3 0.000660019
4 *698:4 0.000275562
5 *698:5 0.000100103
6 *698:6 0.00152422

*RES
1 *698:5 *698:6 8.2988596
2 *698:4 *698:5 0.159175
3 *698:2 *698:3 3.34064
4 *1517:Z *698:4 1.93795
5 *698:3 *698:6 0.384197
6 *698 *698:2 0.460429
*END

*D_NET *699 0.000508461

*CONN
*I *1252:Z O *C 150.7 152.8 *L 0 *D BUFFD8
*P *699 O *C 155 152.6 *L 0.5

*CAP
1 *699 6.04219e-05
2 *699:2 0.000448036992

*RES
1 *1252:Z *699:2 0.450011
2 *699 *699:2 2.6175499
*END

*D_NET *700 0.00212279

*CONN
*I *1481:Z O *C 146.9 142.8 *L 0 *D BUFFD8
*P *700 O *C 155 149 *L 0.5

*CAP
1 *1481:Z 0.000713359
2 *700 4.44746e-05
3 *700:2 0.000883492031
4 *700:3 0.000456353
5 *700:4 2.51155e-05

*RES
1 *700:2 *700:4 3.66732001
2 *700 *700:3 1.72157
3 *700:3 *700:4 2.12431
4 *1481:Z *700:2 2.58642
*END

*D_NET *701 0.00131114

*CONN
*I *1479:Z O *C 150.7 138.4 *L 0 *D BUFFD8
*P *701 O *C 155 145.4 *L 0.5

*CAP
1 *1479:Z 0.000280751
2 *701 0.000440768984
3 *701:2 0.000341484
4 *701:3 0.000248138

*RES
1 *701:2 *701:3 2.36594
2 *701 *701:3 4.09405994
3 *1479:Z *701:2 1.23329
*END

*D_NET *702 0.00138108

*CONN
*I *1485:Z O *C 150.7 134.8 *L 0 *D BUFFD8
*P *702 O *C 155 141.8 *L 0.5

*CAP
1 *1485:Z 0.000244191
2 *702 0.00052457
3 *702:2 0.000381987
4 *702:3 0.000230335

*RES
1 *702:2 *702:3 2.54411
2 *702 *702:3 4.09405994
3 *1485:Z *702:2 1.23329
*END

*D_NET *703 0.00154633

*CONN
*I *1488:Z O *C 150.7 128.4 *L 0 *D BUFFD8
*P *703 O *C 155 138.2 *L 0.5

*CAP
1 *703 0.000158384
2 *703:2 0.000209337
3 *703:3 0.00026201
4 *703:4 0.00091661

*RES
1 *703:2 *703:4 5.66041994
2 *703:3 *703:4 1.1458
3 *1488:Z *703:3 0.449994
4 *703 *703:2 1.84575
*END

*D_NET *704 0.00120119

*CONN
*I *1482:Z O *C 150.7 127.6 *L 0 *D BUFFD8
*P *704 O *C 155 134.6 *L 0.5

*CAP
1 *1482:Z 0.000168711
2 *704 0.000442701992
3 *704:2 0.000291048
4 *704:3 0.000298728

*RES
1 *704:2 *704:3 2.36598
2 *704 *704:3 4.47236013
3 *1482:Z *704:2 0.855151
*END

*D_NET *705 0.00394332

*CONN
*I *1487:Z O *C 150.7 121.2 *L 0 *D BUFFD8
*P *705 O *C 155 131 *L 0.5

*CAP
1 *705 9.55876e-05
2 *705:2 0.000125867
3 *705:3 0.00150332
4 *705:4 0.000134194
5 *705:5 0.00028963
6 *705:6 0.000707881
7 *705:7 0.00108684

*RES
1 *705:2 *705:3 2.77335
2 *705:3 *705:6 3.64194
3 *705:5 *705:7 1.1443
4 *705:5 *705:6 2.40774
5 *705:4 *705:7 5.26488018
6 *705 *705:4 0.109498
7 *1487:Z *705:2 0.22502
*END

*D_NET *706 0.00121611

*CONN
*I *1483:Z O *C 150.7 120.4 *L 0 *D BUFFD8
*P *706 O *C 155 127.4 *L 0.5

*CAP
1 *1483:Z 0.00025759
2 *706 0.000424320977
3 *706:2 0.000288397
4 *706:3 0.0002458

*RES
1 *706:2 *706:3 2.36594
2 *706 *706:3 4.09405994
3 *1483:Z *706:2 1.2564
*END

*D_NET *707 0.00115466

*CONN
*I *1496:Z O *C 150.7 117.6 *L 0 *D BUFFD8
*P *707 O *C 155 123.8 *L 0.5

*CAP
1 *707 0.000517075
2 *707:2 0.000405746
3 *707:3 0.000231841

*RES
1 *707:2 *707:3 2.4052
2 *707 *707:3 3.96795988
3 *1496:Z *707:2 0.22499
*END

*D_NET *708 0.00379699

*CONN
*I *1512:Z O *C 150.7 106.8 *L 0 *D CKBD8
*P *708 O *C 155 120.2 *L 0.5

*CAP
1 *708 0.000113867
2 *708:2 9.77629e-05
3 *708:3 0.000136944
4 *708:4 0.00276995
5 *708:5 0.000678465

*RES
1 *708:3 *708:5 3.56544
2 *708:2 *708:4 0.99823
3 *1512:Z *708:2 0.450046
4 *708:4 *708:5 10.1285
5 *708 *708:3 0.487756
*END

*D_NET *709 0.00317397

*CONN
*I *1486:Z O *C 147.5 106.8 *L 0 *D CKBD8
*P *709 O *C 155 116.6 *L 0.5

*CAP
1 *1486:Z 0.000385667
2 *709 0.000586031
3 *709:2 0.0010857
4 *709:3 0.00111657

*RES
1 *709:2 *709:3 1.93659
2 *1486:Z *709:2 4.99029
3 *709 *709:3 5.57580996
*END

*D_NET *710 0.00202155

*CONN
*I *1480:Z O *C 147.9 106 *L 0 *D BUFFD8
*P *710 O *C 155 113 *L 0.5

*CAP
1 *1480:Z 0.0003501
2 *710 4.44763e-05
3 *710:2 0.000634306
4 *710:3 0.000201483
5 *710:4 0.000791192031

*RES
1 *1480:Z *710:2 2.62859
2 *710:3 *710:4 4.17233992
3 *710:2 *710:4 1.24681
4 *710 *710:3 1.72156
*END

*D_NET *711 0.00301412

*CONN
*I *1506:Z O *C 145.5 98.8 *L 0 *D BUFFD8
*P *711 O *C 155 109.4 *L 0.5

*CAP
1 *1506:Z 0.00159541
2 *711 4.44772e-05
3 *711:2 0.000512888
4 *711:3 0.000861329

*RES
1 *711:2 *711:3 6.26925
2 *711 *711:3 1.72161
3 *1506:Z *711:2 6.42965984
*END

*D_NET *712 0.00213447

*CONN
*I *1495:Z O *C 150.7 92.4 *L 0 *D BUFFD8
*P *712 O *C 155 105.8 *L 0.5

*CAP
1 *712 0.000113021
2 *712:2 0.000705411016
3 *712:3 0.000609871
4 *712:4 0.000460608
5 *712:5 0.000245567

*RES
1 *712:3 *712:5 2.70669
2 *712:2 *712:4 5.05632019
3 *712:4 *712:5 1.04566
4 *1495:Z *712:3 1.37078
5 *712 *712:2 2.09795
*END

*D_NET *713 0.00191972

*CONN
*I *1494:Z O *C 150.7 91.6 *L 0 *D BUFFD8
*P *713 O *C 155 102.2 *L 0.5

*CAP
1 *713 0.000151121
2 *713:2 0.000542365
3 *713:3 0.000946097031
4 *713:4 0.000278538
5 *713:5 1.60245e-06

*RES
1 *713:2 *713:4 1.99164
2 *713:3 *713:5 3.37777996
3 *713:4 *713:5 1.6389
4 *1494:Z *713:3 1.48211
5 *713 *713:2 2.35031
*END

*D_NET *714 0.0034135

*CONN
*I *1527:Z O *C 150.7 85.2 *L 0 *D BUFFD8
*P *714 O *C 155 98.6 *L 0.5

*CAP
1 *714 7.20293e-05
2 *714:2 0.000106948
3 *714:3 0.000731831
4 *714:4 0.000851603
5 *714:5 0.00165108

*RES
1 *714:3 *714:4 3.85475
2 *714:2 *714:5 3.07121
3 *714:4 *714:5 3.46427
4 *714 *714:3 4.12879992
5 *1527:Z *714:2 0.224975
*END

*D_NET *715 0.00267837

*CONN
*I *1490:Z O *C 147.5 85.2 *L 0 *D BUFFD8
*P *715 O *C 155 95 *L 0.5

*CAP
1 *1490:Z 0.000730542
2 *715 4.9206e-05
3 *715:2 0.000385146
4 *715:3 0.000134469
5 *715:4 0.00132978
6 *715:5 4.9206e-05

*RES
1 *715:2 *715:4 1.9501
2 *715 *715:5 0.460492
3 *715:4 *715:5 4.76909018
4 *715:2 *715:3 1.42019
5 *1490:Z *715:3 3.12469
*END

*D_NET *716 0.0130808

*CONN
*I *1248:Z O *C 141.9 146.4 *L 0 *D CKBD12
*P *716 O *C 155 91.4 *L 0.5

*CAP
1 *716 7.20506e-05
2 *716:2 0.00268286
3 *716:3 0.000231995
4 *716:4 0.00016805
5 *716:5 0.000399717
6 *716:6 0.000270149
7 *716:7 0.000521466
8 *716:8 0.000569814
9 *716:9 0.000215742
10 *716:10 6.7179e-05
11 *716:11 1.89951e-05
12 *716:12 0.000805247
13 *716:2 *733:2 0.000600745977
14 *716:3 *775:3 0.00074756
15 *716:2 *294:2 0.0013285
16 *716:2 *468:4 0.00172813
17 *716:7 *615:3 0.000928147031
18 *716:2 *842:10 0.0011536
19 *716:3 *618:27 0.000570936016

*RES
1 *716:6 *716:7 3.45531
2 *716 *716:4 1.37514
3 *716:10 *716:12 0.159195
4 *716:9 *716:11 0.811847
5 *716:5 *716:2 5.36787
6 *716:3 *716:6 4.70189
7 *716:2 *716:10 7.95642
8 *716:7 *716:8 8.35655
9 *716:8 *716:9 4.72712
10 *716:11 *716:12 10.4018002
11 *1248:Z *716:3 0.882794
12 *716:4 *716:5 1.60608
*END

*D_NET *717 0.0123316

*CONN
*I *1249:Z O *C 146.1 149.2 *L 0 *D CKBD12
*P *717 O *C 155 87.8 *L 0.5

*CAP
1 *717 7.20205e-05
2 *717:2 0.00206326
3 *717:3 0.000612701
4 *717:4 0.000464132
5 *717:5 0.000449462
6 *717:7 0.000284537
7 *717:8 0.000119753
8 *717:9 5.22254e-05
9 *717:10 0.00230012984
10 *717:12 0.000672578
11 *717:13 1.29862e-06
12 *717:2 *719:2 0.000640424023
13 *717:3 *179:2 0.00167757
14 *717:2 *538:11 0.000595711992
15 *717:8 *784:3 0.00207731016
16 *717:3 *937:4 0.000248455

*RES
1 *717:5 *717:7 2.80351
2 *717 *717:2 5.43523
3 *717:9 *717:10 20.8500996
4 *717:3 *717:4 1.93084
5 *717:10 *717:13 0.159392
6 *1249:Z *717:3 1.94961
7 *717:6 *717:7 0.159392
8 *717:2 *717:11 3.37586
9 *717:4 *717:5 4.52055
10 *717:12 *717:13 5.00287
11 *717:6 *717:8 4.57305
12 *717:8 *717:9 0.159392
13 *717:11 *717:12 0.159392
*END

*D_NET *718 0.00815931

*CONN
*I *1250:Z O *C 146.3 146.4 *L 0 *D CKBD12
*P *718 O *C 155 84.2 *L 0.5

*CAP
1 *718 6.47364e-05
2 *718:2 0.000320926
3 *718:3 0.000422571
4 *718:5 0.00296057
5 *718:3 *940:13 0.00179509
6 *718:3 *784:3 0.000866461016
7 *718:2 *657:5 0.00172901

*RES
1 *718:3 *718:5 39.6068001
2 *718:4 *718:5 4.63598
3 *718:2 *718:3 1.20568
4 *1250:Z *718:2 0.450242
5 *718 *718:4 0.224819
*END

*D_NET *719 0.01223

*CONN
*I *1251:Z O *C 143.7 145.6 *L 0 *D CKBD12
*P *719 O *C 155 80.6 *L 0.5

*CAP
1 *719 0.00123733
2 *719:2 0.00356056
3 *719:3 0.00103473
4 *719:4 5.55803e-05
5 *719:6 0.00056292
6 *719:7 0.000390692
7 *719:8 0.00045415
8 *719:9 0.000231014
9 *719 *75:20 0.000713798984
10 *719:3 *179:2 0.00188238
11 *719 *309:2 0.000982195
12 *719:4 *145:2 0.000208903008
13 *719:6 *248:2 0.000275388008
14 *719:2 *717:2 0.000640424023

*RES
1 *719:2 *719:9 1.47564
2 *719:7 *719:8 0.159339
3 *719:4 *719:6 6.50113
4 *719:3 *719:4 3.73349
5 *719 *719:9 6.29646
6 *719:2 *719:8 30.6229992
7 *719:5 *719:7 4.0045
8 *719:5 *719:6 0.159339
9 *1251:Z *719:3 0.225224
*END

*D_NET *720 0.00258988

*CONN
*I *1511:Z O *C 150.7 63.6 *L 0 *D BUFFD8
*P *720 O *C 155 77 *L 0.5

*CAP
1 *720 5.34828e-05
2 *720:2 0.000174799
3 *720:3 0.000129205
4 *720:4 0.000531766
5 *720:5 0.00170063

*RES
1 *720:4 *720:5 8.15620995
2 *720:2 *720:4 1.34983
3 *1511:Z *720:2 0.450025
4 *720:3 *720:5 3.79597
5 *720 *720:3 0.361539
*END

*D_NET *721 0.00200977

*CONN
*I *1503:Z O *C 150.7 60 *L 0 *D BUFFD8
*P *721 O *C 155 73.4 *L 0.5

*CAP
1 *721 0.000113022
2 *721:2 0.000688562969
3 *721:3 0.00051435
4 *721:4 0.000457613
5 *721:5 0.000236224

*RES
1 *721:3 *721:5 2.49439
2 *721:2 *721:4 4.94201994
3 *721:4 *721:5 1.04766
4 *1503:Z *721:3 1.37079
5 *721 *721:2 2.09781
*END

*D_NET *722 0.00202741

*CONN
*I *1510:Z O *C 150.7 55.6 *L 0 *D BUFFD8
*P *722 O *C 155 69.8 *L 0.5

*CAP
1 *722 4.4476e-05
2 *722:2 0.000578728
3 *722:3 0.00069415
4 *722:4 0.000456644
5 *722:5 0.000251868
6 *722:6 1.55703e-06

*RES
1 *722:5 *722:6 1.52494
2 *722:3 *722:6 3.24327993
3 *722 *722:2 1.46907
4 *722:2 *722:4 2.77052
5 *722:4 *722:5 2.53124
6 *1510:Z *722:3 1.45749
*END

*D_NET *723 0.00277926

*CONN
*I *1524:Z O *C 150.1 48.4 *L 0 *D CKBD12
*P *723 O *C 155 66.2 *L 0.5

*CAP
1 *723 5.65058e-05
2 *723:2 0.000104059
3 *723:3 0.000859382
4 *723:4 1.83305e-05
5 *723:5 0.001741

*RES
1 *723 *723:3 3.72889
2 *723:4 *723:5 0.981277
3 *723:2 *723:4 0.449922
4 *1524:Z *723:2 0.449922
5 *723:3 *723:5 11.6269999
*END

*D_NET *724 0.0038888

*CONN
*I *1493:Z O *C 145.1 49.2 *L 0 *D BUFFD8
*P *724 O *C 155 62.6 *L 0.5

*CAP
1 *724 8.25912e-05
2 *724:2 0.000720336
3 *724:3 0.000609584
4 *724:4 0.000371721
5 *724:5 0.00132015
6 *724:6 0.000784415

*RES
1 *724:4 *724:6 1.19262
2 *724:2 *724:3 2.66809
3 *724:4 *724:5 4.52233982
4 *724:3 *724:5 3.01298
5 *724 *724:6 4.13218
6 *1493:Z *724:2 0.225027
*END

*D_NET *725 0.00448027

*CONN
*I *1484:Z O *C 142.5 44.8 *L 0 *D BUFFD8
*P *725 O *C 155 59 *L 0.5

*CAP
1 *1484:Z 0.000548011
2 *725 8.23791e-05
3 *725:2 0.00173648
4 *725:3 0.000615869
5 *725:4 0.00149756

*RES
1 *1484:Z *725:2 2.90458
2 *725:2 *725:3 6.90302
3 *725 *725:4 8.16481972
4 *725:3 *725:4 1.12339
*END

*D_NET *726 0.00575199

*CONN
*I *1501:Z O *C 142.3 38.4 *L 0 *D BUFFD8
*P *726 O *C 155 55.4 *L 0.5

*CAP
1 *1501:Z 0.000168123
2 *726 0.00043633
3 *726:2 0.000832339
4 *726:3 8.08433e-05
5 *726:4 0.000796308
6 *726:5 0.00087326
7 *1501:Z *633:56 0.000183954004
8 *726:3 *8:2 0.00105488
9 *726:4 *468:3 0.000657866016
10 *726:4 *735:2 0.00066809

*RES
1 *726:3 *726:5 9.15205002
2 *726:2 *726:4 4.3375
3 *1501:Z *726:2 0.876997
4 *726:4 *726:5 5.90227
5 *726 *726:3 3.46274
*END

*D_NET *727 0.0019713

*CONN
*I *1492:Z O *C 144.9 45.6 *L 0 *D BUFFD8
*P *727 O *C 155 51.8 *L 0.5

*CAP
1 *727 0.000514462
2 *727:2 0.00123035
3 *727:3 0.000226489

*RES
1 *727:2 *727:3 6.15019989
2 *727 *727:3 3.96587
3 *1492:Z *727:2 0.225039
*END

*D_NET *728 0.00362282

*CONN
*I *1525:Z O *C 150.7 27.6 *L 0 *D BUFFD8
*P *728 O *C 155 48.2 *L 0.5

*CAP
1 *1525:Z 0.000100281
2 *728 0.000113883
3 *728:2 0.000148646
4 *728:3 0.000523242
5 *728:4 0.000572191
6 *728:5 0.000460776
7 *728:6 0.000319926
8 *728:7 0.000184404
9 *728:8 0.000572555
10 *728:9 0.000626909023

*RES
1 *728:6 *728:7 1.63824
2 *728:5 *728:6 2.53731
3 *728:2 *728:9 3.3150301
4 *728:7 *728:8 2.38096
5 *728:4 *728:9 3.11361
6 *728:3 *728:5 2.52988
7 *728:3 *728:4 0.159287
8 *1525:Z *728:8 1.97336
9 *728 *728:2 0.487472
*END

*D_NET *729 0.00302634

*CONN
*I *1509:Z O *C 150.7 26.8 *L 0 *D BUFFD8
*P *729 O *C 155 44.6 *L 0.5

*CAP
1 *729 7.20197e-05
2 *729:2 0.000631354
3 *729:3 7.75702e-05
4 *729:4 0.00224539

*RES
1 *1509:Z *729:3 0.449963
2 *729:3 *729:4 0.999027
3 *729:2 *729:4 11.4342003
4 *729 *729:2 3.65693
*END

*D_NET *730 0.00304713

*CONN
*I *1502:Z O *C 147.5 26.8 *L 0 *D BUFFD8
*P *730 O *C 155 41 *L 0.5

*CAP
1 *1502:Z 0.000650479
2 *730 4.74106e-05
3 *730:2 0.00011514
4 *730:3 0.00120944
5 *730:4 3.24806e-06
6 *730:5 7.24723e-05
7 *730:6 0.000948931

*RES
1 *730:2 *730:3 4.97136021
2 *730:5 *730:6 3.16483
3 *730:2 *730:6 2.75846
4 *1502:Z *730:4 3.11241
5 *730:3 *730:4 0.159224
6 *730 *730:5 0.58645
*END

*D_NET *731 0.0044377

*CONN
*I *1253:I I *C 146.5 74.8 *L 0.00072 *D BUFFD1
*I *1577:Z O *C 146.1 55.6 *L 0 *D AO222D0

*CAP
1 *1577:Z 0.000680868
2 *731:2 0.00157966
3 *731:3 0.000660524
4 *731:5 0.00151665

*RES
1 *731:4 *731:5 4.90191
2 *731:2 *731:5 6.6237402
3 *731:2 *731:3 2.39355
4 *1577:Z *731:3 2.9651
5 *1253:I *731:4 0.224982
*END

*D_NET *732 0.0146254

*CONN
*I *1315:I I *C 144.5 134.4 *L 0.00182 *D DEL005
*I *1580:Z O *C 145.3 48.4 *L 0 *D AO222D0

*CAP
1 *1315:I 3.55611e-05
2 *1580:Z 0.00134224
3 *732:2 0.000672853
4 *732:3 0.000500718
5 *732:4 0.000293517
6 *732:5 3.88089e-05
7 *732:6 0.000170374
8 *732:7 0.00360758
9 *732:8 0.000223551
10 *1580:Z *736:5 0.00189846
11 *732:2 *625:10 0.00059637
12 *732:3 *537:21 0.000663277969
13 *1315:I *869:8 0.00180813
14 *732:4 *230:4 0.000295024004
15 *732:5 *796:3 0.000797536016
16 *732:4 *867:3 0.00168133

*RES
1 *732:7 *732:8 1.34834
2 *732:6 *732:2 0.476598
3 *1580:Z *732:6 5.23822
4 *732:3 *732:7 31.7744999
5 *732:4 *732:3 7.03261
6 *732:5 *732:4 10.3528
7 *732:2 *732:8 4.01642
8 *1315:I *732:5 0.769442
*END

*D_NET *733 0.017651

*CONN
*I *1392:I I *C 142.9 132.4 *L 0.00105 *D DEL1
*I *1576:Z O *C 143.7 38.4 *L 0 *D AO222D0

*CAP
1 *1576:Z 0.000102554
2 *733:2 0.00341682
3 *733:3 0.000364284
4 *733:4 0.000249112
5 *733:5 0.000734563
6 *733:6 0.000377944
7 *733:7 0.00036981
8 *733:8 0.000568766
9 *733:9 0.000616628
10 *733:10 0.000261156
11 *733:11 0.000227214
12 *733:12 0.000589204
13 *733:5 *738:4 0.0012887
14 *733:2 *800:2 0.000335625
15 *733:2 *294:3 0.00135505
16 *733:5 *472:6 0.00227674
17 *733:2 *716:2 0.000600745977
18 *733:2 *1749:A2 0.00113762
19 *733:3 *615:20 0.00067825
20 *733:4 *619:15 0.000668121016
21 *733:2 *53:7 0.00143202

*RES
1 *733:9 *733:10 3.46177
2 *733:2 *733:7 11.1909
3 *733:11 *733:12 8.05598
4 *733:7 *733:8 3.62181
5 *733:3 *733:9 3.6526
6 *733:4 *733:10 1.67092
7 *733:5 *733:12 4.39801
8 *733:2 *733:6 23.4636993
9 *733:8 *733:11 5.16885
10 *1576:Z *733:5 1.88394
11 *733:4 *733:6 2.45571
12 *1392:I *733:3 1.43032
*END

*D_NET *734 0.0215447

*CONN
*I *1391:I I *C 137.7 128.8 *L 0.00105 *D DEL1
*I *1582:Z O *C 143.9 27.6 *L 0 *D AO222D0

*CAP
1 *1391:I 3.74248e-05
2 *1582:Z 0.00030528
3 *734:2 0.00105047
4 *734:3 0.00132824
5 *734:4 0.00062759
6 *734:5 0.000331118
7 *734:6 0.000434204
8 *734:7 0.000587327
9 *734:8 0.000399237
10 *734:9 0.000818606
11 *734:10 0.000244329
12 *734:11 0.000279004
13 *734:12 0.00182562
14 *734:13 0.000381388
15 *734:14 0.000717509
16 *734:15 0.00191762
17 *734:16 1.84344e-06
18 *734:17 0.00172965
19 *734:18 0.000802863
20 *734:19 0.000527781
21 *734:20 0.000556515
22 *734:21 0.00038566
23 *734:22 0.00171238
24 *734:23 9.61517e-05
25 *734:24 0.000410005
26 *734:25 0.00100918
27 *734:26 3.85075e-05
28 *734:2 *84:9 0.000618135977
29 *734:3 *620:20 0.000783756016
30 *1391:I *776:2 0.000563839961
31 *734:4 *783:4 0.00102345

*RES
1 *734:2 *734:18 0.159204
2 *734:17 *734:19 2.38602
3 *1582:Z *734:26 1.45164
4 *734:20 *734:25 4.46088
5 *734:22 *734:24 1.63778
6 *734:14 *734:15 8.32688046
7 *734:9 *734:25 4.44996
8 *1391:I *734:4 4.49328
9 *734:23 *734:24 0.159204
10 *734:10 *734:12 7.169
11 *734:10 *734:11 0.159204
12 *734:8 *734:21 1.39205
13 *734:16 *734:22 7.5268
14 *734:18 *734:19 5.16466
15 *734:2 *734:26 4.33776
16 *734:20 *734:21 2.0638
17 *734:3 *734:16 0.159204
18 *734:7 *734:3 5.45626
19 *734:4 *734:8 1.88669
20 *734:5 *734:6 1.72304
21 *734:12 *734:13 2.35286
22 *734:6 *734:14 2.9123
23 *734:7 *734:15 2.29442
24 *734:17 *734:23 7.53251
25 *734:5 *734:13 1.38138
26 *734:9 *734:11 2.32237
*END

*D_NET *735 0.0174523

*CONN
*I *1399:I I *C 143.9 123.6 *L 0.00105 *D DEL1
*I *1575:Z O *C 143.9 30.4 *L 0 *D AO222D1

*CAP
1 *1399:I 0.00215281
2 *1575:Z 0.000130846
3 *735:2 0.00302789
4 *735:3 0.000173676
5 *735:4 0.000235587
6 *735:5 1.06266e-06
7 *735:6 0.00117641
8 *735:2 *726:4 0.00066809
9 *1399:I *869:2 0.00172646
10 *1399:I *796:2 0.00181149
11 *735:2 *857:20 0.000562888984
12 *735:3 *468:6 0.00311436
13 *735:2 *473:10 0.00267068

*RES
1 *735:5 *735:6 3.71605
2 *1575:Z *735:6 3.49956
3 *735:2 *735:5 0.159259
4 *735:3 *735:2 45.1827011
5 *735:4 *735:3 3.2555
6 *1399:I *735:4 15.0159
*END

*D_NET *736 0.0185944

*CONN
*I *1397:I I *C 143.9 127.2 *L 0.00105 *D DEL1
*I *1581:Z O *C 143.7 20.4 *L 0 *D AO222D1

*CAP
1 *736:2 0.00369749
2 *736:3 0.000467158
3 *736:4 0.000318661
4 *736:5 0.000267657
5 *736:6 0.000446283
6 *736:7 0.000612779
7 *736:8 0.000444534
8 *736:9 0.000882184
9 *736:10 0.000444082
10 *736:11 0.000374065
11 *736:12 0.000472462
12 *736:13 0.000406902
13 *736:2 *482:5 0.00273955
14 *736:3 *537:22 0.000667345
15 *736:3 *869:2 0.00195565
16 *736:4 *913:3 0.000880111016
17 *736:5 *1580:Z 0.00189846
18 *736:6 *857:17 0.001619

*RES
1 *736:8 *736:13 3.05132
2 *736:9 *736:10 2.66738
3 *736:7 *736:12 0.799117
4 *1581:Z *736:13 2.16348
5 *736:4 *736:6 5.05103
6 *736:10 *736:11 2.67833
7 *736:5 *736:9 5.44922
8 *1397:I *736:4 3.73761
9 *736:3 *736:2 35.8950996
10 *736:2 *736:5 1.47555
11 *736:11 *736:12 2.40447
12 *736:7 *736:8 4.04214
13 *736:6 *736:3 7.03212
*END

*D_NET *737 0.020188

*CONN
*I *1396:I I *C 143.7 128.8 *L 0.00105 *D DEL1
*I *1579:Z O *C 143.9 16.8 *L 0 *D AO222D1

*CAP
1 *1396:I 5.82333e-05
2 *1579:Z 0.000342096
3 *737:2 0.00184276
4 *737:3 0.000120507
5 *737:4 0.000426669
6 *737:6 0.000365017
7 *737:7 0.00254590984
8 *737:8 1.74816e-06
9 *737:9 0.000116272
10 *737:10 0.000463807
11 *737:11 0.00141263
12 *737:12 0.000758354
13 *737:7 *473:3 0.00358214
14 *1579:Z *316:3 0.00237427
15 *1579:Z *482:3 0.00106091
16 *1396:I *868:2 0.00408618031
17 *737:2 *39:5 0.000630549023

*RES
1 *737:5 *737:2 11.4609
2 *1396:I *737:3 0.450105
3 *737:3 *737:4 3.38961
4 *737:2 *737:8 0.159255
5 *737:11 *737:12 8.72675
6 *737:10 *737:11 17.1308
7 *737:9 *737:10 3.19851
8 *737:4 *737:6 3.19557
9 *737:5 *737:7 0.159255
10 *737:6 *737:7 27.4655991
11 *1579:Z *737:12 2.12228
12 *737:8 *737:9 4.03124
*END

*D_NET *738 0.0144717

*CONN
*I *1398:I I *C 142.9 125.2 *L 0.00105 *D DEL1
*I *1583:Z O *C 143.9 12.4 *L 0 *D AO222D1

*CAP
1 *1398:I 6.3832e-05
2 *1583:Z 0.000129188
3 *738:2 0.00249745016
4 *738:3 0.000418547
5 *738:4 0.000694492
6 *738:5 0.00179484
7 *738:6 0.000466107
8 *738:8 0.00152557
9 *738:10 0.000448806
10 *738:12 0.000480817
11 *738:14 0.000368358
12 *738:3 *800:5 0.000674677031
13 *738:5 *472:7 0.000675683047
14 *738:2 *82:5 0.00114681008
15 *738:2 *233:6 0.00122222992
16 *738:3 *279:2 0.000575556992
17 *738:4 *733:5 0.0012887

*RES
1 *738:7 *738:8 0.158932
2 *738:7 *738:4 4.7591
3 *738:5 *738:13 9.40292
4 *738:9 *738:12 2.7455
5 *738:14 *738:2 0.729178
6 *738:6 *738:3 2.04156
7 *738:4 *738:11 0.158932
8 *738:8 *738:14 7.73038
9 *738:9 *738:10 0.158932
10 *1583:Z *738:5 1.7694
11 *738:12 *738:13 0.158932
12 *738:3 *738:2 44.7028999
13 *738:10 *738:11 4.12269
14 *1398:I *738:6 0.675291
*END

*D_NET *739 0.02164

*CONN
*I *1395:I I *C 148.7 125.2 *L 0.00105 *D DEL1
*I *1578:Z O *C 143.5 16 *L 0 *D AO222D1

*CAP
1 *739:2 0.000729297
2 *739:3 0.000395064
3 *739:4 0.000345921
4 *739:5 0.000322386
5 *739:6 0.00261415
6 *739:7 7.33964e-05
7 *739:8 9.04691e-05
8 *739:9 0.000350388
9 *739:10 0.00011556
10 *739:11 0.000275835
11 *739:12 0.000174715
12 *739:13 0.000682028
13 *739:14 0.000512459
14 *739:15 0.000150303
15 *739:2 *536:12 0.00121386
16 *739:3 *1767:A1 0.00475194969
17 *739:4 *847:25 0.0012557
18 *739:3 *455:4 0.000294337988
19 *739:5 *935:14 0.00114792
20 *739:6 *1580:C1 0.00614423

*RES
1 *739:3 *739:2 7.65656
2 *739:2 *739:11 6.37098
3 *739:6 *739:8 1.60608
4 *739:8 *739:13 13.0986
5 *739:6 *739:12 25.7098999
6 *739:11 *739:4 15.9592
7 *739:14 *739:15 1.89992
8 *739:9 *739:10 1.63747
9 *739:13 *739:15 0.159275
10 *739:5 *739:10 2.95717
11 *739:7 *739:3 2.49622
12 *739:9 *739:14 2.60488
13 *739:4 *739:12 3.73315
14 *1395:I *739:7 0.44997
15 *1578:Z *739:5 0.225181
*END

*D_NET *740 0.00128005

*CONN
*I *1403:I I *C 142.3 215.2 *L 0.00105 *D DEL1
*I *1677:Q O *C 146.1 214 *L 0 *D DFCNQD1

*CAP
1 *1677:Q 0.000261508
2 *740:2 0.00101854

*RES
1 *1677:Q *740:2 3.32993007
2 *1403:I *740:2 1.68829
*END

*D_NET *741 0.000409809

*CONN
*I *1406:I I *C 139.1 210 *L 0.00105 *D DEL1
*I *1676:Q O *C 139.1 211.2 *L 0 *D DFCNQD1

*CAP
1 *1406:I 0.000409808984

*RES
1 *1676:Q *1406:I 1.40895
*END

*D_NET *742 0.000369823

*CONN
*I *1405:I I *C 138.9 215.2 *L 0.00105 *D DEL1
*I *1675:Q O *C 138.9 214 *L 0 *D DFCNQD1

*CAP
1 *1675:Q 0.000369823008

*RES
1 *1405:I *1675:Q 1.63395
*END

*D_NET *743 0.00094355

*CONN
*I *1407:I I *C 145.5 211.6 *L 0.00105 *D DEL1
*I *1674:Q O *C 146.7 210.4 *L 0 *D DFCNQD1

*CAP
1 *1407:I 9.20312e-05
2 *1674:Q 0.000851513047

*RES
1 *1674:Q *1407:I 3.12908
*END

*D_NET *744 0.00107178

*CONN
*I *1404:I I *C 146.1 192 *L 0.00105 *D DEL1
*I *1673:Q O *C 146.1 196 *L 0 *D DFCNQD1

*CAP
1 *1404:I 2.8699e-05
2 *1673:Q 9.36593e-05
3 *744:2 0.000949413984

*RES
1 *1404:I *744:2 0.327684
2 *1673:Q *744:2 4.05955982
*END

*D_NET *745 0.000722982

*CONN
*I *1402:I I *C 145.5 186.4 *L 0.00105 *D DEL1
*I *1672:Q O *C 146.1 189.6 *L 0 *D DFCNQD1

*CAP
1 *1672:Q 7.27921e-05
2 *745:2 0.000650188047

*RES
1 *1672:Q *745:2 2.84150004
2 *1402:I *745:2 0.450011
*END

*D_NET *746 0.000414069

*CONN
*I *1235:Z O *C 141.3 185.2 *L 0 *D DEL015
*I *1401:I I *C 141.5 186.4 *L 0.00105 *D DEL1

*CAP
1 *1235:Z 0.000334645977
2 *1401:I 7.94245e-05

*RES
1 *1235:Z *1401:I 1.44754
*END

*D_NET *747 0.00129638

*CONN
*I *1236:Z O *C 143.5 174.4 *L 0 *D DEL015
*I *1400:I I *C 138.5 175.6 *L 0.00105 *D DEL1

*CAP
1 *747:2 0.000822974063
2 *747:3 0.000473403

*RES
1 *1236:Z *747:3 1.70798
2 *747:2 *747:3 3.30247998
3 *1400:I *747:2 0.449999
*END

*D_NET *748 0.000514146

*CONN
*I *1205:I I *C 138.7 272.8 *L 0.00103 *D DEL01
*I *1669:Q O *C 140.7 271.6 *L 0 *D DFCNQD1

*CAP
1 *1205:I 0.000293175996
2 *1669:Q 0.000220968

*RES
1 *1669:Q *1205:I 2.83792
*END

*D_NET *749 0.000591154

*CONN
*I *1201:I I *C 149.1 258.4 *L 0.00103 *D DEL01
*I *1668:Q O *C 149.5 260.8 *L 0 *D DFCNQD1

*CAP
1 *1201:I 0.000462720977
2 *1668:Q 0.000128434

*RES
1 *1201:I *1668:Q 2.16534
*END

*D_NET *750 0.000709953

*CONN
*I *1193:I I *C 140.5 269.2 *L 0.00103 *D DEL01
*I *1667:Q O *C 142.5 268 *L 0 *D DFCNQD1

*CAP
1 *1667:Q 7.59183e-05
2 *750:2 0.000634038984

*RES
1 *1667:Q *750:2 1.70904005
2 *1193:I *750:2 1.33133
*END

*D_NET *751 0.000288809

*CONN
*I *1181:I I *C 139.5 264 *L 0.00104 *D DEL0
*I *1666:Q O *C 140.1 261.6 *L 0 *D DFCNQD1

*CAP
1 *1666:Q 3.66356e-06
2 *751:2 0.000285144004

*RES
1 *1666:Q *751:2 0.326507
2 *1181:I *751:2 1.55632997
*END

*D_NET *752 0.000241437

*CONN
*I *1438:I I *C 138.5 253.2 *L 0.00105 *D DEL1
*I *1665:Q O *C 138.5 254.4 *L 0 *D DFCNQD1

*CAP
1 *1438:I 0.000241437012

*RES
1 *1665:Q *1438:I 1.20542
*END

*D_NET *753 0.000787466

*CONN
*I *1434:I I *C 147.5 253.2 *L 0.00105 *D DEL1
*I *1664:Q O *C 149.9 254.4 *L 0 *D DFCNQD1

*CAP
1 *1664:Q 0.000146056
2 *753:2 0.000641412031

*RES
1 *1434:I *753:2 1.2054
2 *1664:Q *753:2 2.53986001
*END

*D_NET *754 0.00199626

*CONN
*I *1194:Z O *C 150.9 247.2 *L 0 *D DEL01
*I *1435:I I *C 145.5 251.2 *L 0.00105 *D DEL1

*CAP
1 *1194:Z 9.2584e-05
2 *1435:I 0.000443488
3 *754:2 0.00103031
4 *754:3 0.000429874

*RES
1 *754:2 *754:3 3.7502799
2 *1194:Z *754:3 1.75297
3 *1435:I *754:2 1.9754
*END

*D_NET *755 0.000300001

*CONN
*I *1229:Z O *C 140.5 222 *L 0 *D DEL01
*I *1418:I I *C 140.7 220.8 *L 0.00105 *D DEL1

*CAP
1 *1229:Z 1.19299e-05
2 *1418:I 0.000288071016

*RES
1 *1418:I *1229:Z 1.55686
*END

*D_NET *756 0.000543526

*CONN
*I *1217:I I *C 138.3 249.6 *L 0.00103 *D DEL01
*I *1661:Q O *C 138.9 246.4 *L 0 *D DFCNQD1

*CAP
1 *1661:Q 0.000543525977

*RES
1 *1661:Q *1217:I 2.82864
*END

*D_NET *757 0.000611594

*CONN
*I *1186:Z O *C 145.9 246.4 *L 0 *D DEL01
*I *1450:I I *C 146.1 242.4 *L 0.00105 *D DEL1

*CAP
1 *1186:Z 9.34255e-05
2 *1450:I 0.000518165

*RES
1 *1186:Z *1450:I 3.19715
*END

*D_NET *758 0.000985175

*CONN
*I *1210:Z O *C 142.3 242.8 *L 0 *D DEL01
*I *1457:I I *C 140.3 238.8 *L 0.00105 *D DEL1

*CAP
1 *1457:I 0.000440078
2 *758:2 0.000545095977

*RES
1 *1457:I *758:2 2.0139
2 *1210:Z *758:2 2.43766999
*END

*D_NET *759 0.00206632

*CONN
*I *1180:Z O *C 147.5 235.6 *L 0 *D DEL015
*I *1461:I I *C 138.3 233.2 *L 0.00105 *D DEL1

*CAP
1 *1180:Z 0.00040097
2 *759:2 0.00166535

*RES
1 *1180:Z *759:2 8.46938992
2 *1461:I *759:2 0.449988
*END

*D_NET *760 0.0005693

*CONN
*I *1207:Z O *C 140.1 232 *L 0 *D DEL01
*I *1462:I I *C 138.1 229.6 *L 0.00105 *D DEL1

*CAP
1 *760:2 0.0005693

*RES
1 *1207:Z *760:2 1.33136
2 *1462:I *760:2 1.80814004
*END

*D_NET *761 0.00057124

*CONN
*I *1208:Z O *C 140.7 225.6 *L 0 *D DEL01
*I *1454:I I *C 139.3 228 *L 0.00105 *D DEL1

*CAP
1 *1208:Z 0.00010362
2 *1454:I 0.000467616992

*RES
1 *1454:I *1208:Z 2.52378
*END

*D_NET *762 0.00124312

*CONN
*I *1209:I I *C 150.1 224.4 *L 0.00103 *D DEL01
*I *1655:Q O *C 145.5 224.8 *L 0 *D DFCNQD1

*CAP
1 *1209:I 0.000236526
2 *1655:Q 0.00043484
3 *762:2 0.000571751016

*RES
1 *1655:Q *762:2 1.45062
2 *1209:I *762:2 3.17443991
*END

*D_NET *763 0.00075661

*CONN
*I *1182:I I *C 143.7 217.2 *L 0.00103 *D DEL01
*I *1654:Q O *C 145.7 217.6 *L 0 *D DFCNQD1

*CAP
1 *1182:I 9.9947e-05
2 *1654:Q 3.45087e-05
3 *763:2 0.000622152969

*RES
1 *1654:Q *763:2 1.85167003
2 *1182:I *763:2 0.450005
*END

*D_NET *764 0.000678564

*CONN
*I *1214:I I *C 138.3 208 *L 0.00103 *D DEL01
*I *1653:Q O *C 139.1 204 *L 0 *D DFCNQD1

*CAP
1 *1214:I 0.00034178
2 *1653:Q 0.000336784

*RES
1 *1653:Q *1214:I 3.36769
*END

*D_NET *765 0.00187244

*CONN
*I *1212:I I *C 139.1 202.8 *L 0.00103 *D DEL01
*I *1652:Q O *C 146.7 203.2 *L 0 *D DFCNQD1

*CAP
1 *1212:I 3.76799e-05
2 *765:2 0.000978348984
3 *765:3 0.000814358
4 *765:4 4.2054e-05

*RES
1 *1212:I *765:2 0.86871
2 *765:3 *765:4 2.88514
3 *765:2 *765:4 3.94920993
4 *1652:Q *765:3 0.225011
*END

*D_NET *766 0.00100333

*CONN
*I *1216:I I *C 141.7 197.2 *L 0.00103 *D DEL01
*I *1651:Q O *C 146.3 196.8 *L 0 *D DFCNQD1

*CAP
1 *1216:I 0.000111286
2 *766:2 0.000144262
3 *766:3 0.000747781016

*RES
1 *766:2 *766:3 3.22775006
2 *1216:I *766:3 0.450011
3 *1651:Q *766:2 0.224981
*END

*D_NET *767 0.000957604

*CONN
*I *1225:Z O *C 140.3 196.8 *L 0 *D DEL01
*I *1467:I I *C 137.5 200.8 *L 0.00105 *D DEL1

*CAP
1 *1225:Z 0.000172353
2 *767:2 3.57826e-06
3 *767:3 0.00078167

*RES
1 *767:2 *767:3 2.11384
2 *1225:Z *767:3 2.66531992
3 *1467:I *767:2 0.450009
*END

*D_NET *768 0.000615657

*CONN
*I *1226:I I *C 139.3 192 *L 0.00103 *D DEL01
*I *1649:Q O *C 139.1 196 *L 0 *D DFCNQD1

*CAP
1 *1226:I 0.000615656953

*RES
1 *1226:I *1649:Q 2.60207
*END

*D_NET *769 0.000797058

*CONN
*I *1224:Z O *C 140.9 186 *L 0 *D DEL01
*I *1455:I I *C 138.9 188.4 *L 0.00105 *D DEL1

*CAP
1 *1224:Z 0.000440908008
2 *769:2 0.000356151

*RES
1 *1455:I *769:2 1.70904005
2 *1224:Z *769:2 1.56895
*END

*D_NET *770 0.000928835

*CONN
*I *1215:I I *C 139.7 181.2 *L 0.00103 *D DEL01
*I *1647:Q O *C 141.7 178.8 *L 0 *D DFCNQD1

*CAP
1 *1647:Q 0.000242646
2 *770:2 0.000686191953

*RES
1 *1647:Q *770:2 0.602763
2 *1215:I *770:2 2.65101004
*END

*D_NET *771 0.00124146

*CONN
*I *1221:Z O *C 143.9 168 *L 0 *D DEL01
*I *1433:I I *C 140.3 172 *L 0.00105 *D DEL1

*CAP
1 *771:2 0.000155281
2 *771:4 0.00108616992

*RES
1 *771:2 *771:4 2.49128008
2 *771:3 *771:4 2.29756
3 *1433:I *771:3 0.450009
4 *1221:Z *771:2 0.225004
*END

*D_NET *772 0.00305803

*CONN
*I *1211:Z O *C 141.9 152.8 *L 0 *D DEL015
*I *1458:I I *C 137.7 141.6 *L 0.00105 *D DEL1

*CAP
1 *1211:Z 7.8747e-05
2 *1458:I 0.000339527
3 *772:2 0.000435178
4 *772:3 0.00162439
5 *772:4 0.000580155

*RES
1 *1211:Z *772:2 1.96776
2 *772:2 *772:3 5.78111982
3 *772:3 *772:4 2.37698
4 *1458:I *772:4 1.63432
*END

*D_NET *773 0.00249058

*CONN
*I *1220:Z O *C 139.5 142.8 *L 0 *D DEL01
*I *1456:I I *C 137.7 138 *L 0.00105 *D DEL1

*CAP
1 *1220:Z 0.000480693
2 *1456:I 0.000644736
3 *773:2 0.00136515

*RES
1 *1220:Z *773:2 6.19644022
2 *1456:I *773:2 2.73779
*END

*D_NET *774 0.0037706

*CONN
*I *1218:I I *C 138.7 148.8 *L 0.00103 *D DEL01
*I *1643:Q O *C 138.5 134.8 *L 0 *D DFCNQD1

*CAP
1 *1218:I 1.14557e-05
2 *774:2 9.54371e-05
3 *774:3 0.00165906
4 *774:4 0.000173018
5 *774:5 6.92988e-05
6 *774:6 0.00176232

*RES
1 *774:3 *774:5 0.381409
2 *774:2 *774:3 6.1370101
3 *774:4 *774:6 0.674981
4 *1218:I *774:2 0.266603
5 *774:5 *774:6 5.66776
6 *1643:Q *774:4 0.225025
*END

*D_NET *775 0.00775047

*CONN
*I *1213:Z O *C 141.5 150 *L 0 *D DEL01
*I *1463:I I *C 139.5 125.2 *L 0.00105 *D DEL1

*CAP
1 *1463:I 0.000458594
2 *775:2 0.000217815
3 *775:3 0.00129181
4 *775:4 8.06802e-05
5 *775:5 0.000179259
6 *775:6 0.000180402
7 *775:7 0.000166998
8 *775:8 0.000255839
9 *775:9 0.000290118
10 *775:7 *855:10 0.000393233008
11 *1463:I *73:9 0.000411281992
12 *775:2 *842:31 0.000791199063
13 *775:3 *716:3 0.00074756
14 *775:4 *168:3 0.00064343
15 *775:5 *169:2 0.00164226

*RES
1 *775:5 *775:9 9.82287979
2 *775:2 *775:4 6.09853
3 *775:8 *775:2 1.23221
4 *775:6 *775:3 4.10596
5 *1213:Z *775:6 0.889119
6 *775:3 *775:5 1.40023
7 *775:7 *775:8 3.37062
8 *1463:I *775:7 1.99108
9 *775:4 *775:9 0.224978
*END

*D_NET *776 0.00689685

*CONN
*I *1206:Z O *C 139.5 152.8 *L 0 *D DEL01
*I *1464:I I *C 137.7 123.6 *L 0.00105 *D DEL1

*CAP
1 *1206:Z 5.4045e-05
2 *1464:I 0.00024414
3 *776:2 0.00132109
4 *776:3 0.000303285
5 *776:4 2.84235e-05
6 *776:5 0.00125326
7 *776:2 *1391:I 0.000563839961
8 *776:2 *4:3 0.00024501
9 *1464:I *105:2 0.000646134961
10 *776:3 *338:3 0.00105872
11 *1464:I *783:4 0.000921401016
12 *1464:I *865:5 0.000257523008

*RES
1 *776:4 *776:5 0.409953
2 *776:2 *776:4 11.9036999
3 *1464:I *776:2 2.22032
4 *1206:Z *776:3 1.58314
5 *776:3 *776:5 10.1687
*END

*D_NET *777 0.0023791

*CONN
*I *1172:I I *C 143.1 123.6 *L 0.00182 *D DEL005
*I *1640:Q O *C 138.1 120.4 *L 0 *D DFCNQD1

*CAP
1 *1172:I 6.48491e-05
2 *1640:Q 0.000292438
3 *777:2 0.00202183016

*RES
1 *777:2 *777:3 3.83363
2 *1172:I *777:3 0.3842
3 *1640:Q *777:2 4.72843981
*END

*D_NET *778 0.000728068

*CONN
*I *1227:Z O *C 138.5 114 *L 0 *D CKBD0
*I *1449:I I *C 138.7 110.8 *L 0.00105 *D DEL1

*CAP
1 *1449:I 0.000728067969

*RES
1 *1449:I *1227:Z 3.2448
*END

*D_NET *779 0.01151

*CONN
*I *1187:I I *C 142.9 154 *L 0.00103 *D DEL01
*I *1638:Q O *C 138.7 109.6 *L 0 *D DFCNQD1

*CAP
1 *779:2 0.00183779
2 *779:3 0.000135419
3 *779:4 0.000854046
4 *779:5 0.00058346
5 *779:2 *39:4 0.000556104023
6 *779:4 *796:4 0.000687452031
7 *779:2 *842:11 0.000412483984
8 *779:3 *69:4 0.000615234961
9 *779:2 *91:9 0.00197623
10 *779:2 *843:26 0.00294867
11 *779:2 *291:4 0.000903143984

*RES
1 *779:4 *779:2 3.10909
2 *779:3 *779:5 5.86061
3 *779:2 *779:5 36.4438019
4 *1187:I *779:3 0.449875
5 *1638:Q *779:4 0.225216
*END

*D_NET *780 0.0121346

*CONN
*I *1204:I I *C 138.3 154 *L 0.00103 *D DEL01
*I *1637:Q O *C 139.3 106 *L 0 *D DFCNQD1

*CAP
1 *1637:Q 0.00024687
2 *780:2 0.0020294
3 *780:3 0.00227995984
4 *780:4 0.000672246
5 *780:5 4.12957e-05
6 *1637:Q *633:61 0.000456221992
7 *780:2 *838:9 0.00203800016
8 *780:3 *839:16 0.000631519023
9 *780:2 *1640:CDN 0.000549398008
10 *780:2 *620:11 0.00139116
11 *780:2 *273:2 0.00111511008
12 *1637:Q *58:5 0.000683448984

*RES
1 *1637:Q *780:2 0.994807
2 *780:2 *780:5 26.1515007
3 *780:4 *780:3 17.0634
4 *1204:I *780:4 1.3324
5 *780:5 *780:3 0.225059
*END

*D_NET *781 0.0128187

*CONN
*I *1190:Z O *C 140.7 157.2 *L 0 *D DEL01
*I *1444:I I *C 137.7 102 *L 0.00105 *D DEL1

*CAP
1 *1190:Z 0.000104458
2 *1444:I 0.000256033
3 *781:2 0.00224079984
4 *781:3 0.00030992
5 *781:4 9.29692e-05
6 *781:5 1.18648e-05
7 *781:6 0.000623054
8 *781:7 0.00125599
9 *781:2 *1237:I 0.00163272
10 *781:2 *782:3 0.00243162984
11 *1190:Z *799:3 0.000533865977
12 *781:3 *803:16 0.00106432
13 *781:2 *165:3 0.000722867031
14 *781:2 *615:8 0.00153817

*RES
1 *781:5 *781:2 25.5233002
2 *781:4 *781:6 4.32061
3 *1444:I *781:3 2.10617
4 *781:7 *781:8 10.0896
5 *1190:Z *781:4 0.498891
6 *781:3 *781:7 9.16698
7 *781:5 *781:6 0.225105
8 *781:2 *781:8 0.225105
*END

*D_NET *782 0.0131705

*CONN
*I *1189:Z O *C 142.5 156.4 *L 0 *D DEL01
*I *1441:I I *C 137.7 98.4 *L 0.00105 *D DEL1

*CAP
1 *1441:I 0.000353675
2 *782:2 0.000426974
3 *782:3 3.72984e-05
4 *782:4 0.00053617
5 *782:5 0.00135047
6 *782:6 3.79784e-05
7 *782:7 0.00115367
8 *782:8 0.000188182
9 *782:9 0.000892339
10 *782:10 0.000315532
11 *782:12 4.6283e-05
12 *1441:I *803:5 0.00209862
13 *782:9 *165:3 0.00123081008
14 *782:4 *249:3 0.000662733984
15 *1441:I *615:4 0.00094519
16 *782:3 *781:2 0.00243162984
17 *782:2 *263:2 0.000462945

*RES
1 *1441:I *782:7 4.16768
2 *782:6 *782:7 8.2751
3 *782:5 *782:6 0.620902
4 *782:5 *782:12 6.71128
5 *782:3 *782:9 0.846073
6 *782:4 *782:11 5.01107
7 *782:10 *782:11 1.07098
8 *782:9 *782:2 7.09921
9 *782:3 *782:10 17.6306
10 *782:4 *782:12 0.846073
11 *782:8 *782:2 7.17185
12 *1189:Z *782:8 0.224902
*END

*D_NET *783 0.0154893

*CONN
*I *1203:I I *C 138.5 156 *L 0.00103 *D DEL01
*I *1634:Q O *C 138.3 92.4 *L 0 *D DFCNQD1

*CAP
1 *1203:I 0.000335457
2 *1634:Q 0.000284322
3 *783:2 0.00162125
4 *783:3 0.00120428
5 *783:4 0.00150275
6 *783:5 0.00025038
7 *783:7 0.000226507
8 *783:8 6.48896e-05
9 *783:9 0.000366281
10 *783:10 0.000254932
11 *783:11 0.000315888
12 *783:12 0.000370116
13 *783:4 *734:4 0.00102345
14 *783:4 *336:4 0.000554382969
15 *783:4 *865:2 0.00155849
16 *783:2 *620:21 0.00203176
17 *1634:Q *943:Z 0.000846955
18 *783:3 *616:5 0.000977518984
19 *783:4 *1464:I 0.000921401016
20 *783:4 *942:Z 0.000388841016
21 *783:5 *105:2 0.000389441992

*RES
1 *783:4 *783:10 0.870646
2 *1634:Q *783:2 1.502
3 *783:7 *783:9 1.40899
4 *783:9 *783:12 12.1869
5 *783:11 *783:5 3.09028
6 *783:6 *783:3 0.159285
7 *783:10 *783:5 6.93722
8 *783:3 *783:7 6.65262
9 *783:4 *783:6 7.53484
10 *783:8 *783:2 15.7925997
11 *1203:I *783:12 2.47458
12 *783:8 *783:11 0.517134
*END

*D_NET *784 0.0161287

*CONN
*I *1219:Z O *C 151.9 156.4 *L 0 *D DEL01
*I *1421:I I *C 146.1 87.6 *L 0.00105 *D DEL1

*CAP
1 *1421:I 0.000905866
2 *784:2 0.000378657
3 *784:3 0.00314755
4 *784:4 0.000241055
5 *784:5 0.000422123
6 *784:6 0.000671487
7 *784:7 0.000140003
8 *784:8 0.000441718
9 *784:9 4.66837e-05
10 *784:10 0.000212142
11 *784:5 *858:9 0.000389293984
12 *784:2 *657:4 0.00113229
13 *784:3 *717:8 0.00207731016
14 *784:3 *718:3 0.000866461016
15 *784:3 *184:7 0.000278986992
16 *784:4 *308:8 0.00477716031

*RES
1 *1219:Z *784:7 0.449835
2 *784:10 *784:4 0.603176
3 *784:2 *784:4 15.4411
4 *784:9 *784:2 3.1845
5 *784:3 *784:10 33.3866005
6 *784:8 *784:3 1.81106
7 *784:5 *784:8 2.29808
8 *1421:I *784:6 3.77494
9 *784:5 *784:6 2.75454
10 *784:7 *784:9 0.225172
*END

*D_NET *785 0.00059216

*CONN
*I *1223:I I *C 143.1 89.2 *L 0.00182 *D DEL005
*I *1632:Q O *C 143.9 88.8 *L 0 *D DFCNQD1

*CAP
1 *1223:I 5.65406e-05
2 *1632:Q 0.000535615977

*RES
1 *1632:Q *1223:I 1.69916
*END

*D_NET *786 0.00195632

*CONN
*I *1222:Z O *C 138.9 96.2 *L 0 *D DEL005
*I *1430:I I *C 137.5 89.2 *L 0.00105 *D DEL1

*CAP
1 *1430:I 0.000642874
2 *786:2 0.000256188
3 *786:4 0.00105726

*RES
1 *786:2 *786:4 0.980468
2 *1430:I *786:2 2.79634
3 *786:3 *786:4 3.59012008
4 *1222:Z *786:3 0.224985
*END

*D_NET *787 0.00202471

*CONN
*I *1060:I I *C 137.5 76.8 *L 0.000968 *D CKBD1
*I *1630:Q O *C 138.7 81.6 *L 0 *D DFCNQD1

*CAP
1 *1060:I 0.000105384
2 *1630:Q 9.64371e-05
3 *787:2 0.00152694
4 *787:3 0.000295928

*RES
1 *787:2 *787:3 5.70754004
2 *1630:Q *787:3 1.96737
3 *1060:I *787:2 0.795656
*END

*D_NET *788 0.00159417

*CONN
*I *1319:I I *C 141.5 78.4 *L 0.00182 *D DEL005
*I *1629:Q O *C 146.1 81.6 *L 0 *D DFCNQD1

*CAP
1 *1319:I 0.000773365
2 *1629:Q 0.000449563
3 *788:2 0.000371253

*RES
1 *1629:Q *788:2 3.10989
2 *1319:I *788:2 3.23676991
*END

*D_NET *789 0.00122011

*CONN
*I *1156:I I *C 150.9 82 *L 0.00182 *D DEL005
*I *1628:Q O *C 145.9 80.8 *L 0 *D DFCNQD1

*CAP
1 *1628:Q 0.000224141
2 *789:2 0.000213588
3 *789:3 0.000782376016

*RES
1 *789:2 *789:3 3.37280989
2 *1156:I *789:2 0.729002
3 *1628:Q *789:3 0.851334
*END

*D_NET *790 0.00054573

*CONN
*I *1196:Z O *C 144.9 74.4 *L 0 *D CKBD1
*I *1425:I I *C 143.9 76.8 *L 0.00105 *D DEL1

*CAP
1 *1196:Z 0.000245366
2 *1425:I 0.000300365

*RES
1 *1425:I *1196:Z 2.17333
*END

*D_NET *791 0.00191456

*CONN
*I *1191:Z O *C 151.3 73.6 *L 0 *D CKBD1
*I *1424:I I *C 142.9 73.2 *L 0.00105 *D DEL1

*CAP
1 *791:2 0.000222327
2 *791:3 0.00169224

*RES
1 *791:2 *791:3 6.39007998
2 *1424:I *791:3 0.834837
3 *1191:Z *791:2 0.225041
*END

*D_NET *792 0.0019855

*CONN
*I *1197:Z O *C 151.9 67.4 *L 0 *D DEL005
*I *1422:I I *C 142.9 69.6 *L 0.00105 *D DEL1

*CAP
1 *1422:I 0.000603568
2 *792:2 0.000162292
3 *792:3 0.00117835
4 *792:4 4.13011e-05

*RES
1 *792:2 *792:3 4.51765013
2 *1197:Z *792:2 0.477022
3 *1422:I *792:4 3.02744
4 *792:3 *792:4 1.33015
*END

*D_NET *793 0.00149363

*CONN
*I *1165:Z O *C 146.5 62.8 *L 0 *D CKBD0
*I *1429:I I *C 141.1 60.4 *L 0.00105 *D DEL1

*CAP
1 *1429:I 0.000266053
2 *793:2 0.000282606
3 *793:3 0.000944975938

*RES
1 *793:2 *793:3 3.87996006
2 *1165:Z *793:2 0.384882
3 *1429:I *793:3 1.49933
*END

*D_NET *794 0.00343658

*CONN
*I *1064:Z O *C 141.7 55.6 *L 0 *D CKBD0
*I *1423:I I *C 137.7 60.4 *L 0.00105 *D DEL1

*CAP
1 *794:2 5.43034e-05
2 *794:3 0.00150604
3 *794:4 0.000611999
4 *794:5 0.00126426

*RES
1 *794:2 *794:3 5.19911003
2 *794:2 *794:5 4.60809
3 *794:4 *794:5 1.99552
4 *1423:I *794:3 0.869321
5 *1064:Z *794:4 0.224986
*END

*D_NET *795 0.00181891

*CONN
*I *1071:I I *C 138.3 67.6 *L 0.00182 *D DEL005
*I *1622:Q O *C 139.1 59.2 *L 0 *D DFCNQD1

*CAP
1 *1071:I 0.000511107
2 *1622:Q 0.00130780008

*RES
1 *1622:Q *1071:I 7.12433
*END

*D_NET *796 0.0165815

*CONN
*I *1231:I I *C 142.7 150.4 *L 0.00103 *D DEL015
*I *1621:Q O *C 142.5 84.4 *L 0 *D DFCNQD1

*CAP
1 *1621:Q 0.00064203
2 *796:2 0.0014
3 *796:3 0.00203263
4 *796:4 0.00041214
5 *796:5 1.5508e-06
6 *796:6 0.000498674
7 *796:7 0.000422468
8 *796:8 0.00154236
9 *796:9 0.000633687
10 *796:10 0.000101391
11 *1621:Q *39:5 0.000661716016
12 *796:3 *732:5 0.000797536016
13 *796:8 *473:3 0.000758467031
14 *796:2 *1399:I 0.00181149
15 *796:2 *882:3 0.0015943
16 *796:3 *913:3 0.00200956984
17 *796:3 *455:3 0.000574055
18 *796:4 *779:4 0.000687452031

*RES
1 *796:10 *796:4 0.159474
2 *796:8 *796:10 14.6031
3 *796:6 *796:7 2.03888
4 *796:5 *796:2 3.55628
5 *1231:I *796:3 3.60412
6 *796:2 *796:3 26.1282997
7 *796:7 *796:8 2.51571
8 *1621:Q *796:6 2.66043
9 *796:9 *796:4 4.63433
10 *796:5 *796:9 3.57661
*END

*D_NET *797 0.0176663

*CONN
*I *1168:I I *C 145.5 157.6 *L 0.00103 *D DEL015
*I *1620:Q O *C 138.3 77.2 *L 0 *D DFCNQD1

*CAP
1 *797:2 0.00426799
2 *797:3 0.000951677
3 *797:4 8.59655e-05
4 *797:5 0.000388017
5 *797:6 6.98795e-05
6 *797:7 0.00196177
7 *797:2 *263:3 0.00278767
8 *797:3 *335:4 0.000995673984
9 *797:2 *249:3 0.0061576

*RES
1 *797:6 *797:7 7.43146
2 *797:4 *797:2 1.82974
3 *797:3 *797:5 5.36018
4 *1168:I *797:5 3.23182
5 *797:2 *797:7 54.2106018
6 *1620:Q *797:4 0.224995
7 *797:3 *797:6 0.224995
*END

*D_NET *798 0.0166176

*CONN
*I *1233:I I *C 138.9 145.2 *L 0.00103 *D DEL015
*I *1619:Q O *C 139.1 74.4 *L 0 *D DFCNQD1

*CAP
1 *1619:Q 5.18868e-05
2 *798:2 0.00148662
3 *798:3 0.000498385
4 *798:4 0.000321264
5 *798:5 0.000457908
6 *798:6 0.00159925
7 *798:7 0.00356063
8 *798:8 0.000184076
9 *798:9 7.30762e-05
10 *798:4 *1636:CDN 0.000607362969
11 *798:3 *469:5 0.000904668984
12 *798:2 *838:9 0.00406324
13 *798:2 *846:23 0.00280923

*RES
1 *798:2 *798:8 32.3060989
2 *798:6 *798:9 8.33532
3 *798:3 *798:2 3.22834
4 *798:7 *798:9 0.476685
5 *798:5 *798:7 15.2298
6 *798:3 *798:4 0.286405
7 *1619:Q *798:6 3.48517
8 *1233:I *798:8 1.18506
9 *798:4 *798:5 2.14681
*END

*D_NET *799 0.0162562

*CONN
*I *1173:I I *C 141.7 157.6 *L 0.00103 *D DEL015
*I *1618:Q O *C 139.1 67.2 *L 0 *D DFCNQD1

*CAP
1 *799:2 0.0023682
2 *799:3 0.000862368
3 *799:4 0.000264941
4 *799:5 0.000129982
5 *799:6 0.000457314
6 *799:7 0.00291226
7 *799:7 *336:3 0.000450401016
8 *799:3 *1190:Z 0.000533865977
9 *799:2 *331:16 0.000460615
10 *799:2 *263:3 0.00608615
11 *799:3 *454:12 0.00173014

*RES
1 *799:3 *799:7 37.770401
2 *1173:I *799:4 0.849511
3 *799:6 *799:7 0.159067
4 *799:5 *799:2 1.73591
5 *799:4 *799:3 4.46426
6 *799:2 *799:6 28.9595
7 *1618:Q *799:5 0.224769
*END

*D_NET *800 0.00807635

*CONN
*I *1234:I I *C 149.5 114.4 *L 0.00103 *D DEL015
*I *1617:Q O *C 141.3 66.4 *L 0 *D DFCNQD1

*CAP
1 *1234:I 0.000292505
2 *800:2 0.000605749
3 *800:3 0.00196407
4 *800:4 0.000251806
5 *800:5 0.00156736
6 *800:6 0.000164804
7 *800:7 0.000112027
8 *800:8 0.000352714
9 *800:9 8.51142e-05
10 *800:10 2.70028e-05
11 *1234:I *613:15 0.00029621
12 *800:2 *169:2 0.00034982
13 *800:3 *536:25 0.000664577031
14 *800:4 *308:2 0.000332253984
15 *800:2 *733:2 0.000335625
16 *800:5 *738:3 0.000674677031

*RES
1 *800:9 *800:2 3.62745
2 *800:7 *800:10 0.827796
3 *800:4 *800:8 4.2441
4 *1234:I *800:4 3.02457
5 *1617:Q *800:7 0.450136
6 *800:2 *800:5 19.6275005
7 *800:6 *800:8 0.450136
8 *800:6 *800:3 7.97397
9 *800:3 *800:9 0.224918
10 *800:10 *800:5 0.224918
*END

*D_NET *801 0.00756128

*CONN
*I *943:I I *C 137.5 92.8 *L 0.00072 *D BUFFD1
*I *1616:Q O *C 139.7 52.8 *L 0 *D DFCNQD1

*CAP
1 *943:I 5.60307e-05
2 *801:2 0.00133139
3 *801:3 0.000158158
4 *801:4 7.83577e-05
5 *801:5 2.83404e-05
6 *801:6 0.000216687
7 *801:7 0.000112427
8 *801:8 4.86358e-05
9 *801:9 0.000820633
10 *801:2 *652:3 0.000984945
11 *801:3 *614:3 0.000844676016
12 *801:2 *617:3 0.00089255
13 *801:2 *615:15 0.000762508984
14 *801:4 *619:3 0.00122594

*RES
1 *801:7 *801:9 2.87018
2 *801:6 *801:9 2.13462
3 *801:2 *801:5 0.159143
4 *801:3 *801:4 0.931218
5 *943:I *801:8 0.859136
6 *801:5 *801:6 4.14005
7 *801:4 *801:2 15.3375998
8 *801:3 *801:8 7.77341
9 *1616:Q *801:7 0.224906
*END

*D_NET *802 0.00563873

*CONN
*I *1075:I I *C 142.1 69.6 *L 0.000643 *D CKBD0
*I *1615:Q O *C 138.5 52 *L 0 *D DFCNQD1

*CAP
1 *1075:I 0.000492297
2 *1615:Q 0.00318707
3 *802:2 8.26737e-05
4 *802:3 0.0011993
5 *802:4 3.20968e-06
6 *802:5 0.000674131

*RES
1 *802:2 *802:5 2.705
2 *1615:Q *802:4 12.1437998
3 *1075:I *802:2 2.0029
4 *802:3 *802:5 4.41032
5 *802:3 *802:4 0.159172
*END

*D_NET *803 0.0284599

*CONN
*I *1175:I I *C 142.7 156 *L 0.00103 *D DEL015
*I *1614:Q O *C 139.3 42 *L 0 *D DFCNQD1

*CAP
1 *1614:Q 0.00078047
2 *803:2 0.000771789
3 *803:3 0.00072311
4 *803:4 0.00075127
5 *803:5 0.00235087984
6 *803:6 3.75222e-05
7 *803:7 0.000282565
8 *803:8 0.000413498
9 *803:9 0.000980134
10 *803:10 7.03094e-05
11 *803:11 0.000511142
12 *803:12 3.12446e-05
13 *803:14 0.00106953
14 *803:15 5.67138e-05
15 *803:16 0.000369985
16 *803:17 0.000193674
17 *803:18 0.000170213
18 *803:19 0.000796792
19 *803:9 *474:3 0.000927625
20 *803:8 *846:10 0.00106171
21 *803:8 *469:3 0.00178901
22 *803:4 *615:5 0.00131106
23 *803:16 *619:6 0.00406909
24 *803:16 *781:3 0.00106432
25 *1614:Q *534:5 0.000617065
26 *803:2 *263:2 0.000486991992
27 *803:3 *266:2 0.00391759
28 *803:4 *998:I 0.000756022969
29 *803:5 *1441:I 0.00209862

*RES
1 *803:11 *803:12 0.285172
2 *803:3 *803:2 27.5517
3 *803:13 *803:14 1.16686
4 *803:6 *803:15 4.50466
5 *803:14 *803:18 3.09609
6 *803:8 *803:11 3.41808
7 *803:9 *803:10 4.51087
8 *803:8 *803:9 2.14522
9 *803:16 *803:5 29.0653992
10 *803:10 *803:5 2.5599
11 *803:4 *803:12 3.52008
12 *803:7 *803:2 6.11014
13 *1175:I *803:7 1.08924
14 *1614:Q *803:13 5.32514
15 *803:6 *803:3 0.535308
16 *803:17 *803:19 14.0311
17 *803:15 *803:16 0.285172
18 *803:4 *803:17 0.38496
19 *803:18 *803:19 0.224856
*END

*D_NET *804 0.000647844

*CONN
*I *1604:Q O *C 146.7 52.8 *L 0 *D DFCNQD1
*I *1577:A2 I *C 147.7 55.2 *L 0.000715 *D AO222D0

*CAP
1 *1604:Q 0.000372126016
2 *1577:A2 0.00027572

*RES
1 *1577:A2 *1604:Q 2.44871
*END

*D_NET *805 0.00106032

*CONN
*I *1601:Q O *C 146.5 42 *L 0 *D DFCNQD1
*I *1580:A2 I *C 146.9 48 *L 0.000715 *D AO222D0

*CAP
1 *1601:Q 0.00051149
2 *1580:A2 0.000548824023

*RES
1 *1580:A2 *1601:Q 4.36188
*END

*D_NET *806 0.000610539

*CONN
*I *1607:Q O *C 146.1 41.2 *L 0 *D DFCNQD1
*I *1576:A2 I *C 145.3 38.8 *L 0.000715 *D AO222D0

*CAP
1 *1576:A2 0.000610539023

*RES
1 *1576:A2 *1607:Q 2.52679
*END

*D_NET *807 0.000808576

*CONN
*I *1595:Q O *C 146.5 31.2 *L 0 *D DFCNQD1
*I *1582:A2 I *C 145.5 28 *L 0.000715 *D AO222D0

*CAP
1 *1582:A2 0.000808576016

*RES
1 *1582:A2 *1595:Q 3.56132
*END

*D_NET *808 0.000775717

*CONN
*I *1600:Q O *C 143.5 31.2 *L 0 *D DFCNQD1
*I *1575:A2 I *C 146.1 30 *L 0.00102 *D AO222D1

*CAP
1 *808:2 0.000775717031

*RES
1 *1600:Q *808:2 0.602761
2 *1575:A2 *808:2 2.77541995
*END

*D_NET *809 0.000915284

*CONN
*I *1606:Q O *C 143.3 19.6 *L 0 *D DFCNQD1
*I *1581:A2 I *C 145.9 20.8 *L 0.00102 *D AO222D1

*CAP
1 *809:2 0.000531705039
2 *809:3 0.000383581

*RES
1 *1581:A2 *809:3 1.40903
2 *809:2 *809:3 2.04026008
3 *1606:Q *809:2 0.22499
*END

*D_NET *810 0.000471156

*CONN
*I *1609:Q O *C 146.1 19.6 *L 0 *D DFCNQD1
*I *1579:A2 I *C 146.1 17.2 *L 0.00102 *D AO222D1

*CAP
1 *1609:Q 0.000471156016

*RES
1 *1579:A2 *1609:Q 1.84969
*END

*D_NET *811 0.000577968

*CONN
*I *1610:Q O *C 146.1 8.8 *L 0 *D DFCNQD1
*I *1583:A2 I *C 146.1 12 *L 0.00102 *D AO222D1

*CAP
1 *811:2 0.000577968008

*RES
1 *1583:A2 *811:2 2.3566401
2 *1610:Q *811:2 0.224998
*END

*D_NET *812 0.00175838

*CONN
*I *1598:Q O *C 143.3 8.8 *L 0 *D DFCNQD1
*I *1578:A2 I *C 145.7 15.6 *L 0.00102 *D AO222D1

*CAP
1 *1598:Q 0.00123595
2 *1578:A2 0.000156099
3 *812:2 0.000366325

*RES
1 *1598:Q *812:2 4.67559004
2 *1578:A2 *812:2 2.24776
*END

*D_NET *813 0.00105474

*CONN
*I *1599:Q O *C 146.5 49.2 *L 0 *D DFCNQD1
*I *1577:C2 I *C 146.7 55.2 *L 0.000693 *D AO222D0

*CAP
1 *1599:Q 0.000918507969
2 *1577:C2 0.000136231

*RES
1 *1599:Q *1577:C2 3.98875
*END

*D_NET *814 0.000428767

*CONN
*I *1593:Q O *C 146.3 45.6 *L 0 *D DFCNQD1
*I *1580:C2 I *C 145.9 48 *L 0.000693 *D AO222D0

*CAP
1 *1593:Q 0.000222216992
2 *1580:C2 0.000206551

*RES
1 *1580:C2 *1593:Q 1.58509
*END

*D_NET *815 0.000640458

*CONN
*I *1602:Q O *C 143.3 41.2 *L 0 *D DFCNQD1
*I *1576:C2 I *C 144.3 38.8 *L 0.000693 *D AO222D0

*CAP
1 *815:2 0.000640457969

*RES
1 *1602:Q *815:2 2.13766003
2 *1576:C2 *815:2 0.225
*END

*D_NET *816 0.00179813

*CONN
*I *1594:Q O *C 146.1 34.8 *L 0 *D DFCNQD1
*I *1582:C2 I *C 144.5 28 *L 0.000693 *D AO222D0

*CAP
1 *816:2 0.000753153
2 *816:3 0.000754512031
3 *816:4 0.000290464

*RES
1 *816:2 *816:4 1.34376
2 *1594:Q *816:2 2.42976
3 *816:3 *816:4 2.86602998
4 *1582:C2 *816:3 0.225002
*END

*D_NET *817 0.00159795

*CONN
*I *1603:Q O *C 142.7 34 *L 0 *D DFCNQD1
*I *1575:C2 I *C 144.5 30 *L 0.0011 *D AO222D1

*CAP
1 *1603:Q 0.000331512
2 *817:2 0.000226351
3 *817:3 0.0010401

*RES
1 *1603:Q *817:3 3.42130995
2 *817:2 *817:3 1.98886
3 *1575:C2 *817:2 0.450007
*END

*D_NET *818 0.000734893

*CONN
*I *1605:Q O *C 143.3 23.2 *L 0 *D DFCNQD1
*I *1581:C2 I *C 144.3 20.8 *L 0.0011 *D AO222D1

*CAP
1 *1581:C2 0.000337929
2 *818:2 0.000396963008

*RES
1 *1605:Q *818:2 1.24912
2 *1581:C2 *818:2 1.63404
*END

*D_NET *819 0.00145366

*CONN
*I *1608:Q O *C 146.3 23.2 *L 0 *D DFCNQD1
*I *1579:C2 I *C 144.5 17.2 *L 0.0011 *D AO222D1

*CAP
1 *819:2 0.00125309
2 *819:3 0.000200579

*RES
1 *819:2 *819:3 3.93553996
2 *1608:Q *819:3 0.450026
3 *1579:C2 *819:2 1.80251
*END

*D_NET *820 0.000642123

*CONN
*I *1592:Q O *C 145.9 13.2 *L 0 *D DFCNQD1
*I *1583:C2 I *C 144.5 12 *L 0.0011 *D AO222D1

*CAP
1 *1592:Q 5.18282e-05
2 *1583:C2 0.000308133984
3 *820:2 0.000282161

*RES
1 *1583:C2 *820:2 1.63404
2 *1592:Q *820:2 1.33135
*END

*D_NET *821 0.000974662

*CONN
*I *1597:Q O *C 142.9 13.2 *L 0 *D DFCNQD1
*I *1578:C2 I *C 144.1 15.6 *L 0.0011 *D AO222D1

*CAP
1 *1597:Q 0.000259183
2 *821:2 0.000715483047

*RES
1 *1578:C2 *821:2 2.79483008
2 *1597:Q *821:2 0.614695
*END

*D_NET *822 0.00091928

*CONN
*I *1680:Q O *C 150.5 109.4 *L 0 *D EDFCNQD1
*I *1591:A2 I *C 149.7 105.6 *L 0.000668 *D AN3D0

*CAP
1 *1591:A2 0.00091928

*RES
1 *1591:A2 *1680:Q 3.72579
*END

*D_NET *823 0.00189263

*CONN
*I *1679:Q O *C 151.1 113 *L 0 *D EDFCNQD4
*I *1591:A1 I *C 149.5 105.6 *L 0.00061 *D AN3D0

*CAP
1 *1591:A1 0.000749783984
2 *823:2 0.000449596
3 *823:3 0.000693243

*RES
1 *1591:A1 *823:2 3.14913988
2 *1679:Q *823:3 1.58336
3 *823:2 *823:3 2.80004
*END

*D_NET *824 0.000528507

*CONN
*I *1678:Q O *C 150.5 103.4 *L 0 *D EDFCNQD1
*I *1591:A3 I *C 150.1 105.6 *L 0.00066 *D AN3D0

*CAP
1 *1678:Q 0.000528506992

*RES
1 *1678:Q *1591:A3 2.00838
*END

*D_NET *825 0.00196251

*CONN
*I *1548:I I *C 146.7 56.8 *L 0.00103 *D DEL2
*I *1689:Q O *C 150.1 51.8 *L 0 *D EDFCNQD1

*CAP
1 *825:2 0.00138177
2 *825:3 0.000400373
3 *825:4 0.000180378

*RES
1 *1548:I *825:3 1.06301
2 *825:2 *825:4 3.46146011
3 *825:2 *825:3 2.67986
4 *1689:Q *825:4 0.225003
*END

*D_NET *826 0.00173603

*CONN
*I *1547:I I *C 146.7 38.8 *L 0.00103 *D DEL2
*I *1688:Q O *C 149.5 44.6 *L 0 *D EDFCNQD1

*CAP
1 *1688:Q 0.000129789
2 *826:2 0.00114725008
3 *826:3 0.000458988

*RES
1 *1688:Q *826:3 2.40731
2 *826:2 *826:3 4.14028978
3 *1547:I *826:2 0.450001
*END

*D_NET *827 0.000850394

*CONN
*I *1544:I I *C 146.7 37.2 *L 0.00103 *D DEL2
*I *1687:Q O *C 144.9 37.4 *L 0 *D EDFCNQD1

*CAP
1 *1687:Q 0.00016361
2 *827:2 0.000686788984

*RES
1 *1687:Q *827:2 0.44999
2 *1544:I *827:2 2.11341
*END

*D_NET *828 0.00137996

*CONN
*I *1549:I I *C 146.7 30 *L 0.00103 *D DEL2
*I *1686:Q O *C 150.5 33.8 *L 0 *D EDFCNQD1

*CAP
1 *1549:I 0.000584008
2 *1686:Q 0.000131866
3 *828:2 0.000664092031

*RES
1 *1549:I *828:2 2.59392
2 *1686:Q *828:2 3.48123002
*END

*D_NET *829 0.00272116

*CONN
*I *1545:I I *C 138.5 30 *L 0.00103 *D DEL2
*I *1685:Q O *C 143.9 35 *L 0 *D EDFCNQD1

*CAP
1 *1545:I 0.000337082
2 *1685:Q 6.65351e-05
3 *829:2 0.0005117
4 *829:3 0.000210307
5 *829:4 0.000537704
6 *829:5 0.00105783

*RES
1 *829:3 *829:4 2.11268
2 *1685:Q *829:3 0.841743
3 *829:2 *829:5 3.64916992
4 *829:2 *829:4 1.82503
5 *1545:I *829:5 1.74563
*END

*D_NET *830 0.00322319

*CONN
*I *1543:I I *C 138.5 17.2 *L 0.00103 *D DEL2
*I *1684:Q O *C 145.1 26.6 *L 0 *D EDFCNQD1

*CAP
1 *1543:I 0.000802778
2 *830:2 0.00103443
3 *830:3 0.000929922
4 *830:4 0.000456074

*RES
1 *830:2 *830:4 2.13406
2 *1543:I *830:3 3.89783001
3 *830:3 *830:4 3.55233
4 *1684:Q *830:2 3.59218
*END

*D_NET *831 0.00245993

*CONN
*I *1546:I I *C 146.7 17.2 *L 0.00103 *D DEL2
*I *1683:Q O *C 149.9 24.2 *L 0 *D EDFCNQD1

*CAP
1 *1546:I 0.000145886
2 *831:2 0.00192716
3 *831:3 0.000386873

*RES
1 *831:2 *831:3 3.63698
2 *1683:Q *831:2 4.76697016
3 *1546:I *831:3 0.834816
*END

*D_NET *832 0.00117949

*CONN
*I *1550:I I *C 146.7 10 *L 0.00103 *D DEL2
*I *1682:Q O *C 149.3 6.2 *L 0 *D EDFCNQD1

*CAP
1 *1682:Q 0.000209641
2 *832:3 0.000969845

*RES
1 *1682:Q *832:3 2.40732
2 *832:2 *832:3 2.50407004
3 *1550:I *832:2 0.449988
*END

*D_NET *833 0.00074957

*CONN
*I *1551:I I *C 138.5 12 *L 0.00103 *D DEL2
*I *1681:Q O *C 140.1 9.8 *L 0 *D EDFCNQD1

*CAP
1 *833:2 0.00074957

*RES
1 *1681:Q *833:2 1.58325
2 *1551:I *833:2 1.75095999
*END

*D_NET *834 0.000778983

*CONN
*I *1553:I I *C 148.7 114.4 *L 0.000968 *D CKBD1
*I *1588:Q O *C 150.7 116.8 *L 0 *D DFCNQD1

*CAP
1 *1553:I 0.000662536953
2 *1588:Q 2.96516e-05
3 *834:2 8.67915e-05

*RES
1 *1553:I *834:2 2.77628994
2 *1588:Q *834:2 0.45002
*END

*D_NET *835 0.000720773

*CONN
*I *1596:Q O *C 150.7 99.6 *L 0 *D DFCNQD1
*I *1587:A1 I *C 149.1 102 *L 0.000718 *D INR3D0

*CAP
1 *835:2 0.000720772969

*RES
1 *1587:A1 *835:2 1.40929
2 *1596:Q *835:2 1.47501004
*END

*D_NET *836 0.0011681

*CONN
*I *1562:I I *C 148.7 94.8 *L 0.00105 *D DEL1
*I *1586:Q O *C 151.1 98.8 *L 0 *D DFCNQD1

*CAP
1 *836:2 9.06689e-05
2 *836:3 0.000687093984
3 *836:4 0.000390334

*RES
1 *836:2 *836:4 1.76862
2 *836:3 *836:4 2.60286999
3 *1562:I *836:3 0.44999
4 *1586:Q *836:2 0.224995
*END

*D_NET *837 0.00746468

*CONN
*I *1784:ZN O *C 148.3 78 *L 0 *D IND2D0
*I *1735:A1 I *C 149.1 84 *L 0.000721 *D MOAI22D0
*I *1734:A1 I *C 146.1 78.4 *L 0.000721 *D MOAI22D0
*I *1733:A1 I *C 148.3 76.8 *L 0.000721 *D MOAI22D0
*I *1732:A1 I *C 148.1 71.2 *L 0.000721 *D MOAI22D0
*I *1729:A1 I *C 147.3 69.6 *L 0.000721 *D MOAI22D0
*I *1726:A1 I *C 145.1 62.4 *L 0.000721 *D MOAI22D0
*I *1725:A1 I *C 144.9 60.4 *L 0.000721 *D MOAI22D0
*I *1719:A1 I *C 141.9 62.4 *L 0.000721 *D MOAI22D0

*CAP
1 *1735:A1 8.63608e-05
2 *1734:A1 0.000820798
3 *1726:A1 0.00011287
4 *1725:A1 0.000439563
5 *1719:A1 0.00066243
6 *837:9 1.51217e-05
7 *837:10 0.000867778984
8 *837:11 0.000102807
9 *837:12 0.000557545
10 *837:13 0.000328732
11 *837:14 0.000602698
12 *837:15 7.22454e-05
13 *837:16 0.000102899
14 *837:17 0.000274721
15 *837:18 0.000612431
16 *837:12 *1626:CDN 0.00088629
17 *837:12 *838:6 0.000336288984
18 *837:11 *1733:B2 0.000583081016

*RES
1 *837:16 *837:17 1.64743
2 *837:13 *837:14 2.26683
3 *837:11 *837:15 0.613051
4 *1734:A1 *837:10 3.36183
5 *837:13 *837:17 1.97575
6 *1725:A1 *837:18 2.715
7 *1719:A1 *837:18 3.09348
8 *1726:A1 *837:18 0.800931
9 *837:14 *837:18 2.95213
10 *837:12 *837:15 3.49698997
11 *1735:A1 *837:9 0.88684
12 *1784:ZN *837:11 0.50329
13 *837:10 *837:11 1.16292
14 *837:9 *837:10 3.21472
15 *837:12 *837:16 0.987584
16 *1729:A1 *837:17 0.449983
17 *1732:A1 *837:16 0.449983
18 *1733:A1 *837:15 0.449983
*END

*D_NET *838 0.0313789

*CONN
*I *1061:Z O *C 141.7 167.2 *L 0 *D DEL0
*I *1754:A2 I *C 142.3 98.4 *L 0.001 *D MOAI22D1
*I *1748:A2 I *C 141.9 73.2 *L 0.000697 *D MOAI22D0
*I *1733:A2 I *C 148.5 76.8 *L 0.000697 *D MOAI22D0
*I *1717:A2 I *C 144.9 197.2 *L 0.000697 *D MOAI22D0
*I *1703:A2 I *C 142.7 206.4 *L 0.000697 *D MOAI22D0

*CAP
1 *1061:Z 0.000123371
2 *1748:A2 0.000255435
3 *1717:A2 0.000340092
4 *838:6 0.00040586
5 *838:7 0.000114109
6 *838:8 0.000261447
7 *838:9 0.000727713
8 *838:10 0.000187108
9 *838:11 0.000236789
10 *838:12 0.000892803
11 *838:13 0.000103141
12 *838:14 0.000138076
13 *838:15 0.000491574
14 *838:16 0.00233157
15 *838:17 0.000343504
16 *838:18 0.000167203
17 *838:19 0.0015008
18 *838:20 0.000614904
19 *838:21 0.0026622
20 *838:22 0.000418575
21 *838:23 0.00153805
22 *838:9 *11:2 0.00102778992
23 *838:8 *69:4 0.00281317
24 *838:19 *293:2 0.000313955
25 *838:8 *846:6 0.00195623
26 *838:10 *58:2 0.000739437969
27 *838:7 *91:5 0.00333689
28 *838:10 *612:2 0.000899585
29 *838:9 *780:2 0.00203800016
30 *838:9 *798:2 0.00406324
31 *838:6 *837:12 0.000336288984

*RES
1 *838:18 *838:19 13.9364
2 *838:15 *838:21 20.9931
3 *838:11 *838:23 1.98757
4 *838:9 *838:22 2.21652
5 *1061:Z *838:13 0.450089
6 *1748:A2 *838:12 1.43963
7 *838:6 *838:12 4.51719
8 *838:18 *838:23 0.789938
9 *838:13 *838:21 0.980411
10 *1703:A2 *838:7 0.926922
11 *1733:A2 *838:6 2.85643
12 *838:7 *838:14 2.75989
13 *1717:A2 *838:20 2.67248
14 *838:8 *838:22 2.85121
15 *838:17 *838:23 5.97705
16 *838:8 *838:21 4.28237
17 *838:16 *838:17 1.47877
18 *838:10 *838:19 2.04236
19 *838:10 *838:12 0.739059
20 *838:15 *838:20 0.790591
21 *838:14 *838:20 2.87144
22 *838:9 *838:16 42.7492981
23 *1754:A2 *838:11 0.675133
*END

*D_NET *839 0.0283279

*CONN
*I *1782:ZN O *C 144.5 157.2 *L 0 *D INVD1
*I *1751:A2 I *C 146.1 92.8 *L 0.000697 *D MOAI22D0
*I *1739:A2 I *C 142.9 56.8 *L 0.000697 *D MOAI22D0
*I *1726:A2 I *C 145.3 62.4 *L 0.000697 *D MOAI22D0
*I *1716:A2 I *C 143.5 188.4 *L 0.000697 *D MOAI22D0
*I *1700:A2 I *C 147.1 188.4 *L 0.000697 *D MOAI22D0

*CAP
1 *1751:A2 0.000250422
2 *1739:A2 0.000351997
3 *1716:A2 0.000419689
4 *839:6 0.000604121
5 *839:7 0.000879178
6 *839:8 0.000518526
7 *839:9 0.000204925
8 *839:10 0.000275132
9 *839:11 0.000228376
10 *839:12 0.000341714
11 *839:13 0.000495074
12 *839:14 0.000612702
13 *839:15 0.00050987
14 *839:16 0.000402821
15 *839:17 0.000227193
16 *839:18 0.000524592
17 *839:19 0.000175111
18 *839:20 0.000240435
19 *839:21 0.000152547
20 *839:22 0.000490044
21 *839:23 0.00173402
22 *839:24 0.000286377
23 *839:25 3.47706e-06
24 *839:26 0.000996733
25 *839:27 0.00484828
26 *839:27 *83:2 0.000277346992
27 *839:15 *180:9 0.00112215992
28 *839:22 *537:9 0.000958323984
29 *839:18 *618:6 0.00115377
30 *1716:A2 *625:6 0.000874041016
31 *839:20 *58:2 0.00206099016
32 *839:17 *476:5 0.00194779
33 *839:18 *612:3 0.00147575
34 *839:16 *780:3 0.000631519023
35 *839:8 *854:2 0.000661521953
36 *839:8 *936:10 0.000420051016
37 *839:6 *73:20 0.000971377031

*RES
1 *839:23 *839:25 0.159367
2 *839:16 *839:23 12.5323
3 *839:14 *839:15 6.61693
4 *1716:A2 *839:9 2.34521
5 *1700:A2 *839:9 1.30441
6 *839:24 *839:27 28.0007
7 *839:19 *839:20 3.38516
8 *1726:A2 *839:7 3.36294
9 *1782:ZN *839:12 0.449901
10 *1739:A2 *839:13 1.65092
11 *839:13 *839:22 3.02968
12 *839:11 *839:27 4.46654
13 *839:10 *839:6 3.32064
14 *839:6 *839:16 0.159367
15 *1751:A2 *839:11 1.87566
16 *839:8 *839:15 5.44752
17 *839:25 *839:26 7.57313
18 *839:24 *839:26 0.159367
19 *839:21 *839:22 2.99122
20 *839:18 *839:19 2.26617
21 *839:17 *839:27 2.99977
22 *839:7 *839:13 2.0739
23 *839:8 *839:12 0.881431
24 *839:17 *839:18 7.28302
25 *839:10 *839:12 1.19632
26 *839:20 *839:21 2.42682
27 *839:9 *839:14 8.42807
*END

*D_NET *840 0.0246169

*CONN
*I *990:I I *C 137.7 238.8 *L 0.00104 *D DEL0
*I *993:I I *C 137.7 134.4 *L 0.000968 *D CKBD1
*I *997:Z O *C 142.7 149.2 *L 0 *D CKBD1
*I *1702:A2 I *C 146.9 206.4 *L 0.000697 *D MOAI22D0

*CAP
1 *993:I 0.000325493
2 *840:4 0.000689371
3 *840:5 3.67931e-05
4 *840:6 0.000395677
5 *840:7 0.00158114
6 *840:8 0.00076122
7 *840:9 7.94973e-05
8 *840:10 0.00105187
9 *840:11 0.00078747
10 *840:12 0.00035056
11 *840:13 0.000736949
12 *840:14 0.00105561
13 *840:15 2.79869e-06
14 *840:16 0.000119861
15 *840:17 0.000187826
16 *840:18 0.000237768
17 *840:19 0.000192868
18 *840:20 5.1438e-05
19 *840:21 0.00126853
20 *840:22 0.000902385
21 *840:23 0.0011092
22 *840:24 0.000115736
23 *840:25 0.00128337
24 *840:26 0.000176366
25 *840:27 0.000138559
26 *840:28 0.000218732
27 *840:29 1.32697e-06
28 *840:22 *154:2 0.000322930996
29 *840:22 *909:2 0.000312617012
30 *840:22 *4:2 0.00117668
31 *840:12 *61:2 0.000642091992
32 *840:4 *626:29 0.00105254992
33 *840:5 *936:22 0.000486021016
34 *840:6 *69:4 0.0029926
35 *840:7 *180:19 0.00134688
36 *840:8 *863:10 0.000597069023
37 *840:9 *141:4 0.00182907

*RES
1 *840:13 *840:15 0.159238
2 *840:21 *840:28 13.4168
3 *840:8 *840:30 17.1359997
4 *840:17 *840:25 0.434571
5 *993:I *840:23 1.09113
6 *840:9 *840:25 6.04529
7 *840:5 *840:8 0.350899
8 *840:26 *840:27 2.22253
9 *840:5 *840:16 0.209703
10 *840:12 *840:21 1.44831
11 *840:10 *840:16 4.79152
12 *840:12 *840:13 4.42415
13 *840:19 *840:26 1.19232
14 *840:18 *840:20 0.092562
15 *840:9 *840:7 7.34848
16 *840:23 *840:29 8.98767
17 *840:6 *840:24 2.07977
18 *840:14 *840:24 0.923267
19 *840:14 *840:15 3.85858
20 *840:22 *840:29 2.28006
21 *840:4 *840:28 3.25457
22 *840:11 *840:22 4.30753
23 *840:27 *840:4 6.78631
24 *840:19 *840:20 0.42908
25 *840:10 *840:18 2.21626
26 *997:Z *840:11 2.46335
27 *990:I *840:17 0.449998
28 *1702:A2 *840:16 0.449998
29 *997:Z *840:6 0.22513
30 *840:7 *840:30 0.22513
*END

*D_NET *841 0.0349152

*CONN
*I *984:I I *C 137.9 240.4 *L 0.00103 *D DEL015
*I *985:I I *C 142.9 91.2 *L 0.000643 *D CKBD0
*I *1008:Z O *C 144.9 152.8 *L 0 *D CKBD1
*I *1752:A2 I *C 146.3 94.8 *L 0.001 *D MOAI22D1

*CAP
1 *1752:A2 0.000427411
2 *841:4 0.00232121
3 *841:5 0.000925929
4 *841:6 0.0003884
5 *841:7 0.00108698
6 *841:8 0.000799459
7 *841:9 0.00114384
8 *841:10 1.99326e-06
9 *841:12 0.000556526
10 *841:13 6.3052e-05
11 *841:14 2.90039e-05
12 *841:15 7.72896e-07
13 *841:16 0.000768787
14 *841:17 3.45769e-06
15 *841:18 0.000827975
16 *841:19 0.000308874
17 *841:20 0.00153277
18 *841:21 7.3181e-05
19 *841:22 0.000303301
20 *841:23 0.00036261
21 *841:24 0.000424035
22 *841:25 0.00046748
23 *841:26 0.000214946
24 *841:27 0.000356183
25 *841:28 1.3424e-06
26 *841:29 0.000463046
27 *841:30 0.000103934
28 *841:31 0.00266588
29 *841:20 *82:2 0.000352763008
30 *841:14 *50:2 0.000291985996
31 *841:8 *64:2 0.00200349
32 *841:20 *472:4 0.00103721
33 *841:4 *619:4 0.00165085
34 *1752:A2 *858:9 0.00036893
35 *841:4 *73:7 0.00254233
36 *841:5 *182:9 0.00111372992
37 *841:5 *461:5 0.000387785
38 *841:6 *992:Z 0.00322741
39 *841:7 *1662:CDN 0.00131827
40 *841:8 *620:9 0.00399807

*RES
1 *841:22 *841:6 3.15092
2 *841:20 *841:27 7.90348
3 *841:16 *841:17 4.03366
4 *841:8 *841:10 5.50318
5 *841:13 *841:31 1.85384
6 *841:7 *841:31 28.1103992
7 *841:21 *841:22 0.62967
8 *841:9 *841:11 7.82455
9 *1752:A2 *841:23 3.74928
10 *841:14 *841:7 10.5405
11 *841:18 *841:23 3.30491
12 *1008:Z *841:21 0.449948
13 *841:4 *841:28 22.5064
14 *841:17 *841:25 2.05415
15 *841:14 *841:24 0.980535
16 *841:5 *841:12 1.11908
17 *841:8 *841:9 0.159133
18 *841:19 *841:25 1.60978
19 *841:15 *841:24 2.98965
20 *841:29 *841:30 6.86761
21 *841:4 *841:26 2.13908
22 *841:6 *841:30 0.159133
23 *841:20 *841:23 1.79679
24 *841:10 *841:22 3.70939
25 *841:5 *841:13 8.07247
26 *841:26 *841:27 1.47552
27 *841:11 *841:12 3.34737
28 *841:28 *841:29 0.159133
29 *841:15 *841:16 0.286097
30 *984:I *841:19 0.449948
31 *985:I *841:18 0.449948
*END

*D_NET *842 0.0301715

*CONN
*I *1779:ZN O *C 142.3 164.6 *L 0 *D CKND1
*I *1756:A2 I *C 142.7 107.2 *L 0.000697 *D MOAI22D0
*I *1741:A2 I *C 144.3 87.6 *L 0.000697 *D MOAI22D0
*I *1735:A2 I *C 149.3 84 *L 0.000697 *D MOAI22D0
*I *1720:A2 I *C 142.3 202.8 *L 0.000697 *D MOAI22D0
*I *1705:A2 I *C 146.9 208 *L 0.000697 *D MOAI22D0

*CAP
1 *1779:ZN 1.69725e-05
2 *1756:A2 0.00017965
3 *1741:A2 0.000119191
4 *1735:A2 0.00063014
5 *1705:A2 0.000346834
6 *842:6 5.6575e-05
7 *842:7 0.000235553
8 *842:8 0.000708722
9 *842:9 0.000725934
10 *842:10 0.00243244
11 *842:11 0.00224804
12 *842:12 0.000322286
13 *842:13 0.000832755
14 *842:14 0.000349375
15 *842:15 0.000712509
16 *842:16 0.000222129
17 *842:17 0.000574716
18 *842:18 0.00314207
19 *842:19 2.68492e-06
20 *842:20 2.10958e-06
21 *842:21 4.02737e-06
22 *842:22 0.00136801
23 *842:23 2.59382e-05
24 *842:24 0.00114929
25 *842:25 0.000983206
26 *842:26 0.000971939
27 *842:27 0.00219233
28 *842:28 0.000375409
29 *842:29 8.58693e-05
30 *842:30 0.000171355
31 *842:31 0.000723489
32 *842:32 0.000350573
33 *842:10 *716:2 0.0011536
34 *842:15 *69:4 0.00136526
35 *842:16 *104:2 0.000189444004
36 *842:11 *291:2 0.000690143984
37 *842:13 *1636:CP 0.000982173047
38 *842:31 *775:2 0.000791199063
39 *842:26 *1718:A2 0.000461703008
40 *1779:ZN *61:2 0.000576340977
41 *842:15 *91:6 0.000737262031
42 *842:11 *779:2 0.000412483984
43 *842:10 *866:2 0.000549613008

*RES
1 *1735:A2 *842:6 2.81572
2 *842:13 *842:14 2.61985
3 *842:15 *842:24 0.924754
4 *842:21 *842:22 4.23918
5 *842:28 *842:29 3.49636
6 *842:12 *842:13 1.36979
7 *842:8 *842:26 4.3099
8 *842:17 *842:26 1.18399
9 *842:18 *842:19 12.4184
10 *842:15 *842:16 3.90168
11 *842:9 *842:25 1.97428
12 *842:7 *842:8 2.34666
13 *842:16 *842:27 1.18399
14 *842:23 *842:25 3.30339
15 *842:6 *842:9 2.90717
16 *842:11 *842:31 11.7924
17 *842:28 *842:30 2.40827
18 *842:24 *842:29 12.6974001
19 *842:11 *842:14 11.3369
20 *842:30 *842:32 2.83936
21 *842:10 *842:23 0.384781
22 *1741:A2 *842:25 0.835437
23 *842:17 *842:21 1.94599
24 *842:31 *842:32 0.15926
25 *842:10 *842:12 9.65267
26 *1779:ZN *842:16 0.869343
27 *842:18 *842:20 0.87903
28 *1720:A2 *842:26 0.675014
29 *842:19 *842:22 1.58621
30 *1705:A2 *842:7 2.44702
31 *842:20 *842:27 8.02054
32 *1756:A2 *842:14 1.04681
*END

*D_NET *843 0.0306369

*CONN
*I *976:I I *C 137.7 242.4 *L 0.00104 *D DEL0
*I *979:I I *C 147.7 114.4 *L 0.000643 *D CKBD0
*I *981:Z O *C 145.3 157.2 *L 0 *D CKBD1
*I *1704:A2 I *C 142.7 208 *L 0.000697 *D MOAI22D0

*CAP
1 *979:I 4.27907e-05
2 *981:Z 0.000254928
3 *843:4 0.00113254
4 *843:5 0.000398718
5 *843:6 0.000865276
6 *843:7 0.000931722
7 *843:8 0.000405688
8 *843:10 0.000308997
9 *843:11 0.00155563
10 *843:12 0.000204111
11 *843:13 8.31314e-05
12 *843:15 0.000535919
13 *843:16 0.00190362
14 *843:18 0.00115083
15 *843:19 0.00014379
16 *843:20 0.000402351
17 *843:21 1.6432e-05
18 *843:22 0.0027683
19 *843:23 0.00214828
20 *843:24 7.92874e-05
21 *843:25 9.08616e-05
22 *843:26 0.000319726
23 *843:27 9.01435e-05
24 *843:28 0.00129483
25 *843:29 0.00134497
26 *843:30 0.00161198
27 *843:31 7.44719e-05
28 *843:32 0.000515305
29 *843:20 *1110:I 0.00237379
30 *979:I *374:3 0.000997879063
31 *843:26 *779:2 0.00294867
32 *843:26 *866:3 0.00107561008
33 *843:4 *864:25 0.000657728047
34 *843:4 *70:8 0.00190857

*RES
1 *843:21 *843:29 0.384819
2 *843:12 *843:16 5.35077
3 *843:4 *843:20 1.44414
4 *843:4 *843:21 4.56866
5 *843:5 *843:6 2.15071
6 *843:25 *843:32 2.74469
7 *843:13 *843:16 1.69
8 *843:17 *843:23 6.79206
9 *843:7 *843:19 0.381256
10 *843:11 *843:24 2.08408
11 *843:5 *843:24 1.73988
12 *843:7 *843:9 4.52982
13 *843:27 *843:30 0.962761
14 *979:I *843:18 1.67539
15 *843:8 *843:10 1.65223
16 *843:28 *843:31 23.3514004
17 *843:19 *843:29 11.4159
18 *981:Z *843:30 2.39514
19 *843:12 *843:22 1.23855
20 *843:15 *843:23 2.68091
21 *843:14 *843:22 10.3181
22 *843:26 *843:27 7.81254
23 *843:14 *843:15 2.05985
24 *843:6 *843:8 1.66612
25 *843:20 *843:30 4.21306
26 *843:11 *843:13 5.28521
27 *843:26 *843:31 0.483518
28 *843:18 *843:25 8.20342
29 *843:9 *843:10 1.77409
30 *976:I *843:17 0.450025
31 *1704:A2 *843:16 0.450025
32 *843:28 *843:32 0.224834
*END

*D_NET *844 0.00220162

*CONN
*I *1777:ZN O *C 147.7 134.6 *L 0 *D CKND0
*I *1773:A1 I *C 149.3 139.4 *L 0.000617 *D CKND2D0
*I *1766:I1 I *C 149.3 135.8 *L 0.001 *D MUX2ND0
*I *1757:A1 I *C 147.5 132.4 *L 0.000675 *D AOI221D0

*CAP
1 *1773:A1 0.000198973
2 *1757:A1 0.000333206
3 *844:4 0.000918355
4 *844:5 0.000751093

*RES
1 *1773:A1 *844:4 3.58513999
2 *844:4 *844:5 2.73628
3 *1757:A1 *844:5 2.16982
4 *1777:ZN *844:5 0.225001
5 *1766:I1 *844:4 0.225001
*END

*D_NET *845 0.00262637

*CONN
*I *1776:ZN O *C 148.5 125 *L 0 *D CKND0
*I *1769:A2 I *C 148.7 123.6 *L 0.000606 *D CKND2D0
*I *1768:A2 I *C 146.5 130.8 *L 0.00177 *D NR3D1
*I *1757:B1 I *C 146.7 132.2 *L 0.00072 *D AOI221D0

*CAP
1 *1769:A2 0.000395325
2 *1768:A2 9.40311e-05
3 *1757:B1 8.93075e-05
4 *845:4 0.000457514
5 *845:5 0.000476646
6 *845:6 0.00111354008

*RES
1 *845:4 *845:6 3.20763993
2 *1768:A2 *845:4 0.384216
3 *845:5 *845:6 2.48292
4 *1757:B1 *845:4 1.96464
5 *1769:A2 *845:5 1.59109
6 *1776:ZN *845:5 0.224999
*END

*D_NET *846 0.0317524

*CONN
*I *1775:ZN O *C 142.5 153.6 *L 0 *D INVD1
*I *1750:A2 I *C 142.1 89.2 *L 0.001 *D MOAI22D1
*I *1743:A2 I *C 141.9 49.6 *L 0.000697 *D MOAI22D0
*I *1737:A2 I *C 144.3 177.6 *L 0.000697 *D MOAI22D0
*I *1725:A2 I *C 144.7 60.4 *L 0.000697 *D MOAI22D0
*I *1699:A2 I *C 144.5 182.8 *L 0.000697 *D MOAI22D0

*CAP
1 *1743:A2 0.000409847
2 *846:6 0.00173418
3 *846:7 0.000824353
4 *846:8 7.46755e-05
5 *846:9 0.000158839
6 *846:10 0.00277587
7 *846:11 0.000175189
8 *846:12 0.00078962
9 *846:13 2.20257e-05
10 *846:14 0.000348514
11 *846:16 0.00143489
12 *846:17 0.000461353
13 *846:18 0.0011497
14 *846:19 4.49408e-05
15 *846:20 0.000198909
16 *846:21 6.81102e-05
17 *846:22 0.00037647
18 *846:23 0.000606765
19 *846:24 4.52373e-05
20 *846:25 0.000239021
21 *846:26 0.000395911
22 *846:27 0.000171843
23 *846:28 0.000108053
24 *846:29 0.000411245
25 *846:30 0.000289976
26 *846:31 0.00014664
27 *846:32 2.36352e-05
28 *846:33 0.000296796
29 *846:34 0.00155455
30 *846:35 0.000151596
31 *846:36 6.667e-05
32 *846:37 0.000202848
33 *846:38 0.000164515
34 *846:39 0.000234319
35 *846:40 0.000574574
36 *846:42 8.9204e-05
37 *846:43 0.00018222
38 *846:10 *58:2 0.00210484
39 *846:7 *61:4 0.000421615
40 *846:14 *64:3 0.00100937
41 *846:10 *469:4 0.00130096992
42 *846:32 *509:3 0.00114978
43 *846:10 *612:4 0.000301856016
44 *846:23 *798:2 0.00280923
45 *846:6 *838:8 0.00195623
46 *846:7 *182:9 0.000414073008
47 *846:7 *1737:A1 0.000439271016
48 *846:6 *154:4 0.000411813008
49 *846:6 *168:3 0.000403638984
50 *846:8 *169:2 0.000726216953
51 *846:9 *250:4 0.000238766992
52 *846:10 *803:8 0.00106171

*RES
1 *846:36 *846:40 0.659654
2 *846:23 *846:28 1.6554
3 *846:9 *846:33 7.84788
4 *1699:A2 *846:7 4.00403
5 *1743:A2 *846:18 1.95417
6 *846:7 *846:13 0.159116
7 *846:36 *846:37 4.88917
8 *846:16 *846:17 5.02936
9 *846:32 *846:34 17.4671001
10 *846:29 *846:31 2.70098
11 *846:28 *846:29 3.46058
12 *846:18 *846:26 4.23564
13 *846:16 *846:23 2.53734
14 *846:39 *846:8 0.476816
15 *846:11 *846:10 4.05521
16 *846:30 *846:31 2.0949
17 *846:8 *846:43 4.54295
18 *846:22 *846:40 3.20738
19 *846:34 *846:35 2.14181
20 *846:12 *846:20 3.00296
21 *846:37 *846:38 2.34011
22 *846:27 *846:41 0.241207
23 *846:11 *846:20 0.190833
24 *846:35 *846:40 0.917652
25 *846:14 *846:21 3.26202
26 *846:13 *846:21 0.719089
27 *846:14 *846:25 1.10635
28 *846:15 *846:6 10.4297
29 *1775:ZN *846:17 2.88275
30 *846:30 *846:9 3.02161
31 *846:10 *846:38 16.7483
32 *846:32 *846:33 0.159383
33 *846:12 *846:26 1.73589
34 *1750:A2 *846:22 0.449897
35 *1737:A2 *846:21 0.449897
36 *1725:A2 *846:20 0.449897
37 *1775:ZN *846:19 0.224949
38 *846:15 *846:25 0.224949
39 *846:19 *846:24 0.224949
40 *846:6 *846:39 0.224949
41 *846:24 *846:41 0.224949
42 *846:41 *846:42 0.224949
43 *846:42 *846:43 0.224949
*END

*D_NET *847 0.0298487

*CONN
*I *1774:ZN O *C 141.5 157.2 *L 0 *D INVD1
*I *1749:A2 I *C 141.5 85.6 *L 0.000697 *D MOAI22D0
*I *1740:A2 I *C 141.9 46 *L 0.000697 *D MOAI22D0
*I *1736:A2 I *C 144.9 172 *L 0.000697 *D MOAI22D0
*I *1719:A2 I *C 142.1 62.4 *L 0.000697 *D MOAI22D0
*I *1698:A2 I *C 144.9 174 *L 0.000697 *D MOAI22D0

*CAP
1 *1774:ZN 0.000548818
2 *1749:A2 0.00023019
3 *1740:A2 0.000204977
4 *1736:A2 4.77318e-05
5 *1698:A2 4.60536e-05
6 *847:6 0.00139156
7 *847:7 0.000677456
8 *847:8 0.000203026
9 *847:9 7.84472e-06
10 *847:10 5.41715e-05
11 *847:11 0.000973448
12 *847:12 0.000612903
13 *847:13 0.000735179
14 *847:14 0.00104401
15 *847:15 0.000631559
16 *847:16 0.00140815
17 *847:17 0.000348914
18 *847:18 2.30268e-06
19 *847:19 0.00103293
20 *847:20 0.00255773
21 *847:21 0.000127584
22 *847:22 0.000518454
23 *847:23 5.08931e-05
24 *847:24 0.000277453
25 *847:25 0.00072269
26 *847:26 0.000796376
27 *847:27 6.28748e-05
28 *847:28 6.91194e-05
29 *847:29 0.000958929
30 *847:30 0.000835482
31 *847:32 8.5082e-05
32 *847:33 0.000140932
33 *847:34 7.00561e-05
34 *847:35 0.000118764
35 *847:36 0.000721792
36 *847:37 0.000863739
37 *1749:A2 *733:2 0.00113762
38 *1740:A2 *1740:A1 0.00107973
39 *847:11 *1010:I 0.000585878008
40 *847:14 *472:5 0.00161308
41 *847:25 *739:4 0.0012557
42 *847:6 *854:4 0.00082194
43 *847:11 *934:3 0.00193285
44 *847:6 *75:22 0.000924068984
45 *847:7 *538:12 0.00131871

*RES
1 *1774:ZN *847:12 4.79681
2 *847:17 *847:18 0.159268
3 *847:34 *847:35 2.93565
4 *1698:A2 *847:9 0.609724
5 *1736:A2 *847:10 0.609724
6 *847:32 *847:33 2.40582
7 *847:11 *847:13 3.24131
8 *847:16 *847:24 1.166
9 *847:8 *847:9 0.86802
10 *847:14 *847:19 5.0392
11 *847:8 *847:10 0.136567
12 *847:25 *847:37 5.1688
13 *847:11 *847:34 3.18036
14 *847:18 *847:20 9.49031
15 *847:31 *847:7 3.42704
16 *847:20 *847:21 0.62885
17 *847:31 *847:6 0.159268
18 *847:22 *847:27 1.28845
19 *847:15 *847:28 2.55759
20 *1749:A2 *847:26 1.47435
21 *847:36 *847:37 7.05088
22 *847:14 *847:24 3.76792
23 *847:16 *847:30 6.90144
24 *847:6 *847:35 8.14323
25 *847:15 *847:17 1.39999
26 *847:19 *847:29 3.13656
27 *847:33 *847:36 11.7146997
28 *847:30 *847:38 11.0614
29 *847:7 *847:32 0.967764
30 *847:21 *847:22 0.757373
31 *1740:A2 *847:29 3.48924
32 *847:23 *847:27 0.35089
33 *847:25 *847:26 3.01519
34 *847:12 *847:13 3.281
35 *1719:A2 *847:24 0.449919
36 *1774:ZN *847:23 0.225049
37 *847:8 *847:28 0.225049
38 *847:26 *847:38 0.225049
*END

*D_NET *848 0.00639395

*CONN
*I *1772:ZN O *C 149.9 145.4 *L 0 *D CKND0
*I *1769:A1 I *C 148.3 123.8 *L 0.000617 *D CKND2D0
*I *1764:A1 I *C 148.3 121.4 *L 0.000989 *D ND2D1
*I *1759:A2 I *C 148.5 145.2 *L 0.00102 *D ND2D1

*CAP
1 *1772:ZN 5.12659e-05
2 *1769:A1 1.32481e-05
3 *1764:A1 0.000217797
4 *848:4 0.000317108
5 *848:5 0.000121142
6 *848:6 0.000153184
7 *848:7 0.000154827
8 *848:8 0.00108799008
9 *848:9 0.000477979
10 *848:10 0.000558314
11 *848:11 0.000226015
12 *848:12 0.000291243
13 *1764:A1 *853:11 0.00026264
14 *1764:A1 *308:2 0.000219380996
15 *848:4 *374:5 0.00127078
16 *848:4 *657:5 0.000294939004
17 *848:5 *1757:A2 0.000676097969

*RES
1 *848:4 *848:9 1.16086
2 *1764:A1 *848:6 1.66392
3 *848:8 *848:12 4.35955
4 *1759:A2 *848:9 0.834878
5 *1769:A1 *848:6 0.365371
6 *848:5 *848:12 1.47843
7 *848:4 *848:10 7.35410976
8 *1772:ZN *848:7 0.449981
9 *848:5 *848:11 1.86961
10 *848:7 *848:9 1.04214
11 *848:10 *848:11 1.79824
12 *848:6 *848:8 1.30943
*END

*D_NET *849 0.00365322

*CONN
*I *1128:Z O *C 151.9 157.2 *L 0 *D DEL1
*I *1772:I I *C 149.5 145.4 *L 0.00062 *D CKND0
*I *1770:A1 I *C 148.5 148.8 *L 0.000647 *D NR2D0
*I *1762:A1 I *C 148.5 150.4 *L 0.00093 *D NR2D1

*CAP
1 *1770:A1 0.000124055
2 *1762:A1 8.61123e-05
3 *849:4 0.000188691
4 *849:5 0.00107942
5 *849:6 0.000194022
6 *849:7 0.00123894
7 *849:8 0.000291856
8 *849:9 0.000450147

*RES
1 *849:7 *849:8 3.19885
2 *849:5 *849:6 0.755689
3 *849:4 *849:9 2.56074
4 *1128:Z *849:4 0.602974
5 *849:6 *849:7 2.44799
6 *849:5 *849:9 4.45407009
7 *1762:A1 *849:5 0.384199
8 *1770:A1 *849:6 0.913704
9 *1772:I *849:8 0.225028
*END

*D_NET *850 0.00460705

*CONN
*I *1771:ZN O *C 145.5 120.2 *L 0 *D NR2D0
*I *1764:A2 I *C 147.9 121.6 *L 0.00102 *D ND2D1
*I *1763:A1 I *C 146.5 114.2 *L 0.000617 *D CKND2D0
*I *1761:B1 I *C 146.7 120 *L 0.000658 *D IND2D0
*I *1760:A1 I *C 149.5 130.8 *L 0.000681 *D IND2D0

*CAP
1 *1771:ZN 0.000361203
2 *1764:A2 0.000110768
3 *1763:A1 0.000123369
4 *1760:A1 0.000582597
5 *850:5 9.47878e-05
6 *850:6 0.000408668
7 *850:7 0.00104
8 *850:8 0.000934643
9 *850:9 0.000128304
10 *850:10 0.000273969
11 *850:11 0.000548732

*RES
1 *850:6 *850:7 2.63831
2 *850:5 *850:11 2.51033
3 *1763:A1 *850:8 1.8041
4 *850:9 *850:10 0.602843
5 *850:8 *850:9 2.73751998
6 *850:6 *850:11 1.42691
7 *850:7 *850:10 1.48998
8 *1760:A1 *850:5 2.44571
9 *1771:ZN *850:10 1.63969
10 *1764:A2 *850:7 0.885174
11 *1761:B1 *850:9 0.22498
*END

*D_NET *851 0.00534393

*CONN
*I *1770:ZN O *C 148.5 149 *L 0 *D NR2D0
*I *1765:I I *C 146.7 167 *L 0.00062 *D CKND0
*I *1758:A1 I *C 147.1 163.4 *L 0.000617 *D CKND2D0

*CAP
1 *851:3 0.000631449
2 *851:4 0.000849402031
3 *851:5 5.17794e-05
4 *851:6 5.64713e-05
5 *851:7 0.000632279
6 *851:8 0.000478185
7 *851:4 *855:12 0.0012523
8 *851:3 *1758:ZN 0.000319583008
9 *851:4 *859:12 0.000375990977
10 *851:5 *1758:A2 0.000395368008
11 *851:4 *375:4 0.00030113

*RES
1 *851:5 *851:3 0.286949
2 *851:6 *851:8 3.95518
3 *851:4 *851:7 0.384169
4 *851:4 *851:6 9.35595989
5 *1770:ZN *851:7 1.40005
6 *851:5 *851:8 1.0303
7 *1765:I *851:3 3.45581
8 *1758:A1 *851:5 0.577467
*END

*D_NET *852 0.0110266

*CONN
*I *1765:ZN O *C 147.1 167 *L 0 *D CKND0
*I *1737:B2 I *C 143.5 177.8 *L 0.000739 *D MOAI22D0
*I *1736:B2 I *C 144.1 171.8 *L 0.000739 *D MOAI22D0
*I *1720:B2 I *C 141.5 203 *L 0.000739 *D MOAI22D0
*I *1718:B2 I *C 144.1 203 *L 0.000739 *D MOAI22D0
*I *1717:B2 I *C 144.1 197 *L 0.000739 *D MOAI22D0
*I *1716:B2 I *C 142.7 188.6 *L 0.000739 *D MOAI22D0
*I *1715:B2 I *C 143.3 193.4 *L 0.000739 *D MOAI22D0
*I *1714:B2 I *C 141.3 200.6 *L 0.000739 *D MOAI22D0

*CAP
1 *1737:B2 9.11637e-05
2 *1715:B2 0.000113589
3 *1714:B2 0.000572396
4 *852:9 0.000179854
5 *852:10 0.000806004
6 *852:11 0.00135076
7 *852:12 0.00035843
8 *852:13 0.000283817
9 *852:14 9.24622e-05
10 *852:15 0.000909926
11 *852:16 0.000104293
12 *852:17 0.000201537
13 *852:18 0.000230991
14 *852:19 0.000490878
15 *852:21 0.00134996
16 *852:22 0.000985446
17 *852:19 *1670:CDN 0.000806928984
18 *852:14 *36:2 0.000335440977
19 *852:9 *182:10 0.000822896016
20 *852:9 *1698:B1 0.00044223
21 *852:11 *1084:Z 0.000497624023

*RES
1 *852:14 *852:15 3.8063
2 *1737:B2 *852:11 1.12799
3 *852:16 *852:21 3.9865
4 *852:11 *852:17 7.86758995
5 *1714:B2 *852:12 3.58121
6 *852:10 *852:22 1.21575
7 *852:12 *852:22 2.13617
8 *852:18 *852:20 2.30268
9 *852:9 *852:16 1.16917
10 *852:9 *852:19 3.39105
11 *852:13 *852:21 2.43893
12 *1715:B2 *852:10 0.619457
13 *852:11 *852:19 3.15671
14 *852:15 *852:22 2.49152
15 *852:10 *852:17 3.22766
16 *1720:B2 *852:18 0.224973
17 *1716:B2 *852:17 0.224973
18 *1736:B2 *852:16 0.224973
19 *1717:B2 *852:15 0.224973
20 *1718:B2 *852:14 0.224973
21 *1765:ZN *852:13 0.224973
22 *852:14 *852:20 0.224973
*END

*D_NET *853 0.0163915

*CONN
*I *1784:A1 I *C 148.9 78.4 *L 0.000681 *D IND2D0
*I *1769:ZN O *C 148.1 124 *L 0 *D CKND2D0
*I *1735:B2 I *C 148.5 84.2 *L 0.000739 *D MOAI22D0
*I *1734:B2 I *C 146.7 78.2 *L 0.000739 *D MOAI22D0
*I *1733:B2 I *C 147.7 77 *L 0.000739 *D MOAI22D0
*I *1732:B2 I *C 147.5 71 *L 0.000739 *D MOAI22D0
*I *1729:B2 I *C 146.7 69.8 *L 0.000739 *D MOAI22D0
*I *1726:B2 I *C 144.5 62.6 *L 0.000739 *D MOAI22D0
*I *1725:B2 I *C 145.5 60.2 *L 0.000739 *D MOAI22D0
*I *1719:B2 I *C 141.3 62.6 *L 0.000739 *D MOAI22D0

*CAP
1 *1769:ZN 5.11111e-06
2 *1734:B2 0.000508797
3 *1733:B2 0.000241051
4 *1719:B2 0.000427814
5 *853:10 0.000533558
6 *853:11 0.000280697
7 *853:12 0.000595686
8 *853:13 0.000947282
9 *853:14 0.00226322
10 *853:15 0.0013484
11 *853:16 3.7988e-07
12 *853:17 0.000122528
13 *853:18 0.000187177
14 *853:19 0.0020289
15 *853:20 0.000500474
16 *853:21 0.000353046
17 *853:22 0.000642998
18 *853:24 0.000843955
19 *853:25 0.000506311
20 *853:26 7.77027e-05
21 *853:27 0.000421079
22 *853:28 0.000252067
23 *853:29 0.00100792
24 *853:10 *1417:Z 0.000274869004
25 *1733:B2 *837:11 0.000583081016
26 *853:11 *1764:A1 0.00026264
27 *853:12 *1633:CDN 0.00117471

*RES
1 *853:26 *853:27 0.602772
2 *1769:ZN *853:11 2.32454
3 *853:22 *853:27 1.73586
4 *853:20 *853:24 1.83228
5 *1719:B2 *853:27 3.13642
6 *853:14 *853:18 9.51657009
7 *1734:B2 *853:28 1.40899
8 *1784:A1 *853:17 0.593624
9 *853:22 *853:23 3.4235
10 *853:17 *853:28 1.13425
11 *853:26 *853:29 3.14876
12 *853:10 *853:25 2.4304
13 *853:16 *853:17 0.557757
14 *853:15 *853:24 6.89333
15 *853:13 *853:16 3.64597
16 *1733:B2 *853:21 1.02432
17 *1725:B2 *853:29 0.45001
18 *853:20 *853:21 3.59587
19 *853:11 *853:19 1.67995
20 *853:13 *853:10 2.54236
21 *853:23 *853:25 1.2449
22 *853:18 *853:19 6.27153
23 *853:12 *853:15 4.45697
24 *853:12 *853:14 0.285195
25 *1726:B2 *853:26 0.224932
26 *1729:B2 *853:25 0.224932
27 *1732:B2 *853:10 0.224932
28 *1735:B2 *853:24 0.224932
29 *853:21 *853:28 0.224932
*END

*D_NET *854 0.00820806

*CONN
*I *1120:I I *C 146.3 168.4 *L 0.00105 *D DEL1
*I *1768:ZN O *C 146.1 131.2 *L 0 *D NR3D1

*CAP
1 *1120:I 0.000449012
2 *1768:ZN 0.000229004
3 *854:2 0.000331878
4 *854:3 0.000320167
5 *854:4 0.000697349
6 *854:5 0.000560503
7 *854:6 8.24036e-05
8 *854:8 9.03808e-05
9 *854:9 0.000776801016
10 *854:2 *839:8 0.000661521953
11 *1120:I *657:3 0.00108076
12 *854:3 *288:2 0.000601396992
13 *854:4 *847:6 0.00082194
14 *854:3 *149:3 0.000164658984
15 *1768:ZN *374:8 0.00134028

*RES
1 *854:7 *854:9 0.159313
2 *854:5 *854:7 5.5098
3 *854:2 *854:8 2.25174
4 *1768:ZN *854:4 1.72998
5 *854:8 *854:9 9.03176975
6 *854:3 *854:6 4.93429
7 *854:3 *854:5 0.159313
8 *854:4 *854:6 3.76259
9 *1120:I *854:2 4.09555
*END

*D_NET *855 0.0142621

*CONN
*I *1119:Z O *C 151.1 160.8 *L 0 *D DEL1
*I *1713:B2 I *C 141.1 141.8 *L 0.000698 *D AO22D0
*I *1712:B2 I *C 141.1 138.2 *L 0.000698 *D AO22D0
*I *1711:B2 I *C 140.9 135.8 *L 0.000698 *D AO22D0
*I *1710:B2 I *C 141.1 128.6 *L 0.000698 *D AO22D0
*I *1709:B2 I *C 141.1 123.8 *L 0.000698 *D AO22D0
*I *1708:B2 I *C 140.5 117.8 *L 0.000698 *D AO22D0
*I *1707:B2 I *C 140.5 116.6 *L 0.000698 *D AO22D0
*I *1706:B2 I *C 140.1 113 *L 0.000698 *D AO22D0

*CAP
1 *1711:B2 0.000222717
2 *1706:B2 0.000619695
3 *855:9 0.00188795
4 *855:10 0.000595841
5 *855:11 0.00054923
6 *855:12 0.000588495
7 *855:13 0.00155625
8 *855:14 0.000434544
9 *855:15 0.000187311
10 *855:16 0.000836074
11 *855:17 0.00095799
12 *855:18 0.000185266
13 *855:19 0.00020451
14 *855:20 0.000628078
15 *855:21 0.00073994
16 *855:22 0.000133209
17 *1706:B2 *73:7 0.000628395039
18 *855:9 *288:2 0.000386861016
19 *855:10 *775:7 0.000393233008
20 *855:11 *1272:Z 0.00024827
21 *855:12 *178:8 0.00102597
22 *855:12 *851:4 0.0012523

*RES
1 *855:12 *855:9 12.8162003
2 *1119:Z *855:19 0.449983
3 *855:13 *855:15 4.35257
4 *855:12 *855:19 3.49583
5 *855:17 *855:22 4.79688
6 *855:17 *855:18 1.145
7 *855:16 *855:22 0.759749
8 *855:10 *855:21 2.87473
9 *855:13 *855:14 1.6075
10 *1706:B2 *855:18 3.00223
11 *1711:B2 *855:14 1.38026
12 *1712:B2 *855:13 1.98122
13 *855:10 *855:16 3.79894
14 *855:15 *855:20 0.854791
15 *855:11 *855:20 3.37458
16 *855:14 *855:21 3.01788
17 *855:9 *855:11 3.99137
18 *1707:B2 *855:18 0.449983
19 *1708:B2 *855:17 0.449983
20 *1709:B2 *855:16 0.449983
21 *1710:B2 *855:10 0.449983
22 *1713:B2 *855:15 0.449983
*END

*D_NET *856 0.00299253

*CONN
*I *1766:ZN O *C 148.7 135.8 *L 0 *D MUX2ND0
*I *1746:B2 I *C 146.1 138 *L 0.000657 *D IND3D0
*I *1744:A1 I *C 148.7 143 *L 0.00101 *D ND3D1

*CAP
1 *1766:ZN 0.000378734
2 *1744:A1 0.000107415
3 *856:3 0.000790375
4 *856:4 0.00103582
5 *856:5 0.000603521
6 *856:6 7.66414e-05

*RES
1 *856:5 *856:6 1.86178
2 *856:3 *856:4 6.08821011
3 *1766:ZN *856:3 1.56172
4 *1744:A1 *856:4 0.75025
5 *1746:B2 *856:5 0.450001
6 *856:3 *856:6 0.225001
*END

*D_NET *857 0.0196948

*CONN
*I *1764:ZN O *C 148.5 121.2 *L 0 *D ND2D1
*I *1748:B2 I *C 141.1 73.4 *L 0.000739 *D MOAI22D0
*I *1748:A1 I *C 141.7 73.2 *L 0.000721 *D MOAI22D0
*I *1747:B2 I *C 141.9 71 *L 0.000739 *D MOAI22D0
*I *1747:A1 I *C 142.5 71.2 *L 0.000721 *D MOAI22D0
*I *1743:B2 I *C 141.1 49.4 *L 0.000739 *D MOAI22D0
*I *1743:A1 I *C 141.7 49.6 *L 0.000721 *D MOAI22D0
*I *1742:B2 I *C 140.9 80.6 *L 0.000739 *D MOAI22D0
*I *1742:A1 I *C 141.5 80.4 *L 0.000721 *D MOAI22D0
*I *1741:B2 I *C 143.5 87.8 *L 0.000739 *D MOAI22D0
*I *1741:A1 I *C 144.1 87.6 *L 0.000721 *D MOAI22D0
*I *1740:B2 I *C 141.1 45.8 *L 0.000739 *D MOAI22D0
*I *1740:A1 I *C 141.7 46 *L 0.000721 *D MOAI22D0
*I *1739:B2 I *C 142.1 56.6 *L 0.000739 *D MOAI22D0
*I *1739:A1 I *C 142.7 56.8 *L 0.000721 *D MOAI22D0
*I *1738:B2 I *C 141.9 63.8 *L 0.000739 *D MOAI22D0
*I *1738:A1 I *C 142.5 64 *L 0.000721 *D MOAI22D0

*CAP
1 *1747:B2 0.000167053
2 *1743:A1 0.000170257
3 *1742:A1 6.94783e-05
4 *1741:A1 5.93965e-06
5 *1740:B2 0.000113948
6 *1740:A1 6.42421e-05
7 *1739:A1 8.31161e-05
8 *1738:B2 0.000129774
9 *857:17 0.00256089
10 *857:18 0.000995205
11 *857:19 6.18975e-05
12 *857:20 0.000703263
13 *857:21 0.000506903
14 *857:22 0.000137823
15 *857:23 5.15421e-05
16 *857:24 0.000172563
17 *857:25 0.00101377
18 *857:26 0.000533787
19 *857:27 0.000437463
20 *857:28 0.000182175
21 *857:29 0.000941279
22 *857:30 4.1304e-05
23 *857:31 0.000591035
24 *857:32 0.000222815
25 *857:33 0.000476188
26 *857:34 0.000422223
27 *857:35 0.000444966
28 *857:36 2.05934e-05
29 *857:37 0.00054723
30 *857:38 0.000135674
31 *857:24 *45:4 0.000445001016
32 *1739:A1 *468:3 0.000615786016
33 *857:20 *735:2 0.000562888984
34 *857:17 *736:6 0.001619
35 *1743:A1 *1743:B1 0.000286422988
36 *1740:A1 *1740:A2 0.00107973
37 *857:17 *868:3 0.00308161

*RES
1 *1747:B2 *857:22 1.03996
2 *1742:A1 *857:31 0.862044
3 *1739:A1 *857:21 0.744941
4 *1740:A1 *857:26 0.997227
5 *857:32 *857:17 26.9279995
6 *857:20 *857:23 2.9095
7 *857:28 *857:31 0.79055
8 *1743:A1 *857:25 1.27786
9 *1740:B2 *857:26 0.39281
10 *857:20 *857:21 2.08526
11 *857:27 *857:31 2.27632
12 *1738:B2 *857:23 0.840267
13 *857:19 *857:37 2.57586
14 *857:25 *857:33 7.03113
15 *857:27 *857:37 1.99733
16 *1748:A1 *857:24 0.601541
17 *857:36 *857:38 4.64469
18 *857:22 *857:24 0.666051
19 *857:24 *857:29 0.521418
20 *1764:ZN *857:18 0.973395
21 *857:34 *857:36 0.385003
22 *857:25 *857:30 0.168053
23 *857:23 *857:35 0.235028
24 *857:35 *857:38 3.4979
25 *857:18 *857:17 3.79086
26 *857:22 *857:34 1.2491
27 *1741:A1 *857:19 0.687006
28 *857:26 *857:30 2.24016
29 *857:21 *857:33 0.438829
30 *857:19 *857:32 0.449101
31 *857:28 *857:29 4.0867
32 *1738:A1 *857:35 0.449923
33 *1747:A1 *857:34 0.449923
34 *1739:B2 *857:33 0.225167
35 *1741:B2 *857:32 0.225167
36 *1742:B2 *857:31 0.225167
37 *1743:B2 *857:30 0.225167
38 *1748:B2 *857:29 0.225167
*END

*D_NET *858 0.00933105

*CONN
*I *1763:ZN O *C 146.7 114 *L 0 *D CKND2D0
*I *1756:B2 I *C 141.9 107 *L 0.000739 *D MOAI22D0
*I *1755:B2 I *C 141.5 102.2 *L 0.00109 *D MOAI22D1
*I *1754:B2 I *C 141.5 98.6 *L 0.00109 *D MOAI22D1
*I *1753:B2 I *C 142.5 95 *L 0.00109 *D MOAI22D1
*I *1752:B2 I *C 145.5 95 *L 0.00109 *D MOAI22D1
*I *1751:B2 I *C 145.3 92.6 *L 0.000739 *D MOAI22D0
*I *1750:B2 I *C 141.3 89 *L 0.00109 *D MOAI22D1
*I *1749:B2 I *C 140.7 85.4 *L 0.000739 *D MOAI22D0

*CAP
1 *1763:ZN 3.30508e-05
2 *1753:B2 4.53701e-05
3 *1749:B2 7.12657e-05
4 *858:9 9.91274e-05
5 *858:10 0.000687956
6 *858:11 0.000416743
7 *858:12 0.000256218
8 *858:13 0.000773681
9 *858:14 0.000582681
10 *858:15 0.000592848
11 *858:16 7.75747e-05
12 *858:17 0.000288846
13 *858:18 0.000611651
14 *858:19 0.000308171
15 *858:20 0.000665408
16 *858:21 0.000408493
17 *858:22 0.000815505
18 *858:23 0.000285025
19 *1753:B2 *860:11 0.000542631992
20 *858:9 *1752:A2 0.00036893
21 *858:9 *784:5 0.000389293984
22 *858:10 *39:10 0.000411816016
23 *858:11 *1631:CP 0.000322681992
24 *858:11 *45:6 0.00027608002

*RES
1 *858:13 *858:22 3.60527
2 *858:10 *858:21 1.02414
3 *858:19 *858:23 1.83709
4 *858:9 *858:19 1.75495
5 *858:17 *858:20 2.96138
6 *858:11 *858:23 3.4156
7 *858:13 *858:16 0.503807
8 *858:9 *858:21 2.525
9 *858:15 *858:18 3.72280002
10 *1749:B2 *858:15 0.726825
11 *1753:B2 *858:21 0.579245
12 *858:12 *858:22 3.57766
13 *858:14 *858:17 1.11668
14 *858:14 *858:16 2.58993
15 *1763:ZN *858:12 1.25006
16 *858:10 *858:20 2.63611
17 *858:11 *858:18 1.66377
18 *1754:B2 *858:20 0.225006
19 *1751:B2 *858:19 0.225006
20 *1752:B2 *858:9 0.225006
21 *1750:B2 *858:18 0.225006
22 *1755:B2 *858:17 0.225006
23 *1756:B2 *858:16 0.225006
*END

*D_NET *859 0.0181628

*CONN
*I *1762:ZN O *C 148.5 150.2 *L 0 *D NR2D1
*I *1731:B2 I *C 143.1 243.8 *L 0.000698 *D AO22D0
*I *1730:B2 I *C 144.7 243.8 *L 0.000698 *D AO22D0
*I *1728:B2 I *C 142.7 242.6 *L 0.000698 *D AO22D0
*I *1727:B2 I *C 142.7 235.4 *L 0.000698 *D AO22D0
*I *1724:B2 I *C 142.9 231.8 *L 0.000698 *D AO22D0
*I *1723:B2 I *C 144.9 225.8 *L 0.000698 *D AO22D0
*I *1722:B2 I *C 146.3 222.2 *L 0.000698 *D AO22D0
*I *1721:B2 I *C 147.1 215 *L 0.000698 *D AO22D0

*CAP
1 *1762:ZN 2.31266e-05
2 *1731:B2 4.31351e-05
3 *1730:B2 0.000111591
4 *1723:B2 1.47537e-05
5 *1722:B2 5.60121e-05
6 *1721:B2 6.4616e-05
7 *859:9 0.000639144
8 *859:10 0.000724461
9 *859:11 0.000878697
10 *859:12 0.00189214
11 *859:13 0.000178055
12 *859:14 0.000130849
13 *859:15 0.000471743
14 *859:17 0.000639375
15 *859:18 4.61955e-07
16 *859:19 0.000862066
17 *859:20 3.58015e-06
18 *859:21 0.00126281
19 *859:22 0.000276856
20 *859:23 0.00142366
21 *859:25 0.00135558
22 *859:26 1.81895e-06
23 *859:27 0.000884413
24 *859:28 0.000594825
25 *859:29 0.000618818
26 *859:30 2.68223e-05
27 *859:31 0.000824128
28 *859:32 0.000193184
29 *859:33 0.000334109
30 *859:34 4.57336e-05
31 *859:35 0.000105615
32 *859:21 *104:3 0.000285809004
33 *859:12 *851:4 0.000375990977
34 *859:9 *1499:I 0.000368376992
35 *859:10 *52:4 0.00125353
36 *859:11 *1677:CDN 0.00119699

*RES
1 *859:17 *859:18 3.36662
2 *859:27 *859:33 2.23233
3 *1722:B2 *859:29 1.00606
4 *859:21 *859:24 5.24665
5 *859:27 *859:35 1.82179
6 *859:13 *859:11 1.38495
7 *859:25 *859:26 5.89641
8 *859:14 *859:34 1.19967
9 *859:16 *859:19 4.24757
10 *1731:B2 *859:10 0.336394
11 *859:31 *859:33 3.32516
12 *859:29 *859:34 1.86176
13 *859:16 *859:17 0.159282
14 *859:23 *859:26 0.159282
15 *859:28 *859:29 2.31227
16 *859:22 *859:32 1.10992
17 *859:24 *859:25 0.159282
18 *859:10 *859:30 2.67065
19 *859:30 *859:31 5.75377
20 *859:19 *859:20 0.159282
21 *1730:B2 *859:10 0.958368
22 *859:12 *859:21 9.73760986
23 *1723:B2 *859:28 0.535349
24 *859:28 *859:35 2.1824
25 *859:13 *859:15 2.53514
26 *859:15 *859:18 0.159282
27 *859:20 *859:23 6.77707
28 *859:14 *859:9 2.99486
29 *859:11 *859:22 5.00283
30 *1762:ZN *859:12 0.465663
31 *1721:B2 *859:32 0.727468
32 *859:9 *859:32 1.06847
33 *1724:B2 *859:33 0.450061
34 *1727:B2 *859:31 0.224956
35 *1728:B2 *859:30 0.224956
*END

*D_NET *860 0.0104393

*CONN
*I *1761:ZN O *C 146.7 120.4 *L 0 *D IND2D0
*I *1756:A1 I *C 142.5 107.2 *L 0.000721 *D MOAI22D0
*I *1755:A1 I *C 142.1 102 *L 0.00104 *D MOAI22D1
*I *1754:A1 I *C 142.1 98.4 *L 0.00104 *D MOAI22D1
*I *1753:A1 I *C 141.9 94.8 *L 0.00104 *D MOAI22D1
*I *1752:A1 I *C 146.1 94.8 *L 0.00104 *D MOAI22D1
*I *1751:A1 I *C 145.9 92.8 *L 0.000721 *D MOAI22D0
*I *1750:A1 I *C 141.9 89.2 *L 0.00104 *D MOAI22D1
*I *1749:A1 I *C 141.3 85.6 *L 0.000721 *D MOAI22D0

*CAP
1 *1761:ZN 1.41519e-05
2 *1750:A1 0.000362804
3 *1749:A1 0.00026464
4 *860:9 0.000898478
5 *860:10 0.000594812
6 *860:11 0.000348236
7 *860:12 8.11985e-05
8 *860:13 0.000584373
9 *860:14 0.00109111
10 *860:15 0.000195329
11 *860:16 0.000323013
12 *860:17 0.000247458
13 *860:18 0.000662691
14 *860:19 0.000147046
15 *860:20 0.000863648
16 *860:21 0.000192715
17 *860:22 0.000903306
18 *1749:A1 *618:18 0.000361958008
19 *1761:ZN *75:23 0.000600301016
20 *860:9 *39:10 0.000816748984
21 *860:10 *1636:CP 0.000342586992
22 *860:11 *1753:B2 0.000542631992

*RES
1 *860:18 *860:20 3.96513
2 *860:15 *860:17 1.3332
3 *860:16 *860:17 1.97342
4 *1761:ZN *860:12 0.47748
5 *860:10 *860:18 0.272378
6 *860:10 *860:19 3.88393
7 *860:21 *860:22 2.69149
8 *860:11 *860:22 1.19244
9 *1750:A1 *860:15 1.99892
10 *860:9 *860:11 3.06579
11 *860:16 *860:22 2.1828
12 *1749:A1 *860:15 2.31693
13 *860:13 *860:21 0.837854
14 *860:19 *860:9 2.77453
15 *860:12 *860:14 3.24782
16 *860:14 *860:20 5.49756002
17 *1752:A1 *860:13 2.24471
18 *1753:A1 *860:11 0.449965
19 *1754:A1 *860:9 0.449965
20 *1755:A1 *860:19 0.449965
21 *1756:A1 *860:18 0.449965
22 *1751:A1 *860:13 0.449965
*END

*D_NET *861 0.00331288

*CONN
*I *1760:ZN O *C 148.9 131.2 *L 0 *D IND2D0
*I *1759:A1 I *C 148.1 145.4 *L 0.000989 *D ND2D1
*I *1744:A2 I *C 148.9 143 *L 0.00104 *D ND3D1

*CAP
1 *1760:ZN 0.000814239
2 *1759:A1 0.000683365
3 *861:3 0.000631655
4 *861:4 0.000259493
5 *861:5 0.000924130938

*RES
1 *861:3 *861:4 1.01624
2 *1759:A1 *861:6 3.08534
3 *861:4 *861:5 3.41434002
4 *861:3 *861:6 2.40623
5 *1760:ZN *861:5 3.23543
6 *1744:A2 *861:6 0.225014
*END

*D_NET *862 0.00145581

*CONN
*I *1757:ZN O *C 146.7 132 *L 0 *D AOI221D0
*I *1745:A1 I *C 146.1 134.6 *L 0.000989 *D ND2D1

*CAP
1 *1745:A1 0.00052688
2 *862:2 0.000928925

*RES
1 *1745:A1 *862:2 4.88281012
2 *1757:ZN *862:2 0.450015
*END

*D_NET *863 0.0182787

*CONN
*I *1759:ZN O *C 147.9 145.6 *L 0 *D ND2D1
*I *1731:A2 I *C 142.5 244 *L 0.000745 *D AO22D0
*I *1730:A2 I *C 145.3 244 *L 0.000745 *D AO22D0
*I *1728:A2 I *C 143.3 242.4 *L 0.000745 *D AO22D0
*I *1727:A2 I *C 143.3 235.2 *L 0.000745 *D AO22D0
*I *1724:A2 I *C 143.5 231.6 *L 0.000745 *D AO22D0
*I *1723:A2 I *C 144.3 226 *L 0.000745 *D AO22D0
*I *1722:A2 I *C 146.9 222.4 *L 0.000745 *D AO22D0
*I *1721:A2 I *C 146.5 215.2 *L 0.000745 *D AO22D0

*CAP
1 *1759:ZN 0.000569827
2 *1730:A2 0.000425233
3 *863:9 0.000427439
4 *863:10 0.000814168
5 *863:11 0.00108004
6 *863:12 0.000505301
7 *863:13 0.00131571
8 *863:14 0.000579228
9 *863:15 0.000700784
10 *863:16 0.000232283
11 *863:17 0.00118789
12 *863:18 0.000393046
13 *863:19 0.000710786
14 *863:20 0.00101725
15 *863:21 0.000142538
16 *863:22 7.39765e-05
17 *863:23 0.000456468
18 *863:25 0.00102284
19 *863:26 0.000242912
20 *863:27 0.00164285
21 *863:28 0.000546438
22 *863:25 *657:2 0.00142828
23 *863:20 *374:2 0.000959545
24 *863:10 *840:8 0.000597069023
25 *863:9 *180:9 0.00120685008

*RES
1 *863:21 *863:27 15.6290998
2 *863:14 *863:22 2.32901
3 *863:10 *863:14 3.07855
4 *863:11 *863:15 4.08637
5 *863:13 *863:18 3.49733
6 *863:11 *863:21 0.544691
7 *863:17 *863:22 2.63474
8 *863:13 *863:19 2.19856
9 *863:24 *863:25 7.14704
10 *863:20 *863:26 9.98211
11 *863:16 *863:19 2.78212
12 *863:18 *863:23 1.4917
13 *863:12 *863:16 1.99776
14 *863:12 *863:17 2.59873
15 *863:24 *863:9 0.159305
16 *1759:ZN *863:20 3.06782
17 *1731:A2 *863:23 1.17857
18 *863:10 *863:15 2.45254
19 *1730:A2 *863:23 2.40723
20 *863:25 *863:26 1.95435
21 *863:9 *863:28 5.76242
22 *863:27 *863:28 2.13822
23 *1727:A2 *863:19 0.450014
24 *1728:A2 *863:18 0.450014
25 *1723:A2 *863:17 0.450014
26 *1724:A2 *863:16 0.224888
27 *1721:A2 *863:15 0.224888
28 *1722:A2 *863:14 0.224888
*END

*D_NET *864 0.0115087

*CONN
*I *1758:ZN O *C 146.9 163.6 *L 0 *D CKND2D0
*I *1737:A1 I *C 144.1 177.6 *L 0.000721 *D MOAI22D0
*I *1736:A1 I *C 144.7 172 *L 0.000721 *D MOAI22D0
*I *1720:A1 I *C 142.1 202.8 *L 0.000721 *D MOAI22D0
*I *1718:A1 I *C 144.7 202.8 *L 0.000721 *D MOAI22D0
*I *1717:A1 I *C 144.7 197.2 *L 0.000721 *D MOAI22D0
*I *1716:A1 I *C 143.3 188.4 *L 0.000721 *D MOAI22D0
*I *1715:A1 I *C 143.9 193.6 *L 0.000721 *D MOAI22D0
*I *1714:A1 I *C 141.9 200.8 *L 0.000721 *D MOAI22D0

*CAP
1 *1758:ZN 0.000342832
2 *1737:A1 0.000321567
3 *1720:A1 9.79919e-05
4 *1718:A1 0.0004711
5 *1716:A1 0.000172017
6 *864:9 0.00049484
7 *864:10 6.18768e-05
8 *864:11 5.80247e-05
9 *864:12 0.000419856
10 *864:13 0.000640939
11 *864:14 0.00055269
12 *864:15 0.000385484
13 *864:16 0.000541326
14 *864:17 3.70215e-05
15 *864:18 0.000381265
16 *864:19 0.000485863
17 *864:20 7.18991e-05
18 *864:21 0.000181848
19 *864:22 0.00111012
20 *864:23 0.000400177
21 *864:24 8.20085e-05
22 *864:25 0.00114228
23 *1737:A1 *846:7 0.000439271016
24 *864:25 *843:4 0.000657728047
25 *1758:ZN *851:3 0.000319583008
26 *864:9 *626:28 0.000638568984
27 *864:10 *182:12 0.00100056008

*RES
1 *1716:A1 *864:23 1.38494
2 *864:18 *864:21 2.39477
3 *864:10 *864:19 2.26679
4 *1720:A1 *864:22 2.08773
5 *864:22 *864:24 2.71433
6 *864:9 *864:12 2.67913
7 *864:13 *864:14 0.639744
8 *864:15 *864:19 0.520369
9 *1718:A1 *864:10 2.17097
10 *864:16 *864:20 0.302427
11 *864:15 *864:21 2.39188
12 *864:14 *864:17 1.65866
13 *864:20 *864:25 4.82076
14 *864:16 *864:17 3.50764
15 *1758:ZN *864:11 2.08429
16 *1737:A1 *864:13 2.82956
17 *864:18 *864:23 1.42624
18 *864:12 *864:23 1.10629
19 *864:11 *864:25 1.76458
20 *864:9 *864:13 5.12670994
21 *1714:A1 *864:22 0.449964
22 *1715:A1 *864:21 0.449964
23 *1736:A1 *864:20 0.449964
24 *1717:A1 *864:19 0.449964
25 *864:10 *864:24 0.224982
*END

*D_NET *865 0.0123569

*CONN
*I *1106:I I *C 137.7 161.2 *L 0.00105 *D DEL1
*I *1756:ZN O *C 142.3 107.8 *L 0 *D MOAI22D0

*CAP
1 *1106:I 3.26442e-05
2 *1756:ZN 0.000225165
3 *865:2 0.00160924
4 *865:3 0.0028832
5 *865:4 0.000118698
6 *865:5 0.00096661
7 *865:6 7.08317e-05
8 *865:8 7.00397e-05
9 *865:2 *620:21 0.00102299
10 *865:3 *369:5 0.000347766992
11 *865:4 *614:4 0.00256358
12 *865:3 *616:4 0.000630098984
13 *865:5 *1464:I 0.000257523008
14 *865:2 *783:4 0.00155849

*RES
1 *865:4 *865:3 1.47331
2 *865:7 *865:2 17.1633
3 *865:5 *865:7 0.160981
4 *865:6 *865:2 3.71747
5 *865:4 *865:5 9.02279
6 *1756:ZN *865:6 0.431158
7 *1106:I *865:8 0.708934
8 *865:3 *865:8 18.4440994
*END

*D_NET *866 0.0148154

*CONN
*I *945:I I *C 137.5 156 *L 0.000643 *D CKBD0
*I *1755:ZN O *C 141.9 101.6 *L 0 *D MOAI22D1

*CAP
1 *945:I 4.55311e-05
2 *866:2 0.000437139
3 *866:3 8.12634e-05
4 *866:4 0.00110941
5 *866:5 0.000309265
6 *866:6 0.00133507
7 *866:7 0.000383419
8 *866:8 0.00074944
9 *866:9 2.00255e-05
10 *866:11 0.000191027
11 *866:2 *842:10 0.000549613008
12 *866:3 *843:26 0.00107561008
13 *866:4 *235:2 0.00336351
14 *866:4 *291:5 0.00185623
15 *866:4 *311:2 0.00330883

*RES
1 *866:10 *866:11 0.159225
2 *866:3 *866:4 7.95067
3 *866:2 *866:7 2.23473
4 *945:I *866:5 0.349296
5 *866:7 *866:8 2.14043
6 *866:5 *866:6 3.14748
7 *866:9 *866:11 17.5582
8 *866:8 *866:10 19.2527008
9 *866:4 *866:9 0.384842
10 *866:6 *866:3 4.46652
11 *1755:ZN *866:2 0.45006
*END

*D_NET *867 0.0153884

*CONN
*I *1108:Z O *C 146.1 164.4 *L 0 *D DEL1
*I *1635:D I *C 142.5 100 *L 0.000971 *D DFCNQD1

*CAP
1 *867:2 0.00369355
2 *867:3 0.000483399
3 *867:4 0.000465082
4 *867:3 *732:4 0.00168133
5 *867:2 *625:13 0.000680758
6 *867:3 *625:6 3.06e-06
7 *867:2 *625:6 0.000736489
8 *867:3 *625:14 0.00180541
9 *867:2 *625:14 0.00414954993
10 *867:2 *3:3 0.000778862031
11 *867:2 *869:5 0.000561371016
12 *867:3 *882:3 0.000349615977

*RES
1 *867:3 *867:2 53.1901016
2 *1108:Z *867:3 1.607
3 *867:4 *867:2 2.92588
4 *1635:D *867:4 0.224818
*END

*D_NET *868 0.017936

*CONN
*I *1110:I I *C 141.1 161.2 *L 0.00105 *D DEL1
*I *1753:ZN O *C 142.1 94.4 *L 0 *D MOAI22D1

*CAP
1 *1110:I 0.000730686
2 *1753:ZN 0.000136946
3 *868:2 0.000271865
4 *868:3 0.00168161
5 *868:4 0.000286414
6 *868:6 9.01426e-05
7 *868:7 0.00014372
8 *868:8 0.000468624
9 *868:10 0.000500467
10 *868:11 1.83467e-05
11 *868:2 *1396:I 0.00408618031
12 *868:3 *857:17 0.00308161
13 *868:3 *913:4 0.000520433008
14 *868:2 *455:2 0.000830077031
15 *868:2 *626:32 0.00271506
16 *1110:I *843:20 0.00237379

*RES
1 *868:5 *868:6 4.103
2 *868:4 *868:8 16.7032
3 *868:2 *868:9 7.35623
4 *868:3 *868:7 28.0272999
5 *868:6 *868:7 0.159091
6 *868:5 *868:2 0.159091
7 *868:9 *868:10 0.286534
8 *1753:ZN *868:3 1.76796
9 *868:10 *868:11 8.78975
10 *1110:I *868:4 3.12279
11 *868:8 *868:11 0.285251
*END

*D_NET *869 0.0154875

*CONN
*I *941:I I *C 145.1 152.4 *L 0.000643 *D CKBD0
*I *1752:ZN O *C 145.9 94.4 *L 0 *D MOAI22D1

*CAP
1 *941:I 3.90314e-05
2 *1752:ZN 0.000109057
3 *869:2 0.000431771
4 *869:4 0.000643454
5 *869:5 0.000541871
6 *869:6 0.000118194
7 *869:7 0.000158805
8 *869:8 0.000210809
9 *869:9 1.05475e-05
10 *869:10 0.00184821
11 *869:11 0.00159673
12 *869:2 *1640:CP 0.00147932
13 *869:8 *1315:I 0.00180813
14 *869:5 *882:3 0.00186709
15 *869:4 *1394:I 0.000380991016
16 *869:2 *1399:I 0.00172646
17 *869:2 *736:3 0.00195565
18 *869:5 *867:2 0.000561371016

*RES
1 *869:3 *869:4 0.15923
2 *869:4 *869:8 7.46652
3 *869:2 *869:6 0.602832
4 *869:6 *869:11 14.4885
5 *941:I *869:5 2.24579
6 *869:2 *869:3 15.3009996
7 *869:7 *869:8 2.92124
8 *869:9 *869:11 1.6579
9 *1752:ZN *869:9 0.449906
10 *869:7 *869:10 0.392938
11 *869:5 *869:10 13.6819
*END

*D_NET *870 0.000906734

*CONN
*I *1751:ZN O *C 145.7 93.4 *L 0 *D MOAI22D0
*I *1632:D I *C 147.1 89.2 *L 0.000971 *D DFCNQD1

*CAP
1 *1751:ZN 4.40599e-06
2 *870:2 0.000902333984

*RES
1 *1632:D *870:2 1.46916
2 *1751:ZN *870:2 2.19583988
*END

*D_NET *871 0.00687835

*CONN
*I *944:I I *C 150.7 105.6 *L 0.000968 *D CKBD1
*I *1750:ZN O *C 141.7 89.6 *L 0 *D MOAI22D1

*CAP
1 *871:2 0.000335581
2 *871:3 0.000275646
3 *871:4 0.00142845
4 *871:5 0.000942243
5 *871:6 0.00148838
6 *871:2 *616:13 0.000671072031
7 *871:3 *53:7 0.00118031
8 *871:2 *469:15 0.000556673984

*RES
1 *871:3 *871:6 3.2215
2 *871:5 *871:2 4.85796
3 *1750:ZN *871:3 1.07906
4 *944:I *871:4 0.710693
5 *871:2 *871:6 10.9435997
6 *871:4 *871:5 5.1248
*END

*D_NET *872 0.000626477

*CONN
*I *1749:ZN O *C 141.1 86.2 *L 0 *D MOAI22D0
*I *1630:D I *C 141.9 82 *L 0.000971 *D DFCNQD1

*CAP
1 *1630:D 0.000626476992

*RES
1 *1630:D *1749:ZN 2.55512
*END

*D_NET *873 0.000404578

*CONN
*I *1748:ZN O *C 141.5 72.6 *L 0 *D MOAI22D0
*I *1619:D I *C 142.3 74.8 *L 0.000971 *D DFCNQD1

*CAP
1 *1748:ZN 0.000404578008

*RES
1 *1748:ZN *1619:D 1.62704
*END

*D_NET *874 0.00101191

*CONN
*I *1747:ZN O *C 142.3 71.8 *L 0 *D MOAI22D0
*I *1618:D I *C 142.3 67.6 *L 0.000971 *D DFCNQD1

*CAP
1 *874:2 0.00101191

*RES
1 *1747:ZN *874:2 3.27911997
2 *1618:D *874:2 0.225009
*END

*D_NET *875 0.000401918

*CONN
*I *1743:ZN O *C 141.5 50.2 *L 0 *D MOAI22D0
*I *1615:D I *C 141.7 51.6 *L 0.000971 *D DFCNQD1

*CAP
1 *1743:ZN 0.000401918008

*RES
1 *1743:ZN *1615:D 1.39281
*END

*D_NET *876 0.000984346

*CONN
*I *1742:ZN O *C 141.3 79.8 *L 0 *D MOAI22D0
*I *1620:D I *C 141.5 76.8 *L 0.000971 *D DFCNQD1

*CAP
1 *876:3 0.000984345938

*RES
1 *876:2 *876:3 2.82160997
2 *1620:D *876:3 0.701829
3 *1742:ZN *876:2 0.225002
*END

*D_NET *877 0.00144171

*CONN
*I *1741:ZN O *C 143.9 87 *L 0 *D MOAI22D0
*I *1621:D I *C 145.7 84 *L 0.000971 *D DFCNQD1

*CAP
1 *1741:ZN 0.000134544
2 *1621:D 0.000961853984
3 *877:2 0.000345305

*RES
1 *1741:ZN *877:2 0.930781
2 *1621:D *877:2 3.96848989
*END

*D_NET *878 0.000755095

*CONN
*I *1740:ZN O *C 141.5 46.6 *L 0 *D MOAI22D0
*I *1614:D I *C 142.5 42.4 *L 0.000971 *D DFCNQD1

*CAP
1 *1740:ZN 0.000538973984
2 *1614:D 0.000216124

*RES
1 *1740:ZN *1614:D 3.1335
*END

*D_NET *879 0.00091428

*CONN
*I *1739:ZN O *C 142.5 57.4 *L 0 *D MOAI22D0
*I *1616:D I *C 142.9 53.2 *L 0.000971 *D DFCNQD1

*CAP
1 *1616:D 0.00091428

*RES
1 *1616:D *1739:ZN 3.00179
*END

*D_NET *880 0.000773616

*CONN
*I *1738:ZN O *C 142.3 64.6 *L 0 *D MOAI22D0
*I *1617:D I *C 144.5 66 *L 0.000971 *D DFCNQD1

*CAP
1 *880:2 0.000773616016

*RES
1 *1617:D *880:2 1.45747
2 *1738:ZN *880:2 1.72606003
*END

*D_NET *881 0.00732236

*CONN
*I *1746:ZN O *C 146.7 138.4 *L 0 *D IND3D0
*I *1713:A2 I *C 141.7 141.6 *L 0.000745 *D AO22D0
*I *1712:A2 I *C 141.7 138 *L 0.000745 *D AO22D0
*I *1711:A2 I *C 141.5 136 *L 0.000745 *D AO22D0
*I *1710:A2 I *C 141.7 128.8 *L 0.000745 *D AO22D0
*I *1709:A2 I *C 141.7 123.6 *L 0.000745 *D AO22D0
*I *1708:A2 I *C 141.1 118 *L 0.000745 *D AO22D0
*I *1707:A2 I *C 141.1 116.4 *L 0.000745 *D AO22D0
*I *1706:A2 I *C 140.7 112.8 *L 0.000745 *D AO22D0

*CAP
1 *1706:A2 0.000138113
2 *881:9 0.000442509
3 *881:10 0.00133302
4 *881:11 0.000782665
5 *881:12 0.000475542
6 *881:13 0.000122247
7 *881:14 0.000744953
8 *881:15 0.000917645
9 *881:16 0.00018573
10 *881:17 0.000384518
11 *881:18 0.000231557
12 *881:19 0.000692841
13 *881:9 *73:7 0.000871022969

*RES
1 *1713:A2 *881:10 2.18051
2 *881:12 *881:9 2.25562
3 *881:12 *881:15 2.10466
4 *881:14 *881:15 3.69561005
5 *881:11 *881:17 3.00894
6 *1746:ZN *881:18 0.674995
7 *1706:A2 *881:19 1.15448
8 *881:16 *881:19 3.05265
9 *881:10 *881:18 3.23868
10 *881:11 *881:14 2.89176
11 *881:9 *881:16 1.53625
12 *881:13 *881:17 1.22593
13 *881:10 *881:13 0.441143
14 *1711:A2 *881:17 0.224998
15 *1707:A2 *881:16 0.224998
16 *1708:A2 *881:9 0.224998
17 *1709:A2 *881:15 0.224998
18 *1710:A2 *881:14 0.224998
19 *1712:A2 *881:13 0.224998
*END

*D_NET *882 0.011304

*CONN
*I *1121:I I *C 144.9 182.8 *L 0.00105 *D DEL1
*I *1745:ZN O *C 145.9 134.8 *L 0 *D ND2D1

*CAP
1 *1121:I 0.00023801
2 *1745:ZN 2.1262e-05
3 *882:2 9.59296e-05
4 *882:3 0.00252886016
5 *882:4 0.000172025
6 *882:5 7.09246e-05
7 *882:6 0.000588929
8 *882:3 *913:5 0.000918727969
9 *882:3 *796:2 0.0015943
10 *882:3 *867:3 0.000349615977
11 *1121:I *936:26 0.00106215
12 *882:2 *70:12 0.00179619
13 *882:3 *869:5 0.00186709

*RES
1 *882:5 *882:6 6.93386
2 *1121:I *882:2 1.41413
3 *1745:ZN *882:4 0.626634
4 *882:3 *882:6 25.0408993
5 *882:2 *882:5 9.33875
6 *882:4 *882:3 2.27117
*END

*D_NET *883 0.00506863

*CONN
*I *1122:I I *C 144.5 161.2 *L 0.00105 *D DEL1
*I *1744:ZN O *C 148.5 143.6 *L 0 *D ND3D1

*CAP
1 *1122:I 0.000801712
2 *1744:ZN 0.000141095
3 *883:2 0.00046703
4 *883:3 3.81001e-05
5 *883:4 0.00124100008
6 *883:5 5.53702e-05
7 *1122:I *70:6 0.000294097988
8 *883:2 *3:3 0.000251192012
9 *883:3 *1001:Z 0.00025325998
10 *883:4 *308:5 0.00032510502
11 *1744:ZN *338:5 0.000293399004
12 *883:3 *375:4 0.00090725

*RES
1 *883:3 *883:4 8.19322014
2 *1744:ZN *883:5 0.358803
3 *883:2 *883:3 2.98032
4 *883:5 *883:4 3.53853
5 *1122:I *883:2 3.71793
*END

*D_NET *884 0.000631381

*CONN
*I *1737:ZN O *C 143.9 177 *L 0 *D MOAI22D0
*I *1647:D I *C 144.9 179.2 *L 0.000971 *D DFCNQD1

*CAP
1 *1737:ZN 0.000517409023
2 *1647:D 0.000113974

*RES
1 *1737:ZN *1647:D 2.46205
*END

*D_NET *885 0.000368197

*CONN
*I *1736:ZN O *C 144.5 172.6 *L 0 *D MOAI22D0
*I *1646:D I *C 145.1 170.4 *L 0.000971 *D DFCNQD1

*CAP
1 *1646:D 0.000368196992

*RES
1 *1736:ZN *1646:D 1.68241
*END

*D_NET *886 0.000398879

*CONN
*I *1735:ZN O *C 148.9 83.4 *L 0 *D MOAI22D0
*I *1629:D I *C 149.3 82 *L 0.000971 *D DFCNQD1

*CAP
1 *1735:ZN 0.00033976
2 *1629:D 5.91178e-05

*RES
1 *1629:D *1735:ZN 1.65656
*END

*D_NET *887 0.00116459

*CONN
*I *1734:ZN O *C 146.3 79 *L 0 *D MOAI22D0
*I *1628:D I *C 149.1 80.4 *L 0.000971 *D DFCNQD1

*CAP
1 *1734:ZN 0.00088518
2 *1628:D 0.000279419

*RES
1 *1734:ZN *1628:D 3.86814
*END

*D_NET *888 0.000932917

*CONN
*I *1733:ZN O *C 148.1 76.2 *L 0 *D MOAI22D0
*I *1627:D I *C 150.5 74.8 *L 0.000971 *D DFCNQD1

*CAP
1 *1733:ZN 0.000599932031
2 *1627:D 0.000332981

*RES
1 *1627:D *1733:ZN 3.84627
*END

*D_NET *889 0.000624039

*CONN
*I *1732:ZN O *C 147.9 71.8 *L 0 *D MOAI22D0
*I *1626:D I *C 149.5 73.2 *L 0.000971 *D DFCNQD1

*CAP
1 *1732:ZN 0.000624038984

*RES
1 *1732:ZN *1626:D 2.26494
*END

*D_NET *890 0.000628118

*CONN
*I *1117:I I *C 138.3 244 *L 0.00105 *D DEL1
*I *1731:Z O *C 141.7 244.6 *L 0 *D AO22D0

*CAP
1 *1731:Z 6.01402e-05
2 *890:2 0.000475083008
3 *890:3 9.28998e-05

*RES
1 *890:2 *890:3 2.23947001
2 *1731:Z *890:3 0.450006
3 *1117:I *890:2 0.450006
*END

*D_NET *891 0.00231988

*CONN
*I *1111:I I *C 137.5 236.8 *L 0.00105 *D DEL1
*I *1730:Z O *C 146.1 244.6 *L 0 *D AO22D0

*CAP
1 *891:2 0.000215328
2 *891:3 0.00111854008
3 *891:4 0.000986008

*RES
1 *891:2 *891:4 5.63887978
2 *891:3 *891:4 5.22123
3 *1111:I *891:3 0.450002
4 *1730:Z *891:2 0.225001
*END

*D_NET *892 0.000948313

*CONN
*I *1729:ZN O *C 147.1 69 *L 0 *D MOAI22D0
*I *1625:D I *C 149.7 67.6 *L 0.000971 *D DFCNQD1

*CAP
1 *1625:D 0.00024111
2 *892:2 0.000707207031

*RES
1 *1625:D *892:2 0.7046
2 *1729:ZN *892:2 2.74371004
*END

*D_NET *893 0.00140318

*CONN
*I *1115:Z O *C 149.1 239.2 *L 0 *D DEL1
*I *1659:D I *C 143.5 240.4 *L 0.000971 *D DFCNQD1

*CAP
1 *1115:Z 0.00042828
2 *893:2 0.000904522031
3 *893:3 7.0377e-05

*RES
1 *893:2 *893:3 4.11108017
2 *1115:Z *893:3 1.56875
3 *1659:D *893:2 0.225013
*END

*D_NET *894 0.0016834

*CONN
*I *1113:Z O *C 148.3 236.4 *L 0 *D DEL1
*I *1658:D I *C 144.9 233.2 *L 0.000971 *D DFCNQD1

*CAP
1 *1113:Z 6.6038e-05
2 *1658:D 0.000484697
3 *894:2 0.000536545
4 *894:3 0.000596116016

*RES
1 *1658:D *894:3 2.02525
2 *894:2 *894:3 2.69092011
3 *1113:Z *894:2 2.12314
*END

*D_NET *895 0.00177047

*CONN
*I *1726:ZN O *C 144.9 61.8 *L 0 *D MOAI22D0
*I *1624:D I *C 149.9 62.4 *L 0.000971 *D DFCNQD1

*CAP
1 *1726:ZN 0.000454703
2 *1624:D 2.5249e-06
3 *895:2 0.00131325

*RES
1 *1726:ZN *895:2 5.86076021
2 *1624:D *895:2 0.668475
*END

*D_NET *896 0.00163676

*CONN
*I *1725:ZN O *C 145.1 61 *L 0 *D MOAI22D0
*I *1623:D I *C 149.5 58.8 *L 0.000971 *D DFCNQD1

*CAP
1 *1725:ZN 0.000838911016
2 *1623:D 0.000484785
3 *896:2 0.00031306

*RES
1 *1623:D *896:2 1.75468
2 *1725:ZN *896:2 4.08129978
*END

*D_NET *897 0.00128575

*CONN
*I *1116:Z O *C 151.3 229.2 *L 0 *D DEL1
*I *1657:D I *C 144.7 229.6 *L 0.000971 *D DFCNQD1

*CAP
1 *897:2 8.7899e-05
2 *897:3 0.00119785

*RES
1 *897:2 *897:3 4.67191982
2 *1657:D *897:3 0.769624
3 *1116:Z *897:2 0.224984
*END

*D_NET *898 0.00165056

*CONN
*I *1112:I I *C 137.5 224.4 *L 0.00105 *D DEL1
*I *1723:Z O *C 143.5 226.6 *L 0 *D AO22D0

*CAP
1 *898:2 0.00115267
2 *898:3 0.000497881

*RES
1 *1723:Z *898:3 1.71145
2 *898:2 *898:3 4.3228898
3 *1112:I *898:2 0.449993
*END

*D_NET *899 0.00265317

*CONN
*I *1114:I I *C 148.7 233.2 *L 0.00105 *D DEL1
*I *1722:Z O *C 147.7 223 *L 0 *D AO22D0

*CAP
1 *1722:Z 5.54855e-06
2 *899:2 0.00157413
3 *899:3 0.00107349

*RES
1 *1114:I *899:3 4.20044
2 *1722:Z *899:2 0.551718
3 *899:2 *899:3 5.60754013
*END

*D_NET *900 0.00114598

*CONN
*I *1721:Z O *C 145.7 215.8 *L 0 *D AO22D0
*I *1654:D I *C 148.9 217.2 *L 0.000971 *D DFCNQD1

*CAP
1 *1721:Z 0.000317969
2 *1654:D 0.000301151
3 *900:2 0.000526853984

*RES
1 *1721:Z *900:2 0.853256
2 *1654:D *900:2 3.4207499
*END

*D_NET *901 0.000396542

*CONN
*I *1720:ZN O *C 141.9 202.2 *L 0 *D MOAI22D0
*I *1653:D I *C 142.3 204.4 *L 0.000971 *D DFCNQD1

*CAP
1 *1720:ZN 0.000396542031

*RES
1 *1720:ZN *1653:D 1.59032
*END

*D_NET *902 0.000958447

*CONN
*I *1719:ZN O *C 141.7 61.8 *L 0 *D MOAI22D0
*I *1622:D I *C 142.3 58.8 *L 0.000971 *D DFCNQD1

*CAP
1 *1622:D 0.000958446953

*RES
1 *1622:D *902:2 3.47874999
2 *1719:ZN *902:2 0.450025
*END

*D_NET *903 0.00142854

*CONN
*I *1718:ZN O *C 144.5 202.2 *L 0 *D MOAI22D0
*I *1652:D I *C 149.9 202.8 *L 0.000971 *D DFCNQD1

*CAP
1 *1718:ZN 0.000128491
2 *1652:D 0.000191629
3 *903:2 0.00110842

*RES
1 *1652:D *903:2 4.06368017
2 *1718:ZN *903:2 1.69043
*END

*D_NET *904 0.000863433

*CONN
*I *1717:ZN O *C 144.5 197.8 *L 0 *D MOAI22D0
*I *1651:D I *C 149.5 197.2 *L 0.000971 *D DFCNQD1

*CAP
1 *1717:ZN 0.000249341
2 *904:2 0.000107446
3 *904:3 0.000506653008

*RES
1 *904:2 *904:3 2.60679007
2 *1717:ZN *904:3 1.0709
3 *1651:D *904:2 0.225015
*END

*D_NET *905 0.000832059

*CONN
*I *1716:ZN O *C 143.1 187.8 *L 0 *D MOAI22D0
*I *1648:D I *C 142.1 190 *L 0.000971 *D DFCNQD1

*CAP
1 *1648:D 0.000513313008
2 *905:2 0.00031875

*RES
1 *1648:D *905:2 2.91261005
2 *1716:ZN *905:2 0.449984
*END

*D_NET *906 0.000651985

*CONN
*I *1715:ZN O *C 143.7 194.2 *L 0 *D MOAI22D0
*I *1649:D I *C 142.3 195.6 *L 0.000971 *D DFCNQD1

*CAP
1 *1715:ZN 0.000102486
2 *1649:D 0.00049371
3 *906:2 5.57858e-05

*RES
1 *1715:ZN *906:2 0.449997
2 *1649:D *906:2 1.96097004
*END

*D_NET *907 0.000600735

*CONN
*I *1714:ZN O *C 141.7 201.4 *L 0 *D MOAI22D0
*I *1650:D I *C 141.5 199.2 *L 0.000971 *D DFCNQD1

*CAP
1 *1714:ZN 2.5255e-05
2 *1650:D 0.000575481992

*RES
1 *1650:D *1714:ZN 2.17841
*END

*D_NET *908 0.00738064

*CONN
*I *1095:I I *C 147.3 166.8 *L 0.00105 *D DEL1
*I *1713:Z O *C 142.5 141 *L 0 *D AO22D0

*CAP
1 *908:2 0.000897356
2 *908:3 0.00022205
3 *908:4 0.00182402
4 *908:5 0.000895408
5 *908:6 0.000796295
6 *908:7 4.9598e-05
7 *908:8 2.64968e-05
8 *908:9 0.000155808
9 *908:10 0.000570126
10 *908:4 *1762:A2 0.000194760996
11 *908:2 *153:4 0.000594198008
12 *908:3 *155:4 0.000224545996
13 *908:4 *186:3 0.00034704
14 *908:5 *1128:I 0.000221358008
15 *908:4 *375:4 0.000361548008

*RES
1 *908:2 *908:8 2.93406
2 *908:4 *908:9 6.74144983
3 *908:8 *908:10 4.03709
4 *908:7 *908:5 3.00267
5 *908:6 *908:3 3.86027
6 *908:6 *908:7 0.286071
7 *908:4 *908:2 3.67603
8 *1713:Z *908:10 1.40896
9 *1095:I *908:3 1.63393
10 *908:5 *908:9 0.494581
*END

*D_NET *909 0.00696403

*CONN
*I *1094:I I *C 138.5 168.4 *L 0.00105 *D DEL1
*I *1712:Z O *C 142.5 137.4 *L 0 *D AO22D0

*CAP
1 *1094:I 0.000334191
2 *1712:Z 0.000547502
3 *909:2 0.000705808
4 *909:3 0.00303173
5 *909:4 0.000281315
6 *909:5 1.19354e-05
7 *909:6 5.14888e-05
8 *909:7 0.000207852
9 *909:8 9.41416e-05
10 *1094:I *910:5 0.000762141016
11 *909:2 *840:22 0.000312617012
12 *909:3 *11:2 0.000623224961

*RES
1 *909:5 *909:8 5.64911
2 *909:2 *909:6 2.36654
3 *909:4 *909:2 1.33246
4 *1712:Z *909:4 2.30589
5 *909:3 *909:7 11.7941999
6 *909:3 *909:6 2.18964
7 *1094:I *909:5 1.22016
8 *909:7 *909:8 0.224957
*END

*D_NET *910 0.00869209

*CONN
*I *1093:I I *C 138.5 170.4 *L 0.00105 *D DEL1
*I *1711:Z O *C 142.3 136.6 *L 0 *D AO22D0

*CAP
1 *910:2 0.000120698
2 *910:3 0.00152974
3 *910:4 0.00235626
4 *910:5 0.000422246
5 *910:6 9.8946e-05
6 *910:7 0.00011793
7 *910:8 3.92261e-05
8 *910:2 *11:2 0.00120676992
9 *910:3 *154:4 0.00147622
10 *910:4 *273:2 0.000561945977
11 *910:5 *1094:I 0.000762141016

*RES
1 *910:8 *910:5 0.159199
2 *910:3 *910:8 10.7893
3 *910:6 *910:3 0.622472
4 *1093:I *910:2 0.817561
5 *910:2 *910:5 10.6242
6 *910:7 *910:4 3.04964
7 *910:6 *910:4 7.87367
8 *1711:Z *910:7 0.225051
*END

*D_NET *911 0.000516001

*CONN
*I *1710:Z O *C 142.5 129.4 *L 0 *D AO22D0
*I *1642:D I *C 142.7 127.2 *L 0.000971 *D DFCNQD1

*CAP
1 *1710:Z 0.000280176016
2 *1642:D 0.000235825

*RES
1 *1710:Z *1642:D 2.56418
*END

*D_NET *912 0.000548969

*CONN
*I *1709:Z O *C 142.5 123 *L 0 *D AO22D0
*I *1641:D I *C 141.7 121.6 *L 0.000971 *D DFCNQD1

*CAP
1 *1641:D 0.000548968984

*RES
1 *1641:D *1709:Z 1.79923
*END

*D_NET *913 0.0140466

*CONN
*I *1045:I I *C 146.3 170.4 *L 0.00104 *D DEL0
*I *1708:Z O *C 141.9 118.6 *L 0 *D AO22D0

*CAP
1 *1045:I 0.000120418
2 *913:2 0.000239646
3 *913:3 0.000317067
4 *913:4 0.000687137
5 *913:5 0.000358419
6 *913:6 6.39523e-05
7 *913:7 5.17775e-05
8 *913:8 0.00229273016
9 *913:9 0.000353557
10 *913:3 *455:2 0.000877251953
11 *913:3 *736:4 0.000880111016
12 *913:3 *796:3 0.00200956984
13 *913:2 *626:26 0.00341203
14 *1045:I *335:4 0.000421160977
15 *913:3 *536:12 0.000522678984
16 *913:4 *868:3 0.000520433008
17 *913:5 *882:3 0.000918727969

*RES
1 *913:4 *913:9 1.82203
2 *913:3 *913:6 5.65877
3 *1708:Z *913:4 1.49839
4 *913:7 *913:9 5.92325
5 *913:5 *913:8 33.1414986
6 *913:2 *913:5 1.50344
7 *1045:I *913:2 3.52978
8 *913:3 *913:7 0.225036
9 *913:6 *913:8 0.225036
*END

*D_NET *914 0.00529496

*CONN
*I *942:I I *C 137.5 132.4 *L 0.00072 *D BUFFD1
*I *1707:Z O *C 141.9 115.8 *L 0 *D AO22D0

*CAP
1 *942:I 7.61525e-05
2 *1707:Z 0.000240311
3 *914:2 0.00178174
4 *914:3 1.76448e-05
5 *942:I *3:2 0.00155863
6 *914:2 *617:7 0.00162049

*RES
1 *942:I *914:3 0.789611
2 *914:3 *914:2 14.2753
3 *1707:Z *914:2 6.90262
*END

*D_NET *915 0.000729222

*CONN
*I *1706:Z O *C 141.5 112.2 *L 0 *D AO22D0
*I *1638:D I *C 141.9 109.2 *L 0.000971 *D DFCNQD1

*CAP
1 *1638:D 0.000729222031

*RES
1 *1638:D *1706:Z 2.75617
*END

*D_NET *916 0.00131159

*CONN
*I *1705:ZN O *C 146.5 208.6 *L 0 *D MOAI22D0
*I *1677:D I *C 149.3 213.6 *L 0.000971 *D DFCNQD1

*CAP
1 *1705:ZN 0.000386366
2 *916:2 0.000925221016

*RES
1 *1705:ZN *916:2 2.20157
2 *1677:D *916:2 3.31554008
*END

*D_NET *917 0.00152593

*CONN
*I *1104:Z O *C 146.5 210.4 *L 0 *D DEL1
*I *1676:D I *C 142.3 211.6 *L 0.000971 *D DFCNQD1

*CAP
1 *1104:Z 0.000517051
2 *917:2 0.00100887

*RES
1 *1104:Z *917:2 2.02368
2 *1676:D *917:2 3.65375996
*END

*D_NET *918 0.00140122

*CONN
*I *1102:Z O *C 141.9 217.6 *L 0 *D DEL1
*I *1675:D I *C 142.1 213.6 *L 0.000971 *D DFCNQD1

*CAP
1 *1675:D 0.000719276016
2 *918:2 0.000681949

*RES
1 *1102:Z *918:2 1.69158
2 *1675:D *918:2 3.02762008
*END

*D_NET *919 0.00246916

*CONN
*I *1103:Z O *C 143.7 218.4 *L 0 *D DEL1
*I *1674:D I *C 149.9 210 *L 0.000971 *D DFCNQD1

*CAP
1 *1103:Z 1.91288e-06
2 *919:2 0.000229092
3 *919:3 0.000113411
4 *919:4 0.00212475984

*RES
1 *919:2 *919:4 5.18743992
2 *919:3 *919:4 4.20063
3 *1103:Z *919:2 0.997658
4 *1674:D *919:3 0.225035
*END

*D_NET *920 0.00112302

*CONN
*I *1701:ZN O *C 146.7 194.2 *L 0 *D MOAI22D0
*I *1673:D I *C 149.3 195.6 *L 0.000971 *D DFCNQD1

*CAP
1 *920:2 0.000570505977
2 *920:3 0.000552521

*RES
1 *920:2 *920:3 1.69589
2 *1673:D *920:2 2.04500008
3 *1701:ZN *920:3 0.449996
*END

*D_NET *921 0.00074846

*CONN
*I *1700:ZN O *C 146.7 187.8 *L 0 *D MOAI22D0
*I *1672:D I *C 149.3 190 *L 0.000971 *D DFCNQD1

*CAP
1 *1700:ZN 0.00074846

*RES
1 *1700:ZN *1672:D 3.25481
*END

*D_NET *922 0.000529187

*CONN
*I *1699:ZN O *C 144.1 183.4 *L 0 *D MOAI22D0
*I *1671:D I *C 144.7 184.8 *L 0.000971 *D DFCNQD1

*CAP
1 *1671:D 0.000529187031

*RES
1 *1699:ZN *1671:D 1.79085
*END

*D_NET *923 0.000339952

*CONN
*I *1698:ZN O *C 144.5 173.4 *L 0 *D MOAI22D0
*I *1670:D I *C 145.1 175.6 *L 0.000971 *D DFCNQD1

*CAP
1 *1670:D 0.000339951992

*RES
1 *1698:ZN *1670:D 1.76833
*END

*D_NET *924 0.00255785

*CONN
*I *1096:I I *C 143.9 278.4 *L 0.00105 *D DEL1
*I *1697:Z O *C 143.9 266.2 *L 0 *D AO22D0

*CAP
1 *1697:Z 0.000593358
2 *924:2 0.00155406
3 *924:3 0.000410432

*RES
1 *924:2 *924:3 1.63678
2 *1096:I *924:2 6.55914021
3 *1697:Z *924:3 2.4856
*END

*D_NET *925 0.00281383

*CONN
*I *1099:I I *C 138.3 267.6 *L 0.00105 *D DEL1
*I *1696:Z O *C 146.1 259 *L 0 *D AO22D0

*CAP
1 *1099:I 0.000197473
2 *1696:Z 0.000414461
3 *925:2 4.16895e-05
4 *925:3 0.000532975
5 *925:4 0.00162723

*RES
1 *925:2 *925:4 5.46257019
2 *1099:I *925:3 1.41374
3 *925:2 *925:3 3.26332
4 *1696:Z *925:4 2.34837
*END

*D_NET *926 0.00379825

*CONN
*I *1092:I I *C 144.3 280 *L 0.00105 *D DEL1
*I *1695:Z O *C 143.5 263.4 *L 0 *D AO22D0

*CAP
1 *1695:Z 0.000764415
2 *926:2 0.000497067
3 *926:3 0.000671879
4 *926:4 2.35887e-06
5 *926:5 0.00186251

*RES
1 *926:3 *926:4 0.159175
2 *926:2 *926:5 3.83061
3 *1092:I *926:3 3.45507
4 *1695:Z *926:2 2.84029
5 *926:4 *926:5 5.20544004
*END

*D_NET *927 0.00339792

*CONN
*I *1014:I I *C 141.3 276.4 *L 0.00103 *D DEL01
*I *1694:Z O *C 142.1 259.8 *L 0 *D AO22D0

*CAP
1 *1694:Z 0.000563024
2 *927:2 0.000546179
3 *927:3 0.00079681
4 *927:4 7.1172e-05
5 *927:5 0.00142073

*RES
1 *927:4 *927:5 4.81633997
2 *927:2 *927:3 3.45226
3 *1014:I *927:2 2.28169
4 *927:3 *927:4 0.413022
5 *1694:Z *927:5 2.77078
*END

*D_NET *928 0.00163287

*CONN
*I *1101:I I *C 138.5 258.4 *L 0.00105 *D DEL1
*I *1693:Z O *C 142.3 252.6 *L 0 *D AO22D0

*CAP
1 *1693:Z 0.000723677
2 *928:2 0.000103711
3 *928:3 0.000805485

*RES
1 *1693:Z *928:2 2.73330998
2 *928:2 *928:3 2.33893
3 *1101:I *928:3 1.80812
*END

*D_NET *929 0.004225

*CONN
*I *1100:I I *C 139.1 265.6 *L 0.00105 *D DEL1
*I *1692:Z O *C 146.3 252.6 *L 0 *D AO22D0

*CAP
1 *1100:I 0.000114623
2 *1692:Z 0.000623036
3 *929:2 0.00237941
4 *929:3 0.00110792

*RES
1 *929:2 *929:3 5.36441
2 *1692:Z *929:2 10.7609997
3 *1100:I *929:3 0.926744
*END

*D_NET *930 0.00555897

*CONN
*I *1098:I I *C 148.5 274.8 *L 0.00105 *D DEL1
*I *1691:Z O *C 146.3 248.2 *L 0 *D AO22D0

*CAP
1 *1098:I 8.82671e-05
2 *930:2 3.45624e-06
3 *930:3 0.000115772
4 *930:4 0.00106822
5 *930:5 0.000876798
6 *930:6 3.43207e-05
7 *930:7 0.00117776
8 *930:8 0.00158395
9 *930:9 8.04845e-05
10 *930:10 0.000529941

*RES
1 *930:9 *930:10 2.23294
2 *930:6 *930:8 6.03904009
3 *1691:Z *930:7 1.95355
4 *930:8 *930:9 0.435309
5 *930:7 *930:10 2.13969
6 *930:5 *930:6 0.285107
7 *930:3 *930:4 3.92018
8 *930:2 *930:5 3.68096
9 *930:2 *930:4 0.28695
10 *1098:I *930:3 1.22419
*END

*D_NET *931 0.000482208

*CONN
*I *1690:Z O *C 144.5 220.2 *L 0 *D AO22D0
*I *1662:D I *C 143.9 222.4 *L 0.000971 *D DFCNQD1

*CAP
1 *1690:Z 0.000482208008

*RES
1 *1690:Z *1662:D 2.02042
*END

*D_NET *932 0.00147629

*CONN
*I *1591:Z O *C 150.5 106 *L 0 *D AN3D0
*I *1587:B2 I *C 148.1 102 *L 0.000774 *D INR3D0

*CAP
1 *1587:B2 0.000680653
2 *932:2 0.000795637031

*RES
1 *1587:B2 *932:2 2.83102012
2 *1591:Z *932:2 2.75892
*END

*D_NET *933 0.00956628

*CONN
*I *1118:I I *C 147.7 163.2 *L 0.00105 *D DEL1
*I *1590:ZN O *C 147.3 128.6 *L 0 *D NR2D0

*CAP
1 *933:2 0.000352071
2 *933:3 0.00277086
3 *933:4 0.000155085
4 *933:5 0.00211547
5 *933:6 0.000863624
6 *933:7 0.000321164
7 *933:8 0.000300869
8 *933:9 9.54696e-05
9 *933:10 0.000177452
10 *933:11 8.38847e-05
11 *933:4 *145:3 0.000340328008
12 *933:5 *248:3 0.000379431016
13 *933:6 *1590:A2 0.000216719004
14 *933:2 *309:10 0.000294472988
15 *933:3 *310:4 0.00109938

*RES
1 *933:5 *933:9 9.15426
2 *933:10 *933:2 0.606483
3 *933:4 *933:3 11.6764002
4 *933:3 *933:11 0.609868
5 *1118:I *933:7 1.68226
6 *933:5 *933:8 1.87896
7 *933:6 *933:8 2.73363
8 *933:11 *933:2 5.82377
9 *1590:ZN *933:6 0.584568
10 *933:4 *933:7 0.225026
11 *933:9 *933:10 0.225026
*END

*D_NET *934 0.0165647

*CONN
*I *1124:Z O *C 151.1 160 *L 0 *D DEL01
*I *1466:I I *C 143.3 96.4 *L 0.00105 *D DEL1

*CAP
1 *1466:I 0.00106051
2 *934:2 0.000100894
3 *934:3 0.00300687
4 *934:4 0.000473501
5 *934:5 0.000193438
6 *934:6 0.00128524
7 *934:8 0.000267629
8 *934:2 *625:13 0.00623815
9 *934:3 *75:24 0.00143007
10 *934:3 *288:4 0.000575625
11 *934:3 *847:11 0.00193285

*RES
1 *934:7 *934:8 4.94733
2 *934:4 *934:2 1.73585
3 *1466:I *934:4 4.47622
4 *934:7 *934:3 0.159547
5 *934:5 *934:6 4.48855
6 *934:2 *934:8 3.16972
7 *934:6 *934:3 44.8759003
8 *1124:Z *934:5 0.225283
*END

*D_NET *935 0.0157521

*CONN
*I *1585:ZN O *C 149.86 87.905 *L 0 *D INR2D1
*I *1583:A1 I *C 145.7 12 *L 0.00103 *D AO222D1
*I *1582:A1 I *C 145.9 28 *L 0.000665 *D AO222D0
*I *1581:A1 I *C 145.5 20.8 *L 0.00103 *D AO222D1
*I *1580:A1 I *C 147.3 48 *L 0.000665 *D AO222D0
*I *1579:A1 I *C 145.7 17.2 *L 0.00103 *D AO222D1
*I *1578:A1 I *C 145.3 15.6 *L 0.00103 *D AO222D1
*I *1577:A1 I *C 148.1 55.2 *L 0.000665 *D AO222D0
*I *1576:A1 I *C 145.7 38.8 *L 0.000665 *D AO222D0
*I *1575:A1 I *C 145.7 30 *L 0.00103 *D AO222D1

*CAP
1 *1585:ZN 0.000766459
2 *1583:A1 6.90845e-05
3 *1582:A1 8.22836e-05
4 *1580:A1 0.000172547
5 *1575:A1 6.25786e-05
6 *935:10 9.44529e-05
7 *935:11 0.00153369
8 *935:12 0.000349354
9 *935:13 0.000211396
10 *935:14 9.37743e-05
11 *935:15 0.000137256
12 *935:16 0.00107292
13 *935:17 0.000376127
14 *935:18 0.0004494
15 *935:19 0.000588622
16 *935:20 0.000161431
17 *935:22 0.000589161
18 *935:23 0.000949889
19 *935:24 0.000167961
20 *935:25 0.000326162
21 *935:27 0.000132997
22 *935:28 0.000413501
23 *935:29 0.000170652
24 *935:30 0.000188461
25 *935:31 0.000808467
26 *935:32 0.000321505
27 *935:33 0.000112122
28 *935:34 0.000520966
29 *1585:ZN *487:4 0.000648195039
30 *935:14 *739:5 0.00114792
31 *935:10 *629:22 0.00172056
32 *935:11 *485:3 0.00131228

*RES
1 *935:10 *935:32 2.25661
2 *1575:A1 *935:31 1.33019
3 *1580:A1 *935:20 0.449947
4 *935:18 *935:34 1.23253
5 *935:15 *935:32 0.449947
6 *935:32 *935:34 2.35291
7 *1582:A1 *935:17 0.449947
8 *935:21 *935:22 2.45855
9 *935:30 *935:31 6.12569
10 *935:11 *935:20 0.761335
11 *935:26 *935:27 2.01549
12 *1583:A1 *935:19 0.674981
13 *935:16 *935:26 8.05014992
14 *935:21 *935:23 3.74955
15 *935:24 *935:25 1.67744
16 *935:19 *935:33 2.86059
17 *935:13 *935:30 0.765388
18 *1578:A1 *935:18 0.84302
19 *935:11 *935:12 5.25601
20 *1585:ZN *935:22 3.86391
21 *935:12 *935:16 0.602754
22 *935:29 *935:10 1.13623
23 *935:28 *935:30 5.22346
24 *935:17 *935:29 2.43411
25 *935:17 *935:31 1.10663
26 *935:14 *935:34 0.609878
27 *935:24 *935:27 2.59392
28 *935:23 *935:25 0.159195
29 *935:20 *935:28 1.55461
30 *935:18 *935:33 0.536423
31 *1581:A1 *935:15 0.449947
32 *1579:A1 *935:14 0.449947
33 *1576:A1 *935:13 0.225035
34 *1577:A1 *935:12 0.225035
*END

*D_NET *936 0.0127649

*CONN
*I *1705:A1 I *C 146.7 208 *L 0.000721 *D MOAI22D0
*I *1704:A1 I *C 142.5 208 *L 0.000721 *D MOAI22D0
*I *1703:A1 I *C 142.5 206.4 *L 0.000721 *D MOAI22D0
*I *1702:A1 I *C 146.7 206.4 *L 0.000721 *D MOAI22D0
*I *1701:A1 I *C 146.9 193.6 *L 0.000721 *D MOAI22D0
*I *1700:A1 I *C 146.9 188.4 *L 0.000721 *D MOAI22D0
*I *1699:A1 I *C 144.3 182.8 *L 0.000721 *D MOAI22D0
*I *1698:A1 I *C 144.7 174 *L 0.000721 *D MOAI22D0
*I *1589:ZN O *C 146.3 159.8 *L 0 *D CKND0

*CAP
1 *1703:A1 0.000413118
2 *1699:A1 0.000122963
3 *1698:A1 0.00028335
4 *936:9 3.91039e-05
5 *936:10 0.000327607
6 *936:11 0.000439111
7 *936:12 0.000741778
8 *936:13 7.18589e-05
9 *936:14 0.000640139
10 *936:16 0.000336689
11 *936:17 0.000815174
12 *936:18 1.92174e-06
13 *936:19 0.000932898984
14 *936:20 8.80015e-05
15 *936:21 9.91334e-05
16 *936:22 0.000662944
17 *936:24 0.000897653
18 *936:25 0.000448748
19 *936:26 0.000417943
20 *936:27 0.000179548
21 *936:28 0.000414228
22 *936:29 4.18655e-05
23 *936:11 *1672:CDN 0.000427170977
24 *936:14 *625:6 0.000399476992
25 *936:26 *1121:I 0.00106215
26 *936:22 *840:5 0.000486021016
27 *936:9 *626:25 0.000674425
28 *936:10 *839:8 0.000420051016
29 *1703:A1 *1703:B2 0.000879838984

*RES
1 *1703:A1 *936:23 1.713
2 *936:13 *936:14 0.159178
3 *936:14 *936:15 4.60289
4 *936:9 *936:27 1.35811
5 *936:11 *936:20 1.74606
6 *936:12 *936:20 3.46569
7 *936:12 *936:26 2.30542
8 *936:18 *936:24 3.08774
9 *1699:A1 *936:26 0.884661
10 *936:25 *936:27 0.125914
11 *936:9 *936:17 3.45855
12 *936:25 *936:29 6.68709993
13 *1698:A1 *936:27 1.63412
14 *936:21 *936:28 3.29243
15 *936:17 *936:18 0.159178
16 *936:11 *936:13 1.79197
17 *936:24 *936:10 3.71068
18 *936:19 *936:10 3.55997
19 *936:15 *936:16 2.27063
20 *936:21 *936:22 1.31618
21 *936:16 *936:22 2.70429
22 *1701:A1 *936:13 0.630793
23 *1704:A1 *936:23 0.449983
24 *1702:A1 *936:22 0.449983
25 *1705:A1 *936:21 0.449983
26 *1700:A1 *936:20 0.449983
27 *1589:ZN *936:19 0.224992
28 *936:23 *936:28 0.224992
29 *936:26 *936:29 0.224992
*END

*D_NET *937 0.00588581

*CONN
*I *1762:A2 I *C 148.9 150.4 *L 0.000996 *D NR2D1
*I *1760:B1 I *C 148.9 130.8 *L 0.000658 *D IND2D0
*I *1612:ZN O *C 148.9 146.4 *L 0 *D CKND2D0
*I *1590:A2 I *C 147.7 128.8 *L 0.000664 *D NR2D0

*CAP
1 *1762:A2 4.82903e-05
2 *1590:A2 2.56652e-05
3 *937:4 0.000674154
4 *937:5 0.000627929
5 *937:6 0.000105311
6 *937:7 8.20818e-05
7 *937:8 2.29954e-06
8 *937:9 6.98046e-05
9 *937:10 0.00127712
10 *937:11 0.00103358
11 *937:13 0.000445058
12 *937:15 0.000157031
13 *937:16 0.000111352
14 *937:17 9.59375e-05
15 *937:4 *717:3 0.000248455
16 *937:5 *179:3 0.000217447988
17 *937:6 *536:11 0.000252786992
18 *1590:A2 *933:6 0.000216719004
19 *1762:A2 *908:4 0.000194760996

*RES
1 *937:10 *937:12 5.66617012
2 *1612:ZN *937:5 2.44039
3 *937:5 *937:15 0.704467
4 *937:6 *937:8 0.159257
5 *937:9 *937:10 0.285228
6 *1762:A2 *937:4 2.81372
7 *937:12 *937:13 0.159257
8 *937:13 *937:16 1.68102
9 *937:11 *937:15 3.2161
10 *937:11 *937:14 0.433851
11 *937:7 *937:8 0.504142
12 *1590:A2 *937:7 0.779946
13 *937:6 *937:9 0.799399
14 *937:16 *937:17 0.609795
15 *937:14 *937:17 1.91835
16 *1760:B1 *937:9 0.376701
17 *1612:ZN *937:4 0.450019
*END

*D_NET *938 0.00371229

*CONN
*I *1768:A1 I *C 146.9 130.8 *L 0.00134 *D NR3D1
*I *1767:B2 I *C 147.3 125.2 *L 0.000774 *D INR3D0
*I *1761:A1 I *C 147.3 120 *L 0.000681 *D IND2D0
*I *1611:ZN O *C 147.1 121.2 *L 0 *D CKND2D0
*I *1590:A1 I *C 147.3 128.8 *L 0.000647 *D NR2D0

*CAP
1 *1768:A1 8.95089e-05
2 *1767:B2 0.000197879
3 *1761:A1 0.000273604
4 *1590:A1 8.80292e-05
5 *938:5 0.0010207
6 *938:6 0.000447217
7 *938:7 0.000498443
8 *938:8 0.000479239
9 *938:9 0.000617653

*RES
1 *938:5 *938:6 3.6537199
2 *1767:B2 *938:9 0.857121
3 *938:7 *938:9 2.44375
4 *938:7 *938:8 2.05789
5 *938:5 *938:9 0.853888
6 *1590:A1 *938:6 0.513414
7 *1761:A1 *938:8 1.2684
8 *1768:A1 *938:6 1.85089
9 *1611:ZN *938:8 0.450025
*END

*D_NET *939 0.000367236

*CONN
*I *1411:I I *C 148.7 175.6 *L 0.00105 *D DEL1
*I *1613:ZN O *C 149.3 173.4 *L 0 *D INR2D0

*CAP
1 *1411:I 0.000137536
2 *1613:ZN 0.0002297

*RES
1 *1411:I *1613:ZN 1.97667
*END

*D_NET *940 0.0264887

*CONN
*I *1318:I I *C 151.1 89.2 *L 0.000968 *D CKBD1
*I *1613:A1 I *C 148.7 174 *L 0.00069 *D INR2D0
*I *1584:ZN O *C 150.015 88.855 *L 0 *D NR2D2
*I *1583:B2 I *C 145.1 12 *L 0.00101 *D AO222D1
*I *1582:B1 I *C 145.1 28 *L 0.000703 *D AO222D0
*I *1581:B1 I *C 145.3 20.8 *L 0.00104 *D AO222D1
*I *1580:B1 I *C 146.5 48 *L 0.000703 *D AO222D0
*I *1579:B1 I *C 145.5 17.2 *L 0.00104 *D AO222D1
*I *1578:B1 I *C 145.1 15.6 *L 0.00104 *D AO222D1
*I *1577:B1 I *C 147.3 55.2 *L 0.000703 *D AO222D0
*I *1576:B1 I *C 144.9 38.8 *L 0.000703 *D AO222D0
*I *1575:B2 I *C 145.1 30 *L 0.00101 *D AO222D1

*CAP
1 *1318:I 8.9537e-05
2 *1583:B2 0.000511981
3 *1580:B1 0.000100244
4 *1575:B2 1.05403e-06
5 *940:12 0.000478474
6 *940:13 0.00363557
7 *940:14 6.13001e-05
8 *940:15 0.000257405
9 *940:16 0.000282314
10 *940:17 0.000351325
11 *940:18 8.68188e-05
12 *940:19 0.000118717
13 *940:20 0.000666036
14 *940:21 0.0012123
15 *940:22 0.000473037
16 *940:23 0.000807276
17 *940:24 0.000176966
18 *940:25 0.000134971
19 *940:26 0.000606622
20 *940:27 0.000867466
21 *940:28 0.000147176
22 *940:29 0.000301064
23 *940:30 0.000319815
24 *940:32 0.0007984
25 *940:33 0.000487683
26 *940:34 1.33141e-06
27 *940:35 0.000977918
28 *940:36 3.62808e-05
29 *940:37 0.000652999
30 *940:38 8.25472e-05
31 *940:14 *308:3 0.000591246016
32 *1318:I *613:14 0.00221181016
33 *940:12 *316:9 0.000960962031
34 *940:13 *718:3 0.00179509
35 *940:13 *167:5 0.00362371
36 *940:14 *536:28 0.00258118016

*RES
1 *940:17 *940:25 1.11826
2 *940:18 *940:35 0.609067
3 *940:36 *940:38 1.61108
4 *940:15 *940:24 1.39742
5 *940:37 *940:13 53.6502991
6 *940:20 *940:21 2.56971
7 *940:12 *940:16 2.45837
8 *1613:A1 *940:28 0.450251
9 *940:15 *940:21 4.35679
10 *940:33 *940:34 0.159635
11 *940:28 *940:37 0.701573
12 *940:26 *940:35 4.72354
13 *940:34 *940:35 11.262
14 *940:19 *940:36 0.450251
15 *940:23 *940:24 1.43835
16 *940:20 *940:22 1.78873
17 *1318:I *940:19 1.28281
18 *1580:B1 *940:29 0.450251
19 *940:14 *940:32 8.02757
20 *940:27 *940:30 1.40888
21 *940:14 *940:38 0.855477
22 *940:23 *940:30 5.01416
23 *940:16 *940:29 2.68022
24 *940:12 *940:17 1.92626
25 *1583:B2 *940:22 2.48621
26 *1575:B2 *940:23 0.671284
27 *940:25 *940:27 2.74899
28 *940:31 *940:33 2.98967
29 *940:31 *940:32 0.159635
30 *940:26 *940:29 0.798991
31 *1576:B1 *940:25 0.450251
32 *1582:B1 *940:24 0.450251
33 *1578:B1 *940:22 0.450251
34 *1581:B1 *940:21 0.450251
35 *1579:B1 *940:20 0.450251
36 *1584:ZN *940:19 0.450251
37 *1577:B1 *940:18 0.225126
38 *940:38 *940:13 0.225126
*END

