*SPEF "IEEE 1481-1998"
*DESIGN "output_idx_controller"
*DATE "Sun Mar 22 14:16:51 2026"
*VENDOR "Cadence Design Systems, Inc."
*PROGRAM "Innovus"
*VERSION "21.16-s078_1"
*DESIGN_FLOW "COUPLING C" "PIN_CAP NONE" "NAME_SCOPE LOCAL"
*DIVIDER /
*DELIMITER :
*BUS_DELIMITER []
*T_UNIT 1 NS
*C_UNIT 1 PF
*R_UNIT 1 OHM
*L_UNIT 1 HENRY

// MMMC spef file for corner 'RC_WORST'

*NAME_MAP

*1 FE_PHN78_c_row_idx_1
*2 FE_PHN76_c_row_idx_0
*3 FE_PHN74_c_row_idx_2
*4 FE_PHN73_rstn
*5 FE_PHN72_n_5
*6 FE_PHN71_n_6
*7 FE_PHN70_n_181
*8 FE_PHN69_n_171
*9 FE_PHN68_n_168
*10 FE_PHN67_n_167
*11 FE_PHN66_n_176
*12 FE_PHN65_n_160
*13 FE_PHN64_n_170
*14 FE_PHN63_n_190
*15 FE_PHN62_n_179
*16 FE_PHN61_FE_OFN3_c_col_idx_7
*17 FE_PHN60_FE_OFN5_c_col_idx_6
*18 FE_PHN59_FE_OFN1_c_col_idx_8
*19 FE_PHN58_n_71
*20 FE_PHN57_n_107
*21 FE_PHN56_n_145
*22 FE_PHN55_n_157
*23 FE_PHN54_n_189
*24 FE_PHN53_n_186
*25 FE_PHN52_done_flag_166
*26 FE_PHN48_n_250
*27 FE_PHN47_c_col_os_5
*28 FE_PHN46_c_col_os_4
*29 FE_PHN45_c_col_idx_temp_4
*30 FE_PHN44_n_4
*31 FE_PHN43_n_5
*32 FE_PHN42_n_6
*33 FE_PHN41_n_24
*34 FE_PHN40_c_col_os_6
*35 FE_PHN39_c_col_idx_temp_5
*36 FE_PHN38_n_15
*37 FE_PHN37_n_18
*38 FE_PHN36_n_14
*39 FE_PHN35_n_0
*40 FE_PHN34_n_16
*41 FE_PHN33_n_17
*42 FE_PHN32_c_col_os_3
*43 FE_PHN31_n_232
*44 FE_PHN30_n_238
*45 FE_PHN29_c_col_idx_temp_6
*46 FE_PHN28_c_col_idx_temp_7
*47 FE_PHN27_c_col_idx_temp_3
*48 FE_PHN26_num_computated_1
*49 FE_PHN25_num_computated_6
*50 FE_PHN24_n_109
*51 FE_PHN23_num_computated_0
*52 FE_PHN22_num_computated_3
*53 FE_PHN21_num_computated_5
*54 FE_PHN20_n_32
*55 FE_PHN19_u_out_ac_i_4
*56 FE_PHN18_u_out_ac_i_3
*57 FE_PHN17_rstn
*58 FE_OFN16_c_col_idx_2
*59 FE_OFN15_c_col_idx_1
*60 FE_OFN14_c_col_idx_0
*61 CTS_1
*62 CTS_3
*63 CTS_2
*64 FE_OFN13_n_190
*65 FE_OFN12_c_col_idx_3
*66 FE_OFN11_c_col_idx_3
*67 FE_OFN10_c_col_idx_4
*68 FE_OFN9_c_col_idx_4
*69 FE_OFN8_c_col_idx_5
*70 FE_OFN7_c_col_idx_5
*71 FE_OFN6_c_col_idx_6
*72 FE_OFN5_c_col_idx_6
*73 FE_OFN4_c_col_idx_7
*74 FE_OFN3_c_col_idx_7
*75 FE_OFN2_c_col_idx_8
*76 FE_OFN1_c_col_idx_8
*77 clk
*78 rstn
*79 alu_init
*80 in_valid
*81 row_idx[2]
*82 row_idx[1]
*83 row_idx[0]
*84 num_computation[6]
*85 num_computation[5]
*86 num_computation[4]
*87 num_computation[3]
*88 num_computation[2]
*89 num_computation[1]
*90 num_computation[0]
*91 m[6]
*92 m[5]
*93 m[4]
*94 m[3]
*95 m[2]
*96 m[1]
*97 m[0]
*98 k[6]
*99 k[5]
*100 k[4]
*101 k[3]
*102 k[2]
*103 k[1]
*104 k[0]
*105 c_row_idx[8]
*106 c_row_idx[7]
*107 c_row_idx[6]
*108 c_row_idx[5]
*109 c_row_idx[4]
*110 c_row_idx[3]
*111 c_row_idx[2]
*112 c_row_idx[1]
*113 c_row_idx[0]
*114 c_col_idx[8]
*115 c_col_idx[7]
*116 c_col_idx[6]
*117 c_col_idx[5]
*118 c_col_idx[4]
*119 c_col_idx[3]
*120 c_col_idx[2]
*121 c_col_idx[1]
*122 c_col_idx[0]
*123 done_flag
*124 c_col_os[8]
*125 c_col_os[7]
*126 c_col_os[6]
*127 c_col_os[5]
*128 c_col_os[4]
*129 c_col_os[3]
*130 num_computated[6]
*131 num_computated[5]
*132 num_computated[4]
*133 num_computated[3]
*134 num_computated[2]
*135 num_computated[1]
*136 num_computated[0]
*137 c_col_idx_temp[8]
*138 c_col_idx_temp[7]
*139 c_col_idx_temp[6]
*140 c_col_idx_temp[5]
*141 c_col_idx_temp[4]
*142 c_col_idx_temp[3]
*143 u_out_ac_i[8]
*144 u_out_ac_i[7]
*145 u_out_ac_i[6]
*146 u_out_ac_i[5]
*147 u_out_ac_i[4]
*148 u_out_ac_i[3]
*149 done_flag_166
*150 n_0
*151 n_1
*152 n_2
*153 n_4
*154 n_5
*155 n_6
*156 n_7
*157 n_9
*158 n_12
*159 n_14
*160 n_15
*161 n_16
*162 n_17
*163 n_18
*164 n_19
*165 n_20
*166 n_21
*167 n_22
*168 n_23
*169 n_24
*170 n_27
*171 n_28
*172 n_29
*173 n_30
*174 n_31
*175 n_32
*176 n_33
*177 n_34
*178 n_35
*179 n_37
*180 n_38
*181 n_39
*182 n_40
*183 n_41
*184 n_42
*185 n_43
*186 n_44
*187 n_45
*188 n_47
*189 n_49
*190 n_50
*191 n_51
*192 n_52
*193 n_53
*194 n_54
*195 n_55
*196 n_56
*197 n_57
*198 n_58
*199 n_59
*200 n_60
*201 n_61
*202 n_62
*203 n_63
*204 n_64
*205 n_65
*206 n_66
*207 n_67
*208 n_68
*209 n_69
*210 n_70
*211 n_71
*212 n_73
*213 n_75
*214 n_76
*215 n_77
*216 n_78
*217 n_79
*218 n_80
*219 n_81
*220 n_82
*221 n_83
*222 n_84
*223 n_85
*224 n_86
*225 n_87
*226 n_88
*227 n_89
*228 n_90
*229 n_91
*230 n_93
*231 n_95
*232 n_96
*233 n_97
*234 n_99
*235 n_100
*236 n_102
*237 n_103
*238 n_104
*239 n_105
*240 n_106
*241 n_107
*242 n_108
*243 n_109
*244 n_110
*245 n_111
*246 n_113
*247 n_114
*248 n_115
*249 n_116
*250 n_117
*251 n_118
*252 n_119
*253 n_120
*254 n_121
*255 n_122
*256 n_124
*257 n_125
*258 n_126
*259 n_127
*260 n_128
*261 n_129
*262 n_130
*263 n_131
*264 n_132
*265 n_133
*266 n_134
*267 n_136
*268 n_137
*269 n_138
*270 n_139
*271 n_140
*272 n_141
*273 n_142
*274 n_143
*275 n_144
*276 n_145
*277 n_147
*278 n_148
*279 n_149
*280 n_150
*281 n_151
*282 n_152
*283 n_154
*284 n_155
*285 n_156
*286 n_157
*287 n_158
*288 n_159
*289 n_160
*290 n_161
*291 n_162
*292 n_163
*293 n_164
*294 n_165
*295 n_166
*296 n_167
*297 n_168
*298 n_169
*299 n_170
*300 n_171
*301 n_172
*302 n_173
*303 n_174
*304 n_175
*305 n_176
*306 n_177
*307 n_178
*308 n_179
*309 n_180
*310 n_181
*311 n_182
*312 n_183
*313 n_184
*314 n_185
*315 n_186
*316 n_187
*317 n_188
*318 n_189
*319 n_190
*320 n_206
*321 n_207
*322 n_208
*323 n_209
*324 n_210
*325 n_211
*326 n_232
*327 n_238
*328 n_250
*329 n_254
*330 n_255
*331 FE_PHC79_c_row_idx_1
*332 FE_PHC77_c_row_idx_0
*333 FE_PHC75_c_row_idx_2
*334 FE_PHC73_rstn
*335 FE_PHC72_n_5
*336 FE_PHC71_n_6
*337 FE_PHC70_n_181
*338 FE_PHC69_n_171
*339 FE_PHC68_n_168
*340 FE_PHC67_n_167
*341 FE_PHC66_n_176
*342 FE_PHC65_n_160
*343 FE_PHC64_n_170
*344 FE_PHC63_n_190
*345 FE_PHC62_n_179
*346 FE_PHC61_FE_OFN3_c_col_idx_7
*347 FE_PHC60_FE_OFN5_c_col_idx_6
*348 FE_PHC59_FE_OFN1_c_col_idx_8
*349 FE_PHC58_n_71
*350 FE_PHC57_n_107
*351 FE_PHC56_n_145
*352 FE_PHC55_n_157
*353 FE_PHC54_n_189
*354 FE_PHC53_n_186
*355 FE_PHC52_done_flag_166
*356 FE_PHC51_c_row_idx_1
*357 FE_PHC50_c_row_idx_0
*358 FE_PHC49_c_row_idx_2
*359 FE_PHC48_n_250
*360 FE_PHC47_c_col_os_5
*361 FE_PHC46_c_col_os_4
*362 FE_PHC45_c_col_idx_temp_4
*363 FE_PHC44_n_4
*364 FE_PHC43_n_5
*365 FE_PHC42_n_6
*366 FE_PHC41_n_24
*367 FE_PHC40_c_col_os_6
*368 FE_PHC39_c_col_idx_temp_5
*369 FE_PHC38_n_15
*370 FE_PHC37_n_18
*371 FE_PHC36_n_14
*372 FE_PHC35_n_0
*373 FE_PHC34_n_16
*374 FE_PHC33_n_17
*375 FE_PHC32_c_col_os_3
*376 FE_PHC31_n_232
*377 FE_PHC30_n_238
*378 FE_PHC29_c_col_idx_temp_6
*379 FE_PHC28_c_col_idx_temp_7
*380 FE_PHC27_c_col_idx_temp_3
*381 FE_PHC26_num_computated_1
*382 FE_PHC25_num_computated_6
*383 FE_PHC24_n_109
*384 FE_PHC23_num_computated_0
*385 FE_PHC22_num_computated_3
*386 FE_PHC21_num_computated_5
*387 FE_PHC20_n_32
*388 FE_PHC19_u_out_ac_i_4
*389 FE_PHC18_u_out_ac_i_3
*390 FE_PHC17_rstn
*391 FE_OFC16_c_col_idx_2
*392 FE_OFC15_c_col_idx_1
*393 FE_OFC14_c_col_idx_0
*394 CTS_ccl_a_inv_00002
*395 CTS_ccl_a_inv_00001
*396 CTS_cmf_inv_00050
*397 LTIELO_2
*398 LTIELO_1
*399 LTIELO
*400 FE_OFC13_n_190
*401 FE_OFC12_c_col_idx_3
*402 FE_OFC11_c_col_idx_3
*403 FE_OFC10_c_col_idx_4
*404 FE_OFC9_c_col_idx_4
*405 FE_OFC8_c_col_idx_5
*406 FE_OFC7_c_col_idx_5
*407 FE_OFC6_c_col_idx_6
*408 FE_OFC5_c_col_idx_6
*409 FE_OFC4_c_col_idx_7
*410 FE_OFC3_c_col_idx_7
*411 FE_OFC2_c_col_idx_8
*412 FE_OFC1_c_col_idx_8
*413 c_col_os_reg\[8\]
*414 p18291A__2398
*415 num_computated_reg\[5\]
*416 num_computated_reg\[1\]
*417 num_computated_reg\[3\]
*418 c_col_os_reg\[3\]
*419 num_computated_reg\[0\]
*420 p18250A__5107
*421 p18246A3671__6260
*422 p18246A3670__4319
*423 p18246A3669__8428
*424 p18246A__5526
*425 num_computated_reg\[6\]
*426 c_col_os_reg\[5\]
*427 c_col_os_reg\[4\]
*428 p18240A__6783
*429 p18289A3679__3680
*430 p18332A3678__1617
*431 p18289A3680__2802
*432 p18289A3681__1705
*433 p18289A3682__5122
*434 p18332A3683__8246
*435 p18332A__7098
*436 p18332A3676__6131
*437 p18332A3677__1881
*438 p18289A__5115
*439 p18222A__7482
*440 p18222A3674__4733
*441 p18222A3675__6161
*442 p18221A__9315
*443 Fp18296A
*444 p18260A__9945
*445 Fp18200A
*446 p18227A__2883
*447 p18251A__2346
*448 p18212A__1666
*449 p17878A__7410
*450 Fp18257A
*451 p18258A__6417
*452 p17867A__5477
*453 p13248A__2398
*454 p17946A__5107
*455 p17850A__6260
*456 p13239A__4319
*457 p13247A__8428
*458 p17717A__5526
*459 p13293A__6783
*460 p18170A__3680
*461 p13222A__1617
*462 p17922A__2802
*463 p17815A__1705
*464 p13290A__5122
*465 p13282A__8246
*466 p18366A__7098
*467 p13336A__6131
*468 p17705A__1881
*469 p18007A__5115
*470 p17928A__7482
*471 p13197A__4733
*472 p18008A__6161
*473 p17772A__9315
*474 p17875A__9945
*475 p18432A__2346
*476 p13327A__1666
*477 p13336A3684__7410
*478 p17951A__6417
*479 p17613A__5477
*480 p18185A__2398
*481 p13383A__5107
*482 p18395A__6260
*483 p18368A__4319
*484 p18107A__8428
*485 p18189A__5526
*486 p17929A__6783
*487 p17815A3685__3680
*488 p13185A__1617
*489 p13399A__2802
*490 p17709A__1705
*491 p17736A__5122
*492 p18469A__7098
*493 p17777A__1881
*494 p13375A__5115
*495 p17700A__7482
*496 p17835A__4733
*497 p17830A__6161
*498 p18118A__9315
*499 p18451A__9945
*500 p18415A__2883
*501 p18339A__2346
*502 p13380A__1666
*503 p18724A__5477
*504 Fp18114A
*505 p17629A__2398
*506 p17726A__5107
*507 p18487A__6260
*508 p18177A__4319
*509 p18449A__8428
*510 Fp13166A
*511 p18396A__5526
*512 p18365A__6783
*513 p18328A__3680
*514 p17833A__1617
*515 p17756A__2802
*516 p13392A__1705
*517 p18162A__5122
*518 p18080A__8246
*519 p18524A3686__6131
*520 Fp13384A
*521 p18183A__1881
*522 p13383A3688__5115
*523 p18288A__7482
*524 p13388A__4733
*525 p13168A__6161
*526 p13473A__9315
*527 p17750A__9945
*528 p17713A__2883
*529 p17703A__2346
*530 p17778A__1666
*531 p17782A__7410
*532 p17644A__6417
*533 p17756A3691__5477
*534 p17609A__2398
*535 p17833A3689__5107
*536 Fp17843A
*537 p13356A__6260
*538 p18299A__4319
*539 p18332A3687__8428
*540 p18362A__5526
*541 p18532A__6783
*542 p18070A__3680
*543 Fp17729A
*544 p13360A__1617
*545 p17648A__2802
*546 Fp18082A
*547 Fp18131A
*548 p18274A__8246
*549 p13343A__7098
*550 p17586A__6131
*551 p17741A__1881
*552 p18008A3690__5115
*553 p18431A__7482
*554 p13377A__4733
*555 p17825A__6161
*556 p17734A__9315
*557 p17647A__9945
*558 p13274A__2883
*559 p17634A__2346
*560 p17711A__1666
*561 p17790A__7410
*562 p17689A__6417
*563 p18107A3692__5477
*564 p13177A__2398
*565 p13166A__5107
*566 p18081A__6260
*567 p18319A__4319
*568 p13132A__8428
*569 p13216A__5526
*570 p17794A__6783
*571 p13310A__3680
*572 p13374A__1617
*573 p13233A__2802
*574 p18282A__1705
*575 p17641A__5122
*576 Fp18292A
*577 Fp18018A
*578 Fp18786A
*579 Fp18100A
*580 g2
*581 g3724
*582 g3725
*583 g3726
*584 g3727
*585 g3728
*586 drc_bufs3729
*587 drc_bufs3735
*588 drc_bufs3741
*589 drc_bufs3747
*590 drc_bufs3753
*591 drc_bufs3759
*592 drc_bufs3765
*593 c_col_os_reg\[7\]
*594 u_out_ac_j_reg\[8\]
*595 u_out_ac_j_reg\[3\]
*596 num_computated_reg\[2\]
*597 u_out_ac_j_reg\[6\]
*598 c_col_os_reg\[6\]
*599 u_out_ac_j_reg\[5\]
*600 u_out_ac_j_reg\[4\]
*601 u_out_ac_j_reg\[7\]
*602 num_computated_reg\[4\]
*603 u_out_ac_i_reg\[5\]
*604 u_out_ac_i_reg\[6\]
*605 u_out_ac_i_reg\[7\]
*606 u_out_ac_i_reg\[3\]
*607 u_out_ac_i_reg\[4\]
*608 u_out_ac_i_reg\[8\]
*609 done_flag_reg
*610 g3804
*611 g3805


*PORTS

*77 I *C 0 26
*78 I *C 0 36
*79 I *C 0 46
*80 I *C 0 56
*81 I *C 27.4 0
*82 I *C 26.7 0
*83 I *C 26 0
*84 I *C 32.3 0
*85 I *C 31.6 0
*86 I *C 30.9 0
*87 I *C 30.2 0
*88 I *C 29.5 0
*89 I *C 28.8 0
*90 I *C 28.1 0
*91 I *C 37.2 0
*92 I *C 36.5 0
*93 I *C 35.8 0
*94 I *C 35.1 0
*95 I *C 34.4 0
*96 I *C 33.7 0
*97 I *C 33 0
*98 I *C 42.1 0
*99 I *C 41.4 0
*100 I *C 40.7 0
*101 I *C 40 0
*102 I *C 39.3 0
*103 I *C 38.6 0
*104 I *C 37.9 0
*105 O *C 31.6 100
*106 O *C 30.9 100
*107 O *C 30.2 100
*108 O *C 29.5 100
*109 O *C 28.8 100
*110 O *C 28.1 100
*111 O *C 27.4 100
*112 O *C 26.7 100
*113 O *C 26 100
*114 O *C 37.9 100
*115 O *C 37.2 100
*116 O *C 36.5 100
*117 O *C 35.8 100
*118 O *C 35.1 100
*119 O *C 34.4 100
*120 O *C 33.7 100
*121 O *C 33 100
*122 O *C 32.3 100
*123 O *C 100 26


*D_NET *1 0.00650066

*CONN
*I *356:Z O *C 57.7 29.6 *L 0 *D BUFFD12
*I *548:A2 I *C 28.3 47.8 *L 0.000705 *D ND4D0
*I *331:I I *C 58.1 33.6 *L 0.00382 *D BUFFD12

*CAP
1 *331:I 7.75177e-05
2 *548:A2 0.000413247
3 *1:3 0.00154552
4 *1:4 2.5399e-05
5 *1:5 0.000298562
6 *1:6 0.000350186
7 *1:7 0.000573542
8 *1:8 0.000309222
9 *1:9 3.62001e-05
10 *1:10 0.000467795
11 *1:11 0.000274767
12 *1:12 0.000505999
13 *1:13 0.00040853
14 *1:14 0.000182345
15 *1:15 2.87478e-05
16 *1:3 *102:5 0.000219335996
17 *548:A2 *2:5 0.000465131016
18 *1:3 *103:4 0.000318555

*RES
1 *1:6 *1:7 3.50893
2 *1:4 *1:13 4.63582
3 *1:14 *1:15 3.80949
4 *1:4 *1:12 4.93877
5 *1:8 *1:3 11.9890003
6 *1:7 *1:14 6.04408
7 *1:5 *1:13 6.34757
8 *1:3 *1:15 11.672
9 *1:10 *1:11 2.09226
10 *1:8 *1:9 2.6976
11 *1:9 *1:10 4.66619
12 *1:6 *1:12 2.11348
13 *331:I *1:12 2.99999
14 *548:A2 *1:11 5.85382
15 *356:Z *1:5 1.50009
*END

*D_NET *2 0.00756028

*CONN
*I *357:Z O *C 56.7 28.8 *L 0 *D BUFFD12
*I *548:A1 I *C 28.7 47.8 *L 0.000678 *D ND4D0
*I *332:I I *C 57.1 32 *L 0.00382 *D BUFFD12

*CAP
1 *357:Z 0.000318669
2 *2:3 0.000663279
3 *2:4 0.00048951
4 *2:5 0.000981697
5 *2:6 0.000187894
6 *2:7 8.53533e-07
7 *2:8 7.81736e-05
8 *2:9 8.67759e-05
9 *2:10 0.000178154
10 *2:11 0.00109277
11 *2:12 5.40404e-05
12 *2:13 0.000538312
13 *2:14 0.00109678992
14 *2:15 0.000789217
15 *2:11 *416:CP 0.000233370996
16 *2:5 *548:A2 0.000465131016
17 *2:5 *3:3 0.000305651016

*RES
1 *2:4 *2:8 7.77069
2 *2:7 *2:8 0.729214
3 *2:10 *2:11 12.1603
4 *2:3 *2:6 0.584738
5 *357:Z *2:4 3.25434
6 *2:13 *2:15 4.57855
7 *2:5 *2:14 9.3663
8 *2:11 *2:12 0.133082
9 *2:3 *2:7 6.09167
10 *2:14 *2:15 14.9343004
11 *2:9 *2:10 2.33941
12 *2:6 *2:9 3.80832
13 *2:12 *2:13 4.34953
14 *332:I *2:6 1.4999
15 *548:A1 *2:5 1.4999
*END

*D_NET *3 0.0056304

*CONN
*I *358:Z O *C 52.3 28.8 *L 0 *D BUFFD12
*I *523:A1 I *C 33.7 48 *L 0.00069 *D INR2D0
*I *333:I I *C 53.1 33.6 *L 0.00382 *D BUFFD12

*CAP
1 *333:I 8.2658e-05
2 *358:Z 0.000635476
3 *3:3 0.000626872
4 *3:4 0.000436659
5 *3:5 0.000195873
6 *3:6 0.00149558
7 *3:7 0.000830459
8 *3:8 3.14931e-06
9 *3:9 0.000449667
10 *3:3 *2:5 0.000305651016
11 *3:4 *416:CP 0.000318744004
12 *358:Z *57:38 0.000249599004

*RES
1 *3:7 *3:8 0.133165
2 *3:6 *3:7 6.36189
3 *3:4 *3:6 18.2194004
4 *358:Z *3:5 6.1937
5 *3:8 *3:9 4.54429
6 *3:3 *3:9 6.60014
7 *3:5 *3:4 6.17813
8 *333:I *3:5 3.25434
9 *523:A1 *3:3 1.50012
*END

*D_NET *4 0.00161092

*CONN
*I *334:Z O *C 32.9 28.8 *L 0 *D DEL01
*I *390:I I *C 27.5 35.6 *L 0.00072 *D BUFFD1

*CAP
1 *390:I 0.000145018
2 *4:2 0.000890281953
3 *4:3 2.89357e-06
4 *4:4 0.000458529
5 *4:5 0.000114208

*RES
1 *4:2 *4:4 1.20016
2 *4:3 *4:4 4.62641
3 *4:2 *4:5 7.41946983
4 *334:Z *4:5 3.00001
5 *390:I *4:3 3.02073
*END

*D_NET *5 0.00072472

*CONN
*I *335:Z O *C 29.7 69.2 *L 0 *D DEL015
*I *588:I I *C 32.3 71.6 *L 0.0113 *D INVD12

*CAP
1 *588:I 0.000340708984
2 *335:Z 8.20956e-05
3 *5:2 0.000301915

*RES
1 *588:I *5:2 7.06379986
2 *335:Z *5:2 2.99998
*END

*D_NET *6 0.000671222

*CONN
*I *336:Z O *C 29.7 68.4 *L 0 *D DEL015
*I *587:I I *C 27.7 66 *L 0.0113 *D INVD12

*CAP
1 *587:I 0.000111289
2 *336:Z 0.000294501016
3 *6:2 0.000265435

*RES
1 *336:Z *6:2 6.33143997
2 *587:I *6:2 3.00003
*END

*D_NET *7 0.00207887

*CONN
*I *337:Z O *C 55.7 36.8 *L 0 *D DEL0
*I *418:D I *C 40.9 37.2 *L 0.000885 *D DFKCNQD1

*CAP
1 *7:2 0.000846058047
2 *7:3 0.000180882
3 *7:4 0.000265456
4 *7:5 0.000231451
5 *7:6 0.00055504

*RES
1 *7:4 *7:5 2.33918
2 *418:D *7:2 1.88975
3 *7:5 *7:6 5.01813
4 *7:3 *7:4 2.92414
5 *7:2 *7:6 7.27439022
6 *337:Z *7:3 4.33371
*END

*D_NET *8 0.00402463

*CONN
*I *338:Z O *C 47.9 65.6 *L 0 *D DEL0
*I *603:D I *C 30.3 55.2 *L 0.000958 *D DFD1

*CAP
1 *603:D 0.000196003
2 *8:2 0.000365905
3 *8:3 0.00085918
4 *8:4 0.000225718
5 *8:5 0.000505565
6 *8:6 8.65852e-05
7 *8:7 0.000987016953
8 *8:8 2.57993e-05
9 *8:9 0.000772851

*RES
1 *8:8 *8:9 6.49313
2 *8:2 *8:3 6.69846
3 *8:7 *8:8 0.133068
4 *8:6 *8:7 10.2959995
5 *8:3 *8:4 1.43829
6 *8:2 *8:9 4.78226
7 *603:D *8:5 2.89496
8 *8:4 *8:5 3.1179
9 *338:Z *8:6 1.50003
*END

*D_NET *9 0.00382413

*CONN
*I *339:Z O *C 44.1 69.2 *L 0 *D DEL0
*I *604:D I *C 30.5 57.2 *L 0.000958 *D DFD1

*CAP
1 *604:D 0.00110301992
2 *9:2 0.000425235
3 *9:3 0.000760795
4 *9:4 0.000515012
5 *9:5 8.47778e-05
6 *9:6 0.000498635
7 *9:7 0.00043668

*RES
1 *9:6 *9:7 3.2868
2 *9:5 *9:6 5.42872
3 *9:2 *9:3 3.14871
4 *9:2 *9:4 3.89739
5 *604:D *9:4 8.63514996
6 *9:3 *9:7 7.70056
7 *339:Z *9:5 1.49998
*END

*D_NET *10 0.00301976

*CONN
*I *340:Z O *C 54.5 58.4 *L 0 *D DEL0
*I *605:D I *C 30.9 58.8 *L 0.000958 *D DFD1

*CAP
1 *605:D 0.000424828
2 *10:2 6.93272e-05
3 *10:3 0.000706807031
4 *10:4 3.50303e-05
5 *10:5 0.000472844
6 *10:6 0.000359632
7 *10:7 0.000422229
8 *10:8 0.000529056

*RES
1 *10:5 *10:6 3.44745
2 *10:7 *10:8 3.90206
3 *10:6 *10:7 3.70291
4 *10:4 *10:5 4.934
5 *10:2 *10:3 7.53107977
6 *10:3 *10:4 0.327968
7 *605:D *10:8 5.59729
8 *340:Z *10:2 1.49999
*END

*D_NET *11 0.00334179

*CONN
*I *341:Z O *C 57.5 54.8 *L 0 *D DEL0
*I *608:D I *C 32.5 55.2 *L 0.000958 *D DFD1

*CAP
1 *608:D 0.000162912
2 *11:2 0.00196475
3 *11:3 9.29685e-05
4 *11:4 0.000657675
5 *11:5 0.000175714
6 *11:6 0.00028778

*RES
1 *11:4 *11:5 0.1333
2 *11:3 *11:4 8.06058
3 *11:2 *11:6 17.9015999
4 *608:D *11:2 2.26502
5 *11:5 *11:6 2.33986
6 *341:Z *11:3 1.4999
*END

*D_NET *12 0.00138242

*CONN
*I *342:Z O *C 52.7 36 *L 0 *D DEL0
*I *609:SA I *C 49.9 30 *L 0.00154 *D DFXD1

*CAP
1 *609:SA 0.000562243
2 *12:2 0.000726987031
3 *12:3 9.31821e-05

*RES
1 *12:2 *12:3 8.55265045
2 *609:SA *12:2 4.77785
3 *342:Z *12:3 1.5
*END

*D_NET *13 0.00829947

*CONN
*I *343:Z O *C 57.1 44 *L 0 *D DEL0
*I *437:A1 I *C 35.5 58.8 *L 0.000721 *D MOAI22D0
*I *434:A1 I *C 28.1 53.6 *L 0.000721 *D MOAI22D0
*I *436:A1 I *C 28.1 58.8 *L 0.000721 *D MOAI22D0
*I *430:A1 I *C 33.3 57.2 *L 0.000721 *D MOAI22D0
*I *443:I I *C 33.7 51.4 *L 0.00062 *D CKND0
*I *435:A1 I *C 30.9 46.4 *L 0.000721 *D MOAI22D0

*CAP
1 *435:A1 0.000419781
2 *443:I 7.91014e-06
3 *436:A1 0.000130653
4 *434:A1 8.98896e-05
5 *437:A1 0.000249631
6 *343:Z 0.000202152
7 *13:7 0.000452236
8 *13:8 0.00050062
9 *13:9 0.000637644
10 *13:10 8.14184e-05
11 *13:11 0.000407834
12 *13:12 0.000363305
13 *13:13 0.000227349
14 *13:14 0.000957345
15 *13:15 0.000342978
16 *13:16 0.000742739
17 *13:17 0.000603578
18 *13:18 6.14529e-05
19 *13:19 0.00118625
20 *13:20 0.000634694

*RES
1 *13:15 *13:16 5.59894
2 *13:17 *13:18 3.38983
3 *343:Z *13:13 6.53974
4 *13:9 *13:10 4.69004
5 *435:A1 *13:19 6.86694
6 *13:16 *13:17 4.65735
7 *13:8 *13:19 5.03706
8 *13:7 *13:11 2.88048
9 *13:7 *13:20 6.56719
10 *13:18 *13:19 5.29301
11 *436:A1 *13:9 3.84095
12 *434:A1 *13:10 3.58453
13 *13:14 *13:15 7.0199
14 *13:13 *13:14 3.39792
15 *443:I *13:12 1.98918
16 *13:7 *13:12 2.53329
17 *437:A1 *13:11 10.3991003
18 *13:8 *13:12 3.6115
19 *430:A1 *13:11 2.99996
20 *13:10 *13:20 1.49998
*END

*D_NET *14 0.00262201

*CONN
*I *344:Z O *C 48.9 36.8 *L 0 *D DEL015
*I *400:I I *C 36.5 40.8 *L 0.000968 *D CKBD1

*CAP
1 *400:I 0.000160428
2 *344:Z 0.000379969
3 *14:2 5.76755e-05
4 *14:3 0.00101307
5 *14:4 0.00101086

*RES
1 *14:2 *14:4 9.40859985
2 *344:Z *14:2 3.685
3 *14:3 *14:4 6.00025
4 *400:I *14:3 6.30073
*END

*D_NET *15 0.00167616

*CONN
*I *345:Z O *C 57.3 54 *L 0 *D DEL0
*I *594:D I *C 47.3 53.6 *L 0.000958 *D DFD1

*CAP
1 *15:2 7.64771e-05
2 *15:3 0.000680396
3 *15:4 0.000919282031

*RES
1 *15:2 *15:4 8.38887024
2 *15:3 *15:4 5.5596
3 *594:D *15:3 1.49995
4 *345:Z *15:2 1.49995
*END

*D_NET *16 0.00046516

*CONN
*I *346:Z O *C 48.7 62 *L 0 *D DEL01
*I *410:I I *C 46.5 62.4 *L 0.00104 *D INVD1

*CAP
1 *410:I 9.52733e-05
2 *16:2 8.4237e-05
3 *16:3 0.00028565002

*RES
1 *16:2 *16:3 3.64379001
2 *410:I *16:3 3
3 *346:Z *16:2 1.50003
*END

*D_NET *17 0.000588342

*CONN
*I *347:Z O *C 45.3 65.6 *L 0 *D DEL01
*I *408:I I *C 42.7 66 *L 0.00104 *D INVD1

*CAP
1 *408:I 9.65887e-05
2 *17:2 9.27408e-05
3 *17:3 0.000399013008

*RES
1 *17:2 *17:3 4.81587982
2 *408:I *17:3 3
3 *347:Z *17:2 1.49997
*END

*D_NET *18 0.000630259

*CONN
*I *348:Z O *C 52.5 64.8 *L 0 *D DEL01
*I *412:I I *C 48.7 64.4 *L 0.00104 *D INVD1

*CAP
1 *412:I 8.38896e-05
2 *18:2 9.36168e-05
3 *18:3 0.000452746992

*RES
1 *18:2 *18:3 5.66074991
2 *412:I *18:3 3.00002
3 *348:Z *18:2 1.50001
*END

*D_NET *19 0.00235792

*CONN
*I *349:Z O *C 35.9 50.4 *L 0 *D CKBD0
*I *503:A1 I *C 35.7 51.6 *L 0.000647 *D NR2D0
*I *455:C I *C 37.3 40.8 *L 0.000698 *D OAI211D0

*CAP
1 *503:A1 0.000197715
2 *19:3 0.000909663047
3 *19:4 0.000634398
4 *19:5 6.95e-05
5 *19:6 0.000477478
6 *19:7 6.91669e-05

*RES
1 *19:3 *19:7 3.05915
2 *19:6 *19:7 4.91105986
3 *19:4 *19:5 4.43604
4 *503:A1 *19:5 2.93932
5 *19:3 *19:4 4.46129
6 *455:C *19:6 1.50001
7 *349:Z *19:5 3.00002
*END

*D_NET *20 0.00305288

*CONN
*I *350:Z O *C 57.5 46.8 *L 0 *D DEL0
*I *427:D I *C 38.3 46.2 *L 0.000644 *D EDFKCNQD1

*CAP
1 *20:2 9.46642e-05
2 *20:3 0.00262651
3 *20:4 0.000331725

*RES
1 *20:2 *20:4 4.66436
2 *20:3 *20:4 21.5042992
3 *427:D *20:3 1.49988
4 *350:Z *20:2 1.49988
*END

*D_NET *21 0.00320804

*CONN
*I *351:Z O *C 53.7 43.2 *L 0 *D DEL0
*I *426:D I *C 38.1 49.8 *L 0.000644 *D EDFKCNQD1

*CAP
1 *21:2 0.00177051
2 *21:3 0.000515713
3 *21:4 3.59316e-05
4 *21:5 0.000461897
5 *21:6 0.000351644
6 *21:7 7.23495e-05

*RES
1 *21:3 *21:4 5.0493
2 *21:6 *21:7 3.31319
3 *21:5 *21:6 0.133131
4 *21:4 *21:5 3.95975
5 *426:D *21:2 7.54092979
6 *21:2 *21:7 7.39848
7 *351:Z *21:3 1.49999
*END

*D_NET *22 0.00276023

*CONN
*I *352:Z O *C 60.1 50.4 *L 0 *D DEL0
*I *598:D I *C 43.9 49.8 *L 0.000646 *D EDFKCND1

*CAP
1 *598:D 0.000113442
2 *22:2 0.000182627
3 *22:3 0.00246417

*RES
1 *22:2 *22:3 21.6681995
2 *598:D *22:3 3.00014
3 *352:Z *22:2 1.50007
*END

*D_NET *23 0.000929576

*CONN
*I *353:Z O *C 54.5 44 *L 0 *D DEL0
*I *413:D I *C 50.3 46.2 *L 0.000644 *D EDFKCNQD1

*CAP
1 *413:D 0.00029759
2 *23:2 0.00063199

*RES
1 *413:D *23:2 9.99180984
2 *353:Z *23:2 1.49993
*END

*D_NET *24 0.00141494

*CONN
*I *354:Z O *C 56.9 47.6 *L 0 *D DEL0
*I *593:D I *C 50.1 49.8 *L 0.000646 *D EDFKCND1

*CAP
1 *593:D 0.000248069
2 *24:2 0.000112377
3 *24:3 0.0010545

*RES
1 *24:2 *24:3 7.96399021
2 *354:Z *24:2 1.69497
3 *593:D *24:3 6.24581
*END

*D_NET *25 0.000478779

*CONN
*I *355:Z O *C 49.7 29.6 *L 0 *D DEL0
*I *609:DB I *C 51.3 30 *L 0.00109 *D DFXD1

*CAP
1 *609:DB 9.11771e-05
2 *355:Z 0.000387603008

*RES
1 *355:Z *609:DB 9.36306
*END

*D_NET *26 0.00100223

*CONN
*I *359:Z O *C 65.1 28.8 *L 0 *D DEL0
*I *592:I I *C 62.7 30 *L 0.0113 *D INVD12

*CAP
1 *592:I 0.000221599
2 *359:Z 0.00045535
3 *26:2 0.000284035
4 *26:3 4.12514e-05

*RES
1 *26:2 *26:3 4.61196995
2 *592:I *26:2 4.1696
3 *359:Z *26:3 4.03407
*END

*D_NET *27 0.00497119

*CONN
*I *360:Z O *C 51.1 43.2 *L 0 *D DEL0
*I *573:A1 I *C 41.9 61 *L 0.000617 *D CKND2D0
*I *569:A2 I *C 40.7 60.8 *L 0.000664 *D NR2D0
*I *460:A I *C 43.5 48 *L 0.00103 *D FA1D0

*CAP
1 *360:Z 0.000982604
2 *27:4 0.000219579
3 *27:5 0.00122279
4 *27:6 0.000448322
5 *27:7 6.29368e-05
6 *27:8 0.000461645
7 *27:9 0.000316985
8 *27:10 0.00125634

*RES
1 *27:6 *27:7 3.54281
2 *27:7 *27:9 4.53043
3 *27:5 *27:6 8.81336
4 *27:4 *27:10 11.1555996
5 *27:5 *27:8 3.60988
6 *360:Z *27:4 7.60683
7 *569:A2 *27:9 1.49999
8 *460:A *27:8 1.49999
9 *573:A1 *27:7 2.99997
10 *27:8 *27:10 1.49999
*END

*D_NET *28 0.00586533

*CONN
*I *361:Z O *C 46.5 39.6 *L 0 *D DEL0
*I *484:A I *C 35.3 44.4 *L 0.00103 *D FA1D0
*I *565:A1 I *C 36.3 60.8 *L 0.000647 *D NR2D0
*I *564:A1 I *C 36.1 57.4 *L 0.000617 *D CKND2D0

*CAP
1 *565:A1 2.00626e-06
2 *361:Z 0.000252304
3 *28:4 0.000802988
4 *28:5 0.000138639
5 *28:6 0.00120417
6 *28:7 0.0022669
7 *28:8 0.000658364
8 *28:9 0.000236012
9 *28:10 7.2087e-05
10 *28:4 *595:SA 0.0002319

*RES
1 *28:6 *28:9 4.32177
2 *565:A1 *28:8 5.66272
3 *28:4 *28:8 6.33538
4 *28:4 *28:5 0.256716
5 *28:7 *28:10 13.6227999
6 *28:7 *28:9 5.63445
7 *28:5 *28:6 8.13344
8 *361:Z *28:10 4.0027
9 *484:A *28:9 1.49997
10 *564:A1 *28:8 1.49997
*END

*D_NET *29 0.00537471

*CONN
*I *362:Z O *C 57.7 51.2 *L 0 *D DEL0
*I *541:S I *C 39.3 58.8 *L 0.00146 *D MUX2ND0
*I *565:A2 I *C 36.7 60.8 *L 0.000664 *D NR2D0
*I *564:A2 I *C 36.5 57.2 *L 0.000606 *D CKND2D0
*I *567:A1 I *C 39.3 57.4 *L 0.000617 *D CKND2D0
*I *431:B2 I *C 39.3 53.8 *L 0.000698 *D AO22D0

*CAP
1 *564:A2 6.4179e-05
2 *565:A2 4.62171e-05
3 *541:S 1.97116e-05
4 *362:Z 0.000340048
5 *29:6 0.000258782
6 *29:7 3.18475e-05
7 *29:8 0.000270267
8 *29:9 0.000843076
9 *29:10 0.000705579
10 *29:11 0.000544089
11 *29:12 3.51794e-05
12 *29:13 0.00121983
13 *29:14 0.000131764
14 *29:15 0.000654448
15 *29:16 6.14243e-07
16 *564:A2 *47:14 0.000209076992

*RES
1 *565:A2 *29:10 6.08056
2 *29:6 *29:7 3.27959
3 *362:Z *29:6 4.47974
4 *564:A2 *29:10 2.23387
5 *29:8 *29:12 0.225824
6 *29:11 *29:12 3.91209
7 *29:9 *29:11 0.679719
8 *29:15 *29:16 0.133058
9 *541:S *29:8 4.40721
10 *29:14 *29:15 5.12929
11 *29:13 *29:14 0.133245
12 *29:8 *29:10 5.33862
13 *29:9 *29:16 8.7419
14 *29:7 *29:13 12.2818003
15 *567:A1 *29:12 1.49999
16 *431:B2 *29:11 2.99999
*END

*D_NET *30 0.0064227

*CONN
*I *363:Z O *C 41.5 69.2 *L 0 *D DEL0
*I *586:I I *C 27.7 64.4 *L 0.0113 *D INVD12
*I *533:A1 I *C 29.9 42.8 *L 0.000688 *D AO21D0
*I *559:A1 I *C 28.5 42.8 *L 0.000647 *D NR2D0

*CAP
1 *559:A1 0.000174156
2 *533:A1 0.000136835
3 *363:Z 0.000275894
4 *30:4 0.000411907
5 *30:5 0.000516811
6 *30:6 0.000488603
7 *30:7 0.00158408
8 *30:8 0.000835488
9 *30:9 0.000245002
10 *30:10 2.43891e-05
11 *30:11 0.000538517
12 *30:12 0.000309613
13 *30:13 0.000636702
14 *30:4 *335:I 0.000244681992

*RES
1 *30:12 *30:13 3.11826
2 *30:5 *30:4 6.89749
3 *30:7 *30:8 5.39434
4 *30:6 *30:7 10.3629999
5 *30:5 *30:6 3.31434
6 *363:Z *30:9 4.53286
7 *30:4 *30:13 9.57774
8 *30:9 *30:10 2.53351
9 *30:11 *30:12 0.133617
10 *533:A1 *30:8 4.49634
11 *30:10 *30:11 4.57145
12 *559:A1 *30:8 2.5052
13 *586:I *30:4 1.49999
*END

*D_NET *31 0.00516283

*CONN
*I *335:I I *C 27.5 69.6 *L 0.00103 *D DEL015
*I *364:Z O *C 36.7 58.4 *L 0 *D CKBD0
*I *532:A1 I *C 32.7 39.2 *L 0.00069 *D AOI21D0
*I *557:A1 I *C 33.7 39.2 *L 0.000647 *D NR2D0

*CAP
1 *335:I 0.000397209
2 *532:A1 6.87043e-05
3 *364:Z 0.000119251
4 *31:4 6.98648e-05
5 *31:5 0.000317958
6 *31:6 7.89093e-05
7 *31:7 0.00223673016
8 *31:8 0.00162952
9 *335:I *30:4 0.000244681992

*RES
1 *31:4 *31:5 2.85058
2 *557:A1 *31:7 5.77539
3 *532:A1 *31:7 4.49997
4 *335:I *31:5 6.64381
5 *31:7 *31:8 20.6130009
6 *364:Z *31:6 2.99998
7 *31:6 *31:8 5.80275
8 *31:4 *31:8 12.0317
*END

*D_NET *32 0.00537837

*CONN
*I *336:I I *C 27.5 68 *L 0.00103 *D DEL015
*I *365:Z O *C 32.3 57.6 *L 0 *D CKBD0
*I *550:A1 I *C 30.1 39.2 *L 0.000647 *D NR2D0
*I *534:A1 I *C 28.3 39.2 *L 0.00069 *D AOI21D0

*CAP
1 *336:I 3.04008e-05
2 *534:A1 0.000251497
3 *365:Z 0.000295689
4 *32:4 0.000226806
5 *32:5 3.53061e-05
6 *32:6 3.62007e-05
7 *32:7 0.000439746
8 *32:8 0.000238793
9 *32:9 0.000192007
10 *32:10 1.13314e-06
11 *32:11 2.98492e-05
12 *32:12 0.000782371
13 *32:13 5.04842e-05
14 *32:14 0.000174205
15 *32:15 0.000936104
16 *32:16 0.000977105938
17 *534:A1 *534:A2 0.000187000996
18 *365:Z *62:17 0.000329061016
19 *32:4 *110:4 0.00016461

*RES
1 *32:10 *32:12 0.451481
2 *32:7 *32:8 3.71856
3 *32:8 *32:4 5.48866
4 *32:13 *32:15 6.84139
5 *32:10 *32:15 3.22291
6 *32:11 *32:12 7.14826
7 *32:4 *32:16 12.4216003
8 *32:9 *32:11 0.451481
9 *365:Z *32:7 4.08873
10 *336:I *32:5 0.52976
11 *534:A1 *32:14 6.57642
12 *32:5 *32:9 2.91453
13 *32:6 *32:13 0.41888
14 *550:A1 *32:14 5.65128
15 *365:Z *32:13 1.50001
16 *32:14 *32:16 1.50001
*END

*D_NET *33 0.00171382

*CONN
*I *366:Z O *C 42.3 65.6 *L 0 *D DEL0
*I *611:B1 I *C 38.3 60.8 *L 0.000658 *D IND2D0
*I *541:I0 I *C 39.1 58.8 *L 0.000706 *D MUX2ND0

*CAP
1 *541:I0 0.00025127
2 *611:B1 0.000165947
3 *33:3 0.000754707969
4 *33:4 0.00054189

*RES
1 *33:3 *33:4 7.09865999
2 *366:Z *33:3 6.49479
3 *541:I0 *33:4 4.66738
4 *611:B1 *33:4 2.50526
*END

*D_NET *34 0.00532498

*CONN
*I *367:Z O *C 57.5 50.4 *L 0 *D DEL0
*I *448:A I *C 49.1 48 *L 0.00103 *D FA1D0
*I *571:A1 I *C 46.7 58.6 *L 0.000617 *D CKND2D0

*CAP
1 *571:A1 0.000618242
2 *448:A 0.000182113
3 *367:Z 0.000157414
4 *34:3 0.000975046
5 *34:4 0.000139079
6 *34:5 0.00130749
7 *34:6 0.000123796
8 *34:7 0.000270097
9 *34:8 0.000615968
10 *34:9 0.000494406
11 *34:10 1.84946e-05
12 *34:11 0.000422822

*RES
1 *34:9 *34:10 0.32813
2 *34:5 *34:6 8.10260963
3 *34:4 *34:5 1.73301
4 *34:3 *34:11 5.04076
5 *34:3 *34:10 7.9263
6 *571:A1 *34:6 5.12088
7 *448:A *34:4 2.26514
8 *34:8 *34:9 5.13028
9 *34:7 *34:8 7.59372
10 *367:Z *34:7 6.53973
11 *34:4 *34:11 1.49995
*END

*D_NET *35 0.00398944

*CONN
*I *368:Z O *C 55.1 51.2 *L 0 *D DEL0
*I *573:A2 I *C 41.5 60.8 *L 0.000606 *D CKND2D0
*I *569:A1 I *C 40.3 60.8 *L 0.000647 *D NR2D0
*I *539:B1 I *C 41.3 58.8 *L 0.000658 *D IND2D0
*I *519:B2 I *C 41.3 57.4 *L 0.000739 *D MOAI22D0
*I *519:A2 I *C 42.1 57.2 *L 0.000697 *D MOAI22D0
*I *432:B2 I *C 41.3 55 *L 0.000698 *D AO22D0

*CAP
1 *432:B2 0.000205541
2 *519:A2 4.2776e-06
3 *569:A1 0.000160215
4 *573:A2 7.45771e-05
5 *368:Z 8.71939e-05
6 *35:7 0.00141582
7 *35:8 0.000358605
8 *35:9 0.000165076
9 *35:10 9.51009e-05
10 *35:11 0.000185017
11 *35:12 0.000218093
12 *35:13 0.000219583
13 *35:14 0.000528067
14 *35:15 0.000272254

*RES
1 *573:A2 *35:10 2.61657
2 *35:13 *35:14 2.31141
3 *35:8 *35:9 3.77962
4 *519:A2 *35:8 3.84693
5 *35:11 *35:12 1.55899
6 *368:Z *35:13 4.98024
7 *35:14 *35:15 3.32751
8 *35:9 *35:12 1.44996
9 *35:7 *35:15 7.76663017
10 *35:7 *35:8 4.54294
11 *569:A1 *35:10 4.20459
12 *432:B2 *35:9 4.27523
13 *35:10 *35:11 1.40054
14 *519:B2 *35:12 1.49997
15 *539:B1 *35:11 1.49997
*END

*D_NET *36 0.00296707

*CONN
*I *369:Z O *C 54.7 54 *L 0 *D DEL0
*I *528:A1 I *C 45.3 46.4 *L 0.00069 *D AOI21D0
*I *562:A1 I *C 46.7 46.4 *L 0.000647 *D NR2D0
*I *558:A1 I *C 47.3 51.4 *L 0.000617 *D CKND2D0

*CAP
1 *562:A1 7.06197e-05
2 *528:A1 0.000394321
3 *36:4 0.000710619
4 *36:5 0.00082087
5 *36:6 8.68781e-05
6 *36:7 0.000328824
7 *36:8 0.000248171
8 *36:9 0.000306779

*RES
1 *562:A1 *36:6 1.69489
2 *36:5 *36:8 4.66847
3 *36:4 *36:9 5.88926
4 *528:A1 *36:6 8.12732029
5 *36:7 *36:9 5.2083
6 *36:5 *36:6 1.00525
7 *36:4 *36:8 1.95767
8 *558:A1 *36:8 1.50006
9 *369:Z *36:7 1.50006
*END

*D_NET *37 0.00341384

*CONN
*I *370:Z O *C 54.9 54.8 *L 0 *D DEL0
*I *531:A1 I *C 48.3 44.4 *L 0.00069 *D AOI21D0
*I *561:A1 I *C 51.5 44.4 *L 0.000647 *D NR2D0
*I *549:A1 I *C 51.9 55 *L 0.000617 *D CKND2D0

*CAP
1 *549:A1 0.000164826
2 *561:A1 0.000119771
3 *37:4 0.000707391953
4 *37:5 0.000116868
5 *37:6 0.000637856
6 *37:7 0.000540634
7 *37:8 0.000171076
8 *37:9 0.000430966
9 *37:11 0.000524443

*RES
1 *561:A1 *37:8 2.99996
2 *37:4 *37:8 5.41725
3 *37:6 *37:10 5.70449018
4 *549:A1 *37:7 4.49998
5 *37:7 *37:9 5.03835
6 *37:5 *37:7 5.24586
7 *37:6 *37:8 0.584846
8 *37:10 *37:11 0.256953
9 *37:9 *37:11 3.59081
10 *370:Z *37:5 1.50002
11 *531:A1 *37:4 2.99996
*END

*D_NET *38 0.00129543

*CONN
*I *371:Z O *C 42.9 44 *L 0 *D DEL0
*I *560:A1 I *C 40.1 42.8 *L 0.000647 *D NR2D0
*I *529:A1 I *C 41.3 42.8 *L 0.00069 *D AOI21D0

*CAP
1 *529:A1 9.12337e-05
2 *38:3 0.000640424023
3 *38:4 0.000178158
4 *38:5 0.000385613

*RES
1 *38:3 *38:5 4.53048
2 *38:3 *38:4 6.52677011
3 *529:A1 *38:3 3.2103
4 *560:A1 *38:5 1.50003
5 *371:Z *38:4 1.50003
*END

*D_NET *39 0.00448155

*CONN
*I *372:Z O *C 38.5 68.4 *L 0 *D DEL0
*I *555:A1 I *C 37.7 37.2 *L 0.000647 *D NR2D0
*I *535:A1 I *C 36.3 37.2 *L 0.00069 *D AOI21D0
*I *591:I I *C 34.3 64.4 *L 0.0113 *D INVD12

*CAP
1 *591:I 0.000522004
2 *535:A1 0.000233074
3 *555:A1 0.000154833
4 *39:4 0.000198434
5 *39:5 0.000109826
6 *39:6 0.000629821
7 *39:7 0.00263353

*RES
1 *39:6 *39:7 30.5597
2 *555:A1 *39:5 5.9948
3 *372:Z *39:6 4.75397
4 *39:4 *39:6 3.44878
5 *535:A1 *39:5 5.51498
6 *591:I *39:4 5.148
7 *39:5 *39:7 1.5001
*END

*D_NET *40 0.00282918

*CONN
*I *373:Z O *C 52.5 51.2 *L 0 *D DEL0
*I *530:A1 I *C 48.1 40.8 *L 0.00069 *D AOI21D0
*I *556:A1 I *C 49.5 40.8 *L 0.000647 *D NR2D0

*CAP
1 *556:A1 0.000158939
2 *530:A1 6.78118e-06
3 *40:3 0.000659085
4 *40:4 0.000998662031
5 *40:5 0.000478949
6 *40:6 0.000110891
7 *40:7 0.000415877

*RES
1 *40:6 *40:7 4.61878
2 *40:3 *40:4 5.54488
3 *40:4 *40:5 3.86082
4 *530:A1 *40:5 4.42158
5 *40:3 *40:7 5.82411003
6 *556:A1 *40:5 2.31041
7 *373:Z *40:6 1.50002
*END

*D_NET *41 0.00215496

*CONN
*I *374:Z O *C 45.7 51.2 *L 0 *D DEL015
*I *527:A1 I *C 41.9 46.4 *L 0.00069 *D AOI21D0
*I *551:A1 I *C 40.5 46.4 *L 0.000647 *D NR2D0

*CAP
1 *374:Z 0.000748009
2 *41:3 0.000249272
3 *41:4 0.00115768

*RES
1 *527:A1 *41:4 4.50003
2 *551:A1 *41:4 5.18818
3 *41:3 *41:4 7.2762599
4 *374:Z *41:3 6.80018
*END

*D_NET *42 0.00460301

*CONN
*I *375:Z O *C 44.3 40.4 *L 0 *D DEL0
*I *424:A2 I *C 39.9 39.2 *L 0.000712 *D IOA21D0
*I *442:A2 I *C 40.5 40.8 *L 0.00065 *D OAI211D0
*I *563:A1 I *C 39.7 40.6 *L 0.000617 *D CKND2D0
*I *611:A1 I *C 37.7 60.8 *L 0.000681 *D IND2D0
*I *568:A1 I *C 37.5 58.6 *L 0.000617 *D CKND2D0

*CAP
1 *611:A1 0.000123581
2 *442:A2 0.000196625
3 *424:A2 0.000373447
4 *375:Z 0.000217037
5 *42:6 8.41224e-05
6 *42:7 0.000231257
7 *42:8 0.00039514
8 *42:9 0.000459256
9 *42:10 0.000430731
10 *42:11 0.000186157
11 *42:12 0.00190562

*RES
1 *424:A2 *42:7 3.41224
2 *42:9 *42:12 1.92055
3 *42:8 *42:10 4.03353
4 *42:7 *42:11 3.54043
5 *611:A1 *42:8 3.45542
6 *42:10 *42:12 17.6875992
7 *42:9 *42:11 0.554087
8 *42:6 *42:9 6.03585
9 *375:Z *42:6 2.30973
10 *442:A2 *42:11 3.5847
11 *568:A1 *42:8 1.50006
12 *563:A1 *42:7 3.00011
*END

*D_NET *43 0.00182576

*CONN
*I *376:Z O *C 31.5 62 *L 0 *D DEL0
*I *589:I I *C 29.1 51.4 *L 0.0104 *D CKND12

*CAP
1 *43:2 0.000573584
2 *43:3 5.75966e-05
3 *43:4 0.0010271
4 *43:5 0.000167477

*RES
1 *43:4 *43:5 2.47441
2 *43:2 *43:3 0.648006
3 *376:Z *43:2 4.97676
4 *43:3 *43:4 6.8573699
5 *589:I *43:5 2.99999
*END

*D_NET *44 0.00134242

*CONN
*I *377:Z O *C 37.1 47.6 *L 0 *D DEL0
*I *590:I I *C 31.7 44.4 *L 0.0113 *D INVD12

*CAP
1 *590:I 0.000130892
2 *44:2 0.000601992
3 *44:3 0.000609534961

*RES
1 *44:2 *44:3 6.68915987
2 *377:Z *44:2 4.69362
3 *590:I *44:3 3.19485
*END

*D_NET *45 0.00150981

*CONN
*I *378:Z O *C 47.3 57.6 *L 0 *D DEL0
*I *507:B2 I *C 43.1 58.6 *L 0.000739 *D MOAI22D0
*I *433:B2 I *C 43.3 57.4 *L 0.000698 *D AO22D0
*I *507:A2 I *C 43.9 58.8 *L 0.000697 *D MOAI22D0
*I *512:B1 I *C 45.7 58.8 *L 0.000658 *D IND2D0
*I *571:A2 I *C 47.1 58.8 *L 0.000606 *D CKND2D0

*CAP
1 *512:B1 7.09886e-05
2 *433:B2 0.000298192
3 *378:Z 0.000362123
4 *45:6 1.01588e-06
5 *45:7 4.37445e-05
6 *45:8 0.000229381
7 *45:9 0.000504361992

*RES
1 *378:Z *45:6 3.31121
2 *512:B1 *45:9 3.00002
3 *433:B2 *45:8 4.78507996
4 *45:7 *45:9 3.27331
5 *45:7 *45:8 1.39816
6 *45:6 *45:9 2.86421
7 *507:B2 *45:8 1.50001
8 *571:A2 *45:6 1.50001
9 *507:A2 *45:7 3.00002
*END

*D_NET *46 0.00224108

*CONN
*I *379:Z O *C 56.3 57.6 *L 0 *D DEL0
*I *492:A2 I *C 47.9 58.8 *L 0.000697 *D MOAI22D0
*I *438:B2 I *C 47.5 57.4 *L 0.000698 *D AO22D0
*I *492:B2 I *C 48.7 58.6 *L 0.000739 *D MOAI22D0
*I *572:A2 I *C 51.3 58.8 *L 0.000606 *D CKND2D0
*I *500:B1 I *C 50.5 58.8 *L 0.000658 *D IND2D0

*CAP
1 *572:A2 0.000238985
2 *438:B2 0.000212732
3 *379:Z 0.000242909
4 *46:6 0.000273408
5 *46:7 8.34123e-05
6 *46:8 0.000240863
7 *46:9 0.000525971992
8 *46:10 0.000422792

*RES
1 *46:6 *46:10 2.27955
2 *379:Z *46:8 4.72358
3 *46:9 *46:10 1.75412
4 *46:8 *46:9 4.94465017
5 *492:A2 *46:6 3.85426
6 *438:B2 *46:6 4.33306
7 *572:A2 *46:7 3.29412
8 *46:7 *46:9 2.4761
9 *492:B2 *46:10 3.6602
10 *500:B1 *46:7 1.50001
*END

*D_NET *47 0.00723022

*CONN
*I *380:Z O *C 43.3 51.2 *L 0 *D DEL0
*I *595:SA I *C 35.5 55.2 *L 0.00154 *D DFXD1
*I *568:A2 I *C 37.9 58.8 *L 0.000606 *D CKND2D0
*I *541:I1 I *C 38.1 58.6 *L 0.001 *D MUX2ND0
*I *567:A2 I *C 38.9 57.2 *L 0.000606 *D CKND2D0
*I *496:A2 I *C 44.7 42.8 *L 0.000697 *D MAOI22D0
*I *491:A1 I *C 43.7 39.2 *L 0.000675 *D AOI221D0
*I *455:A2 I *C 38.3 40.8 *L 0.00065 *D OAI211D0
*I *490:B1 I *C 43.9 44.8 *L 0.000899 *D OAI221D0

*CAP
1 *455:A2 0.000467342
2 *491:A1 0.000288274
3 *496:A2 7.33536e-05
4 *541:I1 1.06441e-06
5 *568:A2 0.000107298
6 *595:SA 0.000595604
7 *380:Z 0.000360537
8 *47:9 0.000284497
9 *47:10 0.000579663
10 *47:11 0.000627237
11 *47:12 3.31915e-05
12 *47:13 0.000280667
13 *47:14 0.000199162
14 *47:15 0.000573861
15 *47:16 0.000195657
16 *47:17 0.000315741
17 *47:18 0.000753357
18 *47:19 0.000850686016
19 *47:10 *99:5 0.000202038008
20 *595:SA *28:4 0.0002319
21 *47:14 *564:A2 0.000209076992

*RES
1 *47:17 *47:19 2.75332
2 *595:SA *47:19 7.08114004
3 *568:A2 *541:I1 0.326742
4 *47:9 *47:15 3.30524
5 *47:11 *47:15 1.65197
6 *47:10 *47:16 5.98681
7 *568:A2 *47:14 3.47877
8 *47:9 *47:10 2.65327
9 *496:A2 *47:9 3.88784
10 *47:13 *47:14 4.16931
11 *455:A2 *47:16 5.52728
12 *47:14 *47:19 4.61793
13 *47:17 *47:18 3.35602
14 *47:12 *47:18 6.15343
15 *380:Z *47:18 5.60421
16 *47:11 *47:12 4.28795
17 *567:A2 *47:13 1.75505
18 *491:A1 *47:10 4.65056
19 *490:B1 *47:15 3
*END

*D_NET *48 0.00280039

*CONN
*I *381:Z O *C 55.9 32.4 *L 0 *D DEL0
*I *574:A2 I *C 49.3 33.6 *L 0.000606 *D CKND2D0
*I *423:A2 I *C 51.7 33.6 *L 0.000712 *D IOA21D0
*I *440:A2 I *C 51.1 33.6 *L 0.00065 *D OAI211D0
*I *514:A1 I *C 49.5 28.4 *L 0.000647 *D NR2D0
*I *487:B1 I *C 48.1 28.6 *L 0.00072 *D AOI221D0

*CAP
1 *487:B1 0.000370436
2 *514:A1 0.000189144
3 *423:A2 1.30529e-06
4 *574:A2 7.08147e-06
5 *381:Z 0.000203595
6 *48:6 7.24386e-05
7 *48:7 0.000405175
8 *48:8 0.000673561953
9 *48:9 0.000220214
10 *48:10 0.000657436

*RES
1 *48:9 *48:10 0.656922
2 *487:B1 *48:8 3.62334
3 *48:7 *48:9 3.56915
4 *48:7 *48:8 4.79533
5 *48:6 *48:10 6.00950003
6 *440:A2 *48:9 4.97102
7 *423:A2 *48:10 3.19493
8 *574:A2 *48:7 1.755
9 *381:Z *48:6 2.47465
10 *514:A1 *48:8 2.51087
*END

*D_NET *49 0.00208426

*CONN
*I *382:Z O *C 30.7 28.8 *L 0 *D DEL0
*I *466:B2 I *C 30.5 35.8 *L 0.000739 *D MOAI22D0
*I *466:A2 I *C 29.7 35.6 *L 0.000697 *D MOAI22D0
*I *478:A3 I *C 27.9 30 *L 0.000717 *D XNR3D0

*CAP
1 *478:A3 0.000497866
2 *466:A2 0.000130685
3 *382:Z 0.000124614
4 *49:4 0.000621691992
5 *49:5 0.000453014
6 *49:6 0.000200192
7 *49:7 5.61975e-05

*RES
1 *49:4 *49:5 3.75215
2 *478:A3 *49:7 6.49362993
3 *49:5 *49:6 3.66466
4 *466:A2 *49:6 4.63866
5 *382:Z *49:4 2.08465
6 *466:B2 *49:6 1.50005
7 *49:4 *49:7 1.50005
*END

*D_NET *50 0.00152147

*CONN
*I *383:Z O *C 38.7 32.4 *L 0 *D DEL0
*I *472:I0 I *C 36.3 30 *L 0.000706 *D MUX2ND0
*I *482:A2 I *C 35.5 35.6 *L 0.000671 *D AOI21D0
*I *501:A2 I *C 36.1 35.6 *L 0.000664 *D NR2D0

*CAP
1 *501:A2 0.000702215
2 *482:A2 3.3549e-05
3 *472:I0 0.00024454
4 *383:Z 0.000140732
5 *50:4 0.000400413

*RES
1 *383:Z *50:4 7.03358984
2 *472:I0 *50:4 4.62985
3 *501:A2 *50:4 6.42399
4 *482:A2 *501:A2 0.806648
*END

*D_NET *51 0.00278663

*CONN
*I *384:Z O *C 53.1 36.8 *L 0 *D DEL0
*I *576:I I *C 47.1 29.8 *L 0.00062 *D CKND0
*I *487:A1 I *C 47.3 28.4 *L 0.000675 *D AOI221D0
*I *574:A1 I *C 48.9 33.4 *L 0.000617 *D CKND2D0
*I *440:A1 I *C 50.7 33.6 *L 0.000711 *D OAI211D0
*I *428:S I *C 48.9 35.6 *L 0.00146 *D MUX2ND0

*CAP
1 *428:S 1.25812e-05
2 *487:A1 0.000247748
3 *384:Z 0.00051135
4 *51:6 0.00051474
5 *51:7 0.000581461016
6 *51:8 0.000198931
7 *51:9 0.000352958
8 *51:10 0.00036687

*RES
1 *440:A1 *51:10 5.26536
2 *428:S *51:6 4.16985
3 *51:7 *51:9 5.61957
4 *51:6 *51:10 3.79585
5 *384:Z *51:10 7.81322002
6 *487:A1 *51:9 3.1318
7 *51:7 *51:8 3.90637
8 *51:6 *51:8 1.52197
9 *576:I *51:9 1.50003
10 *574:A1 *51:8 1.50003
*END

*D_NET *52 0.00254373

*CONN
*I *385:Z O *C 46.5 36.8 *L 0 *D DEL0
*I *470:A2 I *C 42.9 30 *L 0.00065 *D OAI211D0
*I *462:B1 I *C 41.7 29.8 *L 0.00072 *D AOI221D0
*I *513:A2 I *C 42.5 33.6 *L 0.000606 *D CKND2D0
*I *439:A1 I *C 42.1 35.6 *L 0.000711 *D OAI211D0
*I *422:A2 I *C 43.5 35.6 *L 0.000712 *D IOA21D0

*CAP
1 *439:A1 2.67323e-05
2 *513:A2 1.56744e-05
3 *462:B1 0.000144946
4 *470:A2 3.59455e-05
5 *52:6 0.000510971
6 *52:7 0.000455642
7 *52:8 0.000646457031
8 *52:9 0.000114534
9 *52:10 0.000592835

*RES
1 *439:A1 *52:7 4.17112
2 *462:B1 *52:8 3.69307
3 *52:7 *52:10 3.3214
4 *52:6 *52:10 4.66976023
5 *422:A2 *52:10 4.17112
6 *52:8 *52:9 3.66165
7 *52:7 *52:9 0.779457
8 *385:Z *52:6 4.24729
9 *470:A2 *52:8 2.51138
10 *513:A2 *52:9 1.98922
*END

*D_NET *53 0.00269767

*CONN
*I *386:Z O *C 41.7 33.2 *L 0 *D DEL0
*I *483:A2 I *C 37.9 35.6 *L 0.000606 *D CKND2D0
*I *421:A2 I *C 40.3 35.6 *L 0.000712 *D IOA21D0
*I *441:A1 I *C 39.3 35.6 *L 0.000711 *D OAI211D0
*I *469:B1 I *C 40.3 30 *L 0.000686 *D MAOI22D0
*I *469:A1 I *C 39.3 30 *L 0.000713 *D MAOI22D0

*CAP
1 *469:B1 0.000343038
2 *421:A2 0.000210249
3 *483:A2 0.000376679
4 *386:Z 0.000118975
5 *53:6 0.000688966953
6 *53:7 6.90491e-05
7 *53:8 0.000393311
8 *53:9 0.000466828
9 *53:10 3.05822e-05

*RES
1 *53:6 *53:10 3.69407
2 *421:A2 *53:8 6.97658014
3 *53:6 *53:9 3.30125
4 *469:B1 *53:9 3.18798
5 *483:A2 *53:7 3.98873
6 *53:7 *53:8 0.358857
7 *53:6 *53:7 2.14388
8 *386:Z *53:10 2.99998
9 *469:A1 *53:9 2.99998
10 *441:A1 *53:8 2.99998
*END

*D_NET *54 0.000543177

*CONN
*I *387:Z O *C 45.9 33.2 *L 0 *D DEL0
*I *509:A2 I *C 47.5 33.6 *L 0.000671 *D AOI21D0
*I *538:A2 I *C 46.1 33.6 *L 0.000664 *D NR2D0

*CAP
1 *538:A2 0.000419611016
2 *509:A2 0.000121469
3 *387:Z 2.10014e-06

*RES
1 *387:Z *538:A2 0.334033
2 *538:A2 *509:A2 5.50999022
*END

*D_NET *55 0.00072713

*CONN
*I *388:Z O *C 30.3 46.8 *L 0 *D DEL0
*I *575:A1 I *C 31.9 47.8 *L 0.000617 *D CKND2D0
*I *435:B2 I *C 31.5 46.6 *L 0.000739 *D MOAI22D0

*CAP
1 *575:A1 9.41917e-05
2 *55:3 0.000329465
3 *55:4 0.000303469

*RES
1 *55:3 *55:4 4.33021021
2 *575:A1 *55:4 3.09595
3 *435:B2 *55:4 1.50001
4 *388:Z *55:3 1.50001
*END

*D_NET *56 0.00133818

*CONN
*I *389:Z O *C 34.3 54 *L 0 *D DEL0
*I *606:SA I *C 35.1 50 *L 0.00154 *D DFXD1
*I *575:A2 I *C 32.3 48 *L 0.000606 *D CKND2D0

*CAP
1 *575:A2 0.000448548
2 *606:SA 3.05126e-06
3 *389:Z 5.68598e-05
4 *56:3 0.000829727969

*RES
1 *606:SA *56:3 2.89831
2 *389:Z *56:3 5.32397985
3 *575:A2 *56:3 5.22381
*END

*D_NET *57 0.0139388

*CONN
*I *390:Z O *C 28.1 36 *L 0 *D BUFFD1
*I *446:B1 I *C 35.1 42.8 *L 0.000698 *D IND3D0
*I *451:A2 I *C 36.5 42.8 *L 0.000606 *D CKND2D0
*I *578:I I *C 37.1 50.2 *L 0.00062 *D CKND0
*I *413:CN I *C 51.1 46.6 *L 0.001 *D EDFKCNQD1
*I *593:CN I *C 50.9 50.2 *L 0.001 *D EDFKCND1
*I *598:CN I *C 44.7 50.2 *L 0.001 *D EDFKCND1
*I *426:CN I *C 38.9 50.2 *L 0.001 *D EDFKCNQD1
*I *427:CN I *C 37.5 46.6 *L 0.001 *D EDFKCNQD1
*I *444:B I *C 38.7 39.2 *L 0.000709 *D OAI31D0
*I *418:CN I *C 41.3 37.2 *L 0.000903 *D DFKCNQD1
*I *417:CN I *C 47.1 35.6 *L 0.000903 *D DFKCNQD1
*I *419:CN I *C 48.9 39.2 *L 0.000903 *D DFKCNQD1
*I *609:DA I *C 50.3 30 *L 0.000727 *D DFXD1
*I *416:CN I *C 52.5 32 *L 0.000903 *D DFKCNQD1
*I *596:CN I *C 47.7 32.2 *L 0.001 *D EDFKCND1
*I *415:CN I *C 41.9 32 *L 0.000903 *D DFKCNQD1
*I *602:CN I *C 35.1 33.4 *L 0.001 *D EDFKCND1
*I *425:CN I *C 31.7 33.4 *L 0.001 *D EDFKCNQD1

*CAP
1 *425:CN 0.000121675
2 *602:CN 0.000150955
3 *415:CN 0.00075618
4 *416:CN 0.000195087
5 *609:DA 0.000171536
6 *418:CN 0.000203048
7 *413:CN 0.000429104
8 *578:I 7.53873e-07
9 *451:A2 0.000163952
10 *446:B1 0.000365447
11 *57:19 0.000415912
12 *57:20 0.000348395
13 *57:21 0.000361452
14 *57:22 0.000200123
15 *57:23 0.000250135
16 *57:24 0.000446624
17 *57:25 0.000806584
18 *57:26 0.000481574
19 *57:27 0.000323683
20 *57:28 0.000557082
21 *57:29 0.000284919
22 *57:30 0.000988101016
23 *57:31 0.00020935
24 *57:32 0.00044973
25 *57:33 0.000112237
26 *57:34 0.00023854
27 *57:35 0.000178562
28 *57:36 0.00016252
29 *57:37 0.000336393
30 *57:38 0.000177612
31 *57:39 0.000175773
32 *57:40 0.000182588
33 *57:41 0.000139647
34 *57:42 0.000645692
35 *57:43 0.00010132
36 *57:44 0.000334101
37 *57:45 0.000425109
38 *451:A2 *484:B 0.000211225
39 *57:41 *426:CP 0.000451941992
40 *578:I *426:E 0.000821902969
41 *57:38 *358:Z 0.000249599004
42 *602:CN *602:CP 0.00031261

*RES
1 *57:39 *57:44 3.70406
2 *57:22 *57:42 4.95766
3 *57:35 *57:41 2.05645
4 *446:B1 *57:43 5.04082
5 *426:CN *57:41 5.13185
6 *609:DA *57:38 3.77969
7 *57:23 *57:41 3.40664
8 *418:CN *57:36 4.86003
9 *578:I *57:23 2.10243
10 *57:34 *57:40 0.974484
11 *57:23 *57:26 3.9716
12 *57:24 *57:44 5.00804
13 *57:37 *57:39 1.59005
14 *57:42 *57:43 1.19349
15 *413:CN *57:27 6.76406
16 *57:34 *57:45 2.31182
17 *425:CN *57:44 5.0949
18 *57:20 *57:25 2.75575
19 *57:21 *57:31 5.62361
20 *57:32 *57:40 5.08772
21 *57:22 *57:30 3.07818
22 *602:CN *57:39 3.5989
23 *57:20 *57:28 1.16917
24 *390:Z *57:24 2.08459
25 *57:30 *57:36 4.63685
26 *419:CN *57:19 3.44868
27 *57:19 *57:28 6.85463
28 *57:29 *57:33 4.47331
29 *57:26 *57:42 4.4915
30 *57:34 *57:37 3.67209
31 *416:CN *57:38 6.05283
32 *415:CN *57:40 7.59017992
33 *57:20 *57:32 3.22319
34 *57:27 *57:31 4.52659
35 *57:36 *57:45 4.79274
36 *57:21 *57:29 0.584644
37 *57:33 *57:35 2.72853
38 *451:A2 *57:43 3.72155
39 *57:25 *57:38 5.4427
40 *444:B *57:30 1.49995
41 *598:CN *57:29 1.49995
42 *417:CN *57:28 1.49995
43 *593:CN *57:27 1.49995
44 *427:CN *57:26 3.00001
45 *596:CN *57:25 3.00001
*END

*D_NET *58 0.00068906

*CONN
*I *399:ZN O *C 32.9 72 *L 0 *D TIEL
*I *391:I I *C 31.7 69.6 *L 0.00382 *D BUFFD12

*CAP
1 *391:I 0.000469286992
2 *58:2 0.000219774

*RES
1 *399:ZN *58:2 3.97444
2 *391:I *58:2 5.55038977
*END

*D_NET *59 0.000183012

*CONN
*I *398:ZN O *C 33.5 72 *L 0 *D TIEL
*I *392:I I *C 34.1 71.6 *L 0.00382 *D BUFFD12

*CAP
1 *392:I 0.000183011992

*RES
1 *398:ZN *392:I 3.6464
*END

*D_NET *60 0.000304375

*CONN
*I *397:ZN O *C 30.3 69.2 *L 0 *D TIEL
*I *393:I I *C 30.3 68 *L 0.00382 *D BUFFD12

*CAP
1 *393:I 0.000304375

*RES
1 *397:ZN *393:I 4.16921
*END

*D_NET *61 0.000892488

*CONN
*I *395:I I *C 30.9 32.2 *L 0.000942 *D CKND1
*I *396:ZN O *C 29.5 32.2 *L 0 *D CKND1
*I *394:I I *C 32.1 32 *L 0.00178 *D CKND2

*CAP
1 *394:I 5.3043e-05
2 *395:I 0.00010669
3 *61:3 0.000732752031

*RES
1 *394:I *61:3 6.03043985
2 *396:ZN *61:3 4.78554
3 *395:I *61:3 3.00004
*END

*D_NET *62 0.0130461

*CONN
*I *608:CP I *C 31.5 55.2 *L 0.000693 *D DFD1
*I *394:ZN O *C 31.83 31.705 *L 0 *D CKND2
*I *606:CP I *C 33.5 50 *L 0.000672 *D DFXD1
*I *605:CP I *C 29.9 58.8 *L 0.000693 *D DFD1
*I *604:CP I *C 31.5 57.2 *L 0.000693 *D DFD1
*I *603:CP I *C 31.3 55.2 *L 0.000693 *D DFD1
*I *601:CP I *C 53.7 57.2 *L 0.000693 *D DFD1
*I *600:CP I *C 36.9 51.6 *L 0.000693 *D DFD1
*I *599:CP I *C 44.3 53.6 *L 0.000693 *D DFD1
*I *598:CP I *C 44.9 50 *L 0.000656 *D EDFKCND1
*I *597:CP I *C 43.7 55.2 *L 0.000693 *D DFD1
*I *595:CP I *C 37.1 55.2 *L 0.000672 *D DFXD1
*I *594:CP I *C 46.3 53.6 *L 0.000693 *D DFD1
*I *593:CP I *C 51.1 50 *L 0.000656 *D EDFKCND1
*I *427:CP I *C 37.3 46.4 *L 0.000655 *D EDFKCNQD1
*I *426:CP I *C 39.1 50 *L 0.000655 *D EDFKCNQD1
*I *413:CP I *C 51.3 46.4 *L 0.000655 *D EDFKCNQD1

*CAP
1 *426:CP 6.40471e-05
2 *593:CP 7.19647e-05
3 *594:CP 7.98259e-05
4 *595:CP 6.23675e-05
5 *597:CP 6.84222e-05
6 *598:CP 3.01041e-05
7 *599:CP 0.000245194
8 *601:CP 7.76383e-05
9 *603:CP 3.83323e-05
10 *606:CP 5.41253e-05
11 *394:ZN 0.000202952
12 *62:17 0.000410378
13 *62:18 0.000147161
14 *62:19 0.00091526
15 *62:20 0.00049067
16 *62:21 0.000137395
17 *62:22 0.000151635
18 *62:23 0.000254057
19 *62:24 0.000585301
20 *62:25 0.000183363
21 *62:26 0.000640852
22 *62:27 0.000293053
23 *62:28 0.000744007
24 *62:30 9.64658e-05
25 *62:31 0.00028426
26 *62:32 0.00056087
27 *62:33 0.000924928047
28 *62:34 0.000545755
29 *62:35 0.00040493
30 *62:36 0.000737684
31 *62:37 0.000889884
32 *62:38 0.00058101
33 *62:39 0.00045612
34 *62:40 0.000454737
35 *62:41 0.000265122
36 *62:42 5.87122e-06
37 *62:44 0.000109351
38 *62:17 *365:Z 0.000329061016
39 *426:CP *57:41 0.000451941992

*RES
1 *62:37 *62:38 5.21958
2 *62:17 *62:18 1.64404
3 *413:CP *62:26 4.50001
4 *62:23 *62:24 4.79956
5 *605:CP *62:40 4.50001
6 *62:25 *62:27 0.389833
7 *62:24 *62:31 4.56025
8 *593:CP *62:30 4.50001
9 *62:24 *62:35 2.65554
10 *62:35 *62:37 6.55334
11 *62:19 *62:33 8.2277
12 *62:23 *62:41 3.25518
13 *394:ZN *62:20 2.25266
14 *62:17 *62:21 3.3898
15 *62:34 *62:36 5.99911
16 *601:CP *62:29 2.99996
17 *426:CP *62:36 4.50001
18 *595:CP *62:37 4.50001
19 *62:25 *62:36 1.75405
20 *597:CP *62:35 2.99996
21 *62:27 *62:32 3.46553
22 *599:CP *62:31 4.94886
23 *603:CP *62:22 3.32412
24 *62:17 *62:40 5.80453
25 *606:CP *62:32 4.50001
26 *62:26 *62:43 5.01045
27 *427:CP *62:39 4.50001
28 *62:22 *62:38 1.88975
29 *62:30 *62:34 6.16391
30 *62:33 *62:44 8.91110039
31 *62:29 *62:41 4.03417
32 *62:28 *62:32 1.803
33 *594:CP *62:31 2.99996
34 *598:CP *62:34 4.50001
35 *62:39 *62:42 5.01045
36 *62:19 *62:20 3.96088
37 *600:CP *62:27 4.57167
38 *62:18 *62:28 6.62499
39 *608:CP *62:22 1.50005
40 *604:CP *62:21 2.99996
41 *62:18 *62:38 1.50005
42 *62:25 *62:42 1.50005
43 *62:28 *62:44 1.50005
44 *62:30 *62:43 1.50005
*END

*D_NET *63 0.00926623

*CONN
*I *609:CP I *C 51.5 30 *L 0.000672 *D DFXD1
*I *395:ZN O *C 30.5 32.2 *L 0 *D CKND1
*I *607:CP I *C 27.5 44.4 *L 0.000693 *D DFD1
*I *602:CP I *C 35.3 33.6 *L 0.000656 *D EDFKCND1
*I *596:CP I *C 47.5 32 *L 0.000656 *D EDFKCND1
*I *425:CP I *C 31.5 33.6 *L 0.000655 *D EDFKCNQD1
*I *419:CP I *C 48.1 39.2 *L 0.000675 *D DFKCNQD1
*I *418:CP I *C 42.1 37.2 *L 0.000675 *D DFKCNQD1
*I *417:CP I *C 47.9 35.6 *L 0.000675 *D DFKCNQD1
*I *416:CP I *C 53.3 32 *L 0.000675 *D DFKCNQD1
*I *415:CP I *C 42.7 32 *L 0.000675 *D DFKCNQD1

*CAP
1 *415:CP 8.58523e-05
2 *416:CP 0.00016728
3 *419:CP 7.06855e-05
4 *596:CP 7.34406e-05
5 *602:CP 3.97954e-05
6 *395:ZN 0.00012651
7 *609:CP 0.000152809
8 *63:11 0.000787337
9 *63:12 0.000390607
10 *63:13 0.000784359
11 *63:14 0.00182377
12 *63:15 0.000547173
13 *63:16 0.000129794
14 *63:17 0.000189237
15 *63:18 0.000116575
16 *63:19 0.000576421
17 *63:20 0.000319838
18 *63:21 0.000930043
19 *63:22 0.00029187
20 *63:23 3.13911e-05
21 *63:24 5.11774e-05
22 *63:25 0.000649277
23 *63:26 4.1159e-05
24 *63:27 2.51017e-05
25 *416:CP *3:4 0.000318744004
26 *602:CP *602:CN 0.00031261
27 *416:CP *2:11 0.000233370996

*RES
1 *395:ZN *63:25 2.99994
2 *63:18 *63:22 4.95025
3 *63:11 *63:23 7.90458
4 *602:CP *63:24 4.50002
5 *416:CP *63:18 4.94941
6 *63:12 *63:13 5.99713
7 *607:CP *63:14 13.9050999
8 *63:20 *63:26 4.9946
9 *63:13 *63:20 1.88496
10 *63:21 *63:24 4.36529
11 *63:14 *63:25 4.76121
12 *63:15 *63:24 5.39794
13 *63:19 *63:27 4.62053
14 *596:CP *63:26 4.75505
15 *609:CP *63:22 4.50002
16 *63:11 *63:12 2.06955
17 *63:19 *63:26 0.389765
18 *63:12 *63:17 3.5847
19 *419:CP *63:23 2.99994
20 *63:16 *63:27 2.99994
21 *63:20 *63:21 6.85219
22 *63:21 *63:25 5.38797
23 *415:CP *63:13 1.88984
24 *63:18 *63:19 3.50853
25 *418:CP *63:17 1.50008
26 *417:CP *63:16 1.50008
27 *425:CP *63:15 2.99994
*END

*D_NET *64 0.0132696

*CONN
*I *442:B I *C 41.1 40.8 *L 0.000726 *D OAI211D0
*I *602:E I *C 33.7 33.6 *L 0.00161 *D EDFKCND1
*I *427:E I *C 38.9 46.4 *L 0.00161 *D EDFKCNQD1
*I *426:E I *C 37.5 50 *L 0.00161 *D EDFKCNQD1
*I *445:I I *C 48.1 35.8 *L 0.00062 *D CKND0
*I *598:E I *C 43.3 50 *L 0.00161 *D EDFKCND1
*I *441:B I *C 39.1 35.6 *L 0.000726 *D OAI211D0
*I *593:E I *C 49.5 50 *L 0.00161 *D EDFKCND1
*I *428:I1 I *C 50.1 35.8 *L 0.001 *D MUX2ND0
*I *425:E I *C 33.1 33.6 *L 0.00161 *D EDFKCNQD1
*I *439:B I *C 41.9 35.6 *L 0.000726 *D OAI211D0
*I *413:E I *C 49.7 46.4 *L 0.00161 *D EDFKCNQD1
*I *596:E I *C 49.1 32 *L 0.00161 *D EDFKCND1
*I *440:B I *C 50.5 33.6 *L 0.000726 *D OAI211D0
*I *400:Z O *C 35.9 40.4 *L 0 *D CKBD1

*CAP
1 *400:Z 0.000155482
2 *440:B 0.000268958
3 *596:E 0.000811484
4 *413:E 0.000560117
5 *425:E 0.000114601
6 *441:B 0.000597199
7 *445:I 0.000102505
8 *426:E 0.000192545
9 *427:E 0.000593511
10 *64:15 0.00103691
11 *64:16 0.000932705
12 *64:17 0.00120843008
13 *64:18 0.000320035
14 *64:19 0.000298682
15 *64:20 0.000550068
16 *64:21 0.000262984
17 *64:22 0.00048942
18 *64:23 0.000235583
19 *64:24 0.000155647
20 *64:25 0.000343085
21 *64:26 0.00020394
22 *64:27 0.000265141
23 *64:28 0.000226492
24 *64:29 0.000505352
25 *64:30 0.000169883
26 *64:31 0.00067269
27 *64:32 0.0005986
28 *64:33 0.000167688
29 *64:34 0.000245595
30 *64:35 9.40413e-05
31 *64:36 6.83735e-05
32 *426:E *578:I 0.000821902969

*RES
1 *596:E *64:35 8.79941
2 *445:I *64:33 3.00005
3 *64:23 *64:35 2.27957
4 *64:26 *64:33 1.69061
5 *64:16 *64:31 5.41086
6 *413:E *64:36 7.42527
7 *425:E *64:24 2.14636
8 *426:E *64:19 2.8994
9 *598:E *64:30 3.25506
10 *64:18 *64:31 3.79566
11 *64:17 *64:22 5.60722
12 *440:B *64:23 5.89522
13 *64:28 *64:29 4.21645
14 *64:16 *64:21 0.255008
15 *64:22 *64:31 4.31865
16 *64:20 *64:29 5.01178
17 *64:16 *64:26 7.31687
18 *64:17 *64:34 5.87478
19 *427:E *64:19 5.47754
20 *64:15 *64:20 9.23838043
21 *64:19 *64:34 4.50754
22 *64:21 *64:28 3.84698
23 *64:27 *64:30 3.54658
24 *400:Z *64:15 1.81551
25 *64:20 *64:24 0.97436
26 *64:25 *64:32 2.18949
27 *64:33 *64:35 1.17467
28 *593:E *64:32 3.76507
29 *64:30 *64:34 2.33878
30 *64:25 *64:27 2.72855
31 *441:B *64:18 6.7647
32 *602:E *64:24 1.50002
33 *428:I1 *64:23 1.50002
34 *442:B *64:22 3.00005
35 *439:B *64:21 3.00005
36 *64:32 *64:36 1.50002
*END

*D_NET *65 0.000693939

*CONN
*I *402:ZN O *C 37.7 65.6 *L 0 *D INVD1
*I *401:I I *C 35.3 65.8 *L 0.0104 *D CKND12

*CAP
1 *401:I 0.000454434023
2 *65:2 0.000239508

*RES
1 *401:I *65:2 5.81949997
2 *402:ZN *65:2 3.94354
*END

*D_NET *66 0.000262659

*CONN
*I *526:Z O *C 37.3 64.8 *L 0 *D AN2XD1
*I *402:I I *C 37.3 66 *L 0.00104 *D INVD1

*CAP
1 *402:I 0.000262659004

*RES
1 *526:Z *402:I 4.30727
*END

*D_NET *67 0.000338535

*CONN
*I *404:ZN O *C 35.5 68.4 *L 0 *D INVD1
*I *403:I I *C 35.7 69.4 *L 0.0104 *D CKND12

*CAP
1 *404:ZN 0.000338535

*RES
1 *404:ZN *403:I 4.17826
*END

*D_NET *68 0.000415011

*CONN
*I *489:Z O *C 35.5 65.6 *L 0 *D OR2XD1
*I *404:I I *C 35.9 68 *L 0.00104 *D INVD1

*CAP
1 *489:Z 0.000415010977

*RES
1 *489:Z *404:I 6.44738
*END

*D_NET *69 0.000676628

*CONN
*I *406:ZN O *C 39.1 68.4 *L 0 *D INVD1
*I *405:I I *C 39.3 71.8 *L 0.0104 *D CKND12

*CAP
1 *405:I 0.000585005
2 *406:ZN 9.16227e-05

*RES
1 *406:ZN *405:I 6.91173
*END

*D_NET *70 0.000252694

*CONN
*I *481:Z O *C 39.5 65.6 *L 0 *D OR2XD1
*I *406:I I *C 39.5 68 *L 0.00104 *D INVD1

*CAP
1 *406:I 0.000252694004

*RES
1 *481:Z *406:I 4.16921
*END

*D_NET *71 0.000405062

*CONN
*I *408:ZN O *C 43.1 65.6 *L 0 *D INVD1
*I *407:I I *C 41.5 68.2 *L 0.0104 *D CKND12

*CAP
1 *407:I 6.9863e-05
2 *408:ZN 0.000335197969

*RES
1 *408:ZN *407:I 5.14355
*END

*D_NET *72 0.000406766

*CONN
*I *347:I I *C 43.5 66 *L 0.00103 *D DEL01
*I *467:Z O *C 42.9 64.8 *L 0 *D OR2XD1

*CAP
1 *467:Z 0.000406766016

*RES
1 *467:Z *347:I 4.75381
*END

*D_NET *73 0.000754662

*CONN
*I *410:ZN O *C 46.1 62 *L 0 *D INVD1
*I *409:I I *C 46.3 68.2 *L 0.0104 *D CKND12

*CAP
1 *410:ZN 0.000754661953

*RES
1 *410:ZN *409:I 8.06885
*END

*D_NET *74 0.000445947

*CONN
*I *346:I I *C 46.9 62.4 *L 0.00103 *D DEL01
*I *459:Z O *C 45.7 61.2 *L 0 *D OR2XD1

*CAP
1 *459:Z 0.000445946992

*RES
1 *459:Z *346:I 5.40078
*END

*D_NET *75 1.1769e-05

*CONN
*I *412:ZN O *C 48.3 64.8 *L 0 *D INVD1
*I *411:I I *C 48.1 64.6 *L 0.0104 *D CKND12

*CAP
1 *411:I 1.17690002e-05

*RES
1 *412:ZN *411:I 0.207921
*END

*D_NET *76 0.000469777

*CONN
*I *348:I I *C 50.7 64.4 *L 0.00103 *D DEL01
*I *453:Z O *C 49.3 64.8 *L 0 *D OR2XD1

*CAP
1 *76:2 0.000469776992

*RES
1 *453:Z *76:2 2.99996
2 *348:I *76:2 4.78568983
*END

*D_NET *77 0.00270241

*CONN
*I *396:I I *C 29.9 32.2 *L 0.000942 *D CKND1
*P *77 I *C 0 26 *L 0.5

*CAP
1 *77 6.37829e-05
2 *77:2 0.000856105
3 *77:3 0.00178252

*RES
1 *77:2 *77:3 30.3442993
2 *396:I *77:2 7.40365
3 *77 *77:3 1.50018
*END

*D_NET *78 0.00416243

*CONN
*I *334:I I *C 31.1 28.4 *L 0.00103 *D DEL01
*P *78 I *C 0 36 *L 0.5

*CAP
1 *334:I 0.000168356
2 *78 0.00274253
3 *78:2 0.00050875
4 *78:3 0.000698072
5 *78:4 4.47359e-05

*RES
1 *78:2 *78:3 1.75051
2 *78 *78:4 32.0988998
3 *334:I *78:2 5.42982
4 *78:3 *78:4 4.86754
*END

*D_NET *79 0.00256141

*CONN
*P *79 I *C 0 46 *L 0.5
*I *548:A3 I *C 28.1 47.8 *L 0.000708 *D ND4D0

*CAP
1 *79 7.93877e-05
2 *79:2 0.000306997
3 *79:3 0.00217503

*RES
1 *548:A3 *79:2 6.51029
2 *79 *79:3 2.05412
3 *79:2 *79:3 26.7313004
*END

*D_NET *80 0.00324296

*CONN
*P *80 I *C 0 56 *L 0.5
*I *548:A4 I *C 27.7 48 *L 0.00068 *D ND4D0

*CAP
1 *548:A4 5.62258e-06
2 *80 0.000641762
3 *80:2 0.000875214
4 *80:3 5.30201e-05
5 *80:4 0.00166731

*RES
1 *80:2 *80:3 9.14679
2 *80:4 *80:5 0.133185
3 *80:3 *80:4 18.2985992
4 *548:A4 *80:2 0.496443
5 *80 *80:5 11.6653
*END

*D_NET *81 0.00408847

*CONN
*P *81 I *C 27.4 0 *L 0.5
*I *358:I I *C 50.3 28.4 *L 0.00382 *D BUFFD12

*CAP
1 *358:I 6.84049e-05
2 *81 0.000791129
3 *81:2 0.00039639
4 *81:3 0.00189713
5 *81:4 0.000935437

*RES
1 *81:2 *81:3 24.0347996
2 *81:3 *81:4 14.7929
3 *358:I *81:2 5.59355
4 *81 *81:4 9.86022
*END

*D_NET *82 0.00531514

*CONN
*P *82 I *C 26.7 0 *L 0.5
*I *356:I I *C 55.7 30 *L 0.00382 *D BUFFD12

*CAP
1 *356:I 0.000204098
2 *82 8.26647e-05
3 *82:2 0.000149213
4 *82:3 0.000258564
5 *82:4 0.00137708
6 *82:5 0.000713262
7 *82:7 0.000526835
8 *82:8 3.97774e-05
9 *82:9 0.00028296
10 *82:10 0.000234777
11 *82 *83:2 0.000581618008
12 *82:4 *100:4 0.000864292031

*RES
1 *82:8 *82:9 3.73373
2 *82:7 *82:8 0.327811
3 *82:6 *82:7 5.51898
4 *82:2 *82:3 3.70413
5 *356:I *82:2 5.18982
6 *82:5 *82:6 0.327811
7 *82:4 *82:5 13.2838
8 *82:4 *82:10 29.3890991
9 *82:3 *82:10 3.30188
10 *82 *82:9 1.50004
*END

*D_NET *83 0.005184

*CONN
*P *83 I *C 26 0 *L 0.5
*I *357:I I *C 54.7 28.4 *L 0.00382 *D BUFFD12

*CAP
1 *83 3.83219e-05
2 *83:2 0.00185482
3 *83:3 0.00123451
4 *83:4 0.000140891
5 *83:5 0.000612641
6 *83:2 *82 0.000581618008
7 *83:3 *100:4 0.000721225

*RES
1 *83:3 *83:5 28.6089993
2 *83:3 *83:2 22.5236
3 *83:4 *83:5 7.93278
4 *357:I *83:4 3.38972
5 *83 *83:2 1.85442
*END

*D_NET *84 0.00387782

*CONN
*P *84 I *C 32.3 0 *L 0.5
*I *478:A2 I *C 30.7 30 *L 0.00134 *D XNR3D0

*CAP
1 *478:A2 0.000380008
2 *84 0.00266693
3 *84:2 0.000461723
4 *84:3 0.000180318
5 *84:4 0.000188864

*RES
1 *84 *84:2 24.0650005
2 *84:3 *84:4 4.22907
3 *84:2 *84:3 0.451659
4 *478:A2 *84:4 10.4304
*END

*D_NET *85 0.00328891

*CONN
*P *85 I *C 31.6 0 *L 0.5
*I *498:A2 I *C 31.9 30 *L 0.000664 *D NR2D0
*I *480:A2 I *C 32.7 30 *L 0.000671 *D AOI21D0

*CAP
1 *85 0.000188004
2 *85:3 0.000348002
3 *85:4 0.000696953
4 *85:5 0.000111669
5 *85:6 0.00194427

*RES
1 *498:A2 *85:3 1.85871
2 *85:5 *85:6 21.5865002
3 *85:3 *85:4 7.18221
4 *480:A2 *85:3 2.70457
5 *85 *85:6 1.1456
6 *85:4 *85:5 2.32545
*END

*D_NET *86 0.00455608

*CONN
*P *86 I *C 30.9 0 *L 0.5
*I *518:A1 I *C 33.5 28.4 *L 0.000682 *D IND3D0
*I *485:A2 I *C 33.9 30 *L 0.000671 *D AOI21D0

*CAP
1 *518:A1 0.000180178
2 *86 0.00011078
3 *86:3 0.000252993
4 *86:4 0.000562137
5 *86:5 0.000601389
6 *86:7 0.000368922
7 *86:8 0.0015339
8 *86:9 0.000126696
9 *86:10 0.000819133

*RES
1 *86:8 *86:9 1.44768
2 *86:6 *86:7 0.256785
3 *86:3 *86:7 5.38112
4 *485:A2 *86:5 9.5703
5 *86:6 *86:8 13.7939997
6 *86:9 *86:10 8.12957
7 *86:4 *86:10 5.76336
8 *86:3 *86:5 1.51672
9 *518:A1 *86:5 3.58468
10 *86 *86:4 1.50009
*END

*D_NET *87 0.00257412

*CONN
*P *87 I *C 30.2 0 *L 0.5
*I *579:I I *C 30.9 29.8 *L 0.00062 *D CKND0

*CAP
1 *87 0.000810054
2 *87:2 0.000315414
3 *87:3 0.00144864

*RES
1 *87:2 *87:3 20.2535992
2 *579:I *87:2 3.59049
3 *87 *87:3 9.8604
*END

*D_NET *88 0.00339835

*CONN
*P *88 I *C 29.5 0 *L 0.5
*I *552:A2 I *C 36.5 28.4 *L 0.000897 *D NR3D0
*I *517:A2 I *C 37.5 28.4 *L 0.000671 *D AOI21D0

*CAP
1 *517:A2 2.29995e-07
2 *88 0.00150727
3 *88:3 0.000375995
4 *88:4 0.000886261
5 *88:5 0.000628598

*RES
1 *552:A2 *88:3 1.91878
2 *88:4 *88:5 8.3214
3 *88:3 *88:4 9.3846
4 *517:A2 *88:3 2.89734
5 *88 *88:5 18.7406006
*END

*D_NET *89 0.00449414

*CONN
*P *89 I *C 28.8 0 *L 0.5
*I *566:A1 I *C 39.7 28.4 *L 0.000647 *D NR2D0
*I *552:A3 I *C 36.1 28.4 *L 0.000899 *D NR3D0
*I *542:A1 I *C 40.5 28.4 *L 0.00069 *D AOI21D0

*CAP
1 *566:A1 8.40146e-05
2 *552:A3 8.16424e-05
3 *542:A1 5.8294e-05
4 *89 0.00090079
5 *89:4 0.000967035
6 *89:5 0.000351082
7 *89:6 0.000611846
8 *89:7 0.00143945

*RES
1 *89:5 *89:6 4.24395
2 *89:4 *89:6 7.40595
3 *566:A1 *89:5 4.49989
4 *552:A3 *89:6 4.49989
5 *89:4 *89:7 18.8883991
6 *542:A1 *89:5 5.52016
7 *89 *89:7 9.86038
*END

*D_NET *90 0.0053044

*CONN
*P *90 I *C 28.1 0 *L 0.5
*I *577:I I *C 42.1 28.6 *L 0.00062 *D CKND0
*I *566:A2 I *C 39.3 28.4 *L 0.000664 *D NR2D0
*I *552:A1 I *C 36.7 28.4 *L 0.000798 *D NR3D0
*I *542:A2 I *C 40.1 28.4 *L 0.000671 *D AOI21D0
*I *487:A2 I *C 47.9 28.2 *L 0.000727 *D AOI221D0

*CAP
1 *552:A1 0.000199075
2 *542:A2 0.000274841
3 *487:A2 0.000187666
4 *90 0.00231483
5 *90:6 0.000105189
6 *90:7 0.00014097
7 *90:8 0.000342377
8 *90:9 0.000944511
9 *90:10 0.000312565
10 *90:11 0.000482393

*RES
1 *90:8 *90:9 8.60604
2 *542:A2 *90:6 4.73268
3 *577:I *90:11 3.77945
4 *90:8 *90:10 2.36955
5 *487:A2 *90:7 7.00275
6 *566:A2 *90:6 3.46214
7 *90:10 *90:11 2.72846
8 *90:7 *90:11 3.92867
9 *552:A1 *90:8 6.84195
10 *90 *90:9 28.1019001
11 *90:6 *90:10 1.49995
*END

*D_NET *91 0.00437304

*CONN
*P *91 I *C 37.2 0 *L 0.5
*I *474:A2 I *C 34.3 37.2 *L 0.000709 *D AOI211D0
*I *452:A1 I *C 35.3 39.2 *L 0.000711 *D OAI211D0

*CAP
1 *474:A2 0.000278968
2 *91 0.000904347
3 *91:3 8.00733e-05
4 *91:4 0.000660951
5 *91:5 0.00244872

*RES
1 *91 *91:5 9.8602
2 *452:A1 *91:4 7.49976
3 *474:A2 *91:4 6.04469
4 *91:3 *91:5 26.8845997
5 *91:3 *91:4 1.94899
*END

*D_NET *92 0.00358063

*CONN
*P *92 I *C 36.5 0 *L 0.5
*I *555:A2 I *C 37.3 37.2 *L 0.000664 *D NR2D0
*I *535:A2 I *C 36.7 37.2 *L 0.000671 *D AOI21D0

*CAP
1 *555:A2 3.05055e-05
2 *535:A2 1.78772e-05
3 *92 0.00340576
4 *92:3 0.000126491

*RES
1 *535:A2 *92:3 2.99995
2 *535:A2 *555:A2 0.805589
3 *92 *92:3 37.4698982
*END

*D_NET *93 0.00467483

*CONN
*P *93 I *C 35.8 0 *L 0.5
*I *557:A2 I *C 34.1 39.2 *L 0.000664 *D NR2D0
*I *532:A2 I *C 33.1 39.2 *L 0.000671 *D AOI21D0

*CAP
1 *532:A2 0.000218046
2 *93 0.00012118
3 *93:3 0.000248114
4 *93:4 0.00314266
5 *93:6 0.000698017
6 *93:7 0.000246819

*RES
1 *93:6 *93:7 5.98432
2 *93:5 *93:6 0.256878
3 *93:3 *93:7 5.47891
4 *93:4 *93:5 32.1888008
5 *532:A2 *93:3 2.87428
6 *93 *93:4 2.64786
7 *557:A2 *93:3 1.50001
*END

*D_NET *94 0.0052319

*CONN
*P *94 I *C 35.1 0 *L 0.5
*I *550:A2 I *C 29.7 39.2 *L 0.000664 *D NR2D0
*I *534:A2 I *C 27.9 39.2 *L 0.000671 *D AOI21D0

*CAP
1 *534:A2 0.000276538
2 *94 0.000124808
3 *94:3 5.01889e-05
4 *94:4 0.000866507
5 *94:5 0.000221737
6 *94:6 0.000453528
7 *94:7 0.000328845
8 *94:8 0.00272279
9 *534:A2 *534:A1 0.000187000996

*RES
1 *94:6 *94:8 30.5678005
2 *94:5 *94:7 3.31537
3 *550:A2 *94:4 3.2552
4 *94:6 *94:7 2.75099
5 *94:3 *94:5 3.34475
6 *94:3 *94:4 5.81355
7 *534:A2 *94:4 5.15682
8 *94 *94:8 0.451968
*END

*D_NET *95 0.0050892

*CONN
*P *95 I *C 34.4 0 *L 0.5
*I *559:A2 I *C 28.9 42.8 *L 0.000664 *D NR2D0
*I *533:A2 I *C 29.5 42.8 *L 0.000668 *D AO21D0

*CAP
1 *559:A2 2.49018e-05
2 *533:A2 0.000632516
3 *95 8.27856e-05
4 *95:3 4.83316e-05
5 *95:4 0.00016491
6 *95:5 0.000929505
7 *95:6 0.00196856
8 *95:7 0.000334657
9 *95 *96 0.000903015

*RES
1 *95:6 *95:7 27.2423
2 *95:5 *95:7 2.99127
3 *95:3 *95:5 12.2099
4 *533:A2 *95:4 7.22335
5 *95:3 *95:4 1.41665
6 *95 *95:6 0.354163
7 *559:A2 *533:A2 0.800608
*END

*D_NET *96 0.00563138

*CONN
*P *96 I *C 33.7 0 *L 0.5
*I *570:A1 I *C 32.1 42.8 *L 0.000681 *D IND2D0
*I *479:A2 I *C 29.7 41 *L 0.000706 *D OA221D0
*I *458:B2 I *C 32.9 40.6 *L 0.000881 *D AOI221D0

*CAP
1 *570:A1 9.79621e-05
2 *479:A2 0.000555906
3 *458:B2 0.000277688
4 *96 0.000171208
5 *96:4 0.000237678
6 *96:5 0.000122679
7 *96:6 0.000569831
8 *96:7 0.000511107
9 *96:8 0.000265683
10 *96:9 0.000215146
11 *96:11 0.00144626
12 *96:12 0.000257231
13 *96 *95 0.000903015

*RES
1 *96:11 *96:12 17.8808994
2 *96:8 *96:12 2.36198
3 *96:4 *96:5 1.2035
4 *458:B2 *96:4 5.96239
5 *96:4 *96:7 7.7143
6 *479:A2 *96:5 8.80103
7 *96 *96:6 0.956307
8 *96:10 *96:11 0.256743
9 *96:7 *96:9 2.59717
10 *96:8 *96:9 2.73441
11 *570:A1 *96:5 2.99989
12 *96:6 *96:10 9.30305
*END

*D_NET *97 0.00389625

*CONN
*P *97 I *C 33 0 *L 0.5
*I *585:A2 I *C 33.1 35.8 *L 0.000661 *D XNR2D0

*CAP
1 *585:A2 0.000109865
2 *97 0.000119922
3 *97:2 0.00278099
4 *97:3 5.52082e-05
5 *97:4 0.000213619
6 *97:5 0.000378055
7 *97:6 0.000238613

*RES
1 *97:5 *97:6 3.70569
2 *97:3 *97:6 3.09097
3 *97:2 *97:4 29.9083996
4 *97 *97:2 4.194
5 *97:4 *97:5 2.83449
6 *585:A2 *97:3 3.00015
*END

*D_NET *98 0.00390286

*CONN
*P *98 I *C 42.1 0 *L 0.5
*I *515:A2 I *C 42.1 39.2 *L 0.000664 *D NR2D0
*I *491:B2 I *C 43.1 39.4 *L 0.000881 *D AOI221D0

*CAP
1 *491:B2 0.000127235
2 *98 0.00292368
3 *98:3 0.000851965

*RES
1 *491:B2 *98:3 7.2756
2 *98 *98:3 38.8284988
3 *515:A2 *98:3 3.25506
*END

*D_NET *99 0.00539101

*CONN
*P *99 I *C 41.4 0 *L 0.5
*I *556:A2 I *C 49.9 40.8 *L 0.000664 *D NR2D0
*I *553:B2 I *C 52.1 40.6 *L 0.000739 *D MOAI22D0
*I *553:A2 I *C 51.3 40.8 *L 0.000697 *D MOAI22D0
*I *530:A2 I *C 48.5 40.8 *L 0.000671 *D AOI21D0

*CAP
1 *556:A2 8.31794e-05
2 *530:A2 9.55263e-05
3 *99 0.000691526
4 *99:5 0.000881702
5 *99:6 0.000276182
6 *99:7 0.00011161
7 *99:8 0.000156481
8 *99:9 0.00212936
9 *99 *101:12 0.000763395
10 *99:5 *47:10 0.000202038008

*RES
1 *553:B2 *99:6 3.77987
2 *99:7 *99:8 1.36427
3 *99:6 *99:7 1.36474
4 *553:A2 *99:6 4.75509
5 *99 *99:9 9.86047
6 *99:5 *99:9 30.9801998
7 *99:5 *99:8 7.81832
8 *556:A2 *99:7 2.99988
9 *530:A2 *99:8 2.99988
*END

*D_NET *100 0.00667896

*CONN
*P *100 I *C 40.7 0 *L 0.5
*I *561:A2 I *C 51.9 44.4 *L 0.000664 *D NR2D0
*I *531:A2 I *C 48.7 44.4 *L 0.000671 *D AOI21D0
*I *420:B I *C 52.7 48 *L 0.0018 *D FA1D0

*CAP
1 *561:A2 4.88241e-05
2 *531:A2 0.000185639
3 *420:B 0.000558562
4 *100 0.000225731
5 *100:4 0.00168316
6 *100:5 0.000628857
7 *100:6 0.000273554
8 *100:7 0.00043315
9 *100:8 0.000679351
10 *100:9 0.000131293
11 *100:4 *83:3 0.000721225
12 *100:4 *82:4 0.000864292031
13 *100:5 *111:8 0.000245324004

*RES
1 *100:8 *100:9 8.1652
2 *100:4 *100:8 36.0564995
3 *100:6 *100:5 5.34829
4 *561:A2 *100:6 3.25486
5 *100 *100:7 2.62325
6 *100:4 *100:7 7.99079
7 *420:B *100:6 5.73286
8 *531:A2 *100:5 3.25486
9 *100:5 *100:9 1.49979
*END

*D_NET *101 0.0062001

*CONN
*P *101 I *C 40 0 *L 0.5
*I *562:A2 I *C 47.1 46.4 *L 0.000664 *D NR2D0
*I *528:A2 I *C 45.7 46.4 *L 0.000671 *D AOI21D0
*I *448:B I *C 47.5 48 *L 0.0018 *D FA1D0

*CAP
1 *528:A2 0.000346124
2 *101 9.13426e-05
3 *101:4 0.000168092
4 *101:5 9.75934e-05
5 *101:6 0.000494712
6 *101:7 0.000787938
7 *101:8 0.000370188
8 *101:9 0.000469591
9 *101:10 0.000497837
10 *101:11 2.79644e-06
11 *101:12 0.00154004
12 *101:12 *99 0.000763395
13 *101:8 *102:4 0.000570474023

*RES
1 *101:5 *101:6 0.812102
2 *528:A2 *101:5 3.29036
3 *101:11 *101:12 32.7318001
4 *101:10 *101:11 0.256716
5 *101:8 *101:9 3.5271
6 *101:7 *101:9 5.2407
7 *101:4 *101:5 0.669759
8 *448:B *101:6 4.08398
9 *101:8 *101:10 4.61889
10 *101:4 *101:7 8.07807
11 *101 *101:12 0.549392
12 *562:A2 *101:6 1.49984
*END

*D_NET *102 0.00502709

*CONN
*P *102 I *C 39.3 0 *L 0.5
*I *551:A2 I *C 40.1 46.4 *L 0.000664 *D NR2D0
*I *527:A2 I *C 41.5 46.4 *L 0.000671 *D AOI21D0
*I *460:B I *C 41.9 48 *L 0.0018 *D FA1D0

*CAP
1 *551:A2 0.00010399
2 *527:A2 8.8325e-05
3 *102 0.000646629
4 *102:4 0.00156021
5 *102:5 0.000461956
6 *102:6 0.000347182
7 *102:7 0.000340539
8 *102:8 4.60195e-05
9 *102:4 *101:8 0.000570474023
10 *102 *103 0.000642391016
11 *102:5 *1:3 0.000219335996

*RES
1 *102:4 *102:8 0.256704
2 *102:5 *102:4 34.263401
3 *102:7 *102:5 2.90687
4 *460:B *102:6 3.25506
5 *551:A2 *102:7 3.19494
6 *102 *102:8 9.80284
7 *102:6 *102:7 3.12854
8 *527:A2 *102:6 1.75458
*END

*D_NET *103 0.0053663

*CONN
*P *103 I *C 38.6 0 *L 0.5
*I *560:A2 I *C 39.7 42.8 *L 0.000664 *D NR2D0
*I *529:A2 I *C 40.9 42.8 *L 0.000671 *D AOI21D0
*I *484:B I *C 36.9 44.4 *L 0.0018 *D FA1D0

*CAP
1 *560:A2 9.95409e-05
2 *529:A2 0.00028205
3 *484:B 0.000348286
4 *103 0.000394457
5 *103:4 0.000196208
6 *103:5 0.000121028
7 *103:6 0.00176023
8 *103 *102 0.000642391016
9 *103 *104 0.000992313047
10 *103:4 *1:3 0.000318555
11 *484:B *451:A2 0.000211225

*RES
1 *560:A2 *103:4 1.92071
2 *103 *103:6 9.86021
3 *103:5 *103:6 33.7106018
4 *484:B *103:5 7.50691
5 *529:A2 *103:4 3.64337
6 *103:4 *103:5 3.05698
*END

*D_NET *104 0.00577352

*CONN
*P *104 I *C 37.9 0 *L 0.5
*I *563:A2 I *C 39.3 40.8 *L 0.000606 *D CKND2D0
*I *491:A2 I *C 43.1 39 *L 0.000727 *D AOI221D0
*I *455:A1 I *C 37.9 40.8 *L 0.000711 *D OAI211D0
*I *442:A1 I *C 40.9 40.8 *L 0.000711 *D OAI211D0

*CAP
1 *491:A2 0.000237487
2 *455:A1 4.7787e-05
3 *442:A1 0.000106676
4 *104 0.00263613
5 *104:5 3.77308e-05
6 *104:6 0.000376866
7 *104:7 0.00027377
8 *104:8 0.00106471
9 *104 *103 0.000992313047

*RES
1 *104:6 *104:8 3.04584
2 *104:6 *104:7 4.68543
3 *104:5 *104:7 4.56098
4 *491:A2 *104:5 5.42091
5 *455:A1 *104:8 4.5
6 *442:A1 *104:7 5.01024
7 *104 *104:8 40.778801
8 *563:A2 *104:6 1.50021
*END

*D_NET *105 0.00418796

*CONN
*P *105 O *C 31.6 100 *L 0.5
*I *591:ZN O *C 32.7 64.8 *L 0 *D INVD12
*I *580:A2 I *C 33.3 62.4 *L 0.000658 *D CKXOR2D0

*CAP
1 *580:A2 0.000212106
2 *105 0.000186194
3 *105:3 0.00346556
4 *105:4 0.000282596
5 *105:5 4.15116e-05

*RES
1 *105 *105:5 2.0491
2 *580:A2 *105:4 3.25409
3 *105:3 *105:5 36.781601
4 *105:3 *105:4 1.78475
5 *591:ZN *105:4 1.5002
*END

*D_NET *106 0.00245788

*CONN
*P *106 O *C 30.9 100 *L 0.5
*I *588:ZN O *C 30.7 72 *L 0 *D INVD12

*CAP
1 *106 0.00222507
2 *106:2 0.000232812

*RES
1 *588:ZN *106:2 2.99983
2 *106 *106:2 28.4964008
*END

*D_NET *107 0.00330445

*CONN
*P *107 O *C 30.2 100 *L 0.5
*I *587:ZN O *C 29.3 65.6 *L 0 *D INVD12

*CAP
1 *587:ZN 0.000298098
2 *107 0.00126253
3 *107:2 0.00164693
4 *107:3 9.68782e-05

*RES
1 *107:2 *107:3 20.2539997
2 *587:ZN *107:2 4.02014
3 *107 *107:3 13.1761
*END

*D_NET *108 0.00309748

*CONN
*P *108 O *C 29.5 100 *L 0.5
*I *586:ZN O *C 29.3 64.8 *L 0 *D INVD12

*CAP
1 *108 0.00248419
2 *108:2 0.000613286

*RES
1 *586:ZN *108:2 3.00017
2 *108 *108:2 35.3186989
*END

*D_NET *109 0.00632334

*CONN
*P *109 O *C 28.8 100 *L 0.5
*I *590:ZN O *C 33.3 44 *L 0 *D INVD12
*I *570:B1 I *C 32.7 42.8 *L 0.000658 *D IND2D0
*I *545:A2 I *C 30.9 48 *L 0.000651 *D OAI21D0

*CAP
1 *570:B1 0.000409405
2 *109 0.000813138
3 *109:4 0.000542668
4 *109:5 0.000359325
5 *109:6 0.00263611
6 *109:7 6.15032e-05
7 *109:8 0.000434263
8 *109 *110 0.0010669

*RES
1 *109:6 *109:8 38.3921013
2 *109:5 *109:7 3.64378
3 *109 *109:8 13.1762
4 *109:4 *109:7 5.02397
5 *109:4 *109:6 4.72754
6 *570:B1 *109:5 4.22843
7 *590:ZN *109:5 1.50028
8 *545:A2 *109:4 2.99997
*END

*D_NET *110 0.00651774

*CONN
*P *110 O *C 28.1 100 *L 0.5
*I *545:A1 I *C 30.5 48 *L 0.0007 *D OAI21D0
*I *589:ZN O *C 30.5 51.2 *L 0 *D CKND12
*I *585:A1 I *C 31.9 35.6 *L 0.00136 *D XNR2D0

*CAP
1 *585:A1 0.000135175
2 *110 0.000570342
3 *110:4 0.000530733
4 *110:5 0.000509713
5 *110:6 0.00112896
6 *110:7 0.00157797
7 *110:8 0.000109147
8 *110:9 7.5052e-05
9 *110:10 6.23627e-06
10 *110:4 *32:4 0.00016461
11 *110 *112 0.000642947969
12 *110 *109 0.0010669

*RES
1 *110:5 *110:7 5.68059
2 *585:A1 *110:6 5.73285
3 *110:6 *110:8 12.0008
4 *110:4 *110:5 3.88392
5 *110 *110:9 13.1145
6 *110:9 *110:10 0.256593
7 *110:7 *110:10 34.2486992
8 *110:4 *110:8 5.03676
9 *589:ZN *110:5 1.49984
10 *545:A1 *110:4 3.00021
*END

*D_NET *111 0.00854905

*CONN
*I *333:Z O *C 55.1 33.2 *L 0 *D BUFFD12
*P *111 O *C 27.4 100 *L 0.5

*CAP
1 *111 4.08126e-05
2 *111:2 9.55463e-05
3 *111:3 0.000638062
4 *111:4 0.000519631
5 *111:5 2.57371e-05
6 *111:6 0.00165912
7 *111:7 0.00445033969
8 *111:8 0.000578575
9 *111:9 0.000295874
10 *111:8 *100:5 0.000245324004

*RES
1 *111:8 *111:9 8.91271
2 *111:5 *111:7 54.7220993
3 *111:2 *111:3 4.23091
4 *111:7 *111:9 0.256343
5 *111:5 *111:6 20.3905
6 *111:4 *111:8 3.48109
7 *111:3 *111:4 4.89306
8 *111 *111:6 1.85452
9 *333:Z *111:2 1.49965
*END

*D_NET *112 0.00786116

*CONN
*I *331:Z O *C 60.1 33.2 *L 0 *D BUFFD12
*P *112 O *C 26.7 100 *L 0.5

*CAP
1 *112 0.00316573
2 *112:2 0.000184287
3 *112:3 0.00210397
4 *112 *110 0.000642947969
5 *112 *113 0.00176423

*RES
1 *112:2 *112:3 37.2634
2 *331:Z *112:2 2.99966
3 *112 *112:3 64.2435989
*END

*D_NET *113 0.00780685

*CONN
*I *332:Z O *C 59.1 32.4 *L 0 *D BUFFD12
*P *113 O *C 26 100 *L 0.5

*CAP
1 *113 0.000647801
2 *113:2 1.46497e-05
3 *113:3 5.16266e-05
4 *113:4 0.000194442
5 *113:5 0.00513407
6 *113 *112 0.00176423

*RES
1 *113:3 *113:5 54.3844986
2 *332:Z *113:2 2.99988
3 *113:4 *113:5 33.8733
4 *113 *113:3 13.1762
5 *113:2 *113:4 1.50035
*END

*D_NET *114 0.00368116

*CONN
*I *411:ZN O *C 46.7 64.8 *L 0 *D CKND12
*P *114 O *C 37.9 100 *L 0.5

*CAP
1 *411:ZN 0.000102106
2 *114 0.00101833
3 *114:2 5.2375e-05
4 *114:3 0.000417321
5 *114:4 3.29987e-05
6 *114:5 0.00203824
7 *114:7 1.97495e-05

*RES
1 *114:2 *114:3 5.81859
2 *114 *114:7 13.1145
3 *114:6 *114:7 0.256737
4 *114:4 *114:5 3.92877
5 *114:3 *114:4 0.133184
6 *411:ZN *114:2 1.69486
7 *114:5 *114:6 21.7665005
*END

*D_NET *115 0.00384121

*CONN
*I *409:ZN O *C 47.7 68.4 *L 0 *D CKND12
*P *115 O *C 37.2 100 *L 0.5

*CAP
1 *409:ZN 0.000199433
2 *115 0.00113341
3 *115:2 0.000252348
4 *115:3 0.000548125
5 *115:4 0.00166241
6 *115:5 4.54572e-05

*RES
1 *409:ZN *115:2 6.67278
2 *115:4 *115:5 18.1086998
3 *115:2 *115:3 4.93391
4 *115 *115:5 13.1762
5 *115:3 *115:4 2.71841
*END

*D_NET *116 0.00342948

*CONN
*I *407:ZN O *C 42.9 68.4 *L 0 *D CKND12
*P *116 O *C 36.5 100 *L 0.5

*CAP
1 *116 0.00252436
2 *116:2 0.000152074
3 *116:3 0.000199376
4 *116:4 0.000553676

*RES
1 *116:2 *116:3 3.70277
2 *407:ZN *116:2 4.52836
3 *116 *116:4 31.8082008
4 *116:3 *116:4 1.4779
*END

*D_NET *117 0.00292592

*CONN
*I *405:ZN O *C 40.7 72 *L 0 *D CKND12
*P *117 O *C 35.8 100 *L 0.5

*CAP
1 *117 0.00115179
2 *117:2 9.12802e-05
3 *117:3 0.00162203
4 *117:4 6.08122e-05

*RES
1 *117:2 *117:3 6.37228
2 *117:3 *117:4 15.1831999
3 *117 *117:4 13.1762
4 *405:ZN *117:2 1.50011
*END

*D_NET *118 0.00273749

*CONN
*I *403:ZN O *C 37.1 69.2 *L 0 *D CKND12
*P *118 O *C 35.1 100 *L 0.5

*CAP
1 *118 0.00224569984
2 *118:2 0.000491803

*RES
1 *403:ZN *118:2 4.9489
2 *118 *118:2 30.0529003
*END

*D_NET *119 0.00363494

*CONN
*I *401:ZN O *C 33.9 65.6 *L 0 *D CKND12
*P *119 O *C 34.4 100 *L 0.5

*CAP
1 *119 0.0010685
2 *119:2 0.000708077
3 *119:3 0.000162267
4 *119:4 4.56101e-05
5 *119:5 0.0016505

*RES
1 *119:2 *119:4 5.77509
2 *119:3 *119:5 18.0081005
3 *119 *119:3 14.1911
4 *401:ZN *119:2 1.50003
5 *119:4 *119:5 1.50003
*END

*D_NET *120 0.00311361

*CONN
*I *391:Z O *C 33.7 69.2 *L 0 *D BUFFD12
*P *120 O *C 33.7 100 *L 0.5

*CAP
1 *120 0.000307004
2 *120:2 0.000435815
3 *120:3 0.00121796
4 *120:4 5.94716e-06
5 *120:5 0.00114687

*RES
1 *120:4 *120:5 9.29998
2 *120:3 *120:5 2.84302
3 *120:2 *120:3 17.8964996
4 *391:Z *120:2 3.00004
5 *120 *120:4 2.25782
*END

*D_NET *121 0.00296151

*CONN
*I *392:Z O *C 36.1 72 *L 0 *D BUFFD12
*P *121 O *C 33 100 *L 0.5

*CAP
1 *392:Z 0.000224243
2 *121 0.00127414
3 *121:2 0.00145201
4 *121:3 1.11224e-05

*RES
1 *121:2 *121:3 14.5980997
2 *392:Z *121:2 6.50784
3 *121 *121:3 13.1761
*END

*D_NET *122 0.00300435

*CONN
*I *393:Z O *C 32.3 68.4 *L 0 *D BUFFD12
*P *122 O *C 32.3 100 *L 0.5

*CAP
1 *393:Z 4.73637e-05
2 *122 0.0023515
3 *122:2 0.000605502

*RES
1 *393:Z *122:2 2.99976
2 *122 *122:2 31.9922009
*END

*D_NET *123 0.00259512

*CONN
*P *123 O *C 100 26 *L 0.5
*I *592:ZN O *C 64.3 29.6 *L 0 *D INVD12

*CAP
1 *123 0.00212756984
2 *123:2 0.000467556

*RES
1 *592:ZN *123:2 4.81401
2 *123 *123:2 37.5049019
*END

*D_NET *124 0.00320322

*CONN
*I *554:B2 I *C 51.1 53.8 *L 0.000739 *D MOAI22D0
*I *554:A2 I *C 51.9 53.6 *L 0.000697 *D MOAI22D0
*I *553:B1 I *C 52.5 40.8 *L 0.000689 *D MOAI22D0
*I *553:A1 I *C 51.5 40.8 *L 0.000721 *D MOAI22D0
*I *413:Q O *C 54.5 46.6 *L 0 *D EDFKCNQD1

*CAP
1 *554:B2 0.000255085
2 *553:B1 0.000102909
3 *553:A1 0.000113607
4 *413:Q 0.000157042
5 *124:5 0.00124087
6 *124:6 0.000765161
7 *124:7 8.80452e-05
8 *124:8 0.0004805

*RES
1 *554:A2 *124:7 3.43442
2 *413:Q *124:8 6.51531
3 *554:B2 *124:7 2.50652
4 *553:A1 *124:6 3.72479
5 *553:B1 *124:6 2.50883
6 *124:5 *124:7 7.21104002
7 *124:5 *124:6 5.09843
8 *124:5 *124:8 1.49995
*END

*D_NET *125 0.00274177

*CONN
*I *593:Q O *C 54.3 50.2 *L 0 *D EDFKCND1
*I *572:A1 I *C 51.7 58.6 *L 0.000617 *D CKND2D0
*I *420:A I *C 54.3 48 *L 0.00103 *D FA1D0

*CAP
1 *572:A1 9.67326e-05
2 *125:3 0.000133448
3 *125:4 0.000794108984
4 *125:5 0.000192762
5 *125:6 0.000625533
6 *125:7 0.000383853
7 *125:8 0.000515326

*RES
1 *125:7 *125:8 1.61681
2 *125:5 *125:8 4.35113
3 *125:4 *125:8 3.9807
4 *572:A1 *125:6 3.00004
5 *125:6 *125:7 8.70730019
6 *125:3 *125:4 5.37869
7 *593:Q *125:5 3.20837
8 *420:A *125:3 1.50002
*END

*D_NET *126 0.00135812

*CONN
*I *367:I I *C 55.1 50 *L 0.00104 *D DEL0
*I *598:Q O *C 48.1 50.2 *L 0 *D EDFKCND1

*CAP
1 *367:I 0.000284659
2 *598:Q 0.000735381016
3 *126:2 0.000338072

*RES
1 *598:Q *126:2 7.84291
2 *367:I *126:2 8.76194
*END

*D_NET *127 0.00213684

*CONN
*I *360:I I *C 48.7 42.8 *L 0.00104 *D DEL0
*I *426:Q O *C 42.3 50.2 *L 0 *D EDFKCNQD1

*CAP
1 *360:I 0.00078709
2 *127:2 6.16582e-05
3 *127:3 0.0012881

*RES
1 *127:2 *127:3 10.0943003
2 *426:Q *127:3 4.03335
3 *360:I *127:2 8.44005
*END

*D_NET *128 0.00276773

*CONN
*I *361:I I *C 44.1 39.2 *L 0.00104 *D DEL0
*I *427:Q O *C 34.1 46.6 *L 0 *D EDFKCNQD1

*CAP
1 *361:I 0.000238762
2 *128:2 0.000458673
3 *128:3 0.000836392969
4 *128:4 0.000190634
5 *128:5 0.000613572
6 *128:6 0.000429702

*RES
1 *128:4 *128:5 4.14694
2 *128:5 *128:6 2.72658
3 *128:3 *128:6 5.52712
4 *128:2 *128:3 1.86858
5 *361:I *128:4 6.63088989
6 *427:Q *128:2 4.45392
*END

*D_NET *129 0.00152178

*CONN
*I *375:I I *C 41.9 40.8 *L 0.00104 *D DEL0
*I *418:Q O *C 38.3 36.8 *L 0 *D DFKCNQD1

*CAP
1 *375:I 3.62164e-06
2 *129:2 0.000635834
3 *129:3 0.000882321016

*RES
1 *375:I *129:2 6.47428
2 *129:2 *129:3 8.66798973
3 *418:Q *129:3 1.49999
*END

*D_NET *130 0.000862851

*CONN
*I *382:I I *C 28.3 28.4 *L 0.00104 *D DEL0
*I *425:Q O *C 28.3 33.4 *L 0 *D EDFKCNQD1

*CAP
1 *382:I 0.000177109
2 *130:2 0.000685738984

*RES
1 *382:I *130:2 2.83416
2 *425:Q *130:2 6.06754017
*END

*D_NET *131 0.000479041

*CONN
*I *386:I I *C 39.3 33.6 *L 0.00104 *D DEL0
*I *415:Q O *C 38.9 32.4 *L 0 *D DFKCNQD1

*CAP
1 *415:Q 0.000479041016

*RES
1 *415:Q *386:I 6.98411
*END

*D_NET *132 0.00103461

*CONN
*I *602:Q O *C 38.5 33.4 *L 0 *D EDFKCND1
*I *472:I1 I *C 37.3 29.8 *L 0.001 *D MUX2ND0

*CAP
1 *602:Q 6.95081e-05
2 *132:2 0.000625029023
3 *132:3 0.000340082

*RES
1 *132:2 *132:3 5.31983995
2 *602:Q *132:3 4.36426
3 *472:I1 *132:2 1.50002
*END

*D_NET *133 0.000310084

*CONN
*I *385:I I *C 44.1 37.2 *L 0.00104 *D DEL0
*I *417:Q O *C 44.1 36 *L 0 *D DFKCNQD1

*CAP
1 *417:Q 0.000310083984

*RES
1 *385:I *417:Q 4.31001
*END

*D_NET *134 0.00085487

*CONN
*I *596:Q O *C 44.3 32.2 *L 0 *D EDFKCND1
*I *486:B1 I *C 45.9 28.4 *L 0.000686 *D MAOI22D0
*I *486:A1 I *C 44.9 28.4 *L 0.000713 *D MAOI22D0

*CAP
1 *596:Q 0.000353218008
2 *486:B1 0.000127894
3 *486:A1 6.18529e-05
4 *134:3 0.0003119

*RES
1 *596:Q *134:3 5.30542994
2 *486:A1 *134:3 3.24538
3 *486:B1 *134:3 2.70347
*END

*D_NET *135 0.000795266

*CONN
*I *381:I I *C 53.5 32 *L 0.00104 *D DEL0
*I *416:Q O *C 49.5 32.4 *L 0 *D DFKCNQD1

*CAP
1 *381:I 1.0616e-06
2 *416:Q 0.000119448
3 *135:2 8.51622e-05
4 *135:3 0.000589595039

*RES
1 *135:2 *135:3 5.8375802
2 *381:I *135:2 3.19492
3 *416:Q *135:3 3.00003
*END

*D_NET *136 0.000419927

*CONN
*I *384:I I *C 50.7 37.2 *L 0.00104 *D DEL0
*I *419:Q O *C 51.9 39.6 *L 0 *D DFKCNQD1

*CAP
1 *384:I 0.000216646992
2 *419:Q 0.000203282

*RES
1 *419:Q *384:I 6.83917
*END

*D_NET *137 0.00134896

*CONN
*I *594:Q O *C 49.7 53.2 *L 0 *D DFD1
*I *554:B1 I *C 50.7 53.6 *L 0.000689 *D MOAI22D0
*I *554:A1 I *C 51.7 53.6 *L 0.000721 *D MOAI22D0
*I *475:B2 I *C 50.7 55 *L 0.000739 *D MOAI22D0
*I *475:A2 I *C 49.9 55.2 *L 0.000697 *D MOAI22D0
*I *429:B2 I *C 49.1 55 *L 0.000698 *D AO22D0

*CAP
1 *594:Q 0.00028968998
2 *554:B1 0.000153551
3 *554:A1 0.000165473
4 *475:B2 2.62571e-06
5 *429:B2 0.000101306
6 *137:6 0.00020843
7 *137:7 9.93216e-05
8 *137:8 0.000165535
9 *137:9 0.000163024

*RES
1 *137:8 *137:9 0.451544
2 *554:A1 *137:6 4.62020016
3 *137:6 *137:7 0.584786
4 *475:B2 *137:7 1.66405
5 *554:B1 *137:6 2.11566
6 *429:B2 *137:9 2.40647
7 *137:7 *137:8 1.03633
8 *475:A2 *137:8 3.16398
9 *594:Q *137:9 3.04625
*END

*D_NET *138 0.000749142

*CONN
*I *379:I I *C 53.9 57.2 *L 0.00104 *D DEL0
*I *601:Q O *C 50.3 56.8 *L 0 *D DFD1

*CAP
1 *379:I 0.000129637
2 *601:Q 0.000100266
3 *138:2 0.000519236016

*RES
1 *379:I *138:2 9.17477989
2 *601:Q *138:2 2.99997
*END

*D_NET *139 0.000677662

*CONN
*I *378:I I *C 44.9 57.2 *L 0.00104 *D DEL0
*I *597:Q O *C 47.1 55.6 *L 0 *D DFD1

*CAP
1 *597:Q 0.000159804
2 *139:2 0.000517862031

*RES
1 *597:Q *139:2 2.08461
2 *378:I *139:2 8.78394985
*END

*D_NET *140 0.00202392

*CONN
*I *368:I I *C 52.7 51.6 *L 0.00104 *D DEL0
*I *599:Q O *C 40.9 53.2 *L 0 *D DFD1

*CAP
1 *368:I 0.000208806
2 *599:Q 0.000461657
3 *140:2 0.000334897
4 *140:3 0.00101854

*RES
1 *599:Q *140:3 5.35663
2 *140:2 *140:3 9.08613968
3 *368:I *140:2 6.67319
*END

*D_NET *141 0.00236266

*CONN
*I *362:I I *C 55.3 51.6 *L 0.00104 *D DEL0
*I *600:Q O *C 40.3 52 *L 0 *D DFD1

*CAP
1 *141:2 0.000103692
2 *141:3 0.00079256
3 *141:4 0.000881841016
4 *141:5 0.000196229
5 *141:6 0.000369207
6 *141:7 1.91479e-05

*RES
1 *141:2 *141:4 7.64412022
2 *141:6 *141:7 0.327992
3 *141:5 *141:6 3.76467
4 *141:3 *141:7 7.40571
5 *141:4 *141:5 1.52239
6 *600:Q *141:3 1.49999
7 *362:I *141:2 2.99998
*END

*D_NET *142 0.000821479

*CONN
*I *380:I I *C 40.9 51.6 *L 0.00104 *D DEL0
*I *595:Q O *C 40.3 55 *L 0 *D DFXD1

*CAP
1 *380:I 0.000553316016
2 *595:Q 2.9804e-06
3 *142:2 0.000265188

*RES
1 *595:Q *142:2 1.85884
2 *380:I *142:2 7.09911013
*END

*D_NET *143 0.000585314

*CONN
*I *608:Q O *C 34.9 55.6 *L 0 *D DFD1
*I *430:B2 I *C 33.9 57.4 *L 0.000739 *D MOAI22D0

*CAP
1 *143:2 0.000585313984

*RES
1 *430:B2 *143:2 3.97447
2 *608:Q *143:2 4.57825994
*END

*D_NET *144 0.00122616

*CONN
*I *605:Q O *C 33.3 59.2 *L 0 *D DFD1
*I *581:A2 I *C 33.9 60.8 *L 0.000658 *D CKXOR2D0
*I *499:B1 I *C 31.9 60.8 *L 0.000658 *D IND2D0
*I *437:B2 I *C 34.9 58.6 *L 0.000739 *D MOAI22D0

*CAP
1 *605:Q 0.000228981
2 *437:B2 0.000406774023
3 *144:4 0.000232166
4 *144:5 0.000358242

*RES
1 *605:Q *144:5 4.16918
2 *144:4 *144:5 0.584637
3 *581:A2 *144:4 3.00001
4 *499:B1 *144:5 4.58047
5 *437:B2 *144:4 6.26980019
*END

*D_NET *145 0.00139561

*CONN
*I *604:Q O *C 28.1 56.8 *L 0 *D DFD1
*I *583:A2 I *C 27.9 60.8 *L 0.000658 *D CKXOR2D0
*I *511:B1 I *C 30.5 60.8 *L 0.000658 *D IND2D0
*I *436:B2 I *C 28.7 58.6 *L 0.000739 *D MOAI22D0

*CAP
1 *604:Q 0.000279842
2 *511:B1 0.000129442
3 *145:4 0.000455837
4 *145:5 0.000530485977

*RES
1 *511:B1 *145:5 4.95148
2 *583:A2 *145:5 3.77957
3 *145:4 *145:5 3.45304
4 *604:Q *145:4 6.66859007
5 *436:B2 *145:4 1.49996
*END

*D_NET *146 0.00163793

*CONN
*I *603:Q O *C 27.9 55.6 *L 0 *D DFD1
*I *584:A2 I *C 27.9 50 *L 0.000658 *D CKXOR2D0
*I *540:B1 I *C 29.9 53.6 *L 0.000658 *D IND2D0
*I *434:B2 I *C 28.7 53.8 *L 0.000739 *D MOAI22D0

*CAP
1 *603:Q 0.000176499
2 *584:A2 0.000162845
3 *146:4 0.000533147
4 *146:5 0.000604201953
5 *146:6 0.000161231

*RES
1 *146:5 *146:6 4.53041
2 *146:4 *146:5 3.51839
3 *584:A2 *146:4 2.31038
4 *603:Q *146:5 6.68253994
5 *540:B1 *146:6 1.50004
6 *434:B2 *146:5 1.50004
*END

*D_NET *147 0.000824401

*CONN
*I *388:I I *C 27.9 46.4 *L 0.00104 *D DEL0
*I *607:Q O *C 30.9 44.8 *L 0 *D DFD1

*CAP
1 *388:I 0.000686848984
2 *147:2 0.000137548

*RES
1 *388:I *147:2 9.25629044
2 *607:Q *147:2 1.49997
*END

*D_NET *148 0.000811924

*CONN
*I *389:I I *C 31.9 53.6 *L 0.00104 *D DEL0
*I *606:Q O *C 30.3 50.2 *L 0 *D DFXD1

*CAP
1 *389:I 7.13467e-05
2 *606:Q 3.81096e-05
3 *148:2 0.000505262969
4 *148:3 0.000197202

*RES
1 *389:I *148:2 5.56943989
2 *148:2 *148:3 2.47445
3 *606:Q *148:3 2.99998
*END

*D_NET *149 0.00111586

*CONN
*I *355:I I *C 47.3 30 *L 0.00104 *D DEL0
*I *609:Q O *C 54.7 29.8 *L 0 *D DFXD1

*CAP
1 *355:I 0.000305177
2 *609:Q 1.07478e-06
3 *149:2 0.000809607969

*RES
1 *609:Q *149:2 1.69496
2 *355:I *149:2 14.4730997
*END

*D_NET *150 0.00221919

*CONN
*I *372:I I *C 36.1 68 *L 0.00104 *D DEL0
*I *608:QN O *C 35.3 55.6 *L 0 *D DFD1

*CAP
1 *608:QN 0.000889549
2 *150:2 0.000319956
3 *150:3 0.000983642969
4 *150:4 2.60564e-05

*RES
1 *608:QN *150:4 7.84333992
2 *150:3 *150:4 0.453706
3 *150:2 *150:3 6.97207
4 *372:I *150:2 5.00106
*END

*D_NET *151 0.000363452

*CONN
*I *598:QN O *C 48.7 50.4 *L 0 *D EDFKCND1
*I *558:A2 I *C 47.7 51.6 *L 0.000606 *D CKND2D0

*CAP
1 *598:QN 0.00018627
2 *558:A2 0.000177183

*RES
1 *558:A2 *598:QN 5.49176
*END

*D_NET *152 0.000486158

*CONN
*I *578:ZN O *C 36.7 50.2 *L 0 *D CKND0
*I *503:A2 I *C 36.1 51.6 *L 0.000664 *D NR2D0

*CAP
1 *578:ZN 0.000486158008

*RES
1 *578:ZN *503:A2 6.07372
*END

*D_NET *153 0.00356242

*CONN
*I *363:I I *C 39.1 69.6 *L 0.00104 *D DEL0
*I *603:QN O *C 27.5 55.6 *L 0 *D DFD1

*CAP
1 *363:I 0.000312756
2 *603:QN 0.000691486
3 *153:2 0.000980994
4 *153:4 0.000193187
5 *153:5 0.00098802
6 *153:6 0.000395962

*RES
1 *603:QN *153:3 6.11346
2 *153:4 *153:5 7.96711
3 *153:2 *153:6 10.0331001
4 *153:2 *153:4 1.2053
5 *363:I *153:6 8.89378
6 *153:3 *153:5 0.256737
*END

*D_NET *154 0.000707213

*CONN
*I *364:I I *C 36.1 58.8 *L 0.000643 *D CKBD0
*I *605:QN O *C 33.7 59.2 *L 0 *D DFD1

*CAP
1 *364:I 0.000160732
2 *605:QN 7.78383e-05
3 *154:2 0.000468638984

*RES
1 *364:I *154:2 7.73702002
2 *605:QN *154:2 2.99996
*END

*D_NET *155 0.000951152

*CONN
*I *365:I I *C 31.7 57.2 *L 0.000643 *D CKBD0
*I *604:QN O *C 27.7 56.8 *L 0 *D DFD1

*CAP
1 *604:QN 7.49906e-05
2 *155:2 0.000618565977
3 *155:3 0.000257592

*RES
1 *365:I *155:3 4.49997
2 *604:QN *155:2 1.77089
3 *155:2 *155:3 5.90742016
*END

*D_NET *156 0.00157607

*CONN
*I *593:QN O *C 54.9 50.4 *L 0 *D EDFKCND1
*I *549:A2 I *C 52.3 55.2 *L 0.000606 *D CKND2D0

*CAP
1 *593:QN 8.9357e-05
2 *549:A2 3.75462e-06
3 *156:2 0.000508189
4 *156:3 0.000968736016
5 *156:4 6.03104e-06

*RES
1 *156:3 *156:4 4.29026
2 *156:2 *156:3 3.05551
3 *549:A2 *156:2 6.43710995
4 *593:QN *156:4 3.00001
*END

*D_NET *157 0.000408106

*CONN
*I *577:ZN O *C 41.7 28.6 *L 0 *D CKND0
*I *462:A2 I *C 41.5 30.2 *L 0.000727 *D AOI221D0

*CAP
1 *577:ZN 0.000408106016

*RES
1 *577:ZN *462:A2 6.3556
*END

*D_NET *158 0.000845026

*CONN
*I *576:ZN O *C 46.7 29.8 *L 0 *D CKND0
*I *462:A1 I *C 40.9 30 *L 0.000675 *D AOI221D0

*CAP
1 *576:ZN 0.000195997
2 *158:2 0.000136249
3 *158:3 0.000512781016

*RES
1 *462:A1 *158:3 4.50003
2 *576:ZN *158:2 4.43532
3 *158:2 *158:3 4.81318998
*END

*D_NET *159 0.00123477

*CONN
*I *371:I I *C 40.5 44.4 *L 0.00104 *D DEL0
*I *600:QN O *C 40.7 52 *L 0 *D DFD1

*CAP
1 *371:I 0.000548081992
2 *600:QN 0.000219425
3 *159:2 0.00046726

*RES
1 *600:QN *159:2 5.56365
2 *371:I *159:2 6.74160004
*END

*D_NET *160 0.00121962

*CONN
*I *369:I I *C 52.3 53.6 *L 0.00104 *D DEL0
*I *597:QN O *C 47.5 55.6 *L 0 *D DFD1

*CAP
1 *369:I 0.000249566
2 *160:2 0.000816297031
3 *160:3 0.000153756

*RES
1 *597:QN *160:2 2.74729
2 *160:2 *160:3 6.13570976
3 *369:I *160:3 6.02954
*END

*D_NET *161 0.000367065

*CONN
*I *373:I I *C 50.1 51.6 *L 0.00104 *D DEL0
*I *594:QN O *C 50.1 53.2 *L 0 *D DFD1

*CAP
1 *594:QN 0.000367065

*RES
1 *373:I *594:QN 4.36448
*END

*D_NET *162 0.000875367

*CONN
*I *374:I I *C 43.5 51.6 *L 0.00103 *D DEL015
*I *599:QN O *C 40.5 53.2 *L 0 *D DFD1

*CAP
1 *162:2 7.42613e-05
2 *162:3 0.000801105

*RES
1 *162:2 *162:3 5.32601976
2 *599:QN *162:3 4.50496
3 *374:I *162:2 3.00003
*END

*D_NET *163 0.000949377

*CONN
*I *370:I I *C 52.5 55.2 *L 0.00104 *D DEL0
*I *601:QN O *C 49.9 56.8 *L 0 *D DFD1

*CAP
1 *163:2 0.000949377031

*RES
1 *601:QN *163:2 2.48403
2 *370:I *163:2 9.4198103
*END

*D_NET *164 0.00114336

*CONN
*I *548:ZN O *C 28.5 48.4 *L 0 *D ND4D0
*I *523:B1 I *C 34.3 48 *L 0.000651 *D INR2D0

*CAP
1 *523:B1 0.000155754
2 *164:2 7.84388e-05
3 *164:3 0.000909177031

*RES
1 *164:2 *164:3 8.08456993
2 *548:ZN *164:3 3.00001
3 *523:B1 *164:2 1.71891
*END

*D_NET *165 0.00121911

*CONN
*I *563:ZN O *C 39.9 40.4 *L 0 *D CKND2D0
*I *547:I I *C 38.7 43 *L 0.00062 *D CKND0
*I *442:C I *C 41.5 40.8 *L 0.000698 *D OAI211D0

*CAP
1 *563:ZN 0.00010196
2 *547:I 0.000308256
3 *165:3 0.000288367
4 *165:4 0.000520524023

*RES
1 *563:ZN *165:3 2.19441
2 *442:C *165:4 5.16546
3 *547:I *165:3 5.19742012
4 *165:3 *165:4 1.5
*END

*D_NET *166 0.000284003

*CONN
*I *547:ZN O *C 39.1 43 *L 0 *D CKND0
*I *484:CI I *C 39.1 44.2 *L 0.001 *D FA1D0

*CAP
1 *484:CI 0.000284002988

*RES
1 *547:ZN *484:CI 4.20968
*END

*D_NET *167 0.000391943

*CONN
*I *566:ZN O *C 39.7 28.6 *L 0 *D NR2D0
*I *546:I I *C 39.1 28.6 *L 0.00062 *D CKND0
*I *542:B I *C 40.7 28.4 *L 0.00072 *D AOI21D0

*CAP
1 *546:I 0.000135748
2 *542:B 0.000109976
3 *167:3 0.000146219004

*RES
1 *546:I *167:3 2.34742
2 *542:B *167:3 4.03113985
3 *566:ZN *167:3 1.49999
*END

*D_NET *168 0.000319812

*CONN
*I *546:ZN O *C 38.7 28.6 *L 0 *D CKND0
*I *517:A1 I *C 37.9 28.4 *L 0.00069 *D AOI21D0

*CAP
1 *546:ZN 0.000317362988
2 *517:A1 2.45038e-06

*RES
1 *546:ZN *517:A1 5.73519
*END

*D_NET *169 0.00173908

*CONN
*I *366:I I *C 39.9 66 *L 0.00104 *D DEL0
*I *595:QN O *C 40.7 55.6 *L 0 *D DFXD1

*CAP
1 *595:QN 0.000330995
2 *169:2 0.000626948008
3 *169:3 0.000302228
4 *169:4 0.000478905

*RES
1 *366:I *169:2 7.35417986
2 *595:QN *169:4 3.29174
3 *169:3 *169:4 3.34628
4 *169:2 *169:3 2.34273
*END

*D_NET *170 0.000703923

*CONN
*I *565:ZN O *C 36.3 61 *L 0 *D NR2D0
*I *544:B1 I *C 36.5 62.4 *L 0.000651 *D INR2D0
*I *525:A1 I *C 37.7 62.4 *L 0.0007 *D OAI21D0

*CAP
1 *565:ZN 0.000310009004
2 *525:A1 7.31325e-05
3 *170:3 9.26219e-05
4 *170:4 0.000228163

*RES
1 *565:ZN *170:3 4.85124
2 *525:A1 *170:4 5.66934013
3 *544:B1 *170:3 1.50004
4 *170:3 *170:4 1.50004
*END

*D_NET *171 0.00147876

*CONN
*I *564:ZN O *C 35.9 57.6 *L 0 *D CKND2D0
*I *544:A1 I *C 35.9 62.4 *L 0.00069 *D INR2D0
*I *525:B I *C 37.9 62.4 *L 0.00073 *D OAI21D0

*CAP
1 *564:ZN 6.1733e-05
2 *544:A1 7.98765e-05
3 *525:B 0.000100701
4 *171:3 0.000865383984
5 *171:4 0.000371071

*RES
1 *544:A1 *171:4 2.54084
2 *171:3 *171:4 7.98894
3 *525:B *171:4 9.37327957
4 *564:ZN *171:3 1.03736
*END

*D_NET *172 0.000770011

*CONN
*I *556:ZN O *C 49.5 40.6 *L 0 *D NR2D0
*I *543:I I *C 46.9 40.6 *L 0.00062 *D CKND0
*I *530:B I *C 47.9 40.8 *L 0.00072 *D AOI21D0

*CAP
1 *556:ZN 0.000281006
2 *543:I 0.000375234023
3 *172:3 0.00011377

*RES
1 *543:I *172:3 3.79698
2 *556:ZN *172:3 3.82158995
3 *530:B *172:3 3.00002
*END

*D_NET *173 0.000582541

*CONN
*I *582:A2 I *C 32.5 37 *L 0.000661 *D XNR2D0
*I *557:ZN O *C 33.7 39.4 *L 0 *D NR2D0
*I *532:B I *C 32.5 39.2 *L 0.00072 *D AOI21D0

*CAP
1 *582:A2 0.000209249
2 *557:ZN 0.000109552
3 *173:3 0.000263738984

*RES
1 *557:ZN *173:3 2.89561
2 *532:B *173:3 3.86954999
3 *582:A2 *173:3 2.70011
*END

*D_NET *174 0.000849809

*CONN
*I *541:ZN O *C 38.7 58.6 *L 0 *D MUX2ND0
*I *431:A2 I *C 38.7 53.6 *L 0.000745 *D AO22D0

*CAP
1 *174:2 0.000849808984

*RES
1 *541:ZN *174:2 6.55456018
2 *431:A2 *174:2 1.50002
*END

*D_NET *175 0.000279614

*CONN
*I *387:I I *C 43.5 33.6 *L 0.00104 *D DEL0
*I *596:QN O *C 43.7 32.4 *L 0 *D EDFKCND1

*CAP
1 *387:I 0.000279614004

*RES
1 *596:QN *387:I 5.66921
*END

*D_NET *176 0.000605379

*CONN
*I *569:ZN O *C 40.3 61 *L 0 *D NR2D0
*I *537:B1 I *C 40.3 62.4 *L 0.000651 *D INR2D0
*I *488:A2 I *C 41.5 62.4 *L 0.000651 *D OAI21D0

*CAP
1 *569:ZN 0.00027202498
2 *176:3 7.97791e-05
3 *176:4 0.000253575

*RES
1 *488:A2 *176:4 4.16934013
2 *569:ZN *176:3 3.06956
3 *537:B1 *176:3 1.50001
4 *176:3 *176:4 1.50001
*END

*D_NET *177 0.000679153

*CONN
*I *573:ZN O *C 42.1 61.2 *L 0 *D CKND2D0
*I *537:A1 I *C 40.9 62.4 *L 0.00069 *D INR2D0
*I *488:B I *C 42.1 62.4 *L 0.00073 *D OAI21D0

*CAP
1 *573:ZN 0.000153656
2 *537:A1 0.00030837
3 *177:3 0.000217127

*RES
1 *537:A1 *177:3 3.47956
2 *488:B *177:3 4.39783001
3 *573:ZN *177:3 2.02592
*END

*D_NET *178 0.000806372

*CONN
*I *555:ZN O *C 37.7 37 *L 0 *D NR2D0
*I *536:I I *C 35.5 37 *L 0.00062 *D CKND0
*I *535:B I *C 36.1 37.2 *L 0.00072 *D AOI21D0

*CAP
1 *555:ZN 0.000222646
2 *536:I 0.000211993
3 *178:3 0.000371737969

*RES
1 *536:I *178:3 2.60725
2 *555:ZN *178:3 7.27007008
3 *535:B *178:3 2.99995
*END

*D_NET *179 0.00085126

*CONN
*I *571:ZN O *C 46.5 58.4 *L 0 *D CKND2D0
*I *524:A2 I *C 42.9 60.8 *L 0.000606 *D CKND2D0
*I *471:B I *C 45.1 60.8 *L 0.000669 *D IOA21D0

*CAP
1 *571:ZN 0.000112604
2 *524:A2 0.000285342
3 *179:3 0.000388949023
4 *179:4 6.43649e-05

*RES
1 *571:ZN *179:3 5.92779016
2 *524:A2 *179:4 5.37604
3 *471:B *179:3 1.50004
4 *179:3 *179:4 1.50004
*END

*D_NET *180 0.00220049

*CONN
*I *558:ZN O *C 47.1 51.2 *L 0 *D CKND2D0
*I *524:A1 I *C 43.3 61 *L 0.000617 *D CKND2D0
*I *471:A2 I *C 44.5 60.8 *L 0.000712 *D IOA21D0

*CAP
1 *558:ZN 0.000341188
2 *524:A1 2.87891e-06
3 *180:3 0.000434926
4 *180:4 0.000987796016
5 *180:5 0.000433705

*RES
1 *180:3 *180:4 2.34036
2 *180:4 *180:5 7.07462978
3 *524:A1 *180:5 5.02509
4 *471:A2 *180:5 1.66395
5 *558:ZN *180:3 4.95211
*END

*D_NET *181 0.000762516

*CONN
*I *572:ZN O *C 51.9 58.4 *L 0 *D CKND2D0
*I *522:A2 I *C 51.5 60.8 *L 0.000606 *D CKND2D0
*I *461:B I *C 50.5 60.8 *L 0.000669 *D IOA21D0

*CAP
1 *572:ZN 0.000142168
2 *522:A2 1.12314e-05
3 *461:B 1.3077e-06
4 *181:3 0.000607802969

*RES
1 *572:ZN *181:3 4.52885
2 *461:B *181:3 6.12723017
3 *522:A2 *181:3 2.27967
*END

*D_NET *182 0.00132387

*CONN
*I *549:ZN O *C 51.7 54.8 *L 0 *D CKND2D0
*I *522:A1 I *C 51.1 61 *L 0.000617 *D CKND2D0
*I *461:A2 I *C 49.9 60.8 *L 0.000712 *D IOA21D0

*CAP
1 *549:ZN 9.87196e-05
2 *461:A2 6.44595e-05
3 *182:3 0.000930473984
4 *182:4 0.000225551
5 *182:5 4.67118e-06

*RES
1 *182:3 *182:5 8.60391998
2 *182:4 *182:5 4.16962
3 *461:A2 *182:4 1.69489
4 *549:ZN *182:3 1.06551
5 *522:A1 *182:5 1.49994
*END

*D_NET *183 0.000409613

*CONN
*I *537:ZN O *C 40.3 63 *L 0 *D INR2D0
*I *520:I I *C 40.5 64.6 *L 0.00062 *D CKND0
*I *494:A2 I *C 41.1 64.4 *L 0.000664 *D NR2D0

*CAP
1 *537:ZN 0.000185372
2 *520:I 0.000195855996
3 *494:A2 2.83854e-05

*RES
1 *520:I *537:ZN 4.94936991
2 *520:I *494:A2 0.783912
*END

*D_NET *184 7.1099e-05

*CONN
*I *520:ZN O *C 40.1 64.6 *L 0 *D CKND0
*I *502:A2 I *C 39.3 64.4 *L 0.000664 *D NR2D0

*CAP
1 *502:A2 7.1098999e-05

*RES
1 *502:A2 *520:ZN 0.985733
*END

*D_NET *185 0.00071205

*CONN
*I *567:ZN O *C 39.5 57.6 *L 0 *D CKND2D0
*I *539:A1 I *C 40.7 58.8 *L 0.000681 *D IND2D0
*I *519:B1 I *C 40.9 57.2 *L 0.000689 *D MOAI22D0
*I *519:A1 I *C 41.9 57.2 *L 0.000721 *D MOAI22D0

*CAP
1 *567:ZN 3.51198e-05
2 *539:A1 5.71303e-05
3 *519:B1 4.36449e-05
4 *185:4 0.000102286
5 *185:5 0.000473868008

*RES
1 *519:A1 *185:5 8.3386097
2 *185:4 *185:5 2.27945
3 *539:A1 *185:5 3.2943
4 *519:B1 *185:4 0.978453
5 *567:ZN *185:4 0.739248
*END

*D_NET *186 0.000461749

*CONN
*I *519:ZN O *C 41.7 56.6 *L 0 *D MOAI22D0
*I *432:A2 I *C 41.9 55.2 *L 0.000745 *D AO22D0

*CAP
1 *519:ZN 6.77581e-06
2 *432:A2 0.000454971992

*RES
1 *432:A2 *519:ZN 4.76712
*END

*D_NET *187 0.00207421

*CONN
*I *584:A1 I *C 29.3 50 *L 0.0013 *D CKXOR2D0
*I *575:ZN O *C 31.7 47.6 *L 0 *D CKND2D0
*I *545:B I *C 30.3 48 *L 0.00073 *D OAI21D0
*I *540:A1 I *C 30.5 53.6 *L 0.000681 *D IND2D0

*CAP
1 *575:ZN 2.70003e-05
2 *540:A1 0.000199945
3 *187:4 0.000465023
4 *187:5 0.000195647
5 *187:6 0.000954918984
6 *187:7 0.000231681

*RES
1 *187:4 *187:6 2.97937
2 *540:A1 *187:7 4.72524
3 *575:ZN *187:5 2.23379
4 *187:6 *187:7 5.66845989
5 *187:4 *187:5 4.5885
6 *584:A1 *187:6 1.49998
7 *545:B *187:4 3.00004
*END

*D_NET *188 0.000685407

*CONN
*I *610:A2 I *C 35.3 64.4 *L 0.000585 *D CKAN2D0
*I *544:ZN O *C 36.5 63 *L 0 *D INR2D0
*I *516:A1 I *C 36.5 64.4 *L 0.000647 *D NR2D0

*CAP
1 *610:A2 9.10627e-05
2 *544:ZN 0.000186083
3 *188:3 9.91336e-05
4 *188:4 0.000309132012

*RES
1 *544:ZN *188:4 4.16919
2 *188:3 *188:4 4.44677019
3 *610:A2 *188:3 3.50654
4 *516:A1 *188:4 3.00002
*END

*D_NET *189 0.00142014

*CONN
*I *579:ZN O *C 31.3 29.8 *L 0 *D CKND0
*I *521:A2 I *C 35.1 30 *L 0.000606 *D CKND2D0
*I *518:B1 I *C 34.1 28.4 *L 0.000698 *D IND3D0
*I *508:A2 I *C 34.7 28.4 *L 0.000657 *D OA21D0

*CAP
1 *521:A2 1.33848e-06
2 *518:B1 0.000227071
3 *508:A2 9.35439e-05
4 *189:4 0.000355159
5 *189:5 4.12895e-05
6 *189:6 0.00070174

*RES
1 *521:A2 *189:4 4.48885
2 *508:A2 *189:5 3.42064
3 *189:4 *189:5 0.35885
4 *518:B1 *189:5 2.62095
5 *189:4 *189:6 7.69806004
6 *579:ZN *189:6 1.5
*END

*D_NET *190 0.00121923

*CONN
*I *552:ZN O *C 36.9 28.8 *L 0 *D NR3D0
*I *521:A1 I *C 35.5 29.8 *L 0.000617 *D CKND2D0
*I *518:B2 I *C 34.5 28.4 *L 0.000657 *D IND3D0
*I *517:B I *C 38.1 28.4 *L 0.00072 *D AOI21D0
*I *508:A1 I *C 35.1 28.4 *L 0.000705 *D OA21D0

*CAP
1 *552:ZN 7.14399e-05
2 *521:A1 6.01648e-07
3 *518:B2 0.000193551
4 *517:B 0.000162624
5 *190:5 0.000244767
6 *190:6 0.000167125
7 *190:7 0.000379125

*RES
1 *190:5 *190:6 1.02769
2 *521:A1 *190:5 4.25767
3 *518:B2 *190:6 4.27476
4 *190:5 *190:7 3.05917
5 *517:B *190:7 5.86421013
6 *552:ZN *190:7 3.19491
7 *508:A1 *190:6 3.00002
*END

*D_NET *191 0.00160923

*CONN
*I *610:A1 I *C 35.1 64.4 *L 0.000556 *D CKAN2D0
*I *568:ZN O *C 37.3 58.4 *L 0 *D CKND2D0
*I *526:A2 I *C 37.9 64.4 *L 0.00104 *D AN2XD1
*I *525:A2 I *C 37.3 62.4 *L 0.000651 *D OAI21D0
*I *516:A2 I *C 36.9 64.4 *L 0.000664 *D NR2D0

*CAP
1 *610:A1 0.000378756
2 *568:ZN 0.000602177969
3 *525:A2 1.40954e-05
4 *191:5 7.11936e-05
5 *191:6 0.000320987
6 *191:7 0.000222025

*RES
1 *525:A2 *191:6 1.98921
2 *610:A1 *191:7 6.75289011
3 *568:ZN *191:6 6.06798
4 *191:5 *191:6 1.62094
5 *526:A2 *191:7 3.97449
6 *516:A2 *191:5 1.49997
7 *191:5 *191:7 1.49997
*END

*D_NET *192 0.000417417

*CONN
*I *516:ZN O *C 36.5 64.6 *L 0 *D NR2D0
*I *489:A2 I *C 36.1 66 *L 0.00105 *D OR2XD1

*CAP
1 *516:ZN 0.000416029023
2 *489:A2 1.39025e-06

*RES
1 *516:ZN *489:A2 4.97975
*END

*D_NET *193 0.00141732

*CONN
*I *543:ZN O *C 46.5 40.6 *L 0 *D CKND0
*I *515:A1 I *C 41.7 39.2 *L 0.000647 *D NR2D0
*I *491:B1 I *C 42.9 39.4 *L 0.00072 *D AOI221D0

*CAP
1 *543:ZN 0.000197081
2 *491:B1 0.000133294
3 *193:3 0.000266639
4 *193:4 0.000820307031

*RES
1 *491:B1 *193:4 3.00005
2 *515:A1 *193:4 6.19915
3 *193:3 *193:4 6.42015982
4 *543:ZN *193:3 3.52768
*END

*D_NET *194 0.000480536

*CONN
*I *515:ZN O *C 41.7 39.4 *L 0 *D NR2D0
*I *491:C I *C 42.5 39.4 *L 0.000701 *D AOI221D0

*CAP
1 *515:ZN 0.00034747
2 *491:C 0.000133066

*RES
1 *515:ZN *491:C 5.0569
*END

*D_NET *195 0.00140149

*CONN
*I *542:ZN O *C 40.7 28.8 *L 0 *D AOI21D0
*I *514:A2 I *C 49.1 28.4 *L 0.000664 *D NR2D0
*I *487:B2 I *C 47.9 28.6 *L 0.000881 *D AOI221D0

*CAP
1 *542:ZN 0.000332811
2 *514:A2 0.000177294
3 *487:B2 0.00010132
4 *195:3 0.000326867
5 *195:4 0.000463201992

*RES
1 *542:ZN *195:3 7.46968985
2 *514:A2 *195:4 5.92334
3 *195:3 *195:4 1.33332
4 *487:B2 *195:4 3.97842
*END

*D_NET *196 0.000297995

*CONN
*I *514:ZN O *C 49.5 28.6 *L 0 *D NR2D0
*I *487:C I *C 48.5 28.6 *L 0.000701 *D AOI221D0

*CAP
1 *487:C 3.95074e-07
2 *196:2 0.0002976

*RES
1 *487:C *196:2 1.99423
2 *514:ZN *196:2 2.73767996
*END

*D_NET *197 0.000401334

*CONN
*I *525:ZN O *C 37.9 63 *L 0 *D OAI21D0
*I *510:I I *C 39.1 62.2 *L 0.00062 *D CKND0
*I *502:A1 I *C 38.9 64.4 *L 0.000647 *D NR2D0

*CAP
1 *525:ZN 0.000401333984

*RES
1 *525:ZN *502:A1 6.60301018
2 *525:ZN *510:I 0.991217
*END

*D_NET *198 0.00167662

*CONN
*I *538:ZN O *C 46.5 33.4 *L 0 *D NR2D0
*I *513:A1 I *C 42.9 33.4 *L 0.000617 *D CKND2D0
*I *509:B I *C 48.1 33.6 *L 0.00072 *D AOI21D0
*I *439:A2 I *C 42.5 35.6 *L 0.00065 *D OAI211D0

*CAP
1 *538:ZN 0.000179093
2 *513:A1 0.000315913
3 *509:B 0.000243818
4 *198:4 0.000279015
5 *198:5 0.000198263
6 *198:6 0.000460505

*RES
1 *198:4 *198:5 3.08745
2 *198:4 *198:6 1.15775
3 *538:ZN *198:5 3.9786
4 *439:A2 *198:6 4.15495
5 *513:A1 *198:6 5.02204
6 *509:B *198:5 7.1344099
*END

*D_NET *199 0.00115543

*CONN
*I *574:ZN O *C 48.7 33.2 *L 0 *D CKND2D0
*I *538:A1 I *C 46.5 33.6 *L 0.000647 *D NR2D0
*I *509:A1 I *C 47.9 33.6 *L 0.00069 *D AOI21D0
*I *440:C I *C 50.1 33.6 *L 0.000698 *D OAI211D0

*CAP
1 *199:4 0.000599878008
2 *199:5 0.000555547

*RES
1 *509:A1 *199:5 4.75508
2 *538:A1 *199:5 4.36422
3 *199:4 *199:5 0.779601
4 *440:C *199:4 6.33895016
5 *574:ZN *199:4 4.81631
*END

*D_NET *200 0.00050987

*CONN
*I *596:D I *C 48.5 31.8 *L 0.000646 *D EDFKCND1
*I *509:ZN O *C 48.1 33.2 *L 0 *D AOI21D0

*CAP
1 *596:D 0.000506520977
2 *509:ZN 3.34666e-06

*RES
1 *596:D *509:ZN 5.35978
*END

*D_NET *201 0.000930684

*CONN
*I *521:ZN O *C 35.7 29.6 *L 0 *D CKND2D0
*I *508:B I *C 35.3 28.4 *L 0.000732 *D OA21D0
*I *485:A1 I *C 34.3 30 *L 0.00069 *D AOI21D0

*CAP
1 *521:ZN 2.54943e-06
2 *508:B 0.000391211
3 *485:A1 1.20564e-06
4 *201:3 0.000124194
5 *201:4 0.000411518984

*RES
1 *201:3 *201:4 4.78553
2 *508:B *201:3 5.80538988
3 *521:ZN *201:3 3.22
4 *485:A1 *201:4 3.19484
*END

*D_NET *202 0.000737558

*CONN
*I *539:ZN O *C 41.3 58.4 *L 0 *D IND2D0
*I *512:A1 I *C 45.1 58.8 *L 0.000681 *D IND2D0
*I *507:B1 I *C 42.7 58.8 *L 0.000689 *D MOAI22D0
*I *507:A1 I *C 43.7 58.8 *L 0.000721 *D MOAI22D0

*CAP
1 *539:ZN 9.75573e-05
2 *512:A1 0.00012763
3 *507:B1 0.000220394
4 *202:4 0.000291976992

*RES
1 *512:A1 *202:4 4.55912
2 *507:B1 *202:4 4.21439
3 *507:A1 *202:4 4.69487
4 *539:ZN *507:B1 1.4948
*END

*D_NET *203 0.000386673

*CONN
*I *507:ZN O *C 43.5 59.4 *L 0 *D MOAI22D0
*I *433:A2 I *C 43.9 57.2 *L 0.000745 *D AO22D0

*CAP
1 *433:A2 0.000386673008

*RES
1 *433:A2 *507:ZN 4.59977
*END

*D_NET *204 0.00147799

*CONN
*I *551:ZN O *C 40.5 46.6 *L 0 *D NR2D0
*I *527:B I *C 42.1 46.4 *L 0.00072 *D AOI21D0
*I *506:A2 I *C 43.3 46.4 *L 0.000606 *D CKND2D0
*I *490:A2 I *C 43.9 44.4 *L 0.000758 *D OAI221D0

*CAP
1 *551:ZN 0.000388441
2 *527:B 0.000100383
3 *490:A2 0.000352006
4 *204:4 0.000395588008
5 *204:5 0.000241572

*RES
1 *490:A2 *204:4 9.33436012
2 *551:ZN *204:5 5.1043
3 *204:4 *204:5 3.03051
4 *527:B *204:5 4.49997
5 *506:A2 *204:4 1.49994
*END

*D_NET *205 0.000897647

*CONN
*I *528:ZN O *C 45.1 46.8 *L 0 *D AOI21D0
*I *506:A1 I *C 43.7 46.6 *L 0.000617 *D CKND2D0
*I *490:A1 I *C 43.3 44.4 *L 0.00067 *D OAI221D0

*CAP
1 *490:A1 0.000504496992
2 *205:3 8.62575e-05
3 *205:4 0.000306894

*RES
1 *528:ZN *205:4 4.27536011
2 *490:A1 *205:3 4.00045
3 *506:A1 *205:3 1.49999
4 *205:3 *205:4 1.49999
*END

*D_NET *206 0.000401901

*CONN
*I *506:ZN O *C 43.9 46.8 *L 0 *D CKND2D0
*I *490:C I *C 44.3 44.4 *L 0.000742 *D OAI221D0

*CAP
1 *506:ZN 5.02644e-06
2 *206:2 0.000396876992

*RES
1 *506:ZN *206:2 0.497487
2 *490:C *206:2 4.71350002
*END

*D_NET *207 0.00115587

*CONN
*I *559:ZN O *C 28.5 43 *L 0 *D NR2D0
*I *533:B I *C 30.1 42.8 *L 0.000718 *D AO21D0
*I *505:A2 I *C 27.7 40.8 *L 0.000606 *D CKND2D0
*I *479:B1 I *C 30.3 40.6 *L 0.000933 *D OA221D0

*CAP
1 *559:ZN 5.89953e-05
2 *505:A2 8.8571e-05
3 *479:B1 7.94411e-05
4 *207:4 0.000390303
5 *207:5 0.000538550977

*RES
1 *207:4 *207:5 3.34083
2 *533:B *207:5 7.67768002
3 *479:B1 *207:5 4.50005
4 *559:ZN *207:4 3.74816
5 *505:A2 *207:4 2.02591
*END

*D_NET *208 0.000560673

*CONN
*I *534:ZN O *C 28.5 39.6 *L 0 *D AOI21D0
*I *505:A1 I *C 28.1 40.6 *L 0.000617 *D CKND2D0
*I *479:B2 I *C 29.2525 40.89 *L 0.000691 *D OA221D0

*CAP
1 *534:ZN 3.47891e-05
2 *505:A1 0.000208836
3 *208:3 0.00031705002

*RES
1 *479:B2 *208:3 4.7391901
2 *534:ZN *208:3 3.2258
3 *505:A1 *208:3 4.51972
*END

*D_NET *209 0.000325341

*CONN
*I *505:ZN O *C 28.3 40.4 *L 0 *D CKND2D0
*I *479:C I *C 28.9 40.8 *L 0.000693 *D OA221D0

*CAP
1 *505:ZN 0.000169722012
2 *479:C 0.000155618

*RES
1 *505:ZN *479:C 6.0679
*END

*D_NET *210 0.000345557

*CONN
*I *504:ZN O *C 34.3 32.2 *L 0 *D CKND0
*I *485:B I *C 34.5 30 *L 0.00072 *D AOI21D0

*CAP
1 *504:ZN 0.000109749
2 *485:B 0.000235808008

*RES
1 *504:ZN *485:B 6.26718
*END

*D_NET *211 0.000502994

*CONN
*I *349:I I *C 35.3 50 *L 0.000643 *D CKBD0
*I *523:ZN O *C 34.3 48.6 *L 0 *D INR2D0

*CAP
1 *523:ZN 0.000502993984

*RES
1 *523:ZN *349:I 7.20394
*END

*D_NET *212 0.00132558

*CONN
*I *583:A1 I *C 29.3 60.8 *L 0.0013 *D CKXOR2D0
*I *540:ZN O *C 29.9 54 *L 0 *D IND2D0
*I *511:A1 I *C 29.9 60.8 *L 0.000681 *D IND2D0

*CAP
1 *583:A1 4.64474e-05
2 *540:ZN 0.000255033
3 *511:A1 4.45457e-06
4 *212:3 0.000561403984
5 *212:4 0.000458238

*RES
1 *212:3 *212:4 2.50028
2 *511:A1 *212:3 2.85323
3 *540:ZN *212:4 7.30369997
4 *583:A1 *511:A1 0.821577
*END

*D_NET *213 0.000321559

*CONN
*I *502:ZN O *C 38.9 64.6 *L 0 *D NR2D0
*I *481:A1 I *C 38.5 65.8 *L 0.000964 *D OR2XD1

*CAP
1 *502:ZN 0.000317430996
2 *481:A1 4.12682e-06

*RES
1 *502:ZN *481:A1 4.68348
*END

*D_NET *214 0.00134875

*CONN
*I *518:ZN O *C 33.9 28.8 *L 0 *D IND3D0
*I *504:I I *C 33.9 32.2 *L 0.00062 *D CKND0
*I *498:A1 I *C 32.3 30 *L 0.000647 *D NR2D0
*I *480:A1 I *C 33.1 30 *L 0.00069 *D AOI21D0

*CAP
1 *518:ZN 0.000641196016
2 *504:I 4.54957e-06
3 *498:A1 0.000268288
4 *480:A1 6.29015e-05
5 *214:4 2.36578e-05
6 *214:5 0.000348174

*RES
1 *480:A1 *214:5 5.07059
2 *518:ZN *214:4 6.97960997
3 *214:4 *214:5 3.08191
4 *498:A1 *214:5 3.2751
5 *504:I *214:4 0.489263
*END

*D_NET *215 0.0015747

*CONN
*I *561:ZN O *C 51.5 44.2 *L 0 *D NR2D0
*I *531:B I *C 48.1 44.4 *L 0.00072 *D AOI21D0
*I *497:B2 I *C 47.5 42.6 *L 0.000744 *D MAOI22D0
*I *497:A2 I *C 48.3 42.8 *L 0.000697 *D MAOI22D0

*CAP
1 *561:ZN 0.000227549
2 *497:B2 0.000311654
3 *215:4 0.000232024
4 *215:5 0.000803471953

*RES
1 *215:4 *215:5 2.55636
2 *497:B2 *215:4 2.99024
3 *561:ZN *215:5 9.84912968
4 *531:B *215:5 3.00001
5 *497:A2 *215:4 3.00001
*END

*D_NET *216 0.000688645

*CONN
*I *530:ZN O *C 47.9 40.4 *L 0 *D AOI21D0
*I *497:B1 I *C 47.1 42.8 *L 0.000686 *D MAOI22D0
*I *497:A1 I *C 48.1 42.8 *L 0.000713 *D MAOI22D0

*CAP
1 *530:ZN 0.00037698
2 *497:A1 8.62334e-05
3 *216:3 0.000225429

*RES
1 *497:A1 *216:3 4.63860989
2 *530:ZN *216:3 3.69377
3 *497:B1 *216:3 1.50003
*END

*D_NET *217 0.000868447

*CONN
*I *497:ZN O *C 47.9 43.2 *L 0 *D MAOI22D0
*I *463:A2 I *C 45.7 40.8 *L 0.000679 *D AN4D0

*CAP
1 *497:ZN 0.000216867
2 *217:2 0.000651584023

*RES
1 *463:A2 *217:2 6.12361
2 *497:ZN *217:2 6.64816999
*END

*D_NET *218 0.00142698

*CONN
*I *562:ZN O *C 46.7 46.6 *L 0 *D NR2D0
*I *528:B I *C 45.1 46.4 *L 0.00072 *D AOI21D0
*I *496:B2 I *C 45.5 42.6 *L 0.000744 *D MAOI22D0
*I *473:A2 I *C 46.5 44.4 *L 0.000709 *D AOI211D0

*CAP
1 *562:ZN 3.56781e-05
2 *496:B2 0.00064949
3 *473:A2 0.000257427
4 *218:4 0.000224495
5 *218:5 0.000259885

*RES
1 *218:4 *218:5 0.841236
2 *473:A2 *218:4 5.23203
3 *528:B *218:5 3.84142
4 *562:ZN *218:4 2.5945
5 *496:B2 *218:5 5.32051992
*END

*D_NET *219 0.00046374

*CONN
*I *531:ZN O *C 48.1 44 *L 0 *D AOI21D0
*I *496:B1 I *C 45.9 42.8 *L 0.000686 *D MAOI22D0
*I *473:A1 I *C 46.9 44.4 *L 0.000645 *D AOI211D0

*CAP
1 *531:ZN 4.79833e-05
2 *496:B1 0.00040654
3 *473:A1 9.21205e-06

*RES
1 *496:B1 *473:A1 5.73418999
2 *473:A1 *531:ZN 1.06291
*END

*D_NET *220 0.00158387

*CONN
*I *529:ZN O *C 41.5 43.2 *L 0 *D AOI21D0
*I *496:A1 I *C 44.9 42.8 *L 0.000713 *D MAOI22D0
*I *490:B2 I *C 44.1 44.4 *L 0.000747 *D OAI221D0

*CAP
1 *490:B2 9.52365e-05
2 *220:3 0.000617077
3 *220:4 0.000250896
4 *220:5 0.000620657031

*RES
1 *220:3 *220:4 4.70759
2 *220:3 *220:5 6.33413982
3 *490:B2 *220:4 4.49999
4 *529:ZN *220:5 3.5846
5 *496:A1 *220:3 2.99996
*END

*D_NET *221 0.000450037

*CONN
*I *496:ZN O *C 45.1 43.2 *L 0 *D MAOI22D0
*I *463:A4 I *C 45.1 40.8 *L 0.000673 *D AN4D0

*CAP
1 *496:ZN 0.000450036992

*RES
1 *463:A4 *496:ZN 5.32909
*END

*D_NET *222 0.00118135

*CONN
*I *550:ZN O *C 30.1 39.4 *L 0 *D NR2D0
*I *534:B I *C 28.5 39.2 *L 0.00072 *D AOI21D0
*I *495:B2 I *C 30.5 37.4 *L 0.000744 *D MAOI22D0
*I *495:A2 I *C 29.7 37.2 *L 0.000697 *D MAOI22D0

*CAP
1 *495:B2 0.000368724
2 *495:A2 9.03227e-05
3 *222:4 7.36853e-05
4 *222:5 0.000648618984

*RES
1 *495:A2 *222:5 6.91870022
2 *495:B2 *222:4 3.75664
3 *222:4 *222:5 2.27959
4 *534:B *222:5 5.58597
5 *550:ZN *222:4 1.49995
*END

*D_NET *223 0.000749999

*CONN
*I *532:ZN O *C 32.5 39.6 *L 0 *D AOI21D0
*I *495:B1 I *C 30.9 37.2 *L 0.000686 *D MAOI22D0
*I *495:A1 I *C 29.9 37.2 *L 0.000713 *D MAOI22D0

*CAP
1 *532:ZN 0.000143519
2 *495:B1 6.84753e-05
3 *495:A1 9.00998e-05
4 *223:3 0.000447901992

*RES
1 *495:B1 *223:3 1.75666
2 *495:A1 *223:3 4.49987
3 *532:ZN *223:3 5.46339989
*END

*D_NET *224 0.000847587

*CONN
*I *495:ZN O *C 30.1 36.8 *L 0 *D MAOI22D0
*I *468:C I *C 30.9 40.8 *L 0.000698 *D OAI211D0

*CAP
1 *495:ZN 0.000376917969
2 *468:C 0.000114769
3 *224:2 0.000355897

*RES
1 *495:ZN *224:2 4.10567
2 *468:C *224:2 4.33228016
*END

*D_NET *225 0.000874684

*CONN
*I *510:ZN O *C 39.5 62.2 *L 0 *D CKND0
*I *494:A1 I *C 41.5 64.4 *L 0.000647 *D NR2D0
*I *488:A1 I *C 41.9 62.4 *L 0.0007 *D OAI21D0

*CAP
1 *510:ZN 0.00039821
2 *488:A1 0.000161581
3 *225:3 0.000314898

*RES
1 *488:A1 *225:3 4.45574
2 *494:A1 *225:3 2.42453
3 *510:ZN *225:3 7.22837019
*END

*D_NET *226 0.000857317

*CONN
*I *494:ZN O *C 41.5 64.6 *L 0 *D NR2D0
*I *481:A2 I *C 38.9 66 *L 0.00105 *D OR2XD1

*CAP
1 *494:ZN 0.000212313
2 *226:2 0.000645

*RES
1 *494:ZN *226:2 7.97194004
2 *481:A2 *226:2 3.17766
*END

*D_NET *227 0.0012185

*CONN
*I *560:ZN O *C 40.1 43 *L 0 *D NR2D0
*I *529:B I *C 41.5 42.8 *L 0.00072 *D AOI21D0
*I *493:B2 I *C 42.7 43 *L 0.000739 *D MOAI22D0
*I *493:A2 I *C 43.5 42.8 *L 0.000697 *D MOAI22D0

*CAP
1 *560:ZN 0.000402918008
2 *529:B 0.000166621
3 *493:B2 4.00244e-05
4 *493:A2 0.000197441
5 *227:4 0.000216199
6 *227:5 0.000195295

*RES
1 *493:B2 *227:4 3.22578
2 *529:B *227:5 5.52018
3 *560:ZN *227:5 5.59064007
4 *227:4 *227:5 3.04058
5 *493:A2 *227:4 4.63947
*END

*D_NET *228 0.000948856

*CONN
*I *527:ZN O *C 42.1 46.8 *L 0 *D AOI21D0
*I *493:B1 I *C 42.3 42.8 *L 0.000689 *D MOAI22D0
*I *493:A1 I *C 43.3 42.8 *L 0.000721 *D MOAI22D0

*CAP
1 *527:ZN 0.000138474
2 *493:A1 1.41955e-06
3 *228:3 0.000808960938

*RES
1 *527:ZN *228:3 5.11932993
2 *493:A1 *228:3 4.27866
3 *493:B1 *228:3 1.50004
*END

*D_NET *229 0.000869786

*CONN
*I *493:ZN O *C 43.1 42.2 *L 0 *D MOAI22D0
*I *473:C I *C 45.9 44.4 *L 0.000686 *D AOI211D0

*CAP
1 *473:C 0.000338328
2 *229:2 0.000531455977

*RES
1 *473:C *229:2 8.7615099
2 *493:ZN *229:2 1.5
*END

*D_NET *230 0.000822803

*CONN
*I *582:A1 I *C 31.3 37.2 *L 0.00136 *D XNR2D0
*I *535:ZN O *C 36.1 36.8 *L 0 *D AOI21D0

*CAP
1 *582:A1 0.000152322
2 *535:ZN 0.00018072
3 *230:2 0.000489765

*RES
1 *535:ZN *230:2 8.63599014
2 *582:A1 *230:2 3.74873
*END

*D_NET *231 0.000952402

*CONN
*I *512:ZN O *C 45.7 58.4 *L 0 *D IND2D0
*I *500:A1 I *C 49.9 58.8 *L 0.000681 *D IND2D0
*I *492:B1 I *C 49.1 58.8 *L 0.000689 *D MOAI22D0
*I *492:A1 I *C 48.1 58.8 *L 0.000721 *D MOAI22D0

*CAP
1 *500:A1 5.65299e-05
2 *492:B1 0.000110686
3 *231:4 0.000398825
4 *231:5 0.000386362

*RES
1 *231:4 *231:5 4.11351
2 *492:A1 *231:5 4.97542
3 *492:B1 *231:5 4.48605
4 *492:B1 *500:A1 1.06924
5 *512:ZN *231:4 1.50001
*END

*D_NET *232 0.000489769

*CONN
*I *492:ZN O *C 48.3 59.4 *L 0 *D MOAI22D0
*I *438:A2 I *C 48.1 57.2 *L 0.000745 *D AO22D0

*CAP
1 *438:A2 0.000489769023

*RES
1 *438:A2 *492:ZN 5.75487
*END

*D_NET *233 0.000581378

*CONN
*I *581:A1 I *C 32.5 60.8 *L 0.0013 *D CKXOR2D0
*I *511:ZN O *C 30.5 61.2 *L 0 *D IND2D0
*I *499:A1 I *C 31.3 60.8 *L 0.000681 *D IND2D0

*CAP
1 *511:ZN 0.00047378
2 *233:3 0.000107595

*RES
1 *511:ZN *233:3 6.80136013
2 *511:ZN *499:A1 0.811564
3 *581:A1 *233:3 1.50004
*END

*D_NET *234 0.000885867

*CONN
*I *491:ZN O *C 42.9 39.6 *L 0 *D AOI221D0
*I *463:A3 I *C 45.5 40.8 *L 0.000673 *D AN4D0

*CAP
1 *463:A3 0.000229318
2 *234:2 0.000656548047

*RES
1 *463:A3 *234:2 11.1605997
2 *491:ZN *234:2 2.99996
*END

*D_NET *235 0.00046432

*CONN
*I *490:ZN O *C 44.5 44.2 *L 0 *D OAI221D0
*I *473:B I *C 46.3 44.4 *L 0.000707 *D AOI211D0

*CAP
1 *490:ZN 0.00032817
2 *473:B 0.00013615

*RES
1 *490:ZN *473:B 7.13677
*END

*D_NET *236 0.00139374

*CONN
*I *487:ZN O *C 48.1 28.8 *L 0 *D AOI221D0
*I *470:B I *C 43.5 30 *L 0.000726 *D OAI211D0

*CAP
1 *236:2 0.000373217
2 *236:3 0.00102052

*RES
1 *236:2 *236:3 7.72440004
2 *487:ZN *236:2 4.90896
3 *470:B *236:3 6.21314
*END

*D_NET *237 0.00132985

*CONN
*I *517:ZN O *C 38.1 28.8 *L 0 *D AOI21D0
*I *486:B2 I *C 45.5 28.2 *L 0.000744 *D MAOI22D0
*I *486:A2 I *C 44.7 28.4 *L 0.000697 *D MAOI22D0

*CAP
1 *237:3 0.00103638008
2 *237:4 0.000293463

*RES
1 *517:ZN *237:3 3.21452
2 *486:B2 *237:4 3.77952
3 *237:3 *237:4 8.80160999
4 *486:A2 *237:4 4.50005
*END

*D_NET *238 0.000345848

*CONN
*I *486:ZN O *C 45.1 28.8 *L 0 *D MAOI22D0
*I *470:C I *C 43.9 30 *L 0.000698 *D OAI211D0

*CAP
1 *486:ZN 0.000345848008

*RES
1 *486:ZN *470:C 5.12089
*END

*D_NET *239 0.000418472

*CONN
*I *485:ZN O *C 34.5 29.6 *L 0 *D AOI21D0
*I *472:S I *C 36.1 30 *L 0.00146 *D MUX2ND0

*CAP
1 *485:ZN 0.000292325996
2 *472:S 0.000126146

*RES
1 *485:ZN *472:S 6.3357
*END

*D_NET *240 0.000618832

*CONN
*I *484:CO O *C 40.1 44 *L 0 *D FA1D0
*I *460:CI I *C 39.7 47.8 *L 0.001 *D FA1D0

*CAP
1 *484:CO 0.000146382
2 *460:CI 0.000472452031

*RES
1 *460:CI *484:CO 6.31277
*END

*D_NET *241 0.00256396

*CONN
*I *350:I I *C 55.1 46.4 *L 0.00104 *D DEL0
*I *484:S O *C 39.5 44.2 *L 0 *D FA1D0

*CAP
1 *350:I 0.000119264
2 *241:2 7.12417e-05
3 *241:3 0.000324431
4 *241:4 0.000609264
5 *241:5 0.000560678
6 *241:6 0.000879086016

*RES
1 *241:4 *241:5 5.77318
2 *241:3 *241:6 3.90481
3 *241:3 *241:5 5.97289
4 *350:I *241:2 3.38982
5 *241:2 *241:6 9.29518986
6 *484:S *241:4 1.50003
*END

*D_NET *242 0.00111053

*CONN
*I *501:ZN O *C 36.5 35.8 *L 0 *D NR2D0
*I *483:A1 I *C 37.5 35.8 *L 0.000617 *D CKND2D0
*I *482:B I *C 34.9 35.6 *L 0.00072 *D AOI21D0
*I *441:A2 I *C 39.7 35.6 *L 0.00065 *D OAI211D0

*CAP
1 *501:ZN 9.21614e-05
2 *483:A1 9.72163e-05
3 *482:B 0.000302563
4 *441:A2 0.000174846
5 *242:4 0.000331601992
6 *242:5 0.000112138

*RES
1 *501:ZN *242:5 2.99999
2 *242:4 *242:5 0.779546
3 *441:A2 *242:4 7.28688002
4 *482:B *242:5 6.44896
5 *483:A1 *242:4 2.99999
*END

*D_NET *243 0.000900459

*CONN
*I *383:I I *C 36.3 32 *L 0.00104 *D DEL0
*I *602:QN O *C 39.1 33.2 *L 0 *D EDFKCND1

*CAP
1 *383:I 0.000761241016
2 *602:QN 0.000108085
3 *243:2 3.11419e-05

*RES
1 *383:I *243:2 9.11410999
2 *602:QN *243:2 3.00002
*END

*D_NET *244 0.00228144

*CONN
*I *513:ZN O *C 43.1 33.2 *L 0 *D CKND2D0
*I *501:A1 I *C 36.5 35.6 *L 0.000647 *D NR2D0
*I *482:A1 I *C 35.1 35.6 *L 0.00069 *D AOI21D0
*I *439:C I *C 41.5 35.6 *L 0.000698 *D OAI211D0

*CAP
1 *513:ZN 0.000284456
2 *501:A1 1.26601e-05
3 *482:A1 0.000356091
4 *439:C 4.82082e-05
5 *244:4 0.000413113
6 *244:5 0.000666946016
7 *244:6 0.000499983

*RES
1 *244:4 *244:6 2.48202
2 *513:ZN *244:6 9.50903988
3 *244:4 *244:5 3.51844
4 *439:C *244:6 4.50002
5 *501:A1 *244:5 4.69489
6 *482:A1 *244:5 7.02267
*END

*D_NET *245 0.000267207

*CONN
*I *602:D I *C 34.3 33.8 *L 0.000646 *D EDFKCND1
*I *482:ZN O *C 34.9 36 *L 0 *D AOI21D0

*CAP
1 *482:ZN 4.79694e-06
2 *245:2 0.00026241002

*RES
1 *482:ZN *245:2 0.493223
2 *602:D *245:2 4.16920996
*END

*D_NET *246 0.00122454

*CONN
*I *498:ZN O *C 32.3 29.8 *L 0 *D NR2D0
*I *480:B I *C 33.3 30 *L 0.00072 *D AOI21D0
*I *478:A1 I *C 29.3 30 *L 0.00069 *D XNR3D0

*CAP
1 *480:B 0.000272187
2 *478:A1 0.00069497
3 *246:3 0.000257383

*RES
1 *480:B *246:3 6.00836
2 *498:ZN *246:3 3.00003
3 *478:A1 *246:3 7.55610991
*END

*D_NET *247 0.000629177

*CONN
*I *479:Z O *C 28.5 41.4 *L 0 *D OA221D0
*I *468:B I *C 31.3 40.8 *L 0.000726 *D OAI211D0

*CAP
1 *479:Z 9.65399e-05
2 *247:2 6.08081e-05
3 *247:3 0.000471828008

*RES
1 *247:2 *247:3 4.76671982
2 *479:Z *247:3 3
3 *468:B *247:2 3
*END

*D_NET *248 0.00189128

*CONN
*I *478:ZN O *C 27.5 29.6 *L 0 *D XNR3D0
*I *454:A4 I *C 37.5 30 *L 0.00068 *D ND4D0

*CAP
1 *478:ZN 0.000595781016
2 *248:2 0.000385887
3 *248:3 0.000567999
4 *248:4 0.000341614

*RES
1 *248:3 *248:4 2.27493
2 *248:2 *248:3 3.9137
3 *454:A4 *248:2 6.04624
4 *478:ZN *248:4 7.33599997
*END

*D_NET *249 0.000682851

*CONN
*I *524:ZN O *C 43.5 61.2 *L 0 *D CKND2D0
*I *477:A2 I *C 44.7 62.4 *L 0.000664 *D NR2D0
*I *476:A2 I *C 43.3 62.4 *L 0.000585 *D CKAN2D0

*CAP
1 *524:ZN 0.000191638
2 *477:A2 9.34703e-05
3 *249:3 0.000397738984

*RES
1 *477:A2 *249:3 6.08855009
2 *524:ZN *249:3 4.85218
3 *476:A2 *249:3 2.99996
*END

*D_NET *250 0.000366416

*CONN
*I *477:ZN O *C 44.3 62.2 *L 0 *D NR2D0
*I *467:A1 I *C 43.9 64.6 *L 0.000964 *D OR2XD1

*CAP
1 *477:ZN 0.000221515
2 *467:A1 0.000144902

*RES
1 *467:A1 *477:ZN 4.8917
*END

*D_NET *251 0.000799159

*CONN
*I *488:ZN O *C 42.1 63 *L 0 *D OAI21D0
*I *477:A1 I *C 44.3 62.4 *L 0.000647 *D NR2D0
*I *476:A1 I *C 43.1 62.4 *L 0.000556 *D CKAN2D0
*I *471:A1 I *C 44.1 60.8 *L 0.000669 *D IOA21D0

*CAP
1 *488:ZN 3.80319e-05
2 *476:A1 9.39831e-05
3 *471:A1 0.000101692
4 *251:4 0.000142506
5 *251:5 1.46317e-06
6 *251:6 0.000104625
7 *251:7 0.000229949004
8 *251:8 6.01408e-06
9 *251:9 8.08953e-05

*RES
1 *251:4 *251:6 0.984913
2 *251:4 *251:5 0.256655
3 *471:A1 *251:5 3.35885
4 *476:A1 *251:9 3.42080998
5 *251:8 *251:9 0.739168
6 *251:6 *251:7 0.648605
7 *477:A1 *251:6 1.66395
8 *251:7 *251:8 1.04061
9 *488:ZN *476:A1 0.662385
*END

*D_NET *252 0.000429101

*CONN
*I *476:Z O *C 43.9 62.2 *L 0 *D CKAN2D0
*I *467:A2 I *C 43.5 64.4 *L 0.00105 *D OR2XD1

*CAP
1 *476:Z 0.000189554
2 *467:A2 0.000239546992

*RES
1 *467:A2 *476:Z 6.84796
*END

*D_NET *253 0.000874046

*CONN
*I *500:ZN O *C 50.5 58.4 *L 0 *D IND2D0
*I *475:B1 I *C 51.1 55.2 *L 0.000689 *D MOAI22D0
*I *475:A1 I *C 50.1 55.2 *L 0.000721 *D MOAI22D0

*CAP
1 *475:B1 0.000126576
2 *475:A1 8.93812e-05
3 *253:3 0.000658083047

*RES
1 *500:ZN *253:3 4.48785019
2 *475:A1 *253:3 3.88359
3 *475:B1 *253:3 2.11676
*END

*D_NET *254 0.000509198

*CONN
*I *475:ZN O *C 50.3 55.8 *L 0 *D MOAI22D0
*I *429:A2 I *C 48.5 55.2 *L 0.000745 *D AO22D0

*CAP
1 *475:ZN 0.000508121016
2 *429:A2 1.07773e-06

*RES
1 *475:ZN *429:A2 5.39085
*END

*D_NET *255 0.000613385

*CONN
*I *580:A1 I *C 34.7 62.4 *L 0.0013 *D CKXOR2D0
*I *499:ZN O *C 31.9 61.2 *L 0 *D IND2D0

*CAP
1 *255:2 7.73523e-05
2 *255:3 0.000536035

*RES
1 *255:2 *255:3 6.70277977
2 *499:ZN *255:3 1.49998
3 *580:A1 *255:2 1.49998
*END

*D_NET *256 0.000500647

*CONN
*I *536:ZN O *C 35.1 37 *L 0 *D CKND0
*I *474:A1 I *C 34.7 37.2 *L 0.000645 *D AOI211D0
*I *452:A2 I *C 35.7 39.2 *L 0.00065 *D OAI211D0

*CAP
1 *536:ZN 0.00032664498
2 *474:A1 1.29841e-05
3 *452:A2 0.000161017

*RES
1 *474:A1 *536:ZN 0.563605
2 *536:ZN *452:A2 9.83658981
*END

*D_NET *257 0.000545697

*CONN
*I *474:ZN O *C 34.7 36.8 *L 0 *D AOI211D0
*I *452:C I *C 34.7 39.2 *L 0.000698 *D OAI211D0

*CAP
1 *474:ZN 0.000545696992

*RES
1 *474:ZN *257:2 4.30543995
2 *452:C *257:2 1.50003
*END

*D_NET *258 0.000605235

*CONN
*I *473:ZN O *C 46.9 44 *L 0 *D AOI211D0
*I *463:A1 I *C 45.9 40.8 *L 0.000655 *D AN4D0

*CAP
1 *473:ZN 3.90504e-05
2 *463:A1 0.000566187031

*RES
1 *473:ZN *463:A1 10.0319
*END

*D_NET *259 0.000454565

*CONN
*I *472:ZN O *C 36.7 29.8 *L 0 *D MUX2ND0
*I *454:A3 I *C 37.9 29.8 *L 0.000708 *D ND4D0

*CAP
1 *472:ZN 0.000454565

*RES
1 *472:ZN *454:A3 7.09102
*END

*D_NET *260 0.00173906

*CONN
*I *508:Z O *C 35.9 28.8 *L 0 *D OA21D0
*I *470:A1 I *C 43.3 30 *L 0.000711 *D OAI211D0
*I *462:B2 I *C 41.5 29.8 *L 0.000881 *D AOI221D0

*CAP
1 *508:Z 0.000562551992
2 *470:A1 0.000192436
3 *462:B2 0.000150048
4 *260:3 0.000550337
5 *260:4 0.000283675

*RES
1 *260:3 *260:4 5.59281
2 *470:A1 *260:4 7.70508003
3 *462:B2 *260:4 5.20189
4 *508:Z *260:3 4.496
*END

*D_NET *261 0.000191437

*CONN
*I *470:ZN O *C 42.9 30.6 *L 0 *D OAI211D0
*I *462:C I *C 42.1 29.8 *L 0.000701 *D AOI221D0

*CAP
1 *470:ZN 9.17123e-05
2 *462:C 9.97240039e-05

*RES
1 *462:C *470:ZN 1.73454
*END

*D_NET *262 0.00146715

*CONN
*I *480:ZN O *C 33.3 29.6 *L 0 *D AOI21D0
*I *469:B2 I *C 39.9 30.2 *L 0.000744 *D MAOI22D0
*I *469:A2 I *C 39.1 30 *L 0.000697 *D MAOI22D0

*CAP
1 *469:B2 0.000198868
2 *469:A2 8.96584e-05
3 *262:3 0.00108308992
4 *262:4 9.55254e-05

*RES
1 *469:B2 *262:4 4.08042
2 *469:A2 *262:4 4.49996
3 *262:3 *262:4 8.39025974
4 *480:ZN *262:3 1.49994
*END

*D_NET *263 0.000291938

*CONN
*I *469:ZN O *C 39.5 29.6 *L 0 *D MAOI22D0
*I *454:A2 I *C 38.1 29.8 *L 0.000705 *D ND4D0

*CAP
1 *454:A2 0.000291938008

*RES
1 *454:A2 *469:ZN 6.14104
*END

*D_NET *264 0.00112661

*CONN
*I *533:Z O *C 30.7 43.2 *L 0 *D AO21D0
*I *468:A2 I *C 31.9 40.8 *L 0.00065 *D OAI211D0
*I *458:A1 I *C 33.5 40.8 *L 0.000675 *D AOI221D0

*CAP
1 *533:Z 0.000391770977
2 *468:A2 0.000249344
3 *458:A1 0.000214528
4 *264:3 0.000270967

*RES
1 *458:A1 *264:3 4.98767
2 *468:A2 *264:3 4.09622
3 *533:Z *264:3 5.06653023
*END

*D_NET *265 0.000763737

*CONN
*I *570:ZN O *C 32.7 43.2 *L 0 *D IND2D0
*I *468:A1 I *C 31.5 40.8 *L 0.000711 *D OAI211D0
*I *458:A2 I *C 32.9 41 *L 0.000727 *D AOI221D0

*CAP
1 *570:ZN 9.37526e-05
2 *265:3 0.000352196992
3 *265:4 0.000317786

*RES
1 *570:ZN *265:3 4.83140993
2 *265:3 *265:4 4.55916
3 *468:A1 *265:4 3.00002
4 *458:A2 *265:3 3.00002
*END

*D_NET *266 0.000128925

*CONN
*I *468:ZN O *C 31.9 41.4 *L 0 *D OAI211D0
*I *458:C I *C 32.3 40.6 *L 0.000701 *D AOI221D0

*CAP
1 *468:ZN 3.85305e-05
2 *458:C 9.0395e-05

*RES
1 *468:ZN *458:C 1.23111
*END

*D_NET *267 0.00179613

*CONN
*I *483:ZN O *C 37.3 36 *L 0 *D CKND2D0
*I *466:B1 I *C 30.9 35.6 *L 0.000689 *D MOAI22D0
*I *466:A1 I *C 29.9 35.6 *L 0.000721 *D MOAI22D0
*I *441:C I *C 38.7 35.6 *L 0.000698 *D OAI211D0

*CAP
1 *483:ZN 0.000116471
2 *466:B1 0.000103856
3 *466:A1 0.000192588
4 *267:4 0.000934146016
5 *267:5 0.000449077

*RES
1 *483:ZN *267:5 3.49539
2 *267:4 *267:5 6.99976015
3 *466:A1 *267:4 5.761
4 *441:C *267:5 5.07337
5 *466:B1 *267:4 3.00002
*END

*D_NET *268 0.000622426

*CONN
*I *466:ZN O *C 30.1 35 *L 0 *D MOAI22D0
*I *425:D I *C 32.5 33.8 *L 0.000644 *D EDFKCNQD1

*CAP
1 *268:2 0.000401131016
2 *268:3 0.000221294

*RES
1 *268:2 *268:3 6.31308985
2 *425:D *268:3 1.49996
3 *466:ZN *268:2 1.49996
*END

*D_NET *269 0.000805321

*CONN
*I *522:ZN O *C 50.9 61.2 *L 0 *D CKND2D0
*I *465:A2 I *C 47.7 60.8 *L 0.000664 *D NR2D0
*I *464:A2 I *C 48.7 60.8 *L 0.000585 *D CKAN2D0

*CAP
1 *465:A2 0.000228661
2 *269:3 0.000156826
3 *269:4 8.18553e-05
4 *269:5 0.000337978008

*RES
1 *269:3 *269:5 3.94020009
2 *465:A2 *269:4 2.86575
3 *464:A2 *269:4 1.5
4 *522:ZN *269:3 3
5 *269:4 *269:5 1.5
*END

*D_NET *270 0.000227025

*CONN
*I *465:ZN O *C 47.3 61 *L 0 *D NR2D0
*I *459:A2 I *C 46.3 60.8 *L 0.00105 *D OR2XD1

*CAP
1 *465:ZN 5.9517e-05
2 *459:A2 0.000167509004

*RES
1 *465:ZN *459:A2 4.0102
*END

*D_NET *271 0.000949178

*CONN
*I *471:ZN O *C 44.9 60.2 *L 0 *D IOA21D0
*I *465:A1 I *C 47.3 60.8 *L 0.000647 *D NR2D0
*I *464:A1 I *C 48.9 60.8 *L 0.000556 *D CKAN2D0
*I *461:A1 I *C 49.5 60.8 *L 0.000669 *D IOA21D0

*CAP
1 *471:ZN 0.00034083
2 *465:A1 0.000103967
3 *464:A1 2.51829e-05
4 *461:A1 4.56166e-05
5 *271:4 7.41776e-05
6 *271:5 0.000359398984

*RES
1 *471:ZN *271:5 5.37944984
2 *271:4 *271:5 4.18382
3 *465:A1 *271:5 3
4 *461:A1 *464:A1 0.683841
5 *461:A1 *271:4 1.5
*END

*D_NET *272 0.000462512

*CONN
*I *464:Z O *C 48.1 61 *L 0 *D CKAN2D0
*I *459:A1 I *C 46.7 61 *L 0.000964 *D OR2XD1

*CAP
1 *459:A1 0.000116812
2 *272:2 0.000345703008

*RES
1 *464:Z *272:2 4.78547001
2 *459:A1 *272:2 2.99997
*END

*D_NET *273 0.00144073

*CONN
*I *463:Z O *C 44.7 40.4 *L 0 *D AN4D0
*I *455:B I *C 37.7 40.8 *L 0.000726 *D OAI211D0

*CAP
1 *273:2 0.00010776
2 *273:3 0.00133297

*RES
1 *455:B *273:3 4.70292
2 *273:2 *273:3 10.6429996
3 *463:Z *273:2 1.49992
*END

*D_NET *274 0.000773505

*CONN
*I *462:ZN O *C 41.7 29.6 *L 0 *D AOI221D0
*I *454:A1 I *C 38.5 29.8 *L 0.000678 *D ND4D0

*CAP
1 *274:2 9.97908e-05
2 *274:3 0.000673718984

*RES
1 *454:A1 *274:3 2.99999
2 *274:2 *274:3 5.17714977
3 *462:ZN *274:2 1.5
*END

*D_NET *275 0.00112496

*CONN
*I *460:CO O *C 38.7 47.6 *L 0 *D FA1D0
*I *448:CI I *C 45.3 47.8 *L 0.001 *D FA1D0

*CAP
1 *460:CO 0.000240352
2 *275:2 0.000210663
3 *275:3 0.000673946953

*RES
1 *275:2 *275:3 7.32888985
2 *448:CI *275:2 1.6949
3 *460:CO *275:3 4.13849
*END

*D_NET *276 0.00272459

*CONN
*I *351:I I *C 51.3 42.8 *L 0.00104 *D DEL0
*I *460:S O *C 39.3 47.8 *L 0 *D FA1D0

*CAP
1 *351:I 0.000226265
2 *460:S 0.000557011
3 *276:2 0.000196079
4 *276:3 0.000659846
5 *276:4 0.0010171
6 *276:5 6.82723e-05

*RES
1 *276:3 *276:5 6.697
2 *460:S *276:3 5.75
3 *276:4 *276:5 0.330235
4 *276:2 *276:4 9.70940971
5 *351:I *276:2 4.23009
*END

*D_NET *277 0.0023394

*CONN
*I *545:ZN O *C 30.3 48.6 *L 0 *D OAI21D0
*I *479:A1 I *C 30.1 40.8 *L 0.000687 *D OA221D0
*I *458:B1 I *C 32.7 40.6 *L 0.00072 *D AOI221D0
*I *435:A2 I *C 30.7 46.4 *L 0.000697 *D MOAI22D0

*CAP
1 *545:ZN 0.000192587
2 *479:A1 0.000296702
3 *458:B1 0.000284841
4 *277:4 0.000492936992
5 *277:5 0.000221929
6 *277:6 0.000416275
7 *277:7 0.000434125

*RES
1 *277:5 *277:6 2.93636
2 *545:ZN *277:6 2.31037
3 *435:A2 *277:5 4.4691
4 *479:A1 *277:4 4.97218
5 *277:4 *277:5 3.20962
6 *458:B1 *277:7 7.02837992
7 *277:4 *277:7 1.50003
*END

*D_NET *278 0.000712525

*CONN
*I *458:ZN O *C 32.7 40.4 *L 0 *D AOI221D0
*I *452:B I *C 35.1 39.2 *L 0.000726 *D OAI211D0

*CAP
1 *458:ZN 0.000107205
2 *452:B 0.000290069
3 *278:2 0.000315252012

*RES
1 *452:B *278:2 8.20283031
2 *458:ZN *278:2 2.99996
*END

*D_NET *279 0.00203748

*CONN
*I *554:ZN O *C 51.5 53 *L 0 *D MOAI22D0
*I *457:A2 I *C 51.7 62.4 *L 0.000585 *D CKAN2D0
*I *456:A2 I *C 50.7 62.4 *L 0.000664 *D NR2D0

*CAP
1 *554:ZN 0.000247744
2 *456:A2 0.000275241
3 *279:4 0.000611187
4 *279:5 0.000745553984
5 *279:6 0.000157757

*RES
1 *279:3 *279:4 4.21550989
2 *279:4 *279:5 4.11188
3 *279:3 *279:6 0.451616
4 *457:A2 *279:6 1.85895
5 *554:ZN *279:5 2.78199
6 *456:A2 *279:6 2.9594
*END

*D_NET *280 0.000578902

*CONN
*I *461:ZN O *C 50.3 60.2 *L 0 *D IOA21D0
*I *457:A1 I *C 51.9 62.4 *L 0.000556 *D CKAN2D0
*I *456:A1 I *C 50.3 62.4 *L 0.000647 *D NR2D0

*CAP
1 *461:ZN 0.000204017
2 *457:A1 8.72666e-05
3 *280:3 7.67717e-05
4 *280:4 0.000210847012

*RES
1 *461:ZN *280:3 4.37664
2 *457:A1 *280:4 5.36858988
3 *456:A1 *280:3 1.5
4 *280:3 *280:4 1.5
*END

*D_NET *281 0.000496455

*CONN
*I *457:Z O *C 51.1 62.2 *L 0 *D CKAN2D0
*I *453:A1 I *C 50.3 64.6 *L 0.000964 *D OR2XD1

*CAP
1 *457:Z 0.00049471
2 *453:A1 1.74377e-06

*RES
1 *457:Z *453:A1 5.59027
*END

*D_NET *282 0.000335996

*CONN
*I *456:ZN O *C 50.3 62.2 *L 0 *D NR2D0
*I *453:A2 I *C 49.9 64.4 *L 0.00105 *D OR2XD1

*CAP
1 *456:ZN 0.000335996016

*RES
1 *453:A2 *456:ZN 4.68129
*END

*D_NET *283 0.00256861

*CONN
*I *451:ZN O *C 35.9 43.2 *L 0 *D CKND2D0
*I *450:I I *C 34.9 53.8 *L 0.00062 *D CKND0
*I *447:A1 I *C 36.9 53.6 *L 0.000647 *D NR2D0

*CAP
1 *451:ZN 0.0011945
2 *450:I 0.000261246
3 *283:3 0.000685751
4 *283:4 4.1612e-05
5 *283:5 0.000385499

*RES
1 *283:3 *283:4 0.486556
2 *451:ZN *283:4 9.33185959
3 *283:3 *283:5 7.01114
4 *447:A1 *283:5 3.76515
5 *450:I *283:5 4.64372
*END

*D_NET *284 0.00160842

*CONN
*I *454:ZN O *C 38.3 30.4 *L 0 *D ND4D0
*I *449:A1 I *C 37.5 39.2 *L 0.000718 *D INR3D0
*I *444:A1 I *C 37.7 39.2 *L 0.000662 *D OAI31D0

*CAP
1 *454:ZN 0.000456987
2 *449:A1 5.44268e-06
3 *284:3 0.000863645938
4 *284:4 0.000282347

*RES
1 *449:A1 *284:4 2.89866
2 *454:ZN *284:3 4.19395
3 *444:A1 *449:A1 0.282119
4 *284:3 *284:4 5.63515997
*END

*D_NET *285 0.00126848

*CONN
*I *448:CO O *C 44.3 47.6 *L 0 *D FA1D0
*I *420:CI I *C 50.5 47.8 *L 0.001 *D FA1D0

*CAP
1 *448:CO 0.000710453984
2 *285:2 0.000128919
3 *285:3 0.000429102

*RES
1 *285:2 *285:3 4.79898
2 *448:CO *285:3 7.74588013
3 *420:CI *285:2 1.49998
*END

*D_NET *286 0.00358883

*CONN
*I *352:I I *C 57.7 50 *L 0.00104 *D DEL0
*I *448:S O *C 44.9 47.8 *L 0 *D FA1D0

*CAP
1 *352:I 0.000269247
2 *448:S 0.000409779
3 *286:2 0.000353518
4 *286:3 0.000113027
5 *286:4 0.00195081
6 *286:5 0.000492413

*RES
1 *286:3 *286:4 15.6374998
2 *286:4 *286:5 4.10694
3 *286:2 *286:3 1.94944
4 *448:S *286:5 4.74117
5 *352:I *286:2 8.73191
*END

*D_NET *287 0.0014211

*CONN
*I *452:ZN O *C 35.7 38.6 *L 0 *D OAI211D0
*I *449:B1 I *C 36.9 39.2 *L 0.000894 *D INR3D0
*I *446:B2 I *C 35.5 42.8 *L 0.000657 *D IND3D0
*I *444:A2 I *C 38.1 39.2 *L 0.000691 *D OAI31D0

*CAP
1 *452:ZN 8.18178e-05
2 *449:B1 3.16168e-05
3 *446:B2 0.00066882
4 *287:4 0.000290776
5 *287:5 0.00034807

*RES
1 *287:4 *287:5 2.27958
2 *444:A2 *287:5 4.16935
3 *452:ZN *287:4 2.62269
4 *449:B1 *287:5 3.00005
5 *446:B2 *287:4 6.37375021
*END

*D_NET *288 0.00176795

*CONN
*I *455:ZN O *C 38.3 41.4 *L 0 *D OAI211D0
*I *451:A1 I *C 36.1 43 *L 0.000617 *D CKND2D0
*I *449:B2 I *C 36.5 39.2 *L 0.000774 *D INR3D0
*I *446:A1 I *C 34.5 42.8 *L 0.000682 *D IND3D0
*I *444:A3 I *C 38.3 39.2 *L 0.000706 *D OAI31D0

*CAP
1 *455:ZN 2.00773e-05
2 *449:B2 0.000218734
3 *288:5 9.0009e-05
4 *288:6 0.000110612
5 *288:7 4.21037e-06
6 *288:8 0.000498963008
7 *288:9 0.000365274
8 *288:10 9.54452e-05
9 *288:11 0.000105282
10 *288:12 0.000259345

*RES
1 *288:10 *288:12 3.21154
2 *288:5 *288:6 2.00262
3 *455:ZN *288:5 0.506502
4 *288:11 *288:12 1.69485
5 *288:7 *288:8 0.451537
6 *288:6 *288:7 0.256666
7 *455:ZN *288:9 5.26639986
8 *449:B2 *288:7 2.45368
9 *288:8 *288:10 2.9147
10 *446:A1 *288:11 1.49998
11 *451:A1 *288:10 3.00004
12 *444:A3 *288:9 3.00004
*END

*D_NET *289 0.00265001

*CONN
*I *342:I I *C 50.3 35.6 *L 0.00104 *D DEL0
*I *444:ZN O *C 37.7 39.6 *L 0 *D OAI31D0

*CAP
1 *342:I 0.000147583
2 *444:ZN 8.95699e-05
3 *289:2 0.000279241
4 *289:3 0.000927035
5 *289:4 0.00120657

*RES
1 *289:3 *289:4 5.76076
2 *289:2 *289:4 11.5993996
3 *342:I *289:2 3.97473
4 *444:ZN *289:3 5.74749
*END

*D_NET *290 0.000420327

*CONN
*I *606:DB I *C 33.7 50 *L 0.00109 *D DFXD1
*I *443:ZN O *C 34.1 51.4 *L 0 *D CKND0

*CAP
1 *606:DB 8.28923e-05
2 *443:ZN 0.000337433984

*RES
1 *443:ZN *606:DB 6.6057
*END

*D_NET *291 0.000672552

*CONN
*I *442:ZN O *C 40.5 41.4 *L 0 *D OAI211D0
*I *424:B I *C 40.5 39.2 *L 0.000669 *D IOA21D0

*CAP
1 *442:ZN 0.000364626992
2 *424:B 0.000307926

*RES
1 *442:ZN *424:B 6.52569
*END

*D_NET *292 0.000386343

*CONN
*I *441:ZN O *C 39.7 35 *L 0 *D OAI211D0
*I *421:B I *C 40.9 35.6 *L 0.000669 *D IOA21D0

*CAP
1 *441:ZN 0.000386343008

*RES
1 *421:B *441:ZN 6.23146
*END

*D_NET *293 0.000694732

*CONN
*I *440:ZN O *C 51.1 34.2 *L 0 *D OAI211D0
*I *423:B I *C 52.3 33.6 *L 0.000669 *D IOA21D0

*CAP
1 *423:B 0.000117592
2 *293:2 0.000545623008
3 *293:3 3.1521e-05

*RES
1 *423:B *293:3 2.99999
2 *293:2 *293:3 4.44590998
3 *440:ZN *293:2 1.49999
*END

*D_NET *294 0.00053559

*CONN
*I *439:ZN O *C 42.5 35 *L 0 *D OAI211D0
*I *422:B I *C 42.9 35.6 *L 0.000669 *D IOA21D0

*CAP
1 *422:B 0.000145852
2 *294:2 0.000389741016

*RES
1 *422:B *294:2 6.56718016
2 *439:ZN *294:2 1.5
*END

*D_NET *295 0.000852014

*CONN
*I *601:D I *C 52.7 57.2 *L 0.000958 *D DFD1
*I *438:Z O *C 48.9 56.6 *L 0 *D AO22D0

*CAP
1 *601:D 0.000152318
2 *438:Z 0.000102406
3 *295:2 0.000177341
4 *295:3 0.000419946992

*RES
1 *295:2 *295:3 5.94246006
2 *601:D *295:2 1.88984
3 *438:Z *295:3 2.99997
*END

*D_NET *296 0.00250772

*CONN
*I *340:I I *C 52.1 58.8 *L 0.00104 *D DEL0
*I *437:ZN O *C 35.3 59.4 *L 0 *D MOAI22D0

*CAP
1 *437:ZN 0.000613316
2 *296:2 0.000195902
3 *296:3 0.000704905
4 *296:4 7.39271e-05
5 *296:5 0.000517264
6 *296:6 0.000402399

*RES
1 *296:2 *296:3 7.12229
2 *437:ZN *296:6 7.25197983
3 *296:3 *296:4 0.327986
4 *340:I *296:2 3.51024
5 *296:5 *296:6 3.7029
6 *296:4 *296:5 4.54422
*END

*D_NET *297 0.00308318

*CONN
*I *339:I I *C 41.7 69.6 *L 0.00104 *D DEL0
*I *436:ZN O *C 28.3 59.4 *L 0 *D MOAI22D0

*CAP
1 *436:ZN 0.00102894
2 *297:2 0.00087757
3 *297:3 0.000574533
4 *297:4 0.000573277
5 *297:5 2.88577e-05

*RES
1 *297:2 *297:5 8.84360981
2 *436:ZN *297:2 8.63715
3 *297:4 *297:5 0.133054
4 *297:3 *297:4 5.71361
5 *339:I *297:3 8.36659
*END

*D_NET *298 0.000789051

*CONN
*I *607:D I *C 28.5 44.4 *L 0.000958 *D DFD1
*I *435:ZN O *C 31.1 45.8 *L 0 *D MOAI22D0

*CAP
1 *435:ZN 0.000237479
2 *298:2 0.000551572969

*RES
1 *435:ZN *298:2 8.44822025
2 *607:D *298:2 1.49999
*END

*D_NET *299 0.00297567

*CONN
*I *343:I I *C 54.7 44.4 *L 0.00104 *D DEL0
*I *446:ZN O *C 34.9 43.2 *L 0 *D IND3D0

*CAP
1 *299:2 0.000315622
2 *299:3 0.000573048
3 *299:4 0.000256748
4 *299:5 0.000185629
5 *299:6 0.00164461

*RES
1 *299:4 *299:5 1.94934
2 *299:5 *299:6 12.4321003
3 *299:3 *299:6 4.97713
4 *299:2 *299:4 4.39323
5 *343:I *299:2 4.75442
6 *446:ZN *299:3 1.49995
*END

*D_NET *300 0.00388819

*CONN
*I *338:I I *C 45.5 66 *L 0.00104 *D DEL0
*I *434:ZN O *C 28.3 53 *L 0 *D MOAI22D0

*CAP
1 *338:I 0.000175081
2 *434:ZN 0.000103536
3 *300:2 0.00127758
4 *300:3 0.000383537
5 *300:4 0.00123777
6 *300:5 0.000226391
7 *300:6 0.000484305

*RES
1 *300:4 *300:6 13.5921001
2 *434:ZN *300:2 1.69486
3 *300:4 *300:5 2.11298
4 *300:3 *300:6 5.57924
5 *300:2 *300:5 11.7821
6 *338:I *300:3 8.32313
*END

*D_NET *301 0.000366204

*CONN
*I *597:D I *C 44.7 55.2 *L 0.000958 *D DFD1
*I *433:Z O *C 44.7 56.6 *L 0 *D AO22D0

*CAP
1 *433:Z 0.000366203984

*RES
1 *597:D *433:Z 4.78527
*END

*D_NET *302 0.00041527

*CONN
*I *599:D I *C 43.3 53.6 *L 0.000958 *D DFD1
*I *432:Z O *C 42.7 55.8 *L 0 *D AO22D0

*CAP
1 *599:D 6.42029e-05
2 *432:Z 0.000351066992

*RES
1 *432:Z *599:D 6.80712
*END

*D_NET *303 0.000258301

*CONN
*I *600:D I *C 37.9 51.6 *L 0.000958 *D DFD1
*I *431:Z O *C 37.9 53 *L 0 *D AO22D0

*CAP
1 *431:Z 0.000258300996

*RES
1 *600:D *431:Z 4.36407
*END

*D_NET *304 0.00453499

*CONN
*I *606:DA I *C 34.7 50 *L 0.000727 *D DFXD1
*I *450:ZN O *C 34.5 53.8 *L 0 *D CKND0
*I *437:B1 I *C 34.5 58.8 *L 0.000689 *D MOAI22D0
*I *436:B1 I *C 29.1 58.8 *L 0.000689 *D MOAI22D0
*I *435:B1 I *C 31.9 46.4 *L 0.000689 *D MOAI22D0
*I *434:B1 I *C 29.1 53.6 *L 0.000689 *D MOAI22D0
*I *430:B1 I *C 34.3 57.2 *L 0.000689 *D MOAI22D0

*CAP
1 *437:B1 0.000123279
2 *436:B1 0.00016953
3 *435:B1 5.95624e-05
4 *434:B1 0.000196591
5 *304:7 0.0009586
6 *304:8 0.000473866
7 *304:9 0.000110729
8 *304:10 4.25801e-05
9 *304:11 0.000208015
10 *304:12 0.000260205
11 *304:13 0.000478327
12 *304:14 0.000635527
13 *304:15 0.000211862
14 *304:16 0.000606287

*RES
1 *304:8 *304:13 0.626109
2 *436:B1 *304:10 4.26583
3 *304:12 *304:13 3.31976
4 *304:14 *304:15 5.45063
5 *304:9 *304:16 6.37224
6 *304:11 *304:15 3.47985
7 *304:7 *304:10 7.42538023
8 *434:B1 *304:7 1.40121
9 *435:B1 *304:14 2.6796
10 *437:B1 *304:9 2.27987
11 *304:9 *304:12 1.32156
12 *304:8 *304:11 3.84537
13 *450:ZN *304:13 1.50001
14 *430:B1 *304:12 1.50001
15 *606:DA *304:11 1.50001
16 *304:10 *304:16 1.50001
*END

*D_NET *305 0.00322941

*CONN
*I *341:I I *C 55.1 55.2 *L 0.00104 *D DEL0
*I *430:ZN O *C 33.5 56.6 *L 0 *D MOAI22D0

*CAP
1 *305:2 0.00070832
2 *305:3 0.000731988047
3 *305:4 0.000180554
4 *305:5 0.00058769
5 *305:6 0.000352708
6 *305:7 0.000668144

*RES
1 *305:2 *305:4 9.79977036
2 *305:6 *305:7 5.75252
3 *305:5 *305:6 2.87357
4 *305:4 *305:5 4.63581
5 *305:3 *305:7 7.51073
6 *430:ZN *305:3 1.49996
7 *341:I *305:2 3.00007
*END

*D_NET *306 0.00378664

*CONN
*I *595:DA I *C 35.9 55.2 *L 0.000727 *D DFXD1
*I *503:ZN O *C 35.7 51.4 *L 0 *D NR2D0
*I *447:A2 I *C 36.5 53.6 *L 0.000664 *D NR2D0
*I *438:B1 I *C 47.9 57.4 *L 0.000863 *D AO22D0
*I *433:B1 I *C 43.7 57.4 *L 0.000863 *D AO22D0
*I *432:B1 I *C 41.7 55 *L 0.000863 *D AO22D0
*I *431:B1 I *C 38.9 53.8 *L 0.000863 *D AO22D0
*I *429:B1 I *C 48.7 55 *L 0.000863 *D AO22D0

*CAP
1 *595:DA 2.94767e-05
2 *503:ZN 0.000143794
3 *447:A2 7.26399e-05
4 *438:B1 0.00026566
5 *431:B1 0.000288585
6 *306:8 0.000498271
7 *306:9 0.000484833
8 *306:10 0.000337458
9 *306:12 0.000220556
10 *306:13 0.000562701992
11 *306:14 0.000449123
12 *306:15 0.000433539

*RES
1 *438:B1 *306:12 3.70442
2 *306:11 *306:13 4.30546
3 *595:DA *306:9 1.98146
4 *431:B1 *306:14 4.16917
5 *306:8 *306:13 5.59268999
6 *306:9 *306:14 3.83866
7 *306:8 *306:12 0.765138
8 *306:13 *306:15 2.53359
9 *447:A2 *306:10 2.75265
10 *432:B1 *306:15 4.75502
11 *503:ZN *306:10 2.86854
12 *306:9 *306:10 1.85362
13 *306:14 *306:15 3.31315
14 *429:B1 *306:12 1.49998
15 *433:B1 *306:11 1.49998
*END

*D_NET *307 0.00368001

*CONN
*I *595:DB I *C 36.9 55.2 *L 0.00109 *D DFXD1
*I *447:ZN O *C 36.9 53.8 *L 0 *D NR2D0
*I *438:A1 I *C 47.7 57 *L 0.00073 *D AO22D0
*I *433:A1 I *C 43.5 57 *L 0.00073 *D AO22D0
*I *432:A1 I *C 41.5 55.4 *L 0.00073 *D AO22D0
*I *431:A1 I *C 39.1 53.4 *L 0.00073 *D AO22D0
*I *429:A1 I *C 48.9 55.4 *L 0.00073 *D AO22D0

*CAP
1 *595:DB 0.000294458
2 *447:ZN 0.000190635
3 *438:A1 4.14615e-05
4 *433:A1 6.07547e-05
5 *431:A1 0.000197583
6 *429:A1 0.000299814
7 *307:7 0.000406328
8 *307:8 0.000923582031
9 *307:9 0.000362316
10 *307:10 0.000361639
11 *307:11 0.000307692
12 *307:12 0.000233746

*RES
1 *595:DB *307:7 5.17153
2 *307:9 *307:11 3.49243
3 *447:ZN *307:7 2.63694
4 *429:A1 *307:11 7.22862005
5 *438:A1 *307:11 4.50002
6 *433:A1 *307:12 4.50002
7 *307:8 *307:12 5.76935
8 *307:9 *307:12 1.39507
9 *307:8 *307:10 5.73869
10 *431:A1 *307:10 5.26517
11 *307:7 *307:10 3.79564
12 *432:A1 *307:8 3.00005
*END

*D_NET *308 0.00152129

*CONN
*I *345:I I *C 54.9 53.6 *L 0.00104 *D DEL0
*I *429:Z O *C 47.7 55.8 *L 0 *D AO22D0

*CAP
1 *345:I 0.000196154
2 *429:Z 0.000735072031
3 *308:2 0.000147856
4 *308:3 0.00044221

*RES
1 *345:I *308:2 6.24158
2 *429:Z *308:3 7.77170992
3 *308:2 *308:3 3.28782
*END

*D_NET *309 0.000572993

*CONN
*I *428:ZN O *C 49.5 35.8 *L 0 *D MUX2ND0
*I *419:D I *C 49.3 39.2 *L 0.000885 *D DFKCNQD1

*CAP
1 *428:ZN 0.000572992969

*RES
1 *428:ZN *419:D 6.33747
*END

*D_NET *310 0.00196294

*CONN
*I *337:I I *C 53.3 37.2 *L 0.00104 *D DEL0
*I *424:ZN O *C 40.3 38.6 *L 0 *D IOA21D0

*CAP
1 *337:I 0.000116779
2 *310:2 6.88306e-05
3 *310:3 0.00177731

*RES
1 *310:2 *310:3 14.0534
2 *337:I *310:2 3.38983
3 *424:ZN *310:3 5.25716
*END

*D_NET *311 0.000468728

*CONN
*I *423:ZN O *C 52.1 34.2 *L 0 *D IOA21D0
*I *416:D I *C 52.1 32 *L 0.000885 *D DFKCNQD1

*CAP
1 *416:D 0.000468728008

*RES
1 *416:D *423:ZN 4.80856
*END

*D_NET *312 0.00356647

*CONN
*I *445:ZN O *C 48.5 35.8 *L 0 *D CKND0
*I *428:I0 I *C 49.1 35.6 *L 0.000706 *D MUX2ND0
*I *424:A1 I *C 39.5 39.2 *L 0.000669 *D IOA21D0
*I *423:A1 I *C 51.3 33.6 *L 0.000669 *D IOA21D0
*I *422:A1 I *C 43.9 35.6 *L 0.000669 *D IOA21D0
*I *421:A1 I *C 39.9 35.6 *L 0.000669 *D IOA21D0

*CAP
1 *445:ZN 8.80817e-05
2 *428:I0 0.000135406
3 *424:A1 0.000488192
4 *423:A1 0.000422295
5 *422:A1 0.00019949
6 *421:A1 0.000114504
7 *312:6 4.52648e-05
8 *312:7 8.73049e-05
9 *312:8 0.000771302969
10 *312:9 0.000403276
11 *312:10 0.000423602
12 *312:11 0.000387752

*RES
1 *312:9 *312:10 3.07676
2 *312:8 *312:10 6.1582098
3 *312:9 *312:11 3.14263
4 *312:7 *312:11 1.89277
5 *423:A1 *312:6 5.82998
6 *421:A1 *312:8 3.66292
7 *422:A1 *312:10 3.71733
8 *312:6 *312:11 4.84531
9 *428:I0 *312:7 4.08352
10 *424:A1 *312:8 5.26449
11 *445:ZN *312:7 1.7709
*END

*D_NET *313 0.000984314

*CONN
*I *422:ZN O *C 43.1 35 *L 0 *D IOA21D0
*I *417:D I *C 46.7 35.6 *L 0.000885 *D DFKCNQD1

*CAP
1 *417:D 0.000186537
2 *313:2 6.70776e-05
3 *313:3 0.000730706953

*RES
1 *313:2 *313:3 6.88360977
2 *422:ZN *313:3 4.50004
3 *417:D *313:2 2.01007
*END

*D_NET *314 0.000874487

*CONN
*I *421:ZN O *C 40.7 35 *L 0 *D IOA21D0
*I *415:D I *C 41.5 32 *L 0.000885 *D DFKCNQD1

*CAP
1 *421:ZN 3.73467e-07
2 *415:D 0.000874113047

*RES
1 *415:D *421:ZN 8.45099
*END

*D_NET *315 0.00100025

*CONN
*I *354:I I *C 54.5 48 *L 0.00104 *D DEL0
*I *420:S O *C 50.1 47.8 *L 0 *D FA1D0

*CAP
1 *420:S 0.000694045
2 *315:2 0.000306202

*RES
1 *420:S *315:2 7.21509981
2 *354:I *315:2 6.34415
*END

*D_NET *316 0.000759372

*CONN
*I *553:ZN O *C 51.7 41.4 *L 0 *D MOAI22D0
*I *414:B2 I *C 49.7 44.2 *L 0.000739 *D MOAI22D0
*I *414:A2 I *C 50.5 44.4 *L 0.000697 *D MOAI22D0

*CAP
1 *553:ZN 0.000408726992
2 *414:B2 0.000184072
3 *316:3 0.000166572

*RES
1 *414:B2 *316:3 2.50761
2 *414:A2 *316:3 3.85587
3 *553:ZN *316:3 5.07609987
*END

*D_NET *317 0.00110867

*CONN
*I *420:CO O *C 49.5 47.6 *L 0 *D FA1D0
*I *414:B1 I *C 49.3 44.4 *L 0.000689 *D MOAI22D0
*I *414:A1 I *C 50.3 44.4 *L 0.000721 *D MOAI22D0

*CAP
1 *414:B1 0.000244001
2 *414:A1 0.000126551
3 *317:3 0.00073812

*RES
1 *420:CO *317:3 3.93497
2 *414:B1 *317:3 2.7694
3 *414:A1 *317:3 5.01161003
*END

*D_NET *318 0.000590621

*CONN
*I *353:I I *C 52.1 44.4 *L 0.00104 *D DEL0
*I *414:ZN O *C 50.1 45 *L 0 *D MOAI22D0

*CAP
1 *353:I 0.000201562
2 *414:ZN 0.00038906

*RES
1 *414:ZN *353:I 11.661
*END

*D_NET *319 0.00186034

*CONN
*I *344:I I *C 46.7 37.2 *L 0.00103 *D DEL015
*I *449:ZN O *C 36.9 39.6 *L 0 *D INR3D0

*CAP
1 *344:I 0.000198466
2 *319:2 5.05509e-05
3 *319:3 0.00161131

*RES
1 *319:2 *319:3 14.3579998
2 *344:I *319:2 3.99788
3 *449:ZN *319:3 3.64624
*END

*D_NET *320 0.000879544

*CONN
*I *580:Z O *C 32.9 62 *L 0 *D CKXOR2D0
*I *430:A2 I *C 33.1 57.2 *L 0.000697 *D MOAI22D0

*CAP
1 *580:Z 0.000228324
2 *430:A2 0.000250055
3 *320:2 0.000401168984

*RES
1 *430:A2 *320:2 7.12064981
2 *580:Z *320:2 2.91775
*END

*D_NET *321 0.000476911

*CONN
*I *581:Z O *C 34.3 61.2 *L 0 *D CKXOR2D0
*I *437:A2 I *C 35.7 58.8 *L 0.000697 *D MOAI22D0

*CAP
1 *581:Z 0.000165724
2 *437:A2 0.000311185977

*RES
1 *581:Z *437:A2 7.63705
*END

*D_NET *322 0.000409175

*CONN
*I *582:ZN O *C 32.9 37 *L 0 *D XNR2D0
*I *474:B I *C 34.1 37.2 *L 0.000707 *D AOI211D0

*CAP
1 *582:ZN 0.000235952012
2 *474:B 0.000173222

*RES
1 *582:ZN *474:B 6.74304
*END

*D_NET *323 0.000408714

*CONN
*I *583:Z O *C 27.5 61.2 *L 0 *D CKXOR2D0
*I *436:A2 I *C 27.9 58.8 *L 0.000697 *D MOAI22D0

*CAP
1 *583:Z 0.000367421016
2 *436:A2 4.12918e-05

*RES
1 *583:Z *436:A2 6.70649
*END

*D_NET *324 0.000543662

*CONN
*I *584:Z O *C 27.5 50.4 *L 0 *D CKXOR2D0
*I *434:A2 I *C 27.9 53.6 *L 0.000697 *D MOAI22D0

*CAP
1 *584:Z 0.000543661992

*RES
1 *584:Z *434:A2 7.88797
*END

*D_NET *325 0.000312074

*CONN
*I *585:ZN O *C 33.5 35.8 *L 0 *D XNR2D0
*I *474:C I *C 33.7 37.2 *L 0.000686 *D AOI211D0

*CAP
1 *585:ZN 4.60106e-05
2 *474:C 0.000266063984

*RES
1 *585:ZN *474:C 4.87119
*END

*D_NET *326 0.00221488

*CONN
*I *376:I I *C 29.1 62.4 *L 0.00104 *D DEL0
*I *606:QN O *C 29.9 49.6 *L 0 *D DFXD1

*CAP
1 *376:I 5.03575e-06
2 *606:QN 9.73579e-06
3 *326:2 0.00220012

*RES
1 *606:QN *326:2 0.518717
2 *376:I *326:2 20.4787006
*END

*D_NET *327 0.00110159

*CONN
*I *377:I I *C 34.7 48 *L 0.00104 *D DEL0
*I *607:QN O *C 31.3 44.8 *L 0 *D DFD1

*CAP
1 *607:QN 6.88646e-05
2 *327:2 0.000646846016
3 *327:3 0.000385877

*RES
1 *327:2 *327:3 4.8132
2 *607:QN *327:3 3.00003
3 *377:I *327:2 6.89737988
*END

*D_NET *328 0.00104344

*CONN
*I *359:I I *C 62.7 28.4 *L 0.00104 *D DEL0
*I *609:QN O *C 55.1 30.4 *L 0 *D DFXD1

*CAP
1 *359:I 0.00035193
2 *328:2 0.000618745977
3 *328:3 6.52594e-05
4 *328:4 7.50596e-06

*RES
1 *328:2 *328:4 5.009
2 *359:I *328:3 6.41590023
3 *609:QN *328:2 2.75017
4 *328:3 *328:4 1.50001
*END

*D_NET *329 0.000703124

*CONN
*I *610:Z O *C 35.9 64.6 *L 0 *D CKAN2D0
*I *489:A1 I *C 36.5 65.8 *L 0.000964 *D OR2XD1

*CAP
1 *610:Z 0.000461746992
2 *489:A1 0.000241375

*RES
1 *489:A1 *610:Z 7.53316
*END

*D_NET *330 0.000524939

*CONN
*I *611:ZN O *C 38.3 61.2 *L 0 *D IND2D0
*I *526:A1 I *C 38.1 64.4 *L 0.00098 *D AN2XD1

*CAP
1 *526:A1 8.00851e-05
2 *330:2 0.000444853008

*RES
1 *526:A1 *330:2 4.93221998
2 *611:ZN *330:2 1.5
*END

