*SPEF "IEEE 1481-1998"
*DESIGN "output_idx_controller"
*DATE "Sun Mar 22 14:16:51 2026"
*VENDOR "Cadence Design Systems, Inc."
*PROGRAM "Innovus"
*VERSION "21.16-s078_1"
*DESIGN_FLOW "COUPLING C" "PIN_CAP NONE" "NAME_SCOPE LOCAL"
*DIVIDER /
*DELIMITER :
*BUS_DELIMITER []
*T_UNIT 1 NS
*C_UNIT 1 PF
*R_UNIT 1 OHM
*L_UNIT 1 HENRY

// MMMC spef file for corner 'RC_BEST'

*NAME_MAP

*1 FE_PHN78_c_row_idx_1
*2 FE_PHN76_c_row_idx_0
*3 FE_PHN74_c_row_idx_2
*4 FE_PHN73_rstn
*5 FE_PHN72_n_5
*6 FE_PHN71_n_6
*7 FE_PHN70_n_181
*8 FE_PHN69_n_171
*9 FE_PHN68_n_168
*10 FE_PHN67_n_167
*11 FE_PHN66_n_176
*12 FE_PHN65_n_160
*13 FE_PHN64_n_170
*14 FE_PHN63_n_190
*15 FE_PHN62_n_179
*16 FE_PHN61_FE_OFN3_c_col_idx_7
*17 FE_PHN60_FE_OFN5_c_col_idx_6
*18 FE_PHN59_FE_OFN1_c_col_idx_8
*19 FE_PHN58_n_71
*20 FE_PHN57_n_107
*21 FE_PHN56_n_145
*22 FE_PHN55_n_157
*23 FE_PHN54_n_189
*24 FE_PHN53_n_186
*25 FE_PHN52_done_flag_166
*26 FE_PHN48_n_250
*27 FE_PHN47_c_col_os_5
*28 FE_PHN46_c_col_os_4
*29 FE_PHN45_c_col_idx_temp_4
*30 FE_PHN44_n_4
*31 FE_PHN43_n_5
*32 FE_PHN42_n_6
*33 FE_PHN41_n_24
*34 FE_PHN40_c_col_os_6
*35 FE_PHN39_c_col_idx_temp_5
*36 FE_PHN38_n_15
*37 FE_PHN37_n_18
*38 FE_PHN36_n_14
*39 FE_PHN35_n_0
*40 FE_PHN34_n_16
*41 FE_PHN33_n_17
*42 FE_PHN32_c_col_os_3
*43 FE_PHN31_n_232
*44 FE_PHN30_n_238
*45 FE_PHN29_c_col_idx_temp_6
*46 FE_PHN28_c_col_idx_temp_7
*47 FE_PHN27_c_col_idx_temp_3
*48 FE_PHN26_num_computated_1
*49 FE_PHN25_num_computated_6
*50 FE_PHN24_n_109
*51 FE_PHN23_num_computated_0
*52 FE_PHN22_num_computated_3
*53 FE_PHN21_num_computated_5
*54 FE_PHN20_n_32
*55 FE_PHN19_u_out_ac_i_4
*56 FE_PHN18_u_out_ac_i_3
*57 FE_PHN17_rstn
*58 FE_OFN16_c_col_idx_2
*59 FE_OFN15_c_col_idx_1
*60 FE_OFN14_c_col_idx_0
*61 CTS_1
*62 CTS_3
*63 CTS_2
*64 FE_OFN13_n_190
*65 FE_OFN12_c_col_idx_3
*66 FE_OFN11_c_col_idx_3
*67 FE_OFN10_c_col_idx_4
*68 FE_OFN9_c_col_idx_4
*69 FE_OFN8_c_col_idx_5
*70 FE_OFN7_c_col_idx_5
*71 FE_OFN6_c_col_idx_6
*72 FE_OFN5_c_col_idx_6
*73 FE_OFN4_c_col_idx_7
*74 FE_OFN3_c_col_idx_7
*75 FE_OFN2_c_col_idx_8
*76 FE_OFN1_c_col_idx_8
*77 clk
*78 rstn
*79 alu_init
*80 in_valid
*81 row_idx[2]
*82 row_idx[1]
*83 row_idx[0]
*84 num_computation[6]
*85 num_computation[5]
*86 num_computation[4]
*87 num_computation[3]
*88 num_computation[2]
*89 num_computation[1]
*90 num_computation[0]
*91 m[6]
*92 m[5]
*93 m[4]
*94 m[3]
*95 m[2]
*96 m[1]
*97 m[0]
*98 k[6]
*99 k[5]
*100 k[4]
*101 k[3]
*102 k[2]
*103 k[1]
*104 k[0]
*105 c_row_idx[8]
*106 c_row_idx[7]
*107 c_row_idx[6]
*108 c_row_idx[5]
*109 c_row_idx[4]
*110 c_row_idx[3]
*111 c_row_idx[2]
*112 c_row_idx[1]
*113 c_row_idx[0]
*114 c_col_idx[8]
*115 c_col_idx[7]
*116 c_col_idx[6]
*117 c_col_idx[5]
*118 c_col_idx[4]
*119 c_col_idx[3]
*120 c_col_idx[2]
*121 c_col_idx[1]
*122 c_col_idx[0]
*123 done_flag
*124 c_col_os[8]
*125 c_col_os[7]
*126 c_col_os[6]
*127 c_col_os[5]
*128 c_col_os[4]
*129 c_col_os[3]
*130 num_computated[6]
*131 num_computated[5]
*132 num_computated[4]
*133 num_computated[3]
*134 num_computated[2]
*135 num_computated[1]
*136 num_computated[0]
*137 c_col_idx_temp[8]
*138 c_col_idx_temp[7]
*139 c_col_idx_temp[6]
*140 c_col_idx_temp[5]
*141 c_col_idx_temp[4]
*142 c_col_idx_temp[3]
*143 u_out_ac_i[8]
*144 u_out_ac_i[7]
*145 u_out_ac_i[6]
*146 u_out_ac_i[5]
*147 u_out_ac_i[4]
*148 u_out_ac_i[3]
*149 done_flag_166
*150 n_0
*151 n_1
*152 n_2
*153 n_4
*154 n_5
*155 n_6
*156 n_7
*157 n_9
*158 n_12
*159 n_14
*160 n_15
*161 n_16
*162 n_17
*163 n_18
*164 n_19
*165 n_20
*166 n_21
*167 n_22
*168 n_23
*169 n_24
*170 n_27
*171 n_28
*172 n_29
*173 n_30
*174 n_31
*175 n_32
*176 n_33
*177 n_34
*178 n_35
*179 n_37
*180 n_38
*181 n_39
*182 n_40
*183 n_41
*184 n_42
*185 n_43
*186 n_44
*187 n_45
*188 n_47
*189 n_49
*190 n_50
*191 n_51
*192 n_52
*193 n_53
*194 n_54
*195 n_55
*196 n_56
*197 n_57
*198 n_58
*199 n_59
*200 n_60
*201 n_61
*202 n_62
*203 n_63
*204 n_64
*205 n_65
*206 n_66
*207 n_67
*208 n_68
*209 n_69
*210 n_70
*211 n_71
*212 n_73
*213 n_75
*214 n_76
*215 n_77
*216 n_78
*217 n_79
*218 n_80
*219 n_81
*220 n_82
*221 n_83
*222 n_84
*223 n_85
*224 n_86
*225 n_87
*226 n_88
*227 n_89
*228 n_90
*229 n_91
*230 n_93
*231 n_95
*232 n_96
*233 n_97
*234 n_99
*235 n_100
*236 n_102
*237 n_103
*238 n_104
*239 n_105
*240 n_106
*241 n_107
*242 n_108
*243 n_109
*244 n_110
*245 n_111
*246 n_113
*247 n_114
*248 n_115
*249 n_116
*250 n_117
*251 n_118
*252 n_119
*253 n_120
*254 n_121
*255 n_122
*256 n_124
*257 n_125
*258 n_126
*259 n_127
*260 n_128
*261 n_129
*262 n_130
*263 n_131
*264 n_132
*265 n_133
*266 n_134
*267 n_136
*268 n_137
*269 n_138
*270 n_139
*271 n_140
*272 n_141
*273 n_142
*274 n_143
*275 n_144
*276 n_145
*277 n_147
*278 n_148
*279 n_149
*280 n_150
*281 n_151
*282 n_152
*283 n_154
*284 n_155
*285 n_156
*286 n_157
*287 n_158
*288 n_159
*289 n_160
*290 n_161
*291 n_162
*292 n_163
*293 n_164
*294 n_165
*295 n_166
*296 n_167
*297 n_168
*298 n_169
*299 n_170
*300 n_171
*301 n_172
*302 n_173
*303 n_174
*304 n_175
*305 n_176
*306 n_177
*307 n_178
*308 n_179
*309 n_180
*310 n_181
*311 n_182
*312 n_183
*313 n_184
*314 n_185
*315 n_186
*316 n_187
*317 n_188
*318 n_189
*319 n_190
*320 n_206
*321 n_207
*322 n_208
*323 n_209
*324 n_210
*325 n_211
*326 n_232
*327 n_238
*328 n_250
*329 n_254
*330 n_255
*331 FE_PHC79_c_row_idx_1
*332 FE_PHC77_c_row_idx_0
*333 FE_PHC75_c_row_idx_2
*334 FE_PHC73_rstn
*335 FE_PHC72_n_5
*336 FE_PHC71_n_6
*337 FE_PHC70_n_181
*338 FE_PHC69_n_171
*339 FE_PHC68_n_168
*340 FE_PHC67_n_167
*341 FE_PHC66_n_176
*342 FE_PHC65_n_160
*343 FE_PHC64_n_170
*344 FE_PHC63_n_190
*345 FE_PHC62_n_179
*346 FE_PHC61_FE_OFN3_c_col_idx_7
*347 FE_PHC60_FE_OFN5_c_col_idx_6
*348 FE_PHC59_FE_OFN1_c_col_idx_8
*349 FE_PHC58_n_71
*350 FE_PHC57_n_107
*351 FE_PHC56_n_145
*352 FE_PHC55_n_157
*353 FE_PHC54_n_189
*354 FE_PHC53_n_186
*355 FE_PHC52_done_flag_166
*356 FE_PHC51_c_row_idx_1
*357 FE_PHC50_c_row_idx_0
*358 FE_PHC49_c_row_idx_2
*359 FE_PHC48_n_250
*360 FE_PHC47_c_col_os_5
*361 FE_PHC46_c_col_os_4
*362 FE_PHC45_c_col_idx_temp_4
*363 FE_PHC44_n_4
*364 FE_PHC43_n_5
*365 FE_PHC42_n_6
*366 FE_PHC41_n_24
*367 FE_PHC40_c_col_os_6
*368 FE_PHC39_c_col_idx_temp_5
*369 FE_PHC38_n_15
*370 FE_PHC37_n_18
*371 FE_PHC36_n_14
*372 FE_PHC35_n_0
*373 FE_PHC34_n_16
*374 FE_PHC33_n_17
*375 FE_PHC32_c_col_os_3
*376 FE_PHC31_n_232
*377 FE_PHC30_n_238
*378 FE_PHC29_c_col_idx_temp_6
*379 FE_PHC28_c_col_idx_temp_7
*380 FE_PHC27_c_col_idx_temp_3
*381 FE_PHC26_num_computated_1
*382 FE_PHC25_num_computated_6
*383 FE_PHC24_n_109
*384 FE_PHC23_num_computated_0
*385 FE_PHC22_num_computated_3
*386 FE_PHC21_num_computated_5
*387 FE_PHC20_n_32
*388 FE_PHC19_u_out_ac_i_4
*389 FE_PHC18_u_out_ac_i_3
*390 FE_PHC17_rstn
*391 FE_OFC16_c_col_idx_2
*392 FE_OFC15_c_col_idx_1
*393 FE_OFC14_c_col_idx_0
*394 CTS_ccl_a_inv_00002
*395 CTS_ccl_a_inv_00001
*396 CTS_cmf_inv_00050
*397 LTIELO_2
*398 LTIELO_1
*399 LTIELO
*400 FE_OFC13_n_190
*401 FE_OFC12_c_col_idx_3
*402 FE_OFC11_c_col_idx_3
*403 FE_OFC10_c_col_idx_4
*404 FE_OFC9_c_col_idx_4
*405 FE_OFC8_c_col_idx_5
*406 FE_OFC7_c_col_idx_5
*407 FE_OFC6_c_col_idx_6
*408 FE_OFC5_c_col_idx_6
*409 FE_OFC4_c_col_idx_7
*410 FE_OFC3_c_col_idx_7
*411 FE_OFC2_c_col_idx_8
*412 FE_OFC1_c_col_idx_8
*413 c_col_os_reg\[8\]
*414 p18291A__2398
*415 num_computated_reg\[5\]
*416 num_computated_reg\[1\]
*417 num_computated_reg\[3\]
*418 c_col_os_reg\[3\]
*419 num_computated_reg\[0\]
*420 p18250A__5107
*421 p18246A3671__6260
*422 p18246A3670__4319
*423 p18246A3669__8428
*424 p18246A__5526
*425 num_computated_reg\[6\]
*426 c_col_os_reg\[5\]
*427 c_col_os_reg\[4\]
*428 p18240A__6783
*429 p18289A3679__3680
*430 p18332A3678__1617
*431 p18289A3680__2802
*432 p18289A3681__1705
*433 p18289A3682__5122
*434 p18332A3683__8246
*435 p18332A__7098
*436 p18332A3676__6131
*437 p18332A3677__1881
*438 p18289A__5115
*439 p18222A__7482
*440 p18222A3674__4733
*441 p18222A3675__6161
*442 p18221A__9315
*443 Fp18296A
*444 p18260A__9945
*445 Fp18200A
*446 p18227A__2883
*447 p18251A__2346
*448 p18212A__1666
*449 p17878A__7410
*450 Fp18257A
*451 p18258A__6417
*452 p17867A__5477
*453 p13248A__2398
*454 p17946A__5107
*455 p17850A__6260
*456 p13239A__4319
*457 p13247A__8428
*458 p17717A__5526
*459 p13293A__6783
*460 p18170A__3680
*461 p13222A__1617
*462 p17922A__2802
*463 p17815A__1705
*464 p13290A__5122
*465 p13282A__8246
*466 p18366A__7098
*467 p13336A__6131
*468 p17705A__1881
*469 p18007A__5115
*470 p17928A__7482
*471 p13197A__4733
*472 p18008A__6161
*473 p17772A__9315
*474 p17875A__9945
*475 p18432A__2346
*476 p13327A__1666
*477 p13336A3684__7410
*478 p17951A__6417
*479 p17613A__5477
*480 p18185A__2398
*481 p13383A__5107
*482 p18395A__6260
*483 p18368A__4319
*484 p18107A__8428
*485 p18189A__5526
*486 p17929A__6783
*487 p17815A3685__3680
*488 p13185A__1617
*489 p13399A__2802
*490 p17709A__1705
*491 p17736A__5122
*492 p18469A__7098
*493 p17777A__1881
*494 p13375A__5115
*495 p17700A__7482
*496 p17835A__4733
*497 p17830A__6161
*498 p18118A__9315
*499 p18451A__9945
*500 p18415A__2883
*501 p18339A__2346
*502 p13380A__1666
*503 p18724A__5477
*504 Fp18114A
*505 p17629A__2398
*506 p17726A__5107
*507 p18487A__6260
*508 p18177A__4319
*509 p18449A__8428
*510 Fp13166A
*511 p18396A__5526
*512 p18365A__6783
*513 p18328A__3680
*514 p17833A__1617
*515 p17756A__2802
*516 p13392A__1705
*517 p18162A__5122
*518 p18080A__8246
*519 p18524A3686__6131
*520 Fp13384A
*521 p18183A__1881
*522 p13383A3688__5115
*523 p18288A__7482
*524 p13388A__4733
*525 p13168A__6161
*526 p13473A__9315
*527 p17750A__9945
*528 p17713A__2883
*529 p17703A__2346
*530 p17778A__1666
*531 p17782A__7410
*532 p17644A__6417
*533 p17756A3691__5477
*534 p17609A__2398
*535 p17833A3689__5107
*536 Fp17843A
*537 p13356A__6260
*538 p18299A__4319
*539 p18332A3687__8428
*540 p18362A__5526
*541 p18532A__6783
*542 p18070A__3680
*543 Fp17729A
*544 p13360A__1617
*545 p17648A__2802
*546 Fp18082A
*547 Fp18131A
*548 p18274A__8246
*549 p13343A__7098
*550 p17586A__6131
*551 p17741A__1881
*552 p18008A3690__5115
*553 p18431A__7482
*554 p13377A__4733
*555 p17825A__6161
*556 p17734A__9315
*557 p17647A__9945
*558 p13274A__2883
*559 p17634A__2346
*560 p17711A__1666
*561 p17790A__7410
*562 p17689A__6417
*563 p18107A3692__5477
*564 p13177A__2398
*565 p13166A__5107
*566 p18081A__6260
*567 p18319A__4319
*568 p13132A__8428
*569 p13216A__5526
*570 p17794A__6783
*571 p13310A__3680
*572 p13374A__1617
*573 p13233A__2802
*574 p18282A__1705
*575 p17641A__5122
*576 Fp18292A
*577 Fp18018A
*578 Fp18786A
*579 Fp18100A
*580 g2
*581 g3724
*582 g3725
*583 g3726
*584 g3727
*585 g3728
*586 drc_bufs3729
*587 drc_bufs3735
*588 drc_bufs3741
*589 drc_bufs3747
*590 drc_bufs3753
*591 drc_bufs3759
*592 drc_bufs3765
*593 c_col_os_reg\[7\]
*594 u_out_ac_j_reg\[8\]
*595 u_out_ac_j_reg\[3\]
*596 num_computated_reg\[2\]
*597 u_out_ac_j_reg\[6\]
*598 c_col_os_reg\[6\]
*599 u_out_ac_j_reg\[5\]
*600 u_out_ac_j_reg\[4\]
*601 u_out_ac_j_reg\[7\]
*602 num_computated_reg\[4\]
*603 u_out_ac_i_reg\[5\]
*604 u_out_ac_i_reg\[6\]
*605 u_out_ac_i_reg\[7\]
*606 u_out_ac_i_reg\[3\]
*607 u_out_ac_i_reg\[4\]
*608 u_out_ac_i_reg\[8\]
*609 done_flag_reg
*610 g3804
*611 g3805


*PORTS

*77 I *C 0 26
*78 I *C 0 36
*79 I *C 0 46
*80 I *C 0 56
*81 I *C 27.4 0
*82 I *C 26.7 0
*83 I *C 26 0
*84 I *C 32.3 0
*85 I *C 31.6 0
*86 I *C 30.9 0
*87 I *C 30.2 0
*88 I *C 29.5 0
*89 I *C 28.8 0
*90 I *C 28.1 0
*91 I *C 37.2 0
*92 I *C 36.5 0
*93 I *C 35.8 0
*94 I *C 35.1 0
*95 I *C 34.4 0
*96 I *C 33.7 0
*97 I *C 33 0
*98 I *C 42.1 0
*99 I *C 41.4 0
*100 I *C 40.7 0
*101 I *C 40 0
*102 I *C 39.3 0
*103 I *C 38.6 0
*104 I *C 37.9 0
*105 O *C 31.6 100
*106 O *C 30.9 100
*107 O *C 30.2 100
*108 O *C 29.5 100
*109 O *C 28.8 100
*110 O *C 28.1 100
*111 O *C 27.4 100
*112 O *C 26.7 100
*113 O *C 26 100
*114 O *C 37.9 100
*115 O *C 37.2 100
*116 O *C 36.5 100
*117 O *C 35.8 100
*118 O *C 35.1 100
*119 O *C 34.4 100
*120 O *C 33.7 100
*121 O *C 33 100
*122 O *C 32.3 100
*123 O *C 100 26


*D_NET *1 0.00712024

*CONN
*I *356:Z O *C 57.7 29.6 *L 0 *D BUFFD12
*I *548:A2 I *C 28.3 47.8 *L 0.000705 *D ND4D0
*I *331:I I *C 58.1 33.6 *L 0.00382 *D BUFFD12

*CAP
1 *331:I 8.34725e-05
2 *548:A2 0.000454771
3 *1:3 0.00155851
4 *1:4 2.94413e-05
5 *1:5 0.000314556
6 *1:6 0.000415674
7 *1:7 0.000668755
8 *1:8 0.000301357
9 *1:9 2.98218e-05
10 *1:10 0.000483522
11 *1:11 0.000316363
12 *1:12 0.000513463
13 *1:13 0.000434414
14 *1:14 0.000189347
15 *1:15 2.49228e-05
16 *1:3 *102:5 0.00027015
17 *548:A2 *2:5 0.000632013984
18 *1:3 *103:5 0.000399726016

*RES
1 *1:6 *1:7 2.27098
2 *1:4 *1:13 2.25282
3 *1:14 *1:15 1.72322
4 *1:4 *1:12 2.44022
5 *1:8 *1:3 7.00184011
6 *1:7 *1:14 3.0866
7 *1:5 *1:13 3.2679
8 *1:3 *1:15 6.80568
9 *1:10 *1:11 1.33955
10 *1:8 *1:9 1.74918
11 *1:9 *1:10 3.00294
12 *1:6 *1:12 1.37118
13 *331:I *1:12 0.450008
14 *548:A2 *1:11 2.26959
15 *356:Z *1:5 0.225004
*END

*D_NET *2 0.00824181

*CONN
*I *357:Z O *C 56.7 28.8 *L 0 *D BUFFD12
*I *548:A1 I *C 28.7 47.8 *L 0.000678 *D ND4D0
*I *332:I I *C 57.1 32 *L 0.00382 *D BUFFD12

*CAP
1 *357:Z 0.000328219
2 *2:3 0.000761694
3 *2:4 0.000557229
4 *2:5 0.00104055
5 *2:6 0.000196908
6 *2:7 1.75197e-06
7 *2:8 8.2291e-05
8 *2:9 8.66709e-05
9 *2:10 0.000215904
10 *2:11 0.00106353
11 *2:12 5.68875e-05
12 *2:13 0.00053119
13 *2:14 0.00112564
14 *2:15 0.000845342
15 *2:11 *416:CP 0.000309913008
16 *2:5 *548:A2 0.000632013984
17 *2:5 *3:3 0.000406051016

*RES
1 *2:4 *2:8 4.14862
2 *2:7 *2:8 0.477797
3 *2:10 *2:11 7.84572
4 *2:3 *2:6 0.378534
5 *357:Z *2:4 1.36041
6 *2:13 *2:15 2.18869
7 *2:5 *2:14 5.25726
8 *2:11 *2:12 0.0928633
9 *2:3 *2:7 3.1741
10 *2:14 *2:15 8.92358971
11 *2:9 *2:10 1.514
12 *2:6 *2:9 1.72233
13 *2:12 *2:13 2.80796
14 *332:I *2:6 0.224942
15 *548:A1 *2:5 0.224942
*END

*D_NET *3 0.00612854

*CONN
*I *358:Z O *C 52.3 28.8 *L 0 *D BUFFD12
*I *523:A1 I *C 33.7 48 *L 0.00069 *D INR2D0
*I *333:I I *C 53.1 33.6 *L 0.00382 *D BUFFD12

*CAP
1 *333:I 7.52423e-05
2 *358:Z 0.000656825
3 *3:3 0.000658359
4 *3:4 0.000161075
5 *3:5 0.000433316
6 *3:6 0.00154577
7 *3:7 0.000546156
8 *3:8 4.08054e-06
9 *3:9 0.000462351
10 *3:6 *27:5 0.000522215
11 *3:3 *2:5 0.000406051016
12 *358:Z *416:CP 0.000388933984
13 *358:Z *57:38 0.000268140996

*RES
1 *3:7 *3:8 0.0928911
2 *3:6 *3:7 3.92438
3 *3:5 *3:6 10.3007002
4 *358:Z *3:4 3.20875
5 *3:8 *3:9 2.93417
6 *3:3 *3:9 3.5077
7 *3:4 *3:5 3.25245
8 *333:I *3:4 1.36036
9 *523:A1 *3:3 0.225076
*END

*D_NET *4 0.00172974

*CONN
*I *334:Z O *C 32.9 28.8 *L 0 *D DEL01
*I *390:I I *C 27.5 35.6 *L 0.00072 *D BUFFD1

*CAP
1 *390:I 0.000152187
2 *4:2 0.000978375938
3 *4:3 2.83652e-06
4 *4:4 0.000477327
5 *4:5 0.000119014

*RES
1 *4:2 *4:4 0.773262
2 *4:3 *4:4 2.99986
3 *4:2 *4:5 4.03379011
4 *334:Z *4:5 0.449998
5 *390:I *4:3 1.19753
*END

*D_NET *5 0.000826029

*CONN
*I *335:Z O *C 29.7 69.2 *L 0 *D DEL015
*I *588:I I *C 32.3 71.6 *L 0.0113 *D INVD12

*CAP
1 *588:I 0.000429556016
2 *335:Z 7.6584e-05
3 *5:2 0.000319891

*RES
1 *588:I *5:2 3.0501399
2 *335:Z *5:2 0.450009
*END

*D_NET *6 0.000751178

*CONN
*I *336:Z O *C 29.7 68.4 *L 0 *D DEL015
*I *587:I I *C 27.7 66 *L 0.0113 *D INVD12

*CAP
1 *587:I 0.000136715
2 *336:Z 0.000346626016
3 *6:2 0.000267838

*RES
1 *336:Z *6:2 2.58837008
2 *587:I *6:2 0.450011
*END

*D_NET *7 0.00234185

*CONN
*I *337:Z O *C 55.7 36.8 *L 0 *D DEL0
*I *418:D I *C 40.9 37.2 *L 0.000885 *D DFKCNQD1

*CAP
1 *7:2 0.000931991016
2 *7:3 0.000166972
3 *7:4 0.000273105
4 *7:5 0.000247521
5 *7:6 0.000722256

*RES
1 *7:4 *7:5 1.51383
2 *418:D *7:2 0.477222
3 *7:5 *7:6 3.06671
4 *7:3 *7:4 1.89249
5 *7:2 *7:6 3.9503901
6 *337:Z *7:3 1.3166
*END

*D_NET *8 0.00450063

*CONN
*I *338:Z O *C 47.9 65.6 *L 0 *D DEL0
*I *603:D I *C 30.3 55.2 *L 0.000958 *D DFD1

*CAP
1 *603:D 0.000205834
2 *8:2 0.000367726
3 *8:3 0.000983355
4 *8:4 0.00024794
5 *8:5 0.000567154
6 *8:6 8.18086e-05
7 *8:7 0.00120290008
8 *8:8 2.47794e-05
9 *8:9 0.00081915

*RES
1 *8:8 *8:9 4.19532
2 *8:2 *8:3 4.24276
3 *8:7 *8:8 0.0929327
4 *8:6 *8:7 5.75655985
5 *8:3 *8:4 0.906841
6 *8:2 *8:9 2.35257
7 *603:D *8:5 1.12442
8 *8:4 *8:5 1.99849
9 *338:Z *8:6 0.225041
*END

*D_NET *9 0.00424056

*CONN
*I *339:Z O *C 44.1 69.2 *L 0 *D DEL0
*I *604:D I *C 30.5 57.2 *L 0.000958 *D DFD1

*CAP
1 *604:D 0.00130145
2 *9:2 0.000422716
3 *9:3 0.000863622
4 *9:4 0.000522189
5 *9:5 7.99517e-05
6 *9:6 0.000549296
7 *9:7 0.000501317

*RES
1 *9:6 *9:7 2.11031
2 *9:5 *9:6 2.76412
3 *9:2 *9:3 2.03438
4 *9:2 *9:4 2.5222
5 *604:D *9:4 4.75244999
6 *9:3 *9:7 4.19168
7 *339:Z *9:5 0.225019
*END

*D_NET *10 0.00314584

*CONN
*I *340:Z O *C 54.5 58.4 *L 0 *D DEL0
*I *605:D I *C 30.9 58.8 *L 0.000958 *D DFD1

*CAP
1 *605:D 0.000443649
2 *10:2 7.06123e-05
3 *10:3 0.000744222969
4 *10:4 3.22741e-05
5 *10:5 0.000495978
6 *10:6 0.000364293
7 *10:7 0.000432339
8 *10:8 0.00056248

*RES
1 *10:5 *10:6 2.23777
2 *10:7 *10:8 2.5249
3 *10:6 *10:7 2.3964
4 *10:4 *10:5 3.18633
5 *10:2 *10:3 4.11222982
6 *10:3 *10:4 0.219052
7 *605:D *10:8 2.12395
8 *340:Z *10:2 0.225013
*END

*D_NET *11 0.00356948

*CONN
*I *341:Z O *C 57.5 54.8 *L 0 *D DEL0
*I *608:D I *C 32.5 55.2 *L 0.000958 *D DFD1

*CAP
1 *608:D 0.000196539
2 *11:2 0.00199445
3 *11:3 9.0874e-05
4 *11:4 0.000842821
5 *11:5 0.000207129
6 *11:6 0.000237685

*RES
1 *11:4 *11:5 0.0929252
2 *11:3 *11:4 4.41477
3 *11:2 *11:6 10.8361998
4 *608:D *11:2 0.705206
5 *11:5 *11:6 1.51425
6 *341:Z *11:3 0.225038
*END

*D_NET *12 0.00147363

*CONN
*I *342:Z O *C 52.7 36 *L 0 *D DEL0
*I *609:SA I *C 49.9 30 *L 0.00154 *D DFXD1

*CAP
1 *609:SA 0.000601882
2 *12:2 0.000779686953
3 *12:3 9.20729e-05

*RES
1 *12:2 *12:3 4.01935005
2 *609:SA *12:2 2.33221
3 *342:Z *12:3 0.225021
*END

*D_NET *13 0.00891553

*CONN
*I *343:Z O *C 57.1 44 *L 0 *D DEL0
*I *437:A1 I *C 35.5 58.8 *L 0.000721 *D MOAI22D0
*I *434:A1 I *C 28.1 53.6 *L 0.000721 *D MOAI22D0
*I *436:A1 I *C 28.1 58.8 *L 0.000721 *D MOAI22D0
*I *430:A1 I *C 33.3 57.2 *L 0.000721 *D MOAI22D0
*I *443:I I *C 33.7 51.4 *L 0.00062 *D CKND0
*I *435:A1 I *C 30.9 46.4 *L 0.000721 *D MOAI22D0

*CAP
1 *435:A1 0.000427856
2 *443:I 7.12879e-06
3 *436:A1 0.000132883
4 *434:A1 9.0255e-05
5 *437:A1 0.000290506
6 *343:Z 0.000213364
7 *13:7 0.000454307
8 *13:8 0.000414744
9 *13:9 0.000692025
10 *13:10 7.69006e-05
11 *13:11 0.00037989
12 *13:12 0.000367036
13 *13:13 0.000261007
14 *13:14 0.00105698
15 *13:15 0.000359472
16 *13:16 0.00088876
17 *13:17 0.000669316
18 *13:18 6.24656e-05
19 *13:19 0.00105622
20 *13:20 0.000604028
21 *435:A1 *435:B1 0.000410386016

*RES
1 *13:15 *13:16 3.59164
2 *13:17 *13:18 2.17137
3 *343:Z *13:13 2.73752
4 *13:9 *13:10 3.00225
5 *435:A1 *13:19 2.2045
6 *13:16 *13:17 2.90443
7 *13:8 *13:19 2.49592
8 *13:7 *13:11 1.85157
9 *13:7 *13:20 3.50428
10 *13:18 *13:19 3.42207
11 *436:A1 *13:9 0.988347
12 *434:A1 *13:10 0.828334
13 *13:14 *13:15 3.02667
14 *13:13 *13:14 2.17318
15 *443:I *13:12 0.535958
16 *13:7 *13:12 1.63942
17 *437:A1 *13:11 3.7055099
18 *13:8 *13:12 2.31176
19 *430:A1 *13:11 0.450015
20 *13:10 *13:20 0.224979
*END

*D_NET *14 0.00284357

*CONN
*I *344:Z O *C 48.9 36.8 *L 0 *D DEL015
*I *400:I I *C 36.5 40.8 *L 0.000968 *D CKBD1

*CAP
1 *400:I 0.000154815
2 *344:Z 0.000413755
3 *14:2 6.34004e-05
4 *14:3 0.001072
5 *14:4 0.00113959

*RES
1 *14:2 *14:4 5.28374004
2 *344:Z *14:2 1.63206
3 *14:3 *14:4 3.13633
4 *400:I *14:3 2.571
*END

*D_NET *15 0.00194555

*CONN
*I *345:Z O *C 57.3 54 *L 0 *D DEL0
*I *594:D I *C 47.3 53.6 *L 0.000958 *D DFD1

*CAP
1 *15:2 6.66407e-05
2 *15:3 0.00078215
3 *15:4 0.00109676

*RES
1 *15:2 *15:4 4.62728977
2 *15:3 *15:4 2.80288
3 *594:D *15:3 0.225024
4 *345:Z *15:2 0.225024
*END

*D_NET *16 0.000459451

*CONN
*I *346:Z O *C 48.7 62 *L 0 *D DEL01
*I *410:I I *C 46.5 62.4 *L 0.00104 *D INVD1

*CAP
1 *410:I 9.56867e-05
2 *16:2 8.00953e-05
3 *16:3 0.000283670996

*RES
1 *16:2 *16:3 1.61238003
2 *410:I *16:3 0.449988
3 *346:Z *16:2 0.224994
*END

*D_NET *17 0.000662947

*CONN
*I *347:Z O *C 45.3 65.6 *L 0 *D DEL01
*I *408:I I *C 42.7 66 *L 0.00104 *D INVD1

*CAP
1 *408:I 8.55292e-05
2 *17:2 9.30458e-05
3 *17:3 0.000484371992

*RES
1 *17:2 *17:3 2.30633998
2 *408:I *17:3 0.45
3 *347:Z *17:2 0.225017
*END

*D_NET *18 0.000700402

*CONN
*I *348:Z O *C 52.5 64.8 *L 0 *D DEL01
*I *412:I I *C 48.7 64.4 *L 0.00104 *D INVD1

*CAP
1 *412:I 7.97722e-05
2 *18:2 8.98318e-05
3 *18:3 0.000530801992

*RES
1 *18:2 *18:3 2.88000989
2 *412:I *18:3 0.450002
3 *348:Z *18:2 0.225001
*END

*D_NET *19 0.00261116

*CONN
*I *349:Z O *C 35.9 50.4 *L 0 *D CKBD0
*I *503:A1 I *C 35.7 51.6 *L 0.000647 *D NR2D0
*I *455:C I *C 37.3 40.8 *L 0.000698 *D OAI211D0

*CAP
1 *503:A1 0.000203143
2 *19:3 0.00097012
3 *19:4 0.000737564
4 *19:5 8.09284e-05
5 *19:6 0.000546323
6 *19:7 7.3068e-05

*RES
1 *19:3 *19:7 1.23405
2 *19:6 *19:7 2.38675
3 *19:4 *19:5 2.76706
4 *503:A1 *19:5 1.15023
5 *19:3 *19:4 2.83710003
6 *455:C *19:6 0.224982
7 *349:Z *19:5 0.450007
*END

*D_NET *20 0.00360826

*CONN
*I *350:Z O *C 57.5 46.8 *L 0 *D DEL0
*I *427:D I *C 38.3 46.2 *L 0.000644 *D EDFKCNQD1

*CAP
1 *20:2 9.26137e-05
2 *20:3 0.00313666
3 *20:4 0.000378974

*RES
1 *20:2 *20:4 2.27001
2 *20:3 *20:4 12.7873001
3 *427:D *20:3 0.224972
4 *350:Z *20:2 0.224972
*END

*D_NET *21 0.00344091

*CONN
*I *351:Z O *C 53.7 43.2 *L 0 *D DEL0
*I *426:D I *C 38.1 49.8 *L 0.000644 *D EDFKCNQD1

*CAP
1 *21:2 0.00190595
2 *21:3 0.000553099
3 *21:4 4.5951e-05
4 *21:5 0.000459074
5 *21:6 0.000418038
6 *21:7 5.87766e-05

*RES
1 *21:3 *21:4 2.51924
2 *21:6 *21:7 2.14419
3 *21:5 *21:6 0.0929265
4 *21:4 *21:5 2.55583
5 *426:D *21:2 4.13443995
6 *21:2 *21:7 3.9889
7 *351:Z *21:3 0.22503
*END

*D_NET *22 0.00334998

*CONN
*I *352:Z O *C 60.1 50.4 *L 0 *D DEL0
*I *598:D I *C 43.9 49.8 *L 0.000646 *D EDFKCND1

*CAP
1 *598:D 0.000116183
2 *22:2 0.000259507
3 *22:3 0.00297425

*RES
1 *22:2 *22:3 12.9155998
2 *598:D *22:3 0.449925
3 *352:Z *22:2 0.225061
*END

*D_NET *23 0.00102886

*CONN
*I *353:Z O *C 54.5 44 *L 0 *D DEL0
*I *413:D I *C 50.3 46.2 *L 0.000644 *D EDFKCNQD1

*CAP
1 *413:D 0.000324219
2 *23:2 0.00070464

*RES
1 *413:D *23:2 4.19591999
2 *353:Z *23:2 0.224983
*END

*D_NET *24 0.00154558

*CONN
*I *354:Z O *C 56.9 47.6 *L 0 *D DEL0
*I *593:D I *C 50.1 49.8 *L 0.000646 *D EDFKCND1

*CAP
1 *593:D 0.000271576
2 *24:2 0.000107331
3 *24:3 0.00116668

*RES
1 *24:2 *24:3 4.4050498
2 *354:Z *24:2 0.351135
3 *593:D *24:3 2.50762
*END

*D_NET *25 0.000531681

*CONN
*I *355:Z O *C 49.7 29.6 *L 0 *D DEL0
*I *609:DB I *C 51.3 30 *L 0.00109 *D DFXD1

*CAP
1 *609:DB 0.000100767
2 *355:Z 0.000430916016

*RES
1 *355:Z *609:DB 2.32177
*END

*D_NET *26 0.00106019

*CONN
*I *359:Z O *C 65.1 28.8 *L 0 *D DEL0
*I *592:I I *C 62.7 30 *L 0.0113 *D INVD12

*CAP
1 *592:I 0.000234503
2 *359:Z 0.00046291
3 *26:2 0.000316645
4 *26:3 4.6125e-05

*RES
1 *26:2 *26:3 2.18861008
2 *592:I *26:2 1.20695
3 *359:Z *26:3 1.86504
*END

*D_NET *27 0.00567882

*CONN
*I *360:Z O *C 51.1 43.2 *L 0 *D DEL0
*I *573:A1 I *C 41.9 61 *L 0.000617 *D CKND2D0
*I *569:A2 I *C 40.7 60.8 *L 0.000664 *D NR2D0
*I *460:A I *C 43.5 48 *L 0.00103 *D FA1D0

*CAP
1 *360:Z 0.00107425
2 *27:4 0.00087978
3 *27:5 0.00110931
4 *27:6 0.000287149
5 *27:7 0.000448074
6 *27:8 5.44372e-05
7 *27:9 0.00045647
8 *27:10 0.000381382
9 *27:4 *380:Z 0.000465725
10 *27:5 *3:6 0.000522215

*RES
1 *27:7 *27:8 2.28898
2 *27:8 *27:10 1.41065
3 *27:4 *27:7 5.56966
4 *27:6 *27:5 6.23848009
5 *27:4 *27:9 2.29031
6 *360:Z *27:6 4.10314
7 *569:A2 *27:10 0.225033
8 *460:A *27:9 0.225033
9 *573:A1 *27:8 0.449971
10 *27:9 *27:5 0.225033
*END

*D_NET *28 0.00660256

*CONN
*I *361:Z O *C 46.5 39.6 *L 0 *D DEL0
*I *484:A I *C 35.3 44.4 *L 0.00103 *D FA1D0
*I *565:A1 I *C 36.3 60.8 *L 0.000647 *D NR2D0
*I *564:A1 I *C 36.1 57.4 *L 0.000617 *D CKND2D0

*CAP
1 *565:A1 2.5486e-06
2 *361:Z 0.000291098
3 *28:4 0.000805677
4 *28:5 0.000199707
5 *28:6 0.00135868
6 *28:7 0.00260973
7 *28:8 0.000700906
8 *28:9 0.000267842
9 *28:10 7.20379e-05
10 *28:4 *595:SA 0.000294345

*RES
1 *28:6 *28:9 1.29288
2 *565:A1 *28:8 2.89594
3 *28:4 *28:8 4.03992
4 *28:4 *28:5 0.159336
5 *28:7 *28:10 7.94692993
6 *28:7 *28:9 3.54796
7 *28:5 *28:6 5.20426
8 *361:Z *28:10 1.0791
9 *484:A *28:9 0.22506
10 *564:A1 *28:8 0.22506
*END

*D_NET *29 0.00601036

*CONN
*I *362:Z O *C 57.7 51.2 *L 0 *D DEL0
*I *541:S I *C 39.3 58.8 *L 0.00146 *D MUX2ND0
*I *565:A2 I *C 36.7 60.8 *L 0.000664 *D NR2D0
*I *564:A2 I *C 36.5 57.2 *L 0.000606 *D CKND2D0
*I *567:A1 I *C 39.3 57.4 *L 0.000617 *D CKND2D0
*I *431:B2 I *C 39.3 53.8 *L 0.000698 *D AO22D0

*CAP
1 *564:A2 6.27205e-05
2 *565:A2 4.53326e-05
3 *541:S 3.3689e-05
4 *362:Z 0.000349309
5 *29:6 0.000294174
6 *29:7 3.68383e-05
7 *29:8 0.000296436
8 *29:9 0.000873185
9 *29:10 0.000820378
10 *29:11 0.000585576
11 *29:12 3.77032e-05
12 *29:13 0.00145346
13 *29:14 0.000153652
14 *29:15 0.000724412
15 *29:16 6.20995e-07
16 *564:A2 *47:14 0.000242877012

*RES
1 *565:A2 *29:10 3.10691
2 *29:6 *29:7 1.36424
3 *362:Z *29:6 2.84046
4 *564:A2 *29:10 0.691497
5 *29:8 *29:12 0.142766
6 *29:11 *29:12 2.5145
7 *29:9 *29:11 0.432091
8 *29:15 *29:16 0.0929006
9 *541:S *29:8 1.35795
10 *29:14 *29:15 3.31277
11 *29:13 *29:14 0.093009
12 *29:8 *29:10 1.96349
13 *29:9 *29:16 4.90823
14 *29:7 *29:13 7.10423994
15 *567:A1 *29:12 0.225043
16 *431:B2 *29:11 0.449977
*END

*D_NET *30 0.00694468

*CONN
*I *363:Z O *C 41.5 69.2 *L 0 *D DEL0
*I *586:I I *C 27.7 64.4 *L 0.0113 *D INVD12
*I *533:A1 I *C 29.9 42.8 *L 0.000688 *D AO21D0
*I *559:A1 I *C 28.5 42.8 *L 0.000647 *D NR2D0

*CAP
1 *559:A1 0.000169206
2 *533:A1 0.000151069
3 *363:Z 0.000287816
4 *30:4 0.000398941
5 *30:5 0.000470074
6 *30:6 0.000548019
7 *30:7 0.00157223
8 *30:8 0.000865728
9 *30:9 0.000257972
10 *30:10 2.67256e-05
11 *30:11 0.000587388
12 *30:12 0.000301995
13 *30:13 0.000672819
14 *30:4 *335:I 0.000341955977
15 *30:5 *436:B1 0.000292753008

*RES
1 *30:12 *30:13 2.01796
2 *30:6 *30:4 2.97233
3 *30:7 *30:8 3.48007
4 *30:5 *30:7 6.66579008
5 *30:6 *30:5 2.0913
6 *363:Z *30:9 1.44502
7 *30:4 *30:13 5.41229
8 *30:9 *30:10 1.6396
9 *30:11 *30:12 0.0931681
10 *533:A1 *30:8 1.40607
11 *30:10 *30:11 2.94914
12 *559:A1 *30:8 0.872179
13 *586:I *30:4 0.224987
*END

*D_NET *31 0.00558948

*CONN
*I *335:I I *C 27.5 69.6 *L 0.00103 *D DEL015
*I *364:Z O *C 36.7 58.4 *L 0 *D CKBD0
*I *532:A1 I *C 32.7 39.2 *L 0.00069 *D AOI21D0
*I *557:A1 I *C 33.7 39.2 *L 0.000647 *D NR2D0

*CAP
1 *335:I 0.000383746
2 *532:A1 6.79974e-05
3 *364:Z 0.000129043
4 *31:4 7.48871e-05
5 *31:5 0.000379991
6 *31:6 5.53662e-05
7 *31:7 0.00203387
8 *31:8 0.00174652
9 *31:7 *62:17 0.000171235996
10 *335:I *30:4 0.000341955977
11 *532:A1 *94:4 0.000204835

*RES
1 *31:4 *31:5 1.80332
2 *557:A1 *31:7 1.4756
3 *532:A1 *31:7 0.675043
4 *335:I *31:5 2.77917
5 *31:7 *31:8 12.5966997
6 *364:Z *31:6 0.449965
7 *31:6 *31:8 2.97619
8 *31:4 *31:8 7.0422
*END

*D_NET *32 0.00565791

*CONN
*I *336:I I *C 27.5 68 *L 0.00103 *D DEL015
*I *365:Z O *C 32.3 57.6 *L 0 *D CKBD0
*I *550:A1 I *C 30.1 39.2 *L 0.000647 *D NR2D0
*I *534:A1 I *C 28.3 39.2 *L 0.00069 *D AOI21D0

*CAP
1 *336:I 3.28441e-05
2 *534:A1 0.000256522
3 *365:Z 0.000322393
4 *32:4 0.000227547
5 *32:5 3.48397e-05
6 *32:6 3.63631e-05
7 *32:7 0.000420149
8 *32:8 0.000234479
9 *32:9 0.000222002
10 *32:10 1.27964e-06
11 *32:11 2.55166e-05
12 *32:12 0.000812983
13 *32:13 3.61651e-05
14 *32:14 0.000192114
15 *32:15 0.000998347969
16 *32:16 0.000954734
17 *534:A1 *534:A2 0.000225107988
18 *365:Z *62:17 0.000427646016
19 *32:4 *110:4 0.000196871992

*RES
1 *32:10 *32:12 0.285384
2 *32:7 *32:8 2.40517
3 *32:8 *32:4 2.79963
4 *32:13 *32:15 3.65912
5 *32:10 *32:15 1.34344
6 *32:11 *32:12 4.63292
7 *32:4 *32:16 7.29442978
8 *32:9 *32:11 0.285384
9 *365:Z *32:7 1.85945
10 *336:I *32:5 0.333133
11 *534:A1 *32:14 2.00826
12 *32:5 *32:9 1.12106
13 *32:6 *32:13 0.271137
14 *550:A1 *32:14 1.40555
15 *365:Z *32:13 0.224946
16 *32:14 *32:16 0.224946
*END

*D_NET *33 0.00188481

*CONN
*I *366:Z O *C 42.3 65.6 *L 0 *D DEL0
*I *611:B1 I *C 38.3 60.8 *L 0.000658 *D IND2D0
*I *541:I0 I *C 39.1 58.8 *L 0.000706 *D MUX2ND0

*CAP
1 *541:I0 0.000263504
2 *611:B1 0.000171611
3 *33:3 0.000843447031
4 *33:4 0.00060625

*RES
1 *33:3 *33:4 3.07066
2 *366:Z *33:3 3.41511011
3 *541:I0 *33:4 1.51928
4 *611:B1 *33:4 0.872173
*END

*D_NET *34 0.00597488

*CONN
*I *367:Z O *C 57.5 50.4 *L 0 *D DEL0
*I *448:A I *C 49.1 48 *L 0.00103 *D FA1D0
*I *571:A1 I *C 46.7 58.6 *L 0.000617 *D CKND2D0

*CAP
1 *571:A1 0.000649355
2 *448:A 0.000204444
3 *367:Z 0.000155142
4 *34:3 0.00128446
5 *34:4 0.000142791
6 *34:5 0.00135131
7 *34:6 0.000192856
8 *34:7 0.000283706
9 *34:8 0.000673562
10 *34:9 0.000493078
11 *34:10 2.6455e-05
12 *34:11 0.00051776

*RES
1 *34:9 *34:10 0.219114
2 *34:5 *34:6 5.16727018
3 *34:4 *34:5 1.10621
4 *34:3 *34:11 2.42791
5 *34:3 *34:10 4.144
6 *571:A1 *34:6 2.52616
7 *448:A *34:4 0.70528
8 *34:8 *34:9 3.31352
9 *34:7 *34:8 3.39938
10 *367:Z *34:7 2.73746
11 *34:4 *34:11 0.225027
*END

*D_NET *35 0.00451309

*CONN
*I *368:Z O *C 55.1 51.2 *L 0 *D DEL0
*I *573:A2 I *C 41.5 60.8 *L 0.000606 *D CKND2D0
*I *569:A1 I *C 40.3 60.8 *L 0.000647 *D NR2D0
*I *539:B1 I *C 41.3 58.8 *L 0.000658 *D IND2D0
*I *519:B2 I *C 41.3 57.4 *L 0.000739 *D MOAI22D0
*I *519:A2 I *C 42.1 57.2 *L 0.000697 *D MOAI22D0
*I *432:B2 I *C 41.3 55 *L 0.000698 *D AO22D0

*CAP
1 *432:B2 0.000237328
2 *519:A2 7.78085e-06
3 *569:A1 0.00016387
4 *573:A2 8.20593e-05
5 *368:Z 8.42718e-05
6 *35:7 0.00162913
7 *35:8 0.000400825
8 *35:9 0.000216422
9 *35:10 0.000104059
10 *35:11 0.00019211
11 *35:12 0.000210779
12 *35:13 0.000258558
13 *35:14 0.000605539
14 *35:15 0.000320357

*RES
1 *573:A2 *35:10 0.939283
2 *35:13 *35:14 1.47926
3 *35:8 *35:9 0.954513
4 *519:A2 *35:8 0.99249
5 *35:11 *35:12 1.00888
6 *368:Z *35:13 1.7282
7 *35:14 *35:15 2.13181
8 *35:9 *35:12 0.915186
9 *35:7 *35:15 4.21131992
10 *35:7 *35:8 2.9028
11 *569:A1 *35:10 1.22575
12 *432:B2 *35:9 1.25043
13 *35:10 *35:11 0.902527
14 *519:B2 *35:12 0.224973
15 *539:B1 *35:11 0.224973
*END

*D_NET *36 0.00327815

*CONN
*I *369:Z O *C 54.7 54 *L 0 *D DEL0
*I *528:A1 I *C 45.3 46.4 *L 0.00069 *D AOI21D0
*I *562:A1 I *C 46.7 46.4 *L 0.000647 *D NR2D0
*I *558:A1 I *C 47.3 51.4 *L 0.000617 *D CKND2D0

*CAP
1 *562:A1 7.89918e-05
2 *528:A1 0.00047082
3 *36:4 0.000792622
4 *36:5 0.00084781
5 *36:6 8.56154e-05
6 *36:7 0.000400587
7 *36:8 0.000217519
8 *36:9 0.00038417

*RES
1 *562:A1 *36:6 0.351089
2 *36:5 *36:8 2.99055
3 *36:4 *36:9 3.05563998
4 *528:A1 *36:6 2.24273
5 *36:7 *36:9 2.57274
6 *36:5 *36:6 0.64716
7 *36:4 *36:8 1.26616
8 *558:A1 *36:8 0.225014
9 *369:Z *36:7 0.225014
*END

*D_NET *37 0.00384634

*CONN
*I *370:Z O *C 54.9 54.8 *L 0 *D DEL0
*I *531:A1 I *C 48.3 44.4 *L 0.00069 *D AOI21D0
*I *561:A1 I *C 51.5 44.4 *L 0.000647 *D NR2D0
*I *549:A1 I *C 51.9 55 *L 0.000617 *D CKND2D0

*CAP
1 *549:A1 0.000209392
2 *561:A1 0.000126665
3 *37:4 0.000833436016
4 *37:5 0.00010834
5 *37:6 0.000660149
6 *37:7 0.000671581
7 *37:8 0.000191855
8 *37:9 0.000456632
9 *37:11 0.000588282

*RES
1 *561:A1 *37:8 0.449997
2 *37:4 *37:8 2.69424
3 *37:6 *37:10 2.93823004
4 *549:A1 *37:7 0.675018
5 *37:7 *37:9 2.49585
6 *37:5 *37:7 2.5814
7 *37:6 *37:8 0.378487
8 *37:10 *37:11 0.159474
9 *37:9 *37:11 2.30307
10 *370:Z *37:5 0.225021
11 *531:A1 *37:4 0.449997
*END

*D_NET *38 0.00150088

*CONN
*I *371:Z O *C 42.9 44 *L 0 *D DEL0
*I *560:A1 I *C 40.1 42.8 *L 0.000647 *D NR2D0
*I *529:A1 I *C 41.3 42.8 *L 0.00069 *D AOI21D0

*CAP
1 *529:A1 9.93277e-05
2 *38:3 0.000770895
3 *38:4 0.000182363
4 *38:5 0.000448292

*RES
1 *38:3 *38:5 1.41062
2 *38:3 *38:4 2.66578007
3 *529:A1 *38:3 0.584848
4 *560:A1 *38:5 0.224982
5 *371:Z *38:4 0.224982
*END

*D_NET *39 0.0047087

*CONN
*I *372:Z O *C 38.5 68.4 *L 0 *D DEL0
*I *555:A1 I *C 37.7 37.2 *L 0.000647 *D NR2D0
*I *535:A1 I *C 36.3 37.2 *L 0.00069 *D AOI21D0
*I *591:I I *C 34.3 64.4 *L 0.0113 *D INVD12

*CAP
1 *591:I 0.000563833
2 *535:A1 0.000257399
3 *555:A1 0.000177195
4 *39:4 0.000198417
5 *39:5 0.000154357
6 *39:6 0.000641135
7 *39:7 0.00271637

*RES
1 *39:6 *39:7 19.0351009
2 *555:A1 *39:5 1.6155
3 *372:Z *39:6 1.585
4 *39:4 *39:6 1.48625
5 *535:A1 *39:5 1.31226
6 *591:I *39:4 2.56034
7 *39:5 *39:7 0.225101
*END

*D_NET *40 0.00317751

*CONN
*I *373:Z O *C 52.5 51.2 *L 0 *D DEL0
*I *530:A1 I *C 48.1 40.8 *L 0.00069 *D AOI21D0
*I *556:A1 I *C 49.5 40.8 *L 0.000647 *D NR2D0

*CAP
1 *556:A1 0.000155166
2 *530:A1 8.59718e-06
3 *40:3 0.000772588
4 *40:4 0.00118613992
5 *40:5 0.000505659
6 *40:6 0.000104705
7 *40:7 0.000444664

*RES
1 *40:6 *40:7 2.24344
2 *40:3 *40:4 3.43919992
3 *40:4 *40:5 2.48546
4 *530:A1 *40:5 1.36438
5 *40:3 *40:7 2.95451
6 *556:A1 *40:5 0.746028
7 *373:Z *40:6 0.225026
*END

*D_NET *41 0.00251994

*CONN
*I *374:Z O *C 45.7 51.2 *L 0 *D DEL015
*I *527:A1 I *C 41.9 46.4 *L 0.00069 *D AOI21D0
*I *551:A1 I *C 40.5 46.4 *L 0.000647 *D NR2D0

*CAP
1 *374:Z 0.000758949
2 *41:3 0.000362974
3 *41:4 0.00139803

*RES
1 *527:A1 *41:4 0.675003
2 *551:A1 *41:4 1.78868
3 *41:3 *41:4 3.74826002
4 *374:Z *41:3 3.63524
*END

*D_NET *42 0.00493925

*CONN
*I *375:Z O *C 44.3 40.4 *L 0 *D DEL0
*I *424:A2 I *C 39.9 39.2 *L 0.000712 *D IOA21D0
*I *442:A2 I *C 40.5 40.8 *L 0.00065 *D OAI211D0
*I *563:A1 I *C 39.7 40.6 *L 0.000617 *D CKND2D0
*I *611:A1 I *C 37.7 60.8 *L 0.000681 *D IND2D0
*I *568:A1 I *C 37.5 58.6 *L 0.000617 *D CKND2D0

*CAP
1 *611:A1 0.000122948
2 *442:A2 0.000214803
3 *424:A2 0.000389416
4 *375:Z 0.000247918
5 *42:6 0.000106361
6 *42:7 0.000271551
7 *42:8 0.000414
8 *42:9 0.000601425
9 *42:10 0.000388584
10 *42:11 0.000234155
11 *42:12 0.00194812

*RES
1 *424:A2 *42:7 1.44943
2 *42:9 *42:12 0.493869
3 *42:8 *42:10 1.86458
4 *42:7 *42:11 1.50578
5 *611:A1 *42:8 1.48994
6 *42:10 *42:12 10.7031002
7 *42:9 *42:11 0.362072
8 *42:6 *42:9 3.09093
9 *375:Z *42:6 0.746519
10 *442:A2 *42:11 0.828341
11 *568:A1 *42:8 0.22505
12 *563:A1 *42:7 0.449937
*END

*D_NET *43 0.00195942

*CONN
*I *376:Z O *C 31.5 62 *L 0 *D DEL0
*I *589:I I *C 29.1 51.4 *L 0.0104 *D CKND12

*CAP
1 *43:2 0.000608501
2 *43:3 5.63711e-05
3 *43:4 0.00112767992
4 *43:5 0.000166876

*RES
1 *43:4 *43:5 0.855633
2 *43:2 *43:3 0.412441
3 *376:Z *43:2 2.47835
4 *43:3 *43:4 4.41950989
5 *589:I *43:5 0.450003
*END

*D_NET *44 0.00143651

*CONN
*I *377:Z O *C 37.1 47.6 *L 0 *D DEL0
*I *590:I I *C 31.7 44.4 *L 0.0113 *D INVD12

*CAP
1 *590:I 0.00013749
2 *44:2 0.000673627031
3 *44:3 0.000625388

*RES
1 *44:2 *44:3 3.57317996
2 *377:Z *44:2 2.26944
3 *590:I *44:3 0.576138
*END

*D_NET *45 0.00164264

*CONN
*I *378:Z O *C 47.3 57.6 *L 0 *D DEL0
*I *507:B2 I *C 43.1 58.6 *L 0.000739 *D MOAI22D0
*I *433:B2 I *C 43.3 57.4 *L 0.000698 *D AO22D0
*I *507:A2 I *C 43.9 58.8 *L 0.000697 *D MOAI22D0
*I *512:B1 I *C 45.7 58.8 *L 0.000658 *D IND2D0
*I *571:A2 I *C 47.1 58.8 *L 0.000606 *D CKND2D0

*CAP
1 *512:B1 6.86171e-05
2 *433:B2 0.000328933
3 *378:Z 0.000419287
4 *45:6 1.57624e-06
5 *45:7 4.35245e-05
6 *45:8 0.000225334
7 *45:9 0.000555369023

*RES
1 *378:Z *45:6 1.37331
2 *512:B1 *45:9 0.449991
3 *433:B2 *45:8 1.58653998
4 *45:7 *45:9 1.37103
5 *45:7 *45:8 0.901144
6 *45:6 *45:9 1.10789
7 *507:B2 *45:8 0.224995
8 *571:A2 *45:6 0.224995
9 *507:A2 *45:7 0.449991
*END

*D_NET *46 0.00242934

*CONN
*I *379:Z O *C 56.3 57.6 *L 0 *D DEL0
*I *492:A2 I *C 47.9 58.8 *L 0.000697 *D MOAI22D0
*I *438:B2 I *C 47.5 57.4 *L 0.000698 *D AO22D0
*I *492:B2 I *C 48.7 58.6 *L 0.000739 *D MOAI22D0
*I *572:A2 I *C 51.3 58.8 *L 0.000606 *D CKND2D0
*I *500:B1 I *C 50.5 58.8 *L 0.000658 *D IND2D0

*CAP
1 *572:A2 0.000258892
2 *438:B2 0.000225431
3 *379:Z 0.000257404
4 *46:6 0.00028919
5 *46:7 8.08266e-05
6 *46:8 0.000236669
7 *46:9 0.000613216992
8 *46:10 0.000467714

*RES
1 *46:6 *46:10 0.729505
2 *379:Z *46:8 1.56887
3 *46:9 *46:10 1.1352
4 *46:8 *46:9 3.17729998
5 *492:A2 *46:6 0.996688
6 *438:B2 *46:6 1.29917
7 *572:A2 *46:7 1.36932
8 *46:7 *46:9 0.840528
9 *492:B2 *46:10 0.871023
10 *500:B1 *46:7 0.225004
*END

*D_NET *47 0.0079536

*CONN
*I *380:Z O *C 43.3 51.2 *L 0 *D DEL0
*I *595:SA I *C 35.5 55.2 *L 0.00154 *D DFXD1
*I *568:A2 I *C 37.9 58.8 *L 0.000606 *D CKND2D0
*I *541:I1 I *C 38.1 58.6 *L 0.001 *D MUX2ND0
*I *567:A2 I *C 38.9 57.2 *L 0.000606 *D CKND2D0
*I *496:A2 I *C 44.7 42.8 *L 0.000697 *D MAOI22D0
*I *491:A1 I *C 43.7 39.2 *L 0.000675 *D AOI221D0
*I *455:A2 I *C 38.3 40.8 *L 0.00065 *D OAI211D0
*I *490:B1 I *C 43.9 44.8 *L 0.000899 *D OAI221D0

*CAP
1 *455:A2 0.000390647
2 *491:A1 0.00026095
3 *496:A2 8.51111e-05
4 *541:I1 9.36078e-07
5 *568:A2 0.000115973
6 *595:SA 0.000691891
7 *380:Z 0.000323725
8 *47:9 0.000303275
9 *47:10 0.000527271
10 *47:11 0.000657775
11 *47:12 4.2858e-05
12 *47:13 0.00030064
13 *47:14 0.000199745
14 *47:15 0.000632126
15 *47:16 0.000180908
16 *47:17 0.000323797
17 *47:18 0.000465245
18 *47:19 0.000943782969
19 *47:10 *99:5 0.000274217012
20 *455:A2 *455:A1 0.000229757988
21 *380:Z *27:4 0.000465725
22 *595:SA *28:4 0.000294345
23 *47:14 *564:A2 0.000242877012

*RES
1 *47:17 *47:19 1.71023
2 *595:SA *47:19 3.04273
3 *568:A2 *541:I1 0.201127
4 *47:9 *47:15 2.10824
5 *47:11 *47:15 1.04446
6 *47:10 *47:16 3.03521
7 *568:A2 *47:14 1.50308
8 *47:9 *47:10 1.70633
9 *496:A2 *47:9 1.01474
10 *47:13 *47:14 1.20676
11 *455:A2 *47:16 2.03892
12 *47:14 *47:19 2.24275
13 *47:17 *47:18 2.16923
14 *47:12 *47:18 3.15714002
15 *380:Z *47:18 2.12949
16 *47:11 *47:12 2.76052
17 *567:A2 *47:13 0.385104
18 *491:A1 *47:10 1.5106
19 *490:B1 *47:15 0.449995
*END

*D_NET *48 0.00315813

*CONN
*I *381:Z O *C 55.9 32.4 *L 0 *D DEL0
*I *574:A2 I *C 49.3 33.6 *L 0.000606 *D CKND2D0
*I *423:A2 I *C 51.7 33.6 *L 0.000712 *D IOA21D0
*I *440:A2 I *C 51.1 33.6 *L 0.00065 *D OAI211D0
*I *514:A1 I *C 49.5 28.4 *L 0.000647 *D NR2D0
*I *487:B1 I *C 48.1 28.6 *L 0.00072 *D AOI221D0

*CAP
1 *487:B1 0.000402512
2 *514:A1 0.000197516
3 *423:A2 1.70908e-06
4 *574:A2 1.15656e-05
5 *381:Z 0.000200138
6 *48:6 9.76634e-05
7 *48:7 0.000469272
8 *48:8 0.000756514
9 *48:9 0.000254079
10 *48:10 0.000767155

*RES
1 *48:9 *48:10 0.419203
2 *487:B1 *48:8 1.58387
3 *48:7 *48:9 1.53809
4 *48:7 *48:8 3.04174
5 *48:6 *48:10 3.1092
6 *440:A2 *48:9 0.973143
7 *423:A2 *48:10 0.576143
8 *574:A2 *48:7 0.385092
9 *381:Z *48:6 0.85577
10 *514:A1 *48:8 0.875269
*END

*D_NET *49 0.00222588

*CONN
*I *382:Z O *C 30.7 28.8 *L 0 *D DEL0
*I *466:B2 I *C 30.5 35.8 *L 0.000739 *D MOAI22D0
*I *466:A2 I *C 29.7 35.6 *L 0.000697 *D MOAI22D0
*I *478:A3 I *C 27.9 30 *L 0.000717 *D XNR3D0

*CAP
1 *478:A3 0.000549803
2 *466:A2 0.000138832
3 *382:Z 0.00012712
4 *49:4 0.000669193047
5 *49:5 0.000480183
6 *49:6 0.000196403
7 *49:7 6.4341e-05

*RES
1 *49:4 *49:5 2.40886
2 *478:A3 *49:7 2.69604993
3 *49:5 *49:6 2.34061
4 *466:A2 *49:6 1.5039
5 *382:Z *49:4 0.603337
6 *466:B2 *49:6 0.224986
7 *49:4 *49:7 0.224986
*END

*D_NET *50 0.00164433

*CONN
*I *383:Z O *C 38.7 32.4 *L 0 *D DEL0
*I *472:I0 I *C 36.3 30 *L 0.000706 *D MUX2ND0
*I *482:A2 I *C 35.5 35.6 *L 0.000671 *D AOI21D0
*I *501:A2 I *C 36.1 35.6 *L 0.000664 *D NR2D0

*CAP
1 *501:A2 0.000783977969
2 *482:A2 3.19285e-05
3 *472:I0 0.000290204
4 *383:Z 0.000147489
5 *50:4 0.000390727

*RES
1 *383:Z *50:4 2.31464
2 *472:I0 *50:4 1.46228
3 *501:A2 *50:4 3.35899997
4 *482:A2 *501:A2 0.506854
*END

*D_NET *51 0.00320844

*CONN
*I *384:Z O *C 53.1 36.8 *L 0 *D DEL0
*I *576:I I *C 47.1 29.8 *L 0.00062 *D CKND0
*I *487:A1 I *C 47.3 28.4 *L 0.000675 *D AOI221D0
*I *574:A1 I *C 48.9 33.4 *L 0.000617 *D CKND2D0
*I *440:A1 I *C 50.7 33.6 *L 0.000711 *D OAI211D0
*I *428:S I *C 48.9 35.6 *L 0.00146 *D MUX2ND0

*CAP
1 *428:S 1.57186e-05
2 *487:A1 0.000252727
3 *384:Z 0.000553969
4 *51:6 0.000604827
5 *51:7 0.000701236016
6 *51:8 0.000297946
7 *51:9 0.00034324
8 *51:10 0.000438771

*RES
1 *440:A1 *51:10 1.15545
2 *428:S *51:6 1.19092
3 *51:7 *51:9 2.13822
4 *51:6 *51:10 1.66614
5 *384:Z *51:10 3.55409002
6 *487:A1 *51:9 1.27503
7 *51:7 *51:8 2.418
8 *51:6 *51:8 0.934022
9 *576:I *51:9 0.225005
10 *574:A1 *51:8 0.225005
*END

*D_NET *52 0.00283245

*CONN
*I *385:Z O *C 46.5 36.8 *L 0 *D DEL0
*I *470:A2 I *C 42.9 30 *L 0.00065 *D OAI211D0
*I *462:B1 I *C 41.7 29.8 *L 0.00072 *D AOI221D0
*I *513:A2 I *C 42.5 33.6 *L 0.000606 *D CKND2D0
*I *439:A1 I *C 42.1 35.6 *L 0.000711 *D OAI211D0
*I *422:A2 I *C 43.5 35.6 *L 0.000712 *D IOA21D0

*CAP
1 *439:A1 3.98046e-05
2 *513:A2 1.57503e-05
3 *462:B1 0.000130692
4 *470:A2 3.70909e-05
5 *52:6 0.000547343
6 *52:7 0.000541546
7 *52:8 0.00071137
8 *52:9 0.000114887
9 *52:10 0.000693959

*RES
1 *439:A1 *52:7 1.19168
2 *462:B1 *52:8 0.88871
3 *52:7 *52:10 1.36276
4 *52:6 *52:10 2.25601
5 *422:A2 *52:10 1.19168
6 *52:8 *52:9 2.34169006
7 *52:7 *52:9 0.504455
8 *385:Z *52:6 1.96915
9 *470:A2 *52:8 0.862305
10 *513:A2 *52:9 0.53597
*END

*D_NET *53 0.00289277

*CONN
*I *386:Z O *C 41.7 33.2 *L 0 *D DEL0
*I *483:A2 I *C 37.9 35.6 *L 0.000606 *D CKND2D0
*I *421:A2 I *C 40.3 35.6 *L 0.000712 *D IOA21D0
*I *441:A1 I *C 39.3 35.6 *L 0.000711 *D OAI211D0
*I *469:B1 I *C 40.3 30 *L 0.000686 *D MAOI22D0
*I *469:A1 I *C 39.3 30 *L 0.000713 *D MAOI22D0

*CAP
1 *469:B1 0.00035376
2 *421:A2 0.00021788
3 *483:A2 0.000412928
4 *386:Z 0.00012304
5 *53:6 0.000737463984
6 *53:7 6.62913e-05
7 *53:8 0.000451908
8 *53:9 0.000506283
9 *53:10 2.32036e-05

*RES
1 *53:6 *53:10 1.64079
2 *421:A2 *53:8 2.23200011
3 *53:6 *53:9 2.12128
4 *469:B1 *53:9 1.30672
5 *483:A2 *53:7 1.78785
6 *53:7 *53:8 0.235611
7 *53:6 *53:7 1.37048
8 *386:Z *53:10 0.450003
9 *469:A1 *53:9 0.450003
10 *441:A1 *53:8 0.450003
*END

*D_NET *54 0.000603974

*CONN
*I *387:Z O *C 45.9 33.2 *L 0 *D DEL0
*I *509:A2 I *C 47.5 33.6 *L 0.000671 *D AOI21D0
*I *538:A2 I *C 46.1 33.6 *L 0.000664 *D NR2D0

*CAP
1 *538:A2 0.00046959
2 *509:A2 0.000132497
3 *387:Z 1.88452e-06

*RES
1 *387:Z *538:A2 0.205094
2 *538:A2 *509:A2 2.04612994
*END

*D_NET *55 0.000770504

*CONN
*I *388:Z O *C 30.3 46.8 *L 0 *D DEL0
*I *575:A1 I *C 31.9 47.8 *L 0.000617 *D CKND2D0
*I *435:B2 I *C 31.5 46.6 *L 0.000739 *D MOAI22D0

*CAP
1 *575:A1 8.88946e-05
2 *55:3 0.000380566016
3 *55:4 0.000301044

*RES
1 *55:3 *55:4 1.29684997
2 *575:A1 *55:4 1.25351
3 *435:B2 *55:4 0.224994
4 *388:Z *55:3 0.224994
*END

*D_NET *56 0.00144601

*CONN
*I *389:Z O *C 34.3 54 *L 0 *D DEL0
*I *606:SA I *C 35.1 50 *L 0.00154 *D DFXD1
*I *575:A2 I *C 32.3 48 *L 0.000606 *D CKND2D0

*CAP
1 *575:A2 0.000482848
2 *606:SA 3.23106e-06
3 *389:Z 7.39629e-05
4 *56:3 0.000885972969

*RES
1 *606:SA *56:3 1.12624
2 *389:Z *56:3 2.69054008
3 *575:A2 *56:3 2.58922
*END

*D_NET *57 0.0151842

*CONN
*I *390:Z O *C 28.1 36 *L 0 *D BUFFD1
*I *446:B1 I *C 35.1 42.8 *L 0.000698 *D IND3D0
*I *451:A2 I *C 36.5 42.8 *L 0.000606 *D CKND2D0
*I *578:I I *C 37.1 50.2 *L 0.00062 *D CKND0
*I *413:CN I *C 51.1 46.6 *L 0.001 *D EDFKCNQD1
*I *593:CN I *C 50.9 50.2 *L 0.001 *D EDFKCND1
*I *598:CN I *C 44.7 50.2 *L 0.001 *D EDFKCND1
*I *426:CN I *C 38.9 50.2 *L 0.001 *D EDFKCNQD1
*I *427:CN I *C 37.5 46.6 *L 0.001 *D EDFKCNQD1
*I *444:B I *C 38.7 39.2 *L 0.000709 *D OAI31D0
*I *418:CN I *C 41.3 37.2 *L 0.000903 *D DFKCNQD1
*I *417:CN I *C 47.1 35.6 *L 0.000903 *D DFKCNQD1
*I *419:CN I *C 48.9 39.2 *L 0.000903 *D DFKCNQD1
*I *609:DA I *C 50.3 30 *L 0.000727 *D DFXD1
*I *416:CN I *C 52.5 32 *L 0.000903 *D DFKCNQD1
*I *596:CN I *C 47.7 32.2 *L 0.001 *D EDFKCND1
*I *415:CN I *C 41.9 32 *L 0.000903 *D DFKCNQD1
*I *602:CN I *C 35.1 33.4 *L 0.001 *D EDFKCND1
*I *425:CN I *C 31.7 33.4 *L 0.001 *D EDFKCNQD1

*CAP
1 *425:CN 0.000125059
2 *602:CN 0.000148617
3 *415:CN 0.000874545
4 *416:CN 0.000205752
5 *609:DA 0.000192364
6 *418:CN 0.000219206
7 *413:CN 0.000476613
8 *578:I 1.08908e-06
9 *451:A2 0.000192331
10 *446:B1 0.000405254
11 *57:19 0.000452938
12 *57:20 0.000378161
13 *57:21 0.000339071
14 *57:22 0.000238457
15 *57:23 0.000238156
16 *57:24 0.000465639
17 *57:25 0.000851188
18 *57:26 0.000541974
19 *57:27 0.000321797
20 *57:28 0.000642454
21 *57:29 0.000280194
22 *57:30 0.00109804
23 *57:31 0.000206472
24 *57:32 0.000451766
25 *57:33 0.000106076
26 *57:34 0.000236882
27 *57:35 0.000150695
28 *57:36 0.0002022
29 *57:37 0.000309817
30 *57:38 0.000186232
31 *57:39 0.000158385
32 *57:40 0.000192348
33 *57:41 0.00013843
34 *57:42 0.000750206
35 *57:43 9.56041e-05
36 *57:44 0.000321797
37 *57:45 0.000437725
38 *451:A2 *484:B 0.00025634
39 *57:41 *426:CP 0.000575625
40 *578:I *426:E 0.00109706
41 *57:38 *358:Z 0.000268140996
42 *602:CN *602:CP 0.000353545

*RES
1 *57:39 *57:44 2.39707
2 *57:22 *57:42 2.37669
3 *57:35 *57:41 1.28894
4 *446:B1 *57:43 1.76307
5 *426:CN *57:41 1.06109
6 *609:DA *57:38 0.9546
7 *57:23 *57:41 1.44635
8 *418:CN *57:36 1.62885
9 *578:I *57:23 0.613365
10 *57:34 *57:40 0.630628
11 *57:23 *57:26 2.53196
12 *57:24 *57:44 2.49529
13 *57:37 *57:39 1.02565
14 *57:42 *57:43 0.754333
15 *413:CN *57:27 2.84536
16 *57:34 *57:45 0.747029
17 *425:CN *57:44 1.05915
18 *57:20 *57:25 1.76496
19 *57:21 *57:31 2.89026
20 *57:32 *57:40 3.27399
21 *57:22 *57:30 1.98009
22 *602:CN *57:39 0.83636
23 *57:20 *57:28 0.756683
24 *390:Z *57:24 0.603354
25 *57:30 *57:36 2.20523
26 *419:CN *57:19 1.48609
27 *57:19 *57:28 2.89986
28 *57:29 *57:33 2.11376
29 *57:26 *57:42 2.13924
30 *57:34 *57:37 2.37986
31 *416:CN *57:38 2.4152
32 *415:CN *57:40 3.34728003
33 *57:20 *57:32 1.3275
34 *57:27 *57:31 2.17612
35 *57:36 *57:45 2.35912
36 *57:21 *57:29 0.378316
37 *57:33 *57:35 1.76578
38 *451:A2 *57:43 0.905619
39 *57:25 *57:38 2.7568
40 *444:B *57:30 0.224987
41 *598:CN *57:29 0.224987
42 *417:CN *57:28 0.224987
43 *593:CN *57:27 0.224987
44 *427:CN *57:26 0.449975
45 *596:CN *57:25 0.449975
*END

*D_NET *58 0.000744203

*CONN
*I *399:ZN O *C 32.9 72 *L 0 *D TIEL
*I *391:I I *C 31.7 69.6 *L 0.00382 *D BUFFD12

*CAP
1 *391:I 0.000523686992
2 *58:2 0.000220518

*RES
1 *399:ZN *58:2 1.08062
2 *391:I *58:2 2.0508399
*END

*D_NET *59 0.000175789

*CONN
*I *398:ZN O *C 33.5 72 *L 0 *D TIEL
*I *392:I I *C 34.1 71.6 *L 0.00382 *D BUFFD12

*CAP
1 *392:I 0.000175789004

*RES
1 *398:ZN *392:I 0.861537
*END

*D_NET *60 0.00028288

*CONN
*I *397:ZN O *C 30.3 69.2 *L 0 *D TIEL
*I *393:I I *C 30.3 68 *L 0.00382 *D BUFFD12

*CAP
1 *393:I 0.00028288

*RES
1 *397:ZN *393:I 1.20666
*END

*D_NET *61 0.0010181

*CONN
*I *395:I I *C 30.9 32.2 *L 0.000942 *D CKND1
*I *396:ZN O *C 29.5 32.2 *L 0 *D CKND1
*I *394:I I *C 32.1 32 *L 0.00178 *D CKND2

*CAP
1 *394:I 5.52024e-05
2 *395:I 0.000111872
3 *61:3 0.000851021016

*RES
1 *394:I *61:3 1.63564003
2 *396:ZN *61:3 1.57075
3 *395:I *61:3 0.449991
*END

*D_NET *62 0.0138342

*CONN
*I *608:CP I *C 31.5 55.2 *L 0.000693 *D DFD1
*I *394:ZN O *C 31.83 31.705 *L 0 *D CKND2
*I *606:CP I *C 33.5 50 *L 0.000672 *D DFXD1
*I *605:CP I *C 29.9 58.8 *L 0.000693 *D DFD1
*I *604:CP I *C 31.5 57.2 *L 0.000693 *D DFD1
*I *603:CP I *C 31.3 55.2 *L 0.000693 *D DFD1
*I *601:CP I *C 53.7 57.2 *L 0.000693 *D DFD1
*I *600:CP I *C 36.9 51.6 *L 0.000693 *D DFD1
*I *599:CP I *C 44.3 53.6 *L 0.000693 *D DFD1
*I *598:CP I *C 44.9 50 *L 0.000656 *D EDFKCND1
*I *597:CP I *C 43.7 55.2 *L 0.000693 *D DFD1
*I *595:CP I *C 37.1 55.2 *L 0.000672 *D DFXD1
*I *594:CP I *C 46.3 53.6 *L 0.000693 *D DFD1
*I *593:CP I *C 51.1 50 *L 0.000656 *D EDFKCND1
*I *427:CP I *C 37.3 46.4 *L 0.000655 *D EDFKCNQD1
*I *426:CP I *C 39.1 50 *L 0.000655 *D EDFKCNQD1
*I *413:CP I *C 51.3 46.4 *L 0.000655 *D EDFKCNQD1

*CAP
1 *426:CP 5.8252e-05
2 *593:CP 7.31951e-05
3 *594:CP 7.67716e-05
4 *595:CP 5.89036e-05
5 *597:CP 6.47679e-05
6 *598:CP 2.70047e-05
7 *599:CP 0.000243433
8 *601:CP 7.37309e-05
9 *603:CP 3.66627e-05
10 *606:CP 4.91298e-05
11 *394:ZN 0.00022125
12 *62:17 0.000438968
13 *62:18 0.000136964
14 *62:19 0.00094893
15 *62:20 0.000499826
16 *62:21 0.000158191
17 *62:22 0.000146216
18 *62:23 0.00026372
19 *62:24 0.000632128
20 *62:25 0.000184501
21 *62:26 0.000664374
22 *62:27 0.000305161
23 *62:28 0.000695679
24 *62:30 0.00012496
25 *62:31 0.000211578
26 *62:32 0.000488445
27 *62:33 0.000849179
28 *62:34 0.000594205
29 *62:35 0.00042763
30 *62:36 0.000774377
31 *62:37 0.000943761
32 *62:38 0.000617257
33 *62:39 0.000492152
34 *62:40 0.000424329
35 *62:41 0.000315948
36 *62:42 7.22539e-06
37 *62:44 9.82161e-05
38 *62:17 *365:Z 0.000427646016
39 *62:17 *31:7 0.000171235996
40 *426:CP *57:41 0.000575625
41 *606:CP *304:14 0.000232663008

*RES
1 *62:37 *62:38 3.36534
2 *62:17 *62:18 1.05698
3 *413:CP *62:26 0.674969
4 *62:23 *62:24 3.09606
5 *605:CP *62:40 0.674969
6 *62:25 *62:27 0.25227
7 *62:24 *62:31 1.45998
8 *593:CP *62:30 0.674969
9 *62:24 *62:35 1.7085
10 *62:35 *62:37 4.23097
11 *62:19 *62:33 4.53588
12 *62:23 *62:41 1.36113
13 *394:ZN *62:20 0.715123
14 *62:17 *62:21 0.702249
15 *62:34 *62:36 3.86988
16 *601:CP *62:29 0.449979
17 *426:CP *62:36 0.674969
18 *595:CP *62:37 0.674969
19 *62:25 *62:36 1.13514
20 *597:CP *62:35 0.449979
21 *62:27 *62:32 2.2302
22 *599:CP *62:31 1.71125
23 *603:CP *62:22 0.656271
24 *62:17 *62:40 2.97498
25 *606:CP *62:32 0.674969
26 *62:26 *62:43 2.49718
27 *427:CP *62:39 0.674969
28 *62:22 *62:38 0.47726
29 *62:30 *62:34 3.979
30 *62:33 *62:44 5.02210999
31 *62:29 *62:41 1.86505
32 *62:28 *62:32 1.14671
33 *594:CP *62:31 0.449979
34 *598:CP *62:34 0.674969
35 *62:39 *62:42 2.49734
36 *62:19 *62:20 2.55634
37 *600:CP *62:27 1.46603
38 *62:18 *62:28 3.53684
39 *608:CP *62:22 0.22499
40 *604:CP *62:21 0.449979
41 *62:18 *62:38 0.22499
42 *62:25 *62:42 0.22499
43 *62:28 *62:44 0.22499
44 *62:30 *62:43 0.22499
*END

*D_NET *63 0.010089

*CONN
*I *609:CP I *C 51.5 30 *L 0.000672 *D DFXD1
*I *395:ZN O *C 30.5 32.2 *L 0 *D CKND1
*I *607:CP I *C 27.5 44.4 *L 0.000693 *D DFD1
*I *602:CP I *C 35.3 33.6 *L 0.000656 *D EDFKCND1
*I *596:CP I *C 47.5 32 *L 0.000656 *D EDFKCND1
*I *425:CP I *C 31.5 33.6 *L 0.000655 *D EDFKCNQD1
*I *419:CP I *C 48.1 39.2 *L 0.000675 *D DFKCNQD1
*I *418:CP I *C 42.1 37.2 *L 0.000675 *D DFKCNQD1
*I *417:CP I *C 47.9 35.6 *L 0.000675 *D DFKCNQD1
*I *416:CP I *C 53.3 32 *L 0.000675 *D DFKCNQD1
*I *415:CP I *C 42.7 32 *L 0.000675 *D DFKCNQD1

*CAP
1 *415:CP 8.52584e-05
2 *416:CP 0.000173647
3 *419:CP 6.93097e-05
4 *596:CP 8.08166e-05
5 *602:CP 2.78729e-05
6 *395:ZN 0.000140825
7 *609:CP 0.000172127
8 *63:11 0.000990876
9 *63:12 0.000433059
10 *63:13 0.000914829
11 *63:14 0.00195364
12 *63:15 0.000511014
13 *63:16 0.000152929
14 *63:17 0.000212162
15 *63:18 0.000131107
16 *63:19 0.000582142
17 *63:20 0.000286749
18 *63:21 0.00091614
19 *63:22 0.000323147
20 *63:23 3.0228e-05
21 *63:24 5.22879e-05
22 *63:25 0.000736859
23 *63:26 3.50275e-05
24 *63:27 2.45342e-05
25 *416:CP *358:Z 0.000388933984
26 *602:CP *602:CN 0.000353545
27 *416:CP *2:11 0.000309913008

*RES
1 *395:ZN *63:25 0.450003
2 *63:18 *63:22 1.71232
3 *63:11 *63:23 4.27553
4 *602:CP *63:24 0.675005
5 *416:CP *63:18 1.71169
6 *63:12 *63:13 3.76113
7 *607:CP *63:14 8.21030045
8 *63:20 *63:26 3.22143
9 *63:13 *63:20 0.475435
10 *63:21 *63:24 1.33372
11 *63:14 *63:25 2.30777
12 *63:15 *63:24 2.74762
13 *63:19 *63:27 2.24488
14 *596:CP *63:26 0.835111
15 *609:CP *63:22 0.675005
16 *63:11 *63:12 1.32946
17 *63:19 *63:26 0.252312
18 *63:12 *63:17 0.828346
19 *419:CP *63:23 0.450003
20 *63:16 *63:27 0.450003
21 *63:20 *63:21 4.43113
22 *63:21 *63:25 3.4443
23 *415:CP *63:13 0.477189
24 *63:18 *63:19 2.27056
25 *418:CP *63:17 0.225002
26 *417:CP *63:16 0.225002
27 *425:CP *63:15 0.450003
*END

*D_NET *64 0.0149343

*CONN
*I *442:B I *C 41.1 40.8 *L 0.000726 *D OAI211D0
*I *602:E I *C 33.7 33.6 *L 0.00161 *D EDFKCND1
*I *427:E I *C 38.9 46.4 *L 0.00161 *D EDFKCNQD1
*I *426:E I *C 37.5 50 *L 0.00161 *D EDFKCNQD1
*I *445:I I *C 48.1 35.8 *L 0.00062 *D CKND0
*I *598:E I *C 43.3 50 *L 0.00161 *D EDFKCND1
*I *441:B I *C 39.1 35.6 *L 0.000726 *D OAI211D0
*I *593:E I *C 49.5 50 *L 0.00161 *D EDFKCND1
*I *428:I1 I *C 50.1 35.8 *L 0.001 *D MUX2ND0
*I *425:E I *C 33.1 33.6 *L 0.00161 *D EDFKCNQD1
*I *439:B I *C 41.9 35.6 *L 0.000726 *D OAI211D0
*I *413:E I *C 49.7 46.4 *L 0.00161 *D EDFKCNQD1
*I *596:E I *C 49.1 32 *L 0.00161 *D EDFKCND1
*I *440:B I *C 50.5 33.6 *L 0.000726 *D OAI211D0
*I *400:Z O *C 35.9 40.4 *L 0 *D CKBD1

*CAP
1 *400:Z 0.000162865
2 *440:B 0.000308698
3 *596:E 0.00101773
4 *413:E 0.000578104
5 *425:E 0.000106051
6 *441:B 0.000711479
7 *445:I 0.000102763
8 *426:E 0.000182674
9 *427:E 0.000654624
10 *64:15 0.00117892
11 *64:16 0.00104574
12 *64:17 0.00133835
13 *64:18 0.000373721
14 *64:19 0.00032722
15 *64:20 0.000599056
16 *64:21 0.000307901
17 *64:22 0.000545122
18 *64:23 0.000225111
19 *64:24 0.000161313
20 *64:25 0.000381216
21 *64:26 0.000220169
22 *64:27 0.000314702
23 *64:28 0.000232769
24 *64:29 0.000525395
25 *64:30 0.000190904
26 *64:31 0.000763943
27 *64:32 0.000698797
28 *64:33 0.000174689
29 *64:34 0.000242735
30 *64:35 9.89237e-05
31 *64:36 6.54931e-05
32 *426:E *578:I 0.00109706

*RES
1 *596:E *64:35 4.02481
2 *445:I *64:33 0.45001
3 *64:23 *64:35 0.729507
4 *64:26 *64:33 1.08407
5 *64:16 *64:31 2.73872
6 *413:E *64:36 2.56852
7 *425:E *64:24 0.636549
8 *426:E *64:19 1.12685
9 *598:E *64:30 0.6101
10 *64:18 *64:31 1.66593
11 *64:17 *64:22 3.58071
12 *440:B *64:23 2.29284
13 *64:28 *64:29 2.71624
14 *64:16 *64:21 0.16009
15 *64:22 *64:31 2.00898
16 *64:20 *64:29 2.46599
17 *64:16 *64:26 3.90299
18 *64:17 *64:34 2.99434
19 *427:E *64:19 2.76035
20 *64:15 *64:20 5.09799004
21 *64:19 *64:34 2.11618
22 *64:21 *64:28 1.71082
23 *64:27 *64:30 2.18167
24 *400:Z *64:15 1.14552
25 *64:20 *64:24 0.630559
26 *64:25 *64:32 1.38192
27 *64:33 *64:35 0.759767
28 *593:E *64:32 0.930281
29 *64:30 *64:34 1.51354
30 *64:25 *64:27 1.76581
31 *441:B *64:18 2.81682
32 *602:E *64:24 0.224966
33 *428:I1 *64:23 0.224966
34 *442:B *64:22 0.45001
35 *439:B *64:21 0.45001
36 *64:32 *64:36 0.224966
*END

*D_NET *65 0.000697883

*CONN
*I *402:ZN O *C 37.7 65.6 *L 0 *D INVD1
*I *401:I I *C 35.3 65.8 *L 0.0104 *D CKND12

*CAP
1 *401:I 0.00046116
2 *65:2 0.00023672

*RES
1 *401:I *65:2 2.26631999
2 *402:ZN *65:2 1.06403
*END

*D_NET *66 0.000295662

*CONN
*I *526:Z O *C 37.3 64.8 *L 0 *D AN2XD1
*I *402:I I *C 37.3 66 *L 0.00104 *D INVD1

*CAP
1 *402:I 0.000295661992

*RES
1 *526:Z *402:I 1.28461
*END

*D_NET *67 0.000339071

*CONN
*I *404:ZN O *C 35.5 68.4 *L 0 *D INVD1
*I *403:I I *C 35.7 69.4 *L 0.0104 *D CKND12

*CAP
1 *404:ZN 0.000339071016

*RES
1 *404:ZN *403:I 1.21178
*END

*D_NET *68 0.000458225

*CONN
*I *489:Z O *C 35.5 65.6 *L 0 *D OR2XD1
*I *404:I I *C 35.9 68 *L 0.00104 *D INVD1

*CAP
1 *489:Z 0.000458225

*RES
1 *489:Z *404:I 1.9032
*END

*D_NET *69 0.000717908

*CONN
*I *406:ZN O *C 39.1 68.4 *L 0 *D INVD1
*I *405:I I *C 39.3 71.8 *L 0.0104 *D CKND12

*CAP
1 *405:I 0.000626334023
2 *406:ZN 9.15775e-05

*RES
1 *406:ZN *405:I 2.94731
*END

*D_NET *70 0.00025877

*CONN
*I *481:Z O *C 39.5 65.6 *L 0 *D OR2XD1
*I *406:I I *C 39.5 68 *L 0.00104 *D INVD1

*CAP
1 *406:I 0.00025876998

*RES
1 *481:Z *406:I 1.20666
*END

*D_NET *71 0.000398071

*CONN
*I *408:ZN O *C 43.1 65.6 *L 0 *D INVD1
*I *407:I I *C 41.5 68.2 *L 0.0104 *D CKND12

*CAP
1 *407:I 6.75259e-05
2 *408:ZN 0.000330543008

*RES
1 *408:ZN *407:I 1.83721
*END

*D_NET *72 0.00039775

*CONN
*I *347:I I *C 43.5 66 *L 0.00103 *D DEL01
*I *467:Z O *C 42.9 64.8 *L 0 *D OR2XD1

*CAP
1 *467:Z 0.00039775

*RES
1 *467:Z *347:I 1.58499
*END

*D_NET *73 0.000788932

*CONN
*I *410:ZN O *C 46.1 62 *L 0 *D INVD1
*I *409:I I *C 46.3 68.2 *L 0.0104 *D CKND12

*CAP
1 *410:ZN 0.000788932031

*RES
1 *410:ZN *409:I 3.73016
*END

*D_NET *74 0.000462909

*CONN
*I *346:I I *C 46.9 62.4 *L 0.00103 *D DEL01
*I *459:Z O *C 45.7 61.2 *L 0 *D OR2XD1

*CAP
1 *459:Z 0.000462909023

*RES
1 *459:Z *346:I 1.99852
*END

*D_NET *75 1.2224e-05

*CONN
*I *412:ZN O *C 48.3 64.8 *L 0 *D INVD1
*I *411:I I *C 48.1 64.6 *L 0.0104 *D CKND12

*CAP
1 *411:I 1.22240002e-05

*RES
1 *412:ZN *411:I 0.132168
*END

*D_NET *76 0.000520543

*CONN
*I *348:I I *C 50.7 64.4 *L 0.00103 *D DEL01
*I *453:Z O *C 49.3 64.8 *L 0 *D OR2XD1

*CAP
1 *76:2 0.000520542969

*RES
1 *453:Z *76:2 0.450008
2 *348:I *76:2 1.57088006
*END

*D_NET *77 0.00278151

*CONN
*I *396:I I *C 29.9 32.2 *L 0.000942 *D CKND1
*P *77 I *C 0 26 *L 0.5

*CAP
1 *77 6.64302e-05
2 *77:2 0.000868805
3 *77:3 0.00184627

*RES
1 *77:2 *77:3 18.8920002
2 *396:I *77:2 4.04096
3 *77 *77:3 0.225138
*END

*D_NET *78 0.00450289

*CONN
*I *334:I I *C 31.1 28.4 *L 0.00103 *D DEL01
*P *78 I *C 0 36 *L 0.5

*CAP
1 *334:I 0.000164495
2 *78 0.00295915
3 *78:2 0.000551237
4 *78:3 0.000780979
5 *78:4 4.70502e-05

*RES
1 *78:2 *78:3 1.11526
2 *78 *78:4 19.9862003
3 *334:I *78:2 2.75018
4 *78:3 *78:4 2.36501
*END

*D_NET *79 0.002799

*CONN
*P *79 I *C 0 46 *L 0.5
*I *548:A3 I *C 28.1 47.8 *L 0.000708 *D ND4D0

*CAP
1 *79 8.03674e-05
2 *79:2 0.000350451
3 *79:3 0.0023682

*RES
1 *548:A3 *79:2 1.95564
2 *79 *79:3 0.58722
3 *79:2 *79:3 17.2961998
*END

*D_NET *80 0.00351623

*CONN
*P *80 I *C 0 56 *L 0.5
*I *548:A4 I *C 27.7 48 *L 0.00068 *D ND4D0

*CAP
1 *548:A4 4.64873e-06
2 *80 0.000698479
3 *80:2 0.000921785
4 *80:3 6.70308e-05
5 *80:4 0.00182428

*RES
1 *80:2 *80:3 5.15361
2 *80:4 *80:5 0.092914
3 *80:3 *80:4 11.0511999
4 *548:A4 *80:2 0.314997
5 *80 *80:5 6.80009
*END

*D_NET *81 0.00412836

*CONN
*P *81 I *C 27.4 0 *L 0.5
*I *358:I I *C 50.3 28.4 *L 0.00382 *D BUFFD12

*CAP
1 *358:I 6.3176e-05
2 *81 0.000822602
3 *81:2 0.000389576
4 *81:3 0.00187341
5 *81:4 0.000979599

*RES
1 *81:2 *81:3 14.7987003
2 *81:3 *81:4 8.82579
3 *358:I *81:2 2.87434
4 *81 *81:4 6.37914
*END

*D_NET *82 0.00558332

*CONN
*P *82 I *C 26.7 0 *L 0.5
*I *356:I I *C 55.7 30 *L 0.00382 *D BUFFD12

*CAP
1 *356:I 0.000205777
2 *82 8.90268e-05
3 *82:2 0.000151133
4 *82:3 0.000277211
5 *82:4 0.00131464
6 *82:5 0.000657009
7 *82:7 0.000534061
8 *82:8 3.73921e-05
9 *82:9 0.000259718
10 *82:10 0.000294723
11 *82 *83:2 0.000694468984
12 *82:4 *100:4 0.00106816008

*RES
1 *82:8 *82:9 2.41295
2 *82:7 *82:8 0.218928
3 *82:6 *82:7 3.56477
4 *82:2 *82:3 2.39705
5 *356:I *82:2 1.86438
6 *82:5 *82:6 0.218928
7 *82:4 *82:5 8.59342
8 *82:4 *82:10 18.2772999
9 *82:3 *82:10 1.35401
10 *82 *82:9 0.225064
*END

*D_NET *83 0.00546001

*CONN
*P *83 I *C 26 0 *L 0.5
*I *357:I I *C 54.7 28.4 *L 0.00382 *D BUFFD12

*CAP
1 *83 3.63057e-05
2 *83:2 0.00144814
3 *83:3 0.00117873
4 *83:4 0.000135345
5 *83:5 0.000635272
6 *83:2 *93 0.00019392
7 *83:2 *82 0.000694468984
8 *83:2 *86 0.000281087012
9 *83:3 *100:4 0.00085673

*RES
1 *83:3 *83:5 17.7723007
2 *83:3 *83:2 14.4709
3 *83:4 *83:5 4.38802
4 *357:I *83:4 0.702366
5 *83 *83:2 0.447453
*END

*D_NET *84 0.00434453

*CONN
*P *84 I *C 32.3 0 *L 0.5
*I *478:A2 I *C 30.7 30 *L 0.00134 *D XNR3D0

*CAP
1 *478:A2 0.000365582
2 *84 0.00300834
3 *84:2 0.000569994
4 *84:3 0.000212308
5 *84:4 0.0001883

*RES
1 *84 *84:2 15.5296001
2 *84:3 *84:4 2.74403
3 *84:2 *84:3 0.28554
4 *478:A2 *84:4 3.72269
*END

*D_NET *85 0.00339743

*CONN
*P *85 I *C 31.6 0 *L 0.5
*I *498:A2 I *C 31.9 30 *L 0.000664 *D NR2D0
*I *480:A2 I *C 32.7 30 *L 0.000671 *D AOI21D0

*CAP
1 *85 0.000188702
2 *85:3 0.000368978
3 *85:4 0.000726854
4 *85:5 0.000119596
5 *85:6 0.00199332

*RES
1 *498:A2 *85:3 0.460537
2 *85:5 *85:6 13.9794998
3 *85:3 *85:4 3.89888
4 *480:A2 *85:3 1.00064
5 *85 *85:6 0.733787
6 *85:4 *85:5 0.754692
*END

*D_NET *86 0.00516223

*CONN
*P *86 I *C 30.9 0 *L 0.5
*I *518:A1 I *C 33.5 28.4 *L 0.000682 *D IND3D0
*I *485:A2 I *C 33.9 30 *L 0.000671 *D AOI21D0

*CAP
1 *518:A1 0.000192119
2 *86 8.76406e-05
3 *86:3 0.000297141
4 *86:4 0.000421177
5 *86:5 0.000583051
6 *86:7 0.000310361
7 *86:8 0.00137077
8 *86:9 0.000144973
9 *86:10 0.000662596
10 *86 *83:2 0.000281087012
11 *518:A1 *96:4 0.000811303047

*RES
1 *86:8 *86:9 0.912349
2 *86:6 *86:7 0.159375
3 *86:3 *86:7 2.73964
4 *485:A2 *86:5 2.45497
5 *86:6 *86:8 8.93480015
6 *86:9 *86:10 5.26891
7 *86:4 *86:10 2.90515
8 *86:3 *86:5 0.931163
9 *518:A1 *86:5 0.828367
10 *86 *86:4 0.224951
*END

*D_NET *87 0.00271927

*CONN
*P *87 I *C 30.2 0 *L 0.5
*I *579:I I *C 30.9 29.8 *L 0.00062 *D CKND0

*CAP
1 *87 0.000872657
2 *87:2 0.000330612
3 *87:3 0.001516

*RES
1 *87:2 *87:3 12.3606005
2 *579:I *87:2 0.831572
3 *87 *87:3 6.37909
*END

*D_NET *88 0.00348899

*CONN
*P *88 I *C 29.5 0 *L 0.5
*I *552:A2 I *C 36.5 28.4 *L 0.000897 *D NR3D0
*I *517:A2 I *C 37.5 28.4 *L 0.000671 *D AOI21D0

*CAP
1 *517:A2 9.49922e-07
2 *88 0.00163824
3 *88:3 0.000379444
4 *88:4 0.000865104
5 *88:5 0.00060525

*RES
1 *552:A2 *88:3 0.494046
2 *88:4 *88:5 4.63941
3 *88:3 *88:4 6.06996
4 *517:A2 *88:3 1.12567
5 *88 *88:5 11.3845997
*END

*D_NET *89 0.00489277

*CONN
*P *89 I *C 28.8 0 *L 0.5
*I *566:A1 I *C 39.7 28.4 *L 0.000647 *D NR2D0
*I *552:A3 I *C 36.1 28.4 *L 0.000899 *D NR3D0
*I *542:A1 I *C 40.5 28.4 *L 0.00069 *D AOI21D0

*CAP
1 *566:A1 9.09799e-05
2 *552:A3 9.12673e-05
3 *542:A1 5.99107e-05
4 *89 0.000968104
5 *89:4 0.000986166
6 *89:5 0.000461631
7 *89:6 0.000664814
8 *89:7 0.00156987

*RES
1 *89:5 *89:6 2.68149
2 *89:4 *89:6 4.79296
3 *566:A1 *89:5 0.674926
4 *552:A3 *89:6 0.674926
5 *89:4 *89:7 11.4769001
6 *542:A1 *89:5 1.31535
7 *89 *89:7 6.37905
*END

*D_NET *90 0.00557837

*CONN
*P *90 I *C 28.1 0 *L 0.5
*I *577:I I *C 42.1 28.6 *L 0.00062 *D CKND0
*I *566:A2 I *C 39.3 28.4 *L 0.000664 *D NR2D0
*I *552:A1 I *C 36.7 28.4 *L 0.000798 *D NR3D0
*I *542:A2 I *C 40.1 28.4 *L 0.000671 *D AOI21D0
*I *487:A2 I *C 47.9 28.2 *L 0.000727 *D AOI221D0

*CAP
1 *552:A1 0.000210408
2 *542:A2 0.000290649
3 *487:A2 0.000205112
4 *90 0.00251488
5 *90:6 0.000125216
6 *90:7 0.000143137
7 *90:8 0.000306268
8 *90:9 0.000981584
9 *90:10 0.00031187
10 *90:11 0.000489238

*RES
1 *90:8 *90:9 5.56627
2 *542:A2 *90:6 1.55739
3 *577:I *90:11 0.954507
4 *90:8 *90:10 1.53024
5 *487:A2 *90:7 2.2979
6 *566:A2 *90:6 0.743163
7 *90:10 *90:11 1.76581
8 *90:7 *90:11 2.53905
9 *552:A1 *90:8 1.44054
10 *90 *90:9 17.4440994
11 *90:6 *90:10 0.224919
*END

*D_NET *91 0.00467848

*CONN
*P *91 I *C 37.2 0 *L 0.5
*I *474:A2 I *C 34.3 37.2 *L 0.000709 *D AOI211D0
*I *452:A1 I *C 35.3 39.2 *L 0.000711 *D OAI211D0

*CAP
1 *474:A2 0.000296445
2 *91 0.000971327
3 *91:3 7.11134e-05
4 *91:4 0.000737459
5 *91:5 0.00260213

*RES
1 *91 *91:5 6.37918
2 *452:A1 *91:4 2.57759
3 *474:A2 *91:4 1.65978
4 *91:3 *91:5 16.6527004
5 *91:3 *91:4 1.26135
*END

*D_NET *92 0.00379595

*CONN
*P *92 I *C 36.5 0 *L 0.5
*I *555:A2 I *C 37.3 37.2 *L 0.000664 *D NR2D0
*I *535:A2 I *C 36.7 37.2 *L 0.000671 *D AOI21D0

*CAP
1 *555:A2 2.90854e-05
2 *535:A2 1.86388e-05
3 *92 0.00360323
4 *92:3 0.000144987

*RES
1 *535:A2 *92:3 0.45016
2 *535:A2 *555:A2 0.506116
3 *92 *92:3 23.5072994
*END

*D_NET *93 0.00505375

*CONN
*P *93 I *C 35.8 0 *L 0.5
*I *557:A2 I *C 34.1 39.2 *L 0.000664 *D NR2D0
*I *532:A2 I *C 33.1 39.2 *L 0.000671 *D AOI21D0

*CAP
1 *532:A2 0.000224905
2 *93 7.12814e-05
3 *93:3 0.000201582
4 *93:4 0.00148535
5 *93:6 0.000360305
6 *93:7 0.000112237
7 *93 *94:8 0.00150631
8 *93:3 *95:3 0.000897813047
9 *93 *83:2 0.00019392

*RES
1 *93:6 *93:7 3.88038
2 *93:5 *93:6 0.159359
3 *93:3 *93:7 2.02539
4 *93:4 *93:5 20.0841007
5 *532:A2 *93:3 1.11337
6 *93 *93:4 0.945426
7 *557:A2 *93:3 0.224941
*END

*D_NET *94 0.00563422

*CONN
*P *94 I *C 35.1 0 *L 0.5
*I *550:A2 I *C 29.7 39.2 *L 0.000664 *D NR2D0
*I *534:A2 I *C 27.9 39.2 *L 0.000671 *D AOI21D0

*CAP
1 *534:A2 0.000283924
2 *94 8.71244e-05
3 *94:3 4.52736e-05
4 *94:4 0.00066967
5 *94:5 0.000118879
6 *94:6 0.000339523
7 *94:7 0.000268535
8 *94:8 0.00188501
9 *94:8 *93 0.00150631
10 *534:A2 *534:A1 0.000225107988
11 *94:4 *532:A1 0.000204835

*RES
1 *94:6 *94:8 19.7921009
2 *94:5 *94:7 2.14604
3 *550:A2 *94:4 0.610047
4 *94:6 *94:7 1.7791
5 *94:3 *94:5 1.39465
6 *94:3 *94:4 3.71676
7 *534:A2 *94:4 1.82863
8 *94 *94:8 0.285695
*END

*D_NET *95 0.00543104

*CONN
*P *95 I *C 34.4 0 *L 0.5
*I *559:A2 I *C 28.9 42.8 *L 0.000664 *D NR2D0
*I *533:A2 I *C 29.5 42.8 *L 0.000668 *D AO21D0

*CAP
1 *559:A2 2.36289e-05
2 *533:A2 0.000704972
3 *95 6.86573e-05
4 *95:3 4.22154e-05
5 *95:4 0.000171924
6 *95:5 0.000736623
7 *95:6 0.00136554
8 *95:7 0.000285589
9 *95:3 *93:3 0.000897813047
10 *95 *96 0.00113408992

*RES
1 *95:6 *95:7 17.6403999
2 *95:5 *95:7 1.92915
3 *95:3 *95:5 7.15968
4 *533:A2 *95:4 3.13638
5 *95:3 *95:4 0.911683
6 *95 *95:6 0.222605
7 *559:A2 *533:A2 0.503619
*END

*D_NET *96 0.00608684

*CONN
*P *96 I *C 33.7 0 *L 0.5
*I *570:A1 I *C 32.1 42.8 *L 0.000681 *D IND2D0
*I *479:A2 I *C 29.7 41 *L 0.000706 *D OA221D0
*I *458:B2 I *C 32.9 40.6 *L 0.000881 *D AOI221D0

*CAP
1 *570:A1 9.78779e-05
2 *479:A2 0.000592028
3 *458:B2 0.000331781
4 *96 0.000180868
5 *96:4 0.000990491953
6 *96:5 0.000209661
7 *96:6 0.000147648
8 *96:7 0.000357535
9 *96:8 0.00053789
10 *96:9 0.000260625
11 *96:10 0.000224578
12 *96:12 0.000210462
13 *96:4 *518:A1 0.000811303047
14 *96 *95 0.00113408992

*RES
1 *96:4 *96:12 11.5809002
2 *96:9 *96:12 1.52696
3 *96:5 *96:6 0.776113
4 *458:B2 *96:5 2.35007
5 *96:5 *96:8 4.25042
6 *479:A2 *96:6 3.42447
7 *96 *96:7 0.610005
8 *96:11 *96:4 0.159393
9 *96:8 *96:10 1.67433
10 *96:9 *96:10 1.76958
11 *570:A1 *96:6 0.450082
12 *96:7 *96:11 6.0283
*END

*D_NET *97 0.00400292

*CONN
*P *97 I *C 33 0 *L 0.5
*I *585:A2 I *C 33.1 35.8 *L 0.000661 *D XNR2D0

*CAP
1 *585:A2 0.000119663
2 *97 0.000126487
3 *97:2 0.00281281
4 *97:3 6.28359e-05
5 *97:4 0.000246837
6 *97:5 0.00038311
7 *97:6 0.000251172

*RES
1 *97:5 *97:6 2.3987
2 *97:3 *97:6 1.25142
3 *97:2 *97:4 18.5970993
4 *97 *97:2 1.21113
5 *97:4 *97:5 1.09223
6 *585:A2 *97:3 0.450058
*END

*D_NET *98 0.00412485

*CONN
*P *98 I *C 42.1 0 *L 0.5
*I *515:A2 I *C 42.1 39.2 *L 0.000664 *D NR2D0
*I *491:B2 I *C 43.1 39.4 *L 0.000881 *D AOI221D0

*CAP
1 *491:B2 0.000157191
2 *98 0.00306684
3 *98:3 0.000900842

*RES
1 *491:B2 *98:3 2.41916
2 *98 *98:3 24.3873005
3 *515:A2 *98:3 0.609906
*END

*D_NET *99 0.00573396

*CONN
*P *99 I *C 41.4 0 *L 0.5
*I *556:A2 I *C 49.9 40.8 *L 0.000664 *D NR2D0
*I *553:B2 I *C 52.1 40.6 *L 0.000739 *D MOAI22D0
*I *553:A2 I *C 51.3 40.8 *L 0.000697 *D MOAI22D0
*I *530:A2 I *C 48.5 40.8 *L 0.000671 *D AOI21D0

*CAP
1 *556:A2 7.78116e-05
2 *530:A2 9.66868e-05
3 *99 0.000707919
4 *99:5 0.000941321
5 *99:6 0.00029185
6 *99:7 0.000109834
7 *99:8 0.00016096
8 *99:9 0.00213274
9 *99 *101:12 0.000940668984
10 *99:5 *47:10 0.000274217012

*RES
1 *553:B2 *99:6 0.954645
2 *99:7 *99:8 0.882774
3 *99:6 *99:7 0.883069
4 *553:A2 *99:6 0.835057
5 *99 *99:9 6.37913
6 *99:5 *99:9 19.3038006
7 *99:5 *99:8 4.99267
8 *556:A2 *99:7 0.450076
9 *530:A2 *99:8 0.450076
*END

*D_NET *100 0.00716234

*CONN
*P *100 I *C 40.7 0 *L 0.5
*I *561:A2 I *C 51.9 44.4 *L 0.000664 *D NR2D0
*I *531:A2 I *C 48.7 44.4 *L 0.000671 *D AOI21D0
*I *420:B I *C 52.7 48 *L 0.0018 *D FA1D0

*CAP
1 *561:A2 5.10902e-05
2 *531:A2 0.000225676
3 *420:B 0.000556954
4 *100 0.000284964
5 *100:4 0.0015573
6 *100:5 0.000787359
7 *100:6 0.000289479
8 *100:7 0.000396745
9 *100:8 0.00066536
10 *100:9 0.000116795
11 *100:4 *83:3 0.00085673
12 *100:4 *82:4 0.00106816008
13 *100:5 *111:8 0.000305727012

*RES
1 *100:8 *100:9 5.28846
2 *100:4 *100:8 22.5890999
3 *100:6 *100:5 2.64682
4 *561:A2 *100:6 0.610088
5 *100 *100:7 0.929953
6 *100:4 *100:7 5.17127
7 *420:B *100:6 2.93704
8 *531:A2 *100:5 0.610088
9 *100:5 *100:9 0.225078
*END

*D_NET *101 0.00664731

*CONN
*P *101 I *C 40 0 *L 0.5
*I *562:A2 I *C 47.1 46.4 *L 0.000664 *D NR2D0
*I *528:A2 I *C 45.7 46.4 *L 0.000671 *D AOI21D0
*I *448:B I *C 47.5 48 *L 0.0018 *D FA1D0

*CAP
1 *528:A2 0.000378237
2 *101 8.46626e-05
3 *101:4 0.000184125
4 *101:5 9.13654e-05
5 *101:6 0.000564387
6 *101:7 0.000875664
7 *101:8 0.000348907
8 *101:9 0.00049421
9 *101:10 0.000495919
10 *101:11 2.54168e-06
11 *101:12 0.00147406
12 *101:12 *99 0.000940668984
13 *101:8 *102:4 0.000712591016

*RES
1 *101:5 *101:6 0.522068
2 *528:A2 *101:5 1.36764
3 *101:11 *101:12 21.1590996
4 *101:10 *101:11 0.159494
5 *101:8 *101:9 2.28167
6 *101:7 *101:9 2.64263
7 *101:4 *101:5 0.427147
8 *448:B *101:6 1.86066
9 *101:8 *101:10 2.99648
10 *101:4 *101:7 4.43451
11 *101 *101:12 0.348691
12 *562:A2 *101:6 0.225035
*END

*D_NET *102 0.00526891

*CONN
*P *102 I *C 39.3 0 *L 0.5
*I *551:A2 I *C 40.1 46.4 *L 0.000664 *D NR2D0
*I *527:A2 I *C 41.5 46.4 *L 0.000671 *D AOI21D0
*I *460:B I *C 41.9 48 *L 0.0018 *D FA1D0

*CAP
1 *551:A2 0.000117376
2 *527:A2 0.000105039
3 *102 0.000652354
4 *102:4 0.00144374
5 *102:5 0.000405265
6 *102:6 0.000336069
7 *102:7 0.000382927
8 *102:8 3.46973e-05
9 *102:4 *101:8 0.000712591016
10 *102 *103 0.000808716016
11 *102:5 *1:3 0.00027015

*RES
1 *102:4 *102:8 0.159442
2 *102:5 *102:4 22.1851006
3 *102:7 *102:5 1.13133
4 *460:B *102:6 1.3605
5 *551:A2 *102:7 0.576157
6 *102 *102:8 6.34822
7 *102:6 *102:7 1.25725
8 *527:A2 *102:6 0.384895
*END

*D_NET *103 0.00573935

*CONN
*P *103 I *C 38.6 0 *L 0.5
*I *560:A2 I *C 39.7 42.8 *L 0.000664 *D NR2D0
*I *529:A2 I *C 40.9 42.8 *L 0.000671 *D AOI21D0
*I *484:B I *C 36.9 44.4 *L 0.0018 *D FA1D0

*CAP
1 *560:A2 0.000105489
2 *529:A2 0.000323187
3 *484:B 0.000384461
4 *103 0.000313093
5 *103:4 0.000190471
6 *103:5 0.00011722
7 *103:6 0.00160176
8 *103 *102 0.000808716016
9 *103 *104 0.00123887
10 *103:5 *1:3 0.000399726016
11 *484:B *451:A2 0.00025634

*RES
1 *560:A2 *103:4 0.493854
2 *103 *103:6 6.37895
3 *103:5 *103:6 21.0711002
4 *484:B *103:5 2.56155
5 *529:A2 *103:4 1.58059
6 *103:4 *103:5 1.23367
*END

*D_NET *104 0.00634629

*CONN
*P *104 I *C 37.9 0 *L 0.5
*I *563:A2 I *C 39.3 40.8 *L 0.000606 *D CKND2D0
*I *491:A2 I *C 43.1 39 *L 0.000727 *D AOI221D0
*I *455:A1 I *C 37.9 40.8 *L 0.000711 *D OAI211D0
*I *442:A1 I *C 40.9 40.8 *L 0.000711 *D OAI211D0

*CAP
1 *491:A2 0.000168649
2 *455:A1 6.92328e-05
3 *442:A1 0.000152369
4 *104 0.00264096
5 *104:5 5.2388e-05
6 *104:6 0.000450295
7 *104:7 0.000387913
8 *104:8 0.000955839
9 *455:A1 *455:A2 0.000229757988
10 *104 *103 0.00123887

*RES
1 *104:6 *104:8 1.21055
2 *104:6 *104:7 2.18744
3 *104:5 *104:7 2.14635
4 *491:A2 *104:5 1.99136
5 *455:A1 *104:8 0.675136
6 *442:A1 *104:7 0.995288
7 *104 *104:8 25.6497002
8 *563:A2 *104:6 0.225045
*END

*D_NET *105 0.00427494

*CONN
*P *105 O *C 31.6 100 *L 0.5
*I *591:ZN O *C 32.7 64.8 *L 0 *D INVD12
*I *580:A2 I *C 33.3 62.4 *L 0.000658 *D CKXOR2D0

*CAP
1 *580:A2 0.000208626
2 *105 0.000202717
3 *105:3 0.0035531
4 *105:4 0.000260512
5 *105:5 4.99337e-05

*RES
1 *105 *105:5 0.573699
2 *580:A2 *105:4 1.35996
3 *105:3 *105:5 22.9116001
4 *105:3 *105:4 1.15159
5 *591:ZN *105:4 0.225145
*END

*D_NET *106 0.0026144

*CONN
*P *106 O *C 30.9 100 *L 0.5
*I *588:ZN O *C 30.7 72 *L 0 *D INVD12

*CAP
1 *106 0.00235866
2 *106:2 0.000255751

*RES
1 *588:ZN *106:2 0.449936
2 *106 *106:2 17.6993008
*END

*D_NET *107 0.00355731

*CONN
*P *107 O *C 30.2 100 *L 0.5
*I *587:ZN O *C 29.3 65.6 *L 0 *D INVD12

*CAP
1 *587:ZN 0.000345346
2 *107 0.00134232
3 *107:2 0.0017669
4 *107:3 0.000102749

*RES
1 *107:2 *107:3 12.3610001
2 *587:ZN *107:2 1.09038
3 *107 *107:3 8.52535
*END

*D_NET *108 0.00335918

*CONN
*P *108 O *C 29.5 100 *L 0.5
*I *586:ZN O *C 29.3 64.8 *L 0 *D INVD12

*CAP
1 *108 0.00265877
2 *108:2 0.000700404

*RES
1 *586:ZN *108:2 0.449833
2 *108 *108:2 22.1156998
*END

*D_NET *109 0.00678

*CONN
*P *109 O *C 28.8 100 *L 0.5
*I *590:ZN O *C 33.3 44 *L 0 *D INVD12
*I *570:B1 I *C 32.7 42.8 *L 0.000658 *D IND2D0
*I *545:A2 I *C 30.9 48 *L 0.000651 *D OAI21D0

*CAP
1 *570:B1 0.000407834
2 *109 0.000842394
3 *109:4 0.000571827
4 *109:5 0.000375655
5 *109:6 0.00270712
6 *109:7 8.29465e-05
7 *109:8 0.00047434
8 *109 *110 0.00131787

*RES
1 *109:6 *109:8 24.1016006
2 *109:5 *109:7 1.61227
3 *109 *109:8 8.52544
4 *109:4 *109:7 2.4879
5 *109:4 *109:6 2.21466
6 *570:B1 *109:5 1.99069
7 *590:ZN *109:5 0.22507
8 *545:A2 *109:4 0.45014
*END

*D_NET *110 0.00687264

*CONN
*P *110 O *C 28.1 100 *L 0.5
*I *545:A1 I *C 30.5 48 *L 0.0007 *D OAI21D0
*I *589:ZN O *C 30.5 51.2 *L 0 *D CKND12
*I *585:A1 I *C 31.9 35.6 *L 0.00136 *D XNR2D0

*CAP
1 *585:A1 0.000140087
2 *110 0.000535027
3 *110:4 0.000580387
4 *110:5 0.000577305
5 *110:6 0.00115366
6 *110:7 0.00141218
7 *110:8 0.000107053
8 *110:9 6.32879e-05
9 *110:10 5.7319e-06
10 *110:4 *32:4 0.000196871992
11 *110 *112 0.000783183984
12 *110 *109 0.00131787

*RES
1 *110:5 *110:7 2.90701
2 *585:A1 *110:6 1.45808
3 *110:6 *110:8 7.02527
4 *110:4 *110:5 2.46174
5 *110 *110:9 8.49218
6 *110:9 *110:10 0.159539
7 *110:7 *110:10 21.4253006
8 *110:4 *110:8 1.76016
9 *589:ZN *110:5 0.224924
10 *545:A1 *110:4 0.449848
*END

*D_NET *111 0.00880479

*CONN
*I *333:Z O *C 55.1 33.2 *L 0 *D BUFFD12
*P *111 O *C 27.4 100 *L 0.5

*CAP
1 *111 3.82332e-05
2 *111:2 9.38016e-05
3 *111:3 0.000766515
4 *111:4 0.000610224
5 *111:5 2.96684e-05
6 *111:6 0.00162964
7 *111:7 0.00449034969
8 *111:8 0.00058638
9 *111:9 0.000254272
10 *111:8 *100:5 0.000305727012

*RES
1 *111:8 *111:9 5.77561
2 *111:5 *111:7 34.6780014
3 *111:2 *111:3 1.97741
4 *111:7 *111:9 0.159272
5 *111:5 *111:6 13.1857
6 *111:4 *111:8 1.50383
7 *111:3 *111:4 3.07592
8 *111 *111:6 0.447656
9 *333:Z *111:2 0.224886
*END

*D_NET *112 0.00827535

*CONN
*I *331:Z O *C 60.1 33.2 *L 0 *D BUFFD12
*P *112 O *C 26.7 100 *L 0.5

*CAP
1 *112 0.00311752
2 *112:2 0.000188378
3 *112:3 0.00209961
4 *112 *110 0.000783183984
5 *112 *113 0.00208663984

*RES
1 *112:2 *112:3 21.8823
2 *331:Z *112:2 0.44988
3 *112 *112:3 41.5844002
*END

*D_NET *113 0.00808765

*CONN
*I *332:Z O *C 59.1 32.4 *L 0 *D BUFFD12
*P *113 O *C 26 100 *L 0.5

*CAP
1 *113 0.000618745
2 *113:2 2.13306e-05
3 *113:3 5.87377e-05
4 *113:4 0.000162803
5 *113:5 0.00513935
6 *113 *112 0.00208663984

*RES
1 *113:3 *113:5 34.4533005
2 *332:Z *113:2 0.450013
3 *113:4 *113:5 21.1795
4 *113 *113:3 8.52553
5 *113:2 *113:4 0.225006
*END

*D_NET *114 0.00381972

*CONN
*I *411:ZN O *C 46.7 64.8 *L 0 *D CKND12
*P *114 O *C 37.9 100 *L 0.5

*CAP
1 *411:ZN 0.000104405
2 *114 0.00106885
3 *114:2 5.19768e-05
4 *114:3 0.000428454
5 *114:4 2.72459e-05
6 *114:5 0.00211309
7 *114:7 2.56982e-05

*RES
1 *114:2 *114:3 3.0163
2 *114 *114:7 8.49216
3 *114:6 *114:7 0.15945
4 *114:4 *114:5 2.53918
5 *114:3 *114:4 0.0928595
6 *411:ZN *114:2 0.351074
7 *114:5 *114:6 13.3457003
*END

*D_NET *115 0.00416813

*CONN
*I *409:ZN O *C 47.7 68.4 *L 0 *D CKND12
*P *115 O *C 37.2 100 *L 0.5

*CAP
1 *409:ZN 0.000212804
2 *115 0.00123502
3 *115:2 0.000256962
4 *115:3 0.000599882
5 *115:4 0.00181661
6 *115:5 4.6874e-05

*RES
1 *409:ZN *115:2 2.83014
2 *115:4 *115:5 10.9722996
3 *115:2 *115:3 3.18641
4 *115 *115:5 8.5254
5 *115:3 *115:4 1.74339
*END

*D_NET *116 0.00367083

*CONN
*I *407:ZN O *C 42.9 68.4 *L 0 *D CKND12
*P *116 O *C 36.5 100 *L 0.5

*CAP
1 *116 0.00269362
2 *116:2 0.000107523
3 *116:3 0.000237159
4 *116:4 0.000632519

*RES
1 *116:2 *116:3 2.39654
2 *407:ZN *116:2 1.44247
3 *116 *116:4 19.8432999
4 *116:3 *116:4 0.945899
*END

*D_NET *117 0.00313422

*CONN
*I *405:ZN O *C 40.7 72 *L 0 *D CKND12
*P *117 O *C 35.8 100 *L 0.5

*CAP
1 *117 0.00125012
2 *117:2 8.52032e-05
3 *117:3 0.00172659
4 *117:4 7.232e-05

*RES
1 *117:2 *117:3 3.37817
2 *117:3 *117:4 9.07863998
3 *117 *117:4 8.52536
4 *405:ZN *117:2 0.224971
*END

*D_NET *118 0.00295128

*CONN
*I *403:ZN O *C 37.1 69.2 *L 0 *D CKND12
*P *118 O *C 35.1 100 *L 0.5

*CAP
1 *118 0.00237087016
2 *118:2 0.00058039

*RES
1 *403:ZN *118:2 1.71126
2 *118 *118:2 18.7070999
*END

*D_NET *119 0.00401717

*CONN
*I *401:ZN O *C 33.9 65.6 *L 0 *D CKND12
*P *119 O *C 34.4 100 *L 0.5

*CAP
1 *119 0.00116316
2 *119:2 0.000738515
3 *119:3 0.00018054
4 *119:4 6.10759e-05
5 *119:5 0.00187388

*RES
1 *119:2 *119:4 2.97653
2 *119:3 *119:5 10.868
3 *119 *119:3 8.43607
4 *401:ZN *119:2 0.225035
5 *119:4 *119:5 0.225035
*END

*D_NET *120 0.00346573

*CONN
*I *391:Z O *C 33.7 69.2 *L 0 *D BUFFD12
*P *120 O *C 33.7 100 *L 0.5

*CAP
1 *120 0.000325694
2 *120:2 0.000539643
3 *120:3 0.00133028
4 *120:4 7.02338e-06
5 *120:5 0.00126309

*RES
1 *120:4 *120:5 6.02654
2 *120:3 *120:5 1.79258
3 *120:2 *120:3 10.8056002
4 *391:Z *120:2 0.449959
5 *120 *120:4 1.45771
*END

*D_NET *121 0.00312286

*CONN
*I *392:Z O *C 36.1 72 *L 0 *D BUFFD12
*P *121 O *C 33 100 *L 0.5

*CAP
1 *392:Z 0.000226862
2 *121 0.00135146
3 *121:2 0.00152988
4 *121:3 1.46603e-05

*RES
1 *121:2 *121:3 8.69989967
2 *392:Z *121:2 2.72018
3 *121 *121:3 8.52547
*END

*D_NET *122 0.00321345

*CONN
*I *393:Z O *C 32.3 68.4 *L 0 *D BUFFD12
*P *122 O *C 32.3 100 *L 0.5

*CAP
1 *393:Z 7.04286e-05
2 *122 0.00248815984
3 *122:2 0.000654853

*RES
1 *393:Z *122:2 0.449859
2 *122 *122:2 19.9472008
*END

*D_NET *123 0.00263988

*CONN
*P *123 O *C 100 26 *L 0.5
*I *592:ZN O *C 64.3 29.6 *L 0 *D INVD12

*CAP
1 *123 0.00216839
2 *123:2 0.000471497

*RES
1 *592:ZN *123:2 2.36969
2 *123 *123:2 22.7812996
*END

*D_NET *124 0.00342724

*CONN
*I *554:B2 I *C 51.1 53.8 *L 0.000739 *D MOAI22D0
*I *554:A2 I *C 51.9 53.6 *L 0.000697 *D MOAI22D0
*I *553:B1 I *C 52.5 40.8 *L 0.000689 *D MOAI22D0
*I *553:A1 I *C 51.5 40.8 *L 0.000721 *D MOAI22D0
*I *413:Q O *C 54.5 46.6 *L 0 *D EDFKCNQD1

*CAP
1 *554:B2 0.000246064
2 *553:B1 0.000108219
3 *553:A1 0.000131199
4 *413:Q 0.000159586
5 *124:5 0.00126985
6 *124:6 0.00083961
7 *124:7 9.20779e-05
8 *124:8 0.000580622

*RES
1 *554:A2 *124:7 0.726564
2 *413:Q *124:8 2.69351
3 *554:B2 *124:7 0.87286
4 *553:A1 *124:6 0.90655
5 *553:B1 *124:6 0.874213
6 *124:5 *124:7 4.66778994
7 *124:5 *124:6 3.2475
8 *124:5 *124:8 0.224999
*END

*D_NET *125 0.00314911

*CONN
*I *593:Q O *C 54.3 50.2 *L 0 *D EDFKCND1
*I *572:A1 I *C 51.7 58.6 *L 0.000617 *D CKND2D0
*I *420:A I *C 54.3 48 *L 0.00103 *D FA1D0

*CAP
1 *572:A1 0.000105963
2 *125:3 0.000136355
3 *125:4 0.00104883
4 *125:5 0.000215367
5 *125:6 0.00068176
6 *125:7 0.000396758
7 *125:8 0.000564081

*RES
1 *125:7 *125:8 1.04101
2 *125:5 *125:8 2.06008
3 *125:4 *125:8 1.80304
4 *572:A1 *125:6 0.450016
5 *125:6 *125:7 4.87555981
6 *125:3 *125:4 2.6112
7 *593:Q *125:5 0.583779
8 *420:A *125:3 0.224971
*END

*D_NET *126 0.00162527

*CONN
*I *367:I I *C 55.1 50 *L 0.00104 *D DEL0
*I *598:Q O *C 48.1 50.2 *L 0 *D EDFKCND1

*CAP
1 *367:I 0.000290694
2 *598:Q 0.000881524063
3 *126:2 0.00045305

*RES
1 *598:Q *126:2 3.46606994
2 *367:I *126:2 3.3833
*END

*D_NET *127 0.00244852

*CONN
*I *360:I I *C 48.7 42.8 *L 0.00104 *D DEL0
*I *426:Q O *C 42.3 50.2 *L 0 *D EDFKCNQD1

*CAP
1 *360:I 0.00097951
2 *127:2 6.888e-05
3 *127:3 0.00140014

*RES
1 *127:2 *127:3 5.00258017
2 *426:Q *127:3 1.86444
3 *360:I *127:2 3.85056
*END

*D_NET *128 0.00302373

*CONN
*I *361:I I *C 44.1 39.2 *L 0.00104 *D DEL0
*I *427:Q O *C 34.1 46.6 *L 0 *D EDFKCNQD1

*CAP
1 *361:I 0.000257368
2 *128:2 0.000465469
3 *128:3 0.000889215
4 *128:4 0.000236988
5 *128:5 0.000691711
6 *128:6 0.000482986

*RES
1 *128:4 *128:5 2.6584
2 *128:5 *128:6 1.74542
3 *128:3 *128:6 2.81883001
4 *128:2 *128:3 1.1975
5 *361:I *128:4 2.02208
6 *427:Q *128:2 2.13326
*END

*D_NET *129 0.00179647

*CONN
*I *375:I I *C 41.9 40.8 *L 0.00104 *D DEL0
*I *418:Q O *C 38.3 36.8 *L 0 *D DFKCNQD1

*CAP
1 *375:I 5.24813e-06
2 *129:2 0.000688851
3 *129:3 0.00110236

*RES
1 *375:I *129:2 2.64961
2 *129:2 *129:3 3.91391993
3 *418:Q *129:3 0.224972
*END

*D_NET *130 0.000915225

*CONN
*I *382:I I *C 28.3 28.4 *L 0.00104 *D DEL0
*I *425:Q O *C 28.3 33.4 *L 0 *D EDFKCNQD1

*CAP
1 *382:I 0.00017185
2 *130:2 0.00074338

*RES
1 *382:I *130:2 1.07599
2 *425:Q *130:2 3.15862012
*END

*D_NET *131 0.000536355

*CONN
*I *386:I I *C 39.3 33.6 *L 0.00104 *D DEL0
*I *415:Q O *C 38.9 32.4 *L 0 *D DFKCNQD1

*CAP
1 *415:Q 0.000536355

*RES
1 *415:Q *386:I 2.23294
*END

*D_NET *132 0.00103696

*CONN
*I *602:Q O *C 38.5 33.4 *L 0 *D EDFKCND1
*I *472:I1 I *C 37.3 29.8 *L 0.001 *D MUX2ND0

*CAP
1 *602:Q 7.13605e-05
2 *132:2 0.00062706
3 *132:3 0.000338546

*RES
1 *132:2 *132:3 2.68736005
2 *602:Q *132:3 1.3329
3 *472:I1 *132:2 0.224999
*END

*D_NET *133 0.000337094

*CONN
*I *385:I I *C 44.1 37.2 *L 0.00104 *D DEL0
*I *417:Q O *C 44.1 36 *L 0 *D DFKCNQD1

*CAP
1 *417:Q 0.000337094023

*RES
1 *385:I *417:Q 1.28616
*END

*D_NET *134 0.000882558

*CONN
*I *596:Q O *C 44.3 32.2 *L 0 *D EDFKCND1
*I *486:B1 I *C 45.9 28.4 *L 0.000686 *D MAOI22D0
*I *486:A1 I *C 44.9 28.4 *L 0.000713 *D MAOI22D0

*CAP
1 *596:Q 0.000367615
2 *486:B1 0.000136753
3 *486:A1 6.75994e-05
4 *134:3 0.000310589

*RES
1 *596:Q *134:3 2.68003988
2 *486:A1 *134:3 0.603802
3 *486:B1 *134:3 1.00011
*END

*D_NET *135 0.000866328

*CONN
*I *381:I I *C 53.5 32 *L 0.00104 *D DEL0
*I *416:Q O *C 49.5 32.4 *L 0 *D DFKCNQD1

*CAP
1 *381:I 1.56978e-06
2 *416:Q 0.000123283
3 *135:2 8.62082e-05
4 *135:3 0.000655260039

*RES
1 *135:2 *135:3 3.01209998
2 *381:I *135:2 0.576167
3 *416:Q *135:3 0.450004
*END

*D_NET *136 0.00040818

*CONN
*I *384:I I *C 50.7 37.2 *L 0.00104 *D DEL0
*I *419:Q O *C 51.9 39.6 *L 0 *D DFKCNQD1

*CAP
1 *384:I 0.000206461992
2 *419:Q 0.000201717

*RES
1 *419:Q *384:I 2.18888
*END

*D_NET *137 0.00136458

*CONN
*I *594:Q O *C 49.7 53.2 *L 0 *D DFD1
*I *554:B1 I *C 50.7 53.6 *L 0.000689 *D MOAI22D0
*I *554:A1 I *C 51.7 53.6 *L 0.000721 *D MOAI22D0
*I *475:B2 I *C 50.7 55 *L 0.000739 *D MOAI22D0
*I *475:A2 I *C 49.9 55.2 *L 0.000697 *D MOAI22D0
*I *429:B2 I *C 49.1 55 *L 0.000698 *D AO22D0

*CAP
1 *594:Q 0.000299295996
2 *554:B1 0.000147961
3 *554:A1 0.000162689
4 *475:B2 3.77688e-06
5 *429:B2 0.000111347
6 *137:6 0.000203787
7 *137:7 0.000101688
8 *137:8 0.000155702
9 *137:9 0.000178326

*RES
1 *137:8 *137:9 0.285433
2 *554:A1 *137:6 1.49267006
3 *137:6 *137:7 0.378452
4 *475:B2 *137:7 0.334562
5 *554:B1 *137:6 0.62004
6 *429:B2 *137:9 0.804437
7 *137:7 *137:8 0.663885
8 *475:A2 *137:8 0.559501
9 *594:Q *137:9 1.20977
*END

*D_NET *138 0.000889529

*CONN
*I *379:I I *C 53.9 57.2 *L 0.00104 *D DEL0
*I *601:Q O *C 50.3 56.8 *L 0 *D DFD1

*CAP
1 *379:I 0.000142391
2 *601:Q 9.84317e-05
3 *138:2 0.000648705

*RES
1 *379:I *138:2 3.63639998
2 *601:Q *138:2 0.45
*END

*D_NET *139 0.00074142

*CONN
*I *378:I I *C 44.9 57.2 *L 0.00104 *D DEL0
*I *597:Q O *C 47.1 55.6 *L 0 *D DFD1

*CAP
1 *597:Q 0.000164833
2 *139:2 0.000576583984

*RES
1 *597:Q *139:2 0.603316
2 *378:I *139:2 2.69651008
*END

*D_NET *140 0.00224587

*CONN
*I *368:I I *C 52.7 51.6 *L 0.00104 *D DEL0
*I *599:Q O *C 40.9 53.2 *L 0 *D DFD1

*CAP
1 *368:I 0.000212961
2 *599:Q 0.000529999
3 *140:2 0.000416807
4 *140:3 0.0010861

*RES
1 *599:Q *140:3 1.95838
2 *140:2 *140:3 5.86798
3 *368:I *140:2 2.07971
*END

*D_NET *141 0.00269422

*CONN
*I *362:I I *C 55.3 51.6 *L 0.00104 *D DEL0
*I *600:Q O *C 40.3 52 *L 0 *D DFD1

*CAP
1 *141:2 0.000126081
2 *141:3 0.000970999
3 *141:4 0.000972082031
4 *141:5 0.000215909
5 *141:6 0.000386608
6 *141:7 2.25314e-05

*RES
1 *141:2 *141:4 4.19145012
2 *141:6 *141:7 0.219051
3 *141:5 *141:6 2.42958
4 *141:3 *141:7 3.86182
5 *141:4 *141:5 0.989662
6 *600:Q *141:3 0.224999
7 *362:I *141:2 0.449998
*END

*D_NET *142 0.000848883

*CONN
*I *380:I I *C 40.9 51.6 *L 0.00104 *D DEL0
*I *595:Q O *C 40.3 55 *L 0 *D DFXD1

*CAP
1 *380:I 0.000595085039
2 *595:Q 4.42216e-06
3 *142:2 0.000249375

*RES
1 *595:Q *142:2 0.460641
2 *380:I *142:2 3.06919003
*END

*D_NET *143 0.000626956

*CONN
*I *608:Q O *C 34.9 55.6 *L 0 *D DFD1
*I *430:B2 I *C 33.9 57.4 *L 0.000739 *D MOAI22D0

*CAP
1 *143:2 0.000626955977

*RES
1 *430:B2 *143:2 1.08063
2 *608:Q *143:2 1.46978998
*END

*D_NET *144 0.00133166

*CONN
*I *605:Q O *C 33.3 59.2 *L 0 *D DFD1
*I *581:A2 I *C 33.9 60.8 *L 0.000658 *D CKXOR2D0
*I *499:B1 I *C 31.9 60.8 *L 0.000658 *D IND2D0
*I *437:B2 I *C 34.9 58.6 *L 0.000739 *D MOAI22D0

*CAP
1 *605:Q 0.000242385
2 *437:B2 0.000478095
3 *144:4 0.000230224
4 *144:5 0.000380951

*RES
1 *605:Q *144:5 1.20667
2 *144:4 *144:5 0.378384
3 *581:A2 *144:4 0.449983
4 *499:B1 *144:5 1.45494
5 *437:B2 *144:4 2.52137995
*END

*D_NET *145 0.00149083

*CONN
*I *604:Q O *C 28.1 56.8 *L 0 *D DFD1
*I *583:A2 I *C 27.9 60.8 *L 0.000658 *D CKXOR2D0
*I *511:B1 I *C 30.5 60.8 *L 0.000658 *D IND2D0
*I *436:B2 I *C 28.7 58.6 *L 0.000739 *D MOAI22D0

*CAP
1 *604:Q 0.0003252
2 *511:B1 0.000140155
3 *145:4 0.000493406
4 *145:5 0.000532068008

*RES
1 *511:B1 *145:5 1.71275
2 *583:A2 *145:5 0.954493
3 *145:4 *145:5 1.48851
4 *604:Q *145:4 2.05964994
5 *436:B2 *145:4 0.224991
*END

*D_NET *146 0.00175121

*CONN
*I *603:Q O *C 27.9 55.6 *L 0 *D DFD1
*I *584:A2 I *C 27.9 50 *L 0.000658 *D CKXOR2D0
*I *540:B1 I *C 29.9 53.6 *L 0.000658 *D IND2D0
*I *434:B2 I *C 28.7 53.8 *L 0.000739 *D MOAI22D0

*CAP
1 *603:Q 0.000173367
2 *584:A2 0.00016939
3 *146:4 0.000557889
4 *146:5 0.000687707031
5 *146:6 0.000162863

*RES
1 *146:5 *146:6 1.41061
2 *146:4 *146:5 2.27654004
3 *584:A2 *146:4 0.746052
4 *603:Q *146:5 2.08385
5 *540:B1 *146:6 0.224993
6 *434:B2 *146:5 0.224993
*END

*D_NET *147 0.000836666

*CONN
*I *388:I I *C 27.9 46.4 *L 0.00104 *D DEL0
*I *607:Q O *C 30.9 44.8 *L 0 *D DFD1

*CAP
1 *388:I 0.000697122969
2 *147:2 0.000139542

*RES
1 *388:I *147:2 3.74657011
2 *607:Q *147:2 0.225014
*END

*D_NET *148 0.000836742

*CONN
*I *389:I I *C 31.9 53.6 *L 0.00104 *D DEL0
*I *606:Q O *C 30.3 50.2 *L 0 *D DFXD1

*CAP
1 *389:I 6.71068e-05
2 *606:Q 4.24572e-05
3 *148:2 0.000528778008
4 *148:3 0.0001984

*RES
1 *389:I *148:2 2.8478601
2 *148:2 *148:3 0.855627
3 *606:Q *148:3 0.450019
*END

*D_NET *149 0.00128945

*CONN
*I *355:I I *C 47.3 30 *L 0.00104 *D DEL0
*I *609:Q O *C 54.7 29.8 *L 0 *D DFXD1

*CAP
1 *355:I 0.000340912
2 *609:Q 1.6904e-06
3 *149:2 0.000946842031

*RES
1 *609:Q *149:2 0.351153
2 *355:I *149:2 6.30843019
*END

*D_NET *150 0.00256544

*CONN
*I *372:I I *C 36.1 68 *L 0.00104 *D DEL0
*I *608:QN O *C 35.3 55.6 *L 0 *D DFD1

*CAP
1 *608:QN 0.00108215
2 *150:2 0.000356604
3 *150:3 0.00109832
4 *150:4 2.83735e-05

*RES
1 *608:QN *150:4 4.17708
2 *150:3 *150:4 0.286631
3 *150:2 *150:3 4.43138981
4 *372:I *150:2 1.7066
*END

*D_NET *151 0.000382175

*CONN
*I *598:QN O *C 48.7 50.4 *L 0 *D EDFKCND1
*I *558:A2 I *C 47.7 51.6 *L 0.000606 *D CKND2D0

*CAP
1 *598:QN 0.000194693008
2 *558:A2 0.000187483

*RES
1 *558:A2 *598:QN 2.04289
*END

*D_NET *152 0.000600014

*CONN
*I *578:ZN O *C 36.7 50.2 *L 0 *D CKND0
*I *503:A2 I *C 36.1 51.6 *L 0.000664 *D NR2D0

*CAP
1 *578:ZN 0.000600013984

*RES
1 *578:ZN *503:A2 2.35929
*END

*D_NET *153 0.00394378

*CONN
*I *363:I I *C 39.1 69.6 *L 0.00104 *D DEL0
*I *603:QN O *C 27.5 55.6 *L 0 *D DFD1

*CAP
1 *363:I 0.000372751
2 *603:QN 0.000805189
3 *153:2 0.00100866
4 *153:4 0.000207321
5 *153:5 0.00110032
6 *153:6 0.000449547

*RES
1 *603:QN *153:3 3.15127
2 *153:4 *153:5 5.12736
3 *153:2 *153:6 5.73385
4 *153:2 *153:4 0.776138
5 *363:I *153:6 3.47429
6 *153:3 *153:5 0.159322
*END

*D_NET *154 0.000735552

*CONN
*I *364:I I *C 36.1 58.8 *L 0.000643 *D CKBD0
*I *605:QN O *C 33.7 59.2 *L 0 *D DFD1

*CAP
1 *364:I 0.000168411
2 *605:QN 7.31013e-05
3 *154:2 0.000494038984

*RES
1 *364:I *154:2 2.76007009
2 *605:QN *154:2 0.450002
*END

*D_NET *155 0.00103421

*CONN
*I *365:I I *C 31.7 57.2 *L 0.000643 *D CKBD0
*I *604:QN O *C 27.7 56.8 *L 0 *D DFD1

*CAP
1 *604:QN 8.75973e-05
2 *155:2 0.000637076016
3 *155:3 0.000309541

*RES
1 *365:I *155:3 0.674979
2 *604:QN *155:2 0.393211
3 *155:2 *155:3 3.06743002
*END

*D_NET *156 0.00174847

*CONN
*I *593:QN O *C 54.9 50.4 *L 0 *D EDFKCND1
*I *549:A2 I *C 52.3 55.2 *L 0.000606 *D CKND2D0

*CAP
1 *593:QN 9.05685e-05
2 *549:A2 4.7787e-06
3 *156:2 0.000586452
4 *156:3 0.0010616
5 *156:4 5.07028e-06

*RES
1 *156:3 *156:4 2.02514
2 *156:2 *156:3 1.96733
3 *549:A2 *156:2 2.58808994
4 *593:QN *156:4 0.450001
*END

*D_NET *157 0.000423674

*CONN
*I *577:ZN O *C 41.7 28.6 *L 0 *D CKND0
*I *462:A2 I *C 41.5 30.2 *L 0.000727 *D AOI221D0

*CAP
1 *577:ZN 0.000423673984

*RES
1 *577:ZN *462:A2 1.86747
*END

*D_NET *158 0.000913727

*CONN
*I *576:ZN O *C 46.7 29.8 *L 0 *D CKND0
*I *462:A1 I *C 40.9 30 *L 0.000675 *D AOI221D0

*CAP
1 *576:ZN 0.000211261
2 *158:2 0.000162092
3 *158:3 0.000540376016

*RES
1 *462:A1 *158:3 0.675008
2 *576:ZN *158:2 2.09089
3 *158:2 *158:3 2.36917996
*END

*D_NET *159 0.00132526

*CONN
*I *371:I I *C 40.5 44.4 *L 0.00104 *D DEL0
*I *600:QN O *C 40.7 52 *L 0 *D DFD1

*CAP
1 *371:I 0.000632751992
2 *600:QN 0.000214982
3 *159:2 0.000477526

*RES
1 *600:QN *159:2 2.85805011
2 *371:I *159:2 2.79673
*END

*D_NET *160 0.0013296

*CONN
*I *369:I I *C 52.3 53.6 *L 0.00104 *D DEL0
*I *597:QN O *C 47.5 55.6 *L 0 *D DFD1

*CAP
1 *369:I 0.000297567
2 *160:2 0.00087386
3 *160:3 0.000158171

*RES
1 *597:QN *160:2 1.00967
2 *160:2 *160:3 3.21164989
3 *369:I *160:3 1.65194
*END

*D_NET *161 0.000364195

*CONN
*I *373:I I *C 50.1 51.6 *L 0.00104 *D DEL0
*I *594:QN O *C 50.1 53.2 *L 0 *D DFD1

*CAP
1 *594:QN 0.000364195

*RES
1 *373:I *594:QN 1.33306
*END

*D_NET *162 0.00105888

*CONN
*I *374:I I *C 43.5 51.6 *L 0.00103 *D DEL015
*I *599:QN O *C 40.5 53.2 *L 0 *D DFD1

*CAP
1 *162:2 7.79533e-05
2 *162:3 0.000980926953

*RES
1 *162:2 *162:3 2.62654996
2 *599:QN *162:3 1.41231
3 *374:I *162:2 0.449995
*END

*D_NET *163 0.00104302

*CONN
*I *370:I I *C 52.5 55.2 *L 0.00104 *D DEL0
*I *601:QN O *C 49.9 56.8 *L 0 *D DFD1

*CAP
1 *163:2 0.00104302

*RES
1 *601:QN *163:2 0.860999
2 *370:I *163:2 3.07233
*END

*D_NET *164 0.00128394

*CONN
*I *548:ZN O *C 28.5 48.4 *L 0 *D ND4D0
*I *523:B1 I *C 34.3 48 *L 0.000651 *D INR2D0

*CAP
1 *523:B1 0.000176728
2 *164:2 8.62454e-05
3 *164:3 0.00102097

*RES
1 *164:2 *164:3 4.40931988
2 *548:ZN *164:3 0.449975
3 *523:B1 *164:2 0.364662
*END

*D_NET *165 0.0014357

*CONN
*I *563:ZN O *C 39.9 40.4 *L 0 *D CKND2D0
*I *547:I I *C 38.7 43 *L 0.00062 *D CKND0
*I *442:C I *C 41.5 40.8 *L 0.000698 *D OAI211D0

*CAP
1 *563:ZN 0.000128117
2 *547:I 0.00034007
3 *165:3 0.000357866
4 *165:4 0.000609654023

*RES
1 *563:ZN *165:3 0.644954
2 *442:C *165:4 1.79843
3 *547:I *165:3 2.54808998
4 *165:3 *165:4 0.225003
*END

*D_NET *166 0.000311824

*CONN
*I *547:ZN O *C 39.1 43 *L 0 *D CKND0
*I *484:CI I *C 39.1 44.2 *L 0.001 *D FA1D0

*CAP
1 *484:CI 0.000311823984

*RES
1 *547:ZN *484:CI 1.22951
*END

*D_NET *167 0.000405771

*CONN
*I *566:ZN O *C 39.7 28.6 *L 0 *D NR2D0
*I *546:I I *C 39.1 28.6 *L 0.00062 *D CKND0
*I *542:B I *C 40.7 28.4 *L 0.00072 *D AOI21D0

*CAP
1 *546:I 0.000132313
2 *542:B 0.000120822
3 *167:3 0.000152637002

*RES
1 *546:I *167:3 0.766055
2 *542:B *167:3 1.11171997
3 *566:ZN *167:3 0.225004
*END

*D_NET *168 0.000329984

*CONN
*I *546:ZN O *C 38.7 28.6 *L 0 *D CKND0
*I *517:A1 I *C 37.9 28.4 *L 0.00069 *D AOI21D0

*CAP
1 *546:ZN 0.000326270996
2 *517:A1 3.71402e-06

*RES
1 *546:ZN *517:A1 1.46903
*END

*D_NET *169 0.00182304

*CONN
*I *366:I I *C 39.9 66 *L 0.00104 *D DEL0
*I *595:QN O *C 40.7 55.6 *L 0 *D DFXD1

*CAP
1 *595:QN 0.000312223
2 *169:2 0.000679628047
3 *169:3 0.000310056
4 *169:4 0.000521136

*RES
1 *366:I *169:2 3.24700999
2 *595:QN *169:4 1.38053
3 *169:3 *169:4 2.16276
4 *169:2 *169:3 1.51579
*END

*D_NET *170 0.000736865

*CONN
*I *565:ZN O *C 36.3 61 *L 0 *D NR2D0
*I *544:B1 I *C 36.5 62.4 *L 0.000651 *D INR2D0
*I *525:A1 I *C 37.7 62.4 *L 0.0007 *D OAI21D0

*CAP
1 *565:ZN 0.000311392988
2 *525:A1 8.30429e-05
3 *170:3 9.59006e-05
4 *170:4 0.000246525

*RES
1 *565:ZN *170:3 1.64804995
2 *525:A1 *170:4 1.43176
3 *544:B1 *170:3 0.224992
4 *170:3 *170:4 0.224992
*END

*D_NET *171 0.00168381

*CONN
*I *564:ZN O *C 35.9 57.6 *L 0 *D CKND2D0
*I *544:A1 I *C 35.9 62.4 *L 0.00069 *D INR2D0
*I *525:B I *C 37.9 62.4 *L 0.00073 *D OAI21D0

*CAP
1 *564:ZN 6.46165e-05
2 *544:A1 8.27838e-05
3 *525:B 0.000100594
4 *171:3 0.00106398
5 *171:4 0.000371837

*RES
1 *544:A1 *171:4 0.881118
2 *171:3 *171:4 4.24377012
3 *525:B *171:4 3.07812
4 *564:ZN *171:3 0.654606
*END

*D_NET *172 0.000809033

*CONN
*I *556:ZN O *C 49.5 40.6 *L 0 *D NR2D0
*I *543:I I *C 46.9 40.6 *L 0.00062 *D CKND0
*I *530:B I *C 47.9 40.8 *L 0.00072 *D AOI21D0

*CAP
1 *556:ZN 0.000309151
2 *543:I 0.000380801992
3 *172:3 0.000119078

*RES
1 *543:I *172:3 1.69858
2 *556:ZN *172:3 1.71529996
3 *530:B *172:3 0.449999
*END

*D_NET *173 0.000606717

*CONN
*I *582:A2 I *C 32.5 37 *L 0.000661 *D XNR2D0
*I *557:ZN O *C 33.7 39.4 *L 0 *D NR2D0
*I *532:B I *C 32.5 39.2 *L 0.00072 *D AOI21D0

*CAP
1 *582:A2 0.000215697
2 *557:ZN 0.000112184
3 *173:3 0.000278833008

*RES
1 *557:ZN *173:3 1.12474
2 *532:B *173:3 1.00615
3 *582:A2 *173:3 0.998272
*END

*D_NET *174 0.000882757

*CONN
*I *541:ZN O *C 38.7 58.6 *L 0 *D MUX2ND0
*I *431:A2 I *C 38.7 53.6 *L 0.000745 *D AO22D0

*CAP
1 *174:2 0.000882757031

*RES
1 *541:ZN *174:2 3.48100996
2 *431:A2 *174:2 0.224999
*END

*D_NET *175 0.000280847

*CONN
*I *387:I I *C 43.5 33.6 *L 0.00104 *D DEL0
*I *596:QN O *C 43.7 32.4 *L 0 *D EDFKCND1

*CAP
1 *387:I 0.000280847012

*RES
1 *596:QN *387:I 1.43167
*END

*D_NET *176 0.000608023

*CONN
*I *569:ZN O *C 40.3 61 *L 0 *D NR2D0
*I *537:B1 I *C 40.3 62.4 *L 0.000651 *D INR2D0
*I *488:A2 I *C 41.5 62.4 *L 0.000651 *D OAI21D0

*CAP
1 *569:ZN 0.000276435996
2 *176:3 8.11318e-05
3 *176:4 0.000250456

*RES
1 *488:A2 *176:4 1.20675
2 *569:ZN *176:3 1.23986006
3 *537:B1 *176:3 0.225001
4 *176:3 *176:4 0.225001
*END

*D_NET *177 0.000750017

*CONN
*I *573:ZN O *C 42.1 61.2 *L 0 *D CKND2D0
*I *537:A1 I *C 40.9 62.4 *L 0.00069 *D INR2D0
*I *488:B I *C 42.1 62.4 *L 0.00073 *D OAI21D0

*CAP
1 *573:ZN 0.000180545
2 *537:A1 0.000295424023
3 *177:3 0.000274048

*RES
1 *537:A1 *177:3 1.50270998
2 *488:B *177:3 1.31728
3 *573:ZN *177:3 0.553267
*END

*D_NET *178 0.000916763

*CONN
*I *555:ZN O *C 37.7 37 *L 0 *D NR2D0
*I *536:I I *C 35.5 37 *L 0.00062 *D CKND0
*I *535:B I *C 36.1 37.2 *L 0.00072 *D AOI21D0

*CAP
1 *555:ZN 0.00025206
2 *536:I 0.000218448
3 *178:3 0.00044626

*RES
1 *536:I *178:3 0.929693
2 *555:ZN *178:3 2.39422989
3 *535:B *178:3 0.450014
*END

*D_NET *179 0.00087683

*CONN
*I *571:ZN O *C 46.5 58.4 *L 0 *D CKND2D0
*I *524:A2 I *C 42.9 60.8 *L 0.000606 *D CKND2D0
*I *471:B I *C 45.1 60.8 *L 0.000669 *D IOA21D0

*CAP
1 *571:ZN 0.000116996
2 *524:A2 0.000291963
3 *179:3 0.000399153008
4 *179:4 6.87151e-05

*RES
1 *571:ZN *179:3 2.34431005
2 *524:A2 *179:4 1.98373
3 *471:B *179:3 0.225002
4 *179:3 *179:4 0.225002
*END

*D_NET *180 0.00238585

*CONN
*I *558:ZN O *C 47.1 51.2 *L 0 *D CKND2D0
*I *524:A1 I *C 43.3 61 *L 0.000617 *D CKND2D0
*I *471:A2 I *C 44.5 60.8 *L 0.000712 *D IOA21D0

*CAP
1 *558:ZN 0.00036418
2 *524:A1 3.47152e-06
3 *180:3 0.000435589
4 *180:4 0.00113753
5 *180:5 0.000445066

*RES
1 *180:3 *180:4 1.5144
2 *180:4 *180:5 4.42516994
3 *524:A1 *180:5 1.73614
4 *471:A2 *180:5 0.334508
5 *558:ZN *180:3 2.43831
*END

*D_NET *181 0.000811266

*CONN
*I *572:ZN O *C 51.9 58.4 *L 0 *D CKND2D0
*I *522:A2 I *C 51.5 60.8 *L 0.000606 *D CKND2D0
*I *461:B I *C 50.5 60.8 *L 0.000669 *D IOA21D0

*CAP
1 *572:ZN 0.00015305
2 *522:A2 1.4702e-05
3 *461:B 2.03596e-06
4 *181:3 0.000641475039

*RES
1 *572:ZN *181:3 1.42521
2 *461:B *181:3 1.72253001
3 *522:A2 *181:3 0.72961
*END

*D_NET *182 0.00143783

*CONN
*I *549:ZN O *C 51.7 54.8 *L 0 *D CKND2D0
*I *522:A1 I *C 51.1 61 *L 0.000617 *D CKND2D0
*I *461:A2 I *C 49.9 60.8 *L 0.000712 *D IOA21D0

*CAP
1 *549:ZN 0.000104862
2 *461:A2 7.10092e-05
3 *182:3 0.00102142
4 *182:4 0.000236297
5 *182:5 4.25494e-06

*RES
1 *182:3 *182:5 4.04857016
2 *182:4 *182:5 1.20692
3 *461:A2 *182:4 0.351136
4 *549:ZN *182:3 0.669655
5 *522:A1 *182:5 0.224989
*END

*D_NET *183 0.000439872

*CONN
*I *537:ZN O *C 40.3 63 *L 0 *D INR2D0
*I *520:I I *C 40.5 64.6 *L 0.00062 *D CKND0
*I *494:A2 I *C 41.1 64.4 *L 0.000664 *D NR2D0

*CAP
1 *537:ZN 0.000214339004
2 *520:I 0.000198307
3 *494:A2 2.72278e-05

*RES
1 *520:I *537:ZN 1.69541001
2 *520:I *494:A2 0.494322
*END

*D_NET *184 7.45e-05

*CONN
*I *520:ZN O *C 40.1 64.6 *L 0 *D CKND0
*I *502:A2 I *C 39.3 64.4 *L 0.000664 *D NR2D0

*CAP
1 *502:A2 7.45e-05

*RES
1 *502:A2 *520:ZN 0.626
*END

*D_NET *185 0.00074866

*CONN
*I *567:ZN O *C 39.5 57.6 *L 0 *D CKND2D0
*I *539:A1 I *C 40.7 58.8 *L 0.000681 *D IND2D0
*I *519:B1 I *C 40.9 57.2 *L 0.000689 *D MOAI22D0
*I *519:A1 I *C 41.9 57.2 *L 0.000721 *D MOAI22D0

*CAP
1 *567:ZN 3.25863e-05
2 *539:A1 5.74328e-05
3 *519:B1 4.4788e-05
4 *185:4 0.000113139
5 *185:5 0.000500713008

*RES
1 *519:A1 *185:5 2.41346002
2 *185:4 *185:5 0.729459
3 *539:A1 *185:5 1.36943
4 *519:B1 *185:4 0.621962
5 *567:ZN *185:4 0.469464
*END

*D_NET *186 0.000533826

*CONN
*I *519:ZN O *C 41.7 56.6 *L 0 *D MOAI22D0
*I *432:A2 I *C 41.9 55.2 *L 0.000745 *D AO22D0

*CAP
1 *519:ZN 1.02659e-05
2 *432:A2 0.000523563047

*RES
1 *432:A2 *519:ZN 1.56006
*END

*D_NET *187 0.0024509

*CONN
*I *584:A1 I *C 29.3 50 *L 0.0013 *D CKXOR2D0
*I *575:ZN O *C 31.7 47.6 *L 0 *D CKND2D0
*I *545:B I *C 30.3 48 *L 0.00073 *D OAI21D0
*I *540:A1 I *C 30.5 53.6 *L 0.000681 *D IND2D0

*CAP
1 *575:ZN 2.58507e-05
2 *540:A1 0.000203089
3 *187:4 0.000567923
4 *187:5 0.000238273
5 *187:6 0.00108251
6 *187:7 0.000333252

*RES
1 *187:4 *187:6 1.90704
2 *540:A1 *187:7 1.53675
3 *575:ZN *187:5 0.691454
4 *187:6 *187:7 2.83202004
5 *187:4 *187:5 1.42037
6 *584:A1 *187:6 0.225011
7 *545:B *187:4 0.449979
*END

*D_NET *188 0.000747904

*CONN
*I *610:A2 I *C 35.3 64.4 *L 0.000585 *D CKAN2D0
*I *544:ZN O *C 36.5 63 *L 0 *D INR2D0
*I *516:A1 I *C 36.5 64.4 *L 0.000647 *D NR2D0

*CAP
1 *610:A2 9.82729e-05
2 *544:ZN 0.000197488
3 *188:3 0.000112678
4 *188:4 0.000339464023

*RES
1 *544:ZN *188:4 1.20667
2 *188:3 *188:4 1.37948
3 *610:A2 *188:3 0.767075
4 *516:A1 *188:4 0.44999
*END

*D_NET *189 0.00152787

*CONN
*I *579:ZN O *C 31.3 29.8 *L 0 *D CKND0
*I *521:A2 I *C 35.1 30 *L 0.000606 *D CKND2D0
*I *518:B1 I *C 34.1 28.4 *L 0.000698 *D IND3D0
*I *508:A2 I *C 34.7 28.4 *L 0.000657 *D OA21D0

*CAP
1 *521:A2 2.01005e-06
2 *518:B1 0.000231106
3 *508:A2 9.46438e-05
4 *189:4 0.000357506
5 *189:5 3.93798e-05
6 *189:6 0.000803222031

*RES
1 *521:A2 *189:4 1.40319
2 *508:A2 *189:5 0.71885
3 *189:4 *189:5 0.235596
4 *518:B1 *189:5 0.937528
5 *189:4 *189:6 3.42198992
6 *579:ZN *189:6 0.224996
*END

*D_NET *190 0.00127327

*CONN
*I *552:ZN O *C 36.9 28.8 *L 0 *D NR3D0
*I *521:A1 I *C 35.5 29.8 *L 0.000617 *D CKND2D0
*I *518:B2 I *C 34.5 28.4 *L 0.000657 *D IND3D0
*I *517:B I *C 38.1 28.4 *L 0.00072 *D AOI21D0
*I *508:A1 I *C 35.1 28.4 *L 0.000705 *D OA21D0

*CAP
1 *552:ZN 7.46014e-05
2 *521:A1 7.64382e-07
3 *518:B2 0.000195248
4 *517:B 0.000166812
5 *190:5 0.000291093
6 *190:6 0.000170913
7 *190:7 0.000373834023

*RES
1 *190:5 *190:6 0.659813
2 *521:A1 *190:5 1.22987
3 *518:B2 *190:6 1.26621
4 *190:5 *190:7 1.23403
5 *517:B *190:7 1.55786002
6 *552:ZN *190:7 0.576115
7 *508:A1 *190:6 0.45001
*END

*D_NET *191 0.00177134

*CONN
*I *610:A1 I *C 35.1 64.4 *L 0.000556 *D CKAN2D0
*I *568:ZN O *C 37.3 58.4 *L 0 *D CKND2D0
*I *526:A2 I *C 37.9 64.4 *L 0.00104 *D AN2XD1
*I *525:A2 I *C 37.3 62.4 *L 0.000651 *D OAI21D0
*I *516:A2 I *C 36.9 64.4 *L 0.000664 *D NR2D0

*CAP
1 *610:A1 0.000428764
2 *568:ZN 0.000688736016
3 *525:A2 1.30107e-05
4 *191:5 6.98352e-05
5 *191:6 0.000349061
6 *191:7 0.000221928

*RES
1 *525:A2 *191:6 0.53597
2 *610:A1 *191:7 2.10789
3 *568:ZN *191:6 3.12837005
4 *191:5 *191:6 1.04387
5 *526:A2 *191:7 1.08063
6 *516:A2 *191:5 0.225023
7 *191:5 *191:7 0.225023
*END

*D_NET *192 0.000517002

*CONN
*I *516:ZN O *C 36.5 64.6 *L 0 *D NR2D0
*I *489:A2 I *C 36.1 66 *L 0.00105 *D OR2XD1

*CAP
1 *516:ZN 0.000514483984
2 *489:A2 2.52002e-06

*RES
1 *516:ZN *489:A2 1.69648
*END

*D_NET *193 0.00167334

*CONN
*I *543:ZN O *C 46.5 40.6 *L 0 *D CKND0
*I *515:A1 I *C 41.7 39.2 *L 0.000647 *D NR2D0
*I *491:B1 I *C 42.9 39.4 *L 0.00072 *D AOI221D0

*CAP
1 *543:ZN 0.000217305
2 *491:B1 0.000133121
3 *193:3 0.000283342
4 *193:4 0.00103957

*RES
1 *491:B1 *193:4 0.449978
2 *515:A1 *193:4 1.72598
3 *193:3 *193:4 3.26286006
4 *543:ZN *193:3 1.51463
*END

*D_NET *194 0.000517636

*CONN
*I *515:ZN O *C 41.7 39.4 *L 0 *D NR2D0
*I *491:C I *C 42.5 39.4 *L 0.000701 *D AOI221D0

*CAP
1 *515:ZN 0.00037579
2 *491:C 0.000141847

*RES
1 *515:ZN *491:C 1.75612
*END

*D_NET *195 0.00149409

*CONN
*I *542:ZN O *C 40.7 28.8 *L 0 *D AOI21D0
*I *514:A2 I *C 49.1 28.4 *L 0.000664 *D NR2D0
*I *487:B2 I *C 47.9 28.6 *L 0.000881 *D AOI221D0

*CAP
1 *542:ZN 0.000373977
2 *514:A2 0.000190305
3 *487:B2 0.000104977
4 *195:3 0.000343466
5 *195:4 0.000481363008

*RES
1 *542:ZN *195:3 3.3106699
2 *514:A2 *195:4 2.34191
3 *195:3 *195:4 0.866313
4 *487:B2 *195:4 1.07197
*END

*D_NET *196 0.000312179

*CONN
*I *514:ZN O *C 49.5 28.6 *L 0 *D NR2D0
*I *487:C I *C 48.5 28.6 *L 0.000701 *D AOI221D0

*CAP
1 *487:C 8.78777e-07
2 *196:2 0.000311300996

*RES
1 *487:C *196:2 0.537064
2 *514:ZN *196:2 1.01857996
*END

*D_NET *197 0.000438978

*CONN
*I *525:ZN O *C 37.9 63 *L 0 *D OAI21D0
*I *510:I I *C 39.1 62.2 *L 0.00062 *D CKND0
*I *502:A1 I *C 38.9 64.4 *L 0.000647 *D NR2D0

*CAP
1 *525:ZN 0.000438977969

*RES
1 *525:ZN *502:A1 2.02707005
2 *525:ZN *510:I 0.629005
*END

*D_NET *198 0.00193171

*CONN
*I *538:ZN O *C 46.5 33.4 *L 0 *D NR2D0
*I *513:A1 I *C 42.9 33.4 *L 0.000617 *D CKND2D0
*I *509:B I *C 48.1 33.6 *L 0.00072 *D AOI21D0
*I *439:A2 I *C 42.5 35.6 *L 0.00065 *D OAI211D0

*CAP
1 *538:ZN 0.000217921
2 *513:A1 0.000415049
3 *509:B 0.000268456
4 *198:4 0.000296419
5 *198:5 0.000198655
6 *198:6 0.000535206016

*RES
1 *198:4 *198:5 2.00147
2 *198:4 *198:6 0.733296
3 *538:ZN *198:5 1.06687
4 *439:A2 *198:6 1.18252
5 *513:A1 *198:6 1.67669
6 *509:B *198:5 2.3715601
*END

*D_NET *199 0.00128531

*CONN
*I *574:ZN O *C 48.7 33.2 *L 0 *D CKND2D0
*I *538:A1 I *C 46.5 33.6 *L 0.000647 *D NR2D0
*I *509:A1 I *C 47.9 33.6 *L 0.00069 *D AOI21D0
*I *440:C I *C 50.1 33.6 *L 0.000698 *D OAI211D0

*CAP
1 *199:4 0.000708062969
2 *199:5 0.000577244

*RES
1 *509:A1 *199:5 0.835088
2 *538:A1 *199:5 1.33289
3 *199:4 *199:5 0.504526
4 *440:C *199:4 1.82094002
5 *574:ZN *199:4 0.868236
*END

*D_NET *200 0.000586181

*CONN
*I *596:D I *C 48.5 31.8 *L 0.000646 *D EDFKCND1
*I *509:ZN O *C 48.1 33.2 *L 0 *D AOI21D0

*CAP
1 *596:D 0.000581415
2 *509:ZN 4.76417e-06

*RES
1 *596:D *509:ZN 1.94291
*END

*D_NET *201 0.00105357

*CONN
*I *521:ZN O *C 35.7 29.6 *L 0 *D CKND2D0
*I *508:B I *C 35.3 28.4 *L 0.000732 *D OA21D0
*I *485:A1 I *C 34.3 30 *L 0.00069 *D AOI21D0

*CAP
1 *521:ZN 4.52432e-06
2 *508:B 0.0004394
3 *485:A1 1.88982e-06
4 *201:3 0.00014735
5 *201:4 0.000460406016

*RES
1 *201:3 *201:4 1.57074
2 *508:B *201:3 2.18593001
3 *521:ZN *201:3 0.590311
4 *485:A1 *201:4 0.576101
*END

*D_NET *202 0.000789647

*CONN
*I *539:ZN O *C 41.3 58.4 *L 0 *D IND2D0
*I *512:A1 I *C 45.1 58.8 *L 0.000681 *D IND2D0
*I *507:B1 I *C 42.7 58.8 *L 0.000689 *D MOAI22D0
*I *507:A1 I *C 43.7 58.8 *L 0.000721 *D MOAI22D0

*CAP
1 *539:ZN 0.000108695
2 *512:A1 0.000123724
3 *507:B1 0.000246028
4 *202:4 0.000311197012

*RES
1 *512:A1 *202:4 1.45898998
2 *507:B1 *202:4 1.2322
3 *507:A1 *202:4 0.801113
4 *539:ZN *507:B1 0.947867
*END

*D_NET *203 0.000407845

*CONN
*I *507:ZN O *C 43.5 59.4 *L 0 *D MOAI22D0
*I *433:A2 I *C 43.9 57.2 *L 0.000745 *D AO22D0

*CAP
1 *433:A2 0.000407845

*RES
1 *433:A2 *507:ZN 1.48193
*END

*D_NET *204 0.00174319

*CONN
*I *551:ZN O *C 40.5 46.6 *L 0 *D NR2D0
*I *527:B I *C 42.1 46.4 *L 0.00072 *D AOI21D0
*I *506:A2 I *C 43.3 46.4 *L 0.000606 *D CKND2D0
*I *490:A2 I *C 43.9 44.4 *L 0.000758 *D OAI221D0

*CAP
1 *551:ZN 0.000466663008
2 *527:B 0.000108571
3 *490:A2 0.000422379
4 *204:4 0.000451987
5 *204:5 0.000293591

*RES
1 *490:A2 *204:4 2.98722005
2 *551:ZN *204:5 1.74536
3 *204:4 *204:5 1.18566
4 *527:B *204:5 0.675014
5 *506:A2 *204:4 0.22499
*END

*D_NET *205 0.000980555

*CONN
*I *528:ZN O *C 45.1 46.8 *L 0 *D AOI21D0
*I *506:A1 I *C 43.7 46.6 *L 0.000617 *D CKND2D0
*I *490:A1 I *C 43.3 44.4 *L 0.00067 *D OAI221D0

*CAP
1 *490:A1 0.000549501016
2 *205:3 8.40246e-05
3 *205:4 0.000347032

*RES
1 *528:ZN *205:4 1.25052
2 *490:A1 *205:3 1.81374002
3 *506:A1 *205:3 0.225002
4 *205:3 *205:4 0.225002
*END

*D_NET *206 0.000439157

*CONN
*I *506:ZN O *C 43.9 46.8 *L 0 *D CKND2D0
*I *490:C I *C 44.3 44.4 *L 0.000742 *D OAI221D0

*CAP
1 *506:ZN 4.34582e-06
2 *206:2 0.000434814023

*RES
1 *506:ZN *206:2 0.315572
2 *490:C *206:2 1.54614997
*END

*D_NET *207 0.00138845

*CONN
*I *559:ZN O *C 28.5 43 *L 0 *D NR2D0
*I *533:B I *C 30.1 42.8 *L 0.000718 *D AO21D0
*I *505:A2 I *C 27.7 40.8 *L 0.000606 *D CKND2D0
*I *479:B1 I *C 30.3 40.6 *L 0.000933 *D OA221D0

*CAP
1 *559:ZN 5.62348e-05
2 *505:A2 0.000107362
3 *479:B1 8.64569e-05
4 *207:4 0.000476871
5 *207:5 0.000661523984

*RES
1 *207:4 *207:5 1.39304
2 *533:B *207:5 2.65946007
3 *479:B1 *207:5 0.67501
4 *559:ZN *207:4 1.64386
5 *505:A2 *207:4 0.55327
*END

*D_NET *208 0.000577538

*CONN
*I *534:ZN O *C 28.5 39.6 *L 0 *D AOI21D0
*I *505:A1 I *C 28.1 40.6 *L 0.000617 *D CKND2D0
*I *479:B2 I *C 29.2525 40.89 *L 0.000691 *D OA221D0

*CAP
1 *534:ZN 3.7294e-05
2 *505:A1 0.000216482
3 *208:3 0.00032376

*RES
1 *479:B2 *208:3 1.56149995
2 *534:ZN *208:3 0.59271
3 *505:A1 *208:3 1.41978
*END

*D_NET *209 0.000385408

*CONN
*I *505:ZN O *C 28.3 40.4 *L 0 *D CKND2D0
*I *479:C I *C 28.9 40.8 *L 0.000693 *D OA221D0

*CAP
1 *505:ZN 0.000199365996
2 *479:C 0.000186041

*RES
1 *505:ZN *479:C 1.65484
*END

*D_NET *210 0.000352113

*CONN
*I *504:ZN O *C 34.3 32.2 *L 0 *D CKND0
*I *485:B I *C 34.5 30 *L 0.00072 *D AOI21D0

*CAP
1 *504:ZN 0.0001077
2 *485:B 0.000244412012

*RES
1 *504:ZN *485:B 1.81754
*END

*D_NET *211 0.000555633

*CONN
*I *349:I I *C 35.3 50 *L 0.000643 *D CKBD0
*I *523:ZN O *C 34.3 48.6 *L 0 *D INR2D0

*CAP
1 *523:ZN 0.000555633008

*RES
1 *523:ZN *349:I 2.39471
*END

*D_NET *212 0.00151974

*CONN
*I *583:A1 I *C 29.3 60.8 *L 0.0013 *D CKXOR2D0
*I *540:ZN O *C 29.9 54 *L 0 *D IND2D0
*I *511:A1 I *C 29.9 60.8 *L 0.000681 *D IND2D0

*CAP
1 *583:A1 4.63072e-05
2 *540:ZN 0.000305642
3 *511:A1 4.58945e-06
4 *212:3 0.000659582969
5 *212:4 0.000503612

*RES
1 *212:3 *212:4 1.54932
2 *511:A1 *212:3 1.10232
3 *540:ZN *212:4 3.2016201
4 *583:A1 *511:A1 0.514567
*END

*D_NET *213 0.000391392

*CONN
*I *502:ZN O *C 38.9 64.6 *L 0 *D NR2D0
*I *481:A1 I *C 38.5 65.8 *L 0.000964 *D OR2XD1

*CAP
1 *502:ZN 0.000385801992
2 *481:A1 5.59261e-06

*RES
1 *502:ZN *481:A1 1.51303
*END

*D_NET *214 0.00144585

*CONN
*I *518:ZN O *C 33.9 28.8 *L 0 *D IND3D0
*I *504:I I *C 33.9 32.2 *L 0.00062 *D CKND0
*I *498:A1 I *C 32.3 30 *L 0.000647 *D NR2D0
*I *480:A1 I *C 33.1 30 *L 0.00069 *D AOI21D0

*CAP
1 *518:ZN 0.000702867969
2 *504:I 4.0219e-06
3 *498:A1 0.000285298
4 *480:A1 6.80721e-05
5 *214:4 2.30696e-05
6 *214:5 0.000362529

*RES
1 *480:A1 *214:5 1.7778
2 *518:ZN *214:4 2.98315001
3 *214:4 *214:5 1.23808
4 *498:A1 *214:5 1.35456
5 *504:I *214:4 0.310988
*END

*D_NET *215 0.00182361

*CONN
*I *561:ZN O *C 51.5 44.2 *L 0 *D NR2D0
*I *531:B I *C 48.1 44.4 *L 0.00072 *D AOI21D0
*I *497:B2 I *C 47.5 42.6 *L 0.000744 *D MAOI22D0
*I *497:A2 I *C 48.3 42.8 *L 0.000697 *D MAOI22D0

*CAP
1 *561:ZN 0.000295847
2 *497:B2 0.000283906
3 *215:4 0.000253236
4 *215:5 0.000990616953

*RES
1 *215:4 *215:5 1.61703
2 *497:B2 *215:4 1.17901
3 *561:ZN *215:5 3.9458499
4 *531:B *215:5 0.450001
5 *497:A2 *215:4 0.450001
*END

*D_NET *216 0.000702734

*CONN
*I *530:ZN O *C 47.9 40.4 *L 0 *D AOI21D0
*I *497:B1 I *C 47.1 42.8 *L 0.000686 *D MAOI22D0
*I *497:A1 I *C 48.1 42.8 *L 0.000713 *D MAOI22D0

*CAP
1 *530:ZN 0.000380648984
2 *497:A1 9.28287e-05
3 *216:3 0.000229255

*RES
1 *497:A1 *216:3 1.50383
2 *530:ZN *216:3 1.64056003
3 *497:B1 *216:3 0.224996
*END

*D_NET *217 0.000955178

*CONN
*I *497:ZN O *C 47.9 43.2 *L 0 *D MAOI22D0
*I *463:A2 I *C 45.7 40.8 *L 0.000679 *D AN4D0

*CAP
1 *497:ZN 0.00024418
2 *217:2 0.000710993984

*RES
1 *463:A2 *217:2 1.68604
2 *497:ZN *217:2 2.79936004
*END

*D_NET *218 0.00155453

*CONN
*I *562:ZN O *C 46.7 46.6 *L 0 *D NR2D0
*I *528:B I *C 45.1 46.4 *L 0.00072 *D AOI21D0
*I *496:B2 I *C 45.5 42.6 *L 0.000744 *D MAOI22D0
*I *473:A2 I *C 46.5 44.4 *L 0.000709 *D AOI211D0

*CAP
1 *562:ZN 3.40195e-05
2 *496:B2 0.000704412969
3 *473:A2 0.000302413
4 *218:4 0.000245972
5 *218:5 0.000267717

*RES
1 *218:4 *218:5 0.537644
2 *473:A2 *218:4 1.85402
3 *528:B *218:5 0.990256
4 *562:ZN *218:4 0.928102
5 *496:B2 *218:5 2.65364003
*END

*D_NET *219 0.000472235

*CONN
*I *531:ZN O *C 48.1 44 *L 0 *D AOI21D0
*I *496:B1 I *C 45.9 42.8 *L 0.000686 *D MAOI22D0
*I *473:A1 I *C 46.9 44.4 *L 0.000645 *D AOI211D0

*CAP
1 *531:ZN 5.0021e-05
2 *496:B1 0.000413905
3 *473:A1 8.30526e-06

*RES
1 *496:B1 *473:A1 2.20805001
2 *473:A1 *531:ZN 0.668958
*END

*D_NET *220 0.00185473

*CONN
*I *529:ZN O *C 41.5 43.2 *L 0 *D AOI21D0
*I *496:A1 I *C 44.9 42.8 *L 0.000713 *D MAOI22D0
*I *490:B2 I *C 44.1 44.4 *L 0.000747 *D OAI221D0

*CAP
1 *490:B2 0.000125234
2 *220:3 0.000718099
3 *220:4 0.000274268
4 *220:5 0.00073713

*RES
1 *220:3 *220:4 2.26056
2 *220:3 *220:5 3.25735998
3 *490:B2 *220:4 0.675021
4 *529:ZN *220:5 0.828356
5 *496:A1 *220:3 0.450014
*END

*D_NET *221 0.000535097

*CONN
*I *496:ZN O *C 45.1 43.2 *L 0 *D MAOI22D0
*I *463:A4 I *C 45.1 40.8 *L 0.000673 *D AN4D0

*CAP
1 *496:ZN 0.000535096992

*RES
1 *463:A4 *496:ZN 1.92589
*END

*D_NET *222 0.00135749

*CONN
*I *550:ZN O *C 30.1 39.4 *L 0 *D NR2D0
*I *534:B I *C 28.5 39.2 *L 0.00072 *D AOI21D0
*I *495:B2 I *C 30.5 37.4 *L 0.000744 *D MAOI22D0
*I *495:A2 I *C 29.7 37.2 *L 0.000697 *D MAOI22D0

*CAP
1 *495:B2 0.000443945
2 *495:A2 0.000106858
3 *222:4 7.3015e-05
4 *222:5 0.000733676016

*RES
1 *495:A2 *222:5 2.21755004
2 *495:B2 *222:4 1.6434
3 *222:4 *222:5 0.729528
4 *534:B *222:5 1.36858
5 *550:ZN *222:4 0.225017
*END

*D_NET *223 0.00083751

*CONN
*I *532:ZN O *C 32.5 39.6 *L 0 *D AOI21D0
*I *495:B1 I *C 30.9 37.2 *L 0.000686 *D MAOI22D0
*I *495:A1 I *C 29.9 37.2 *L 0.000713 *D MAOI22D0

*CAP
1 *532:ZN 0.000151802
2 *495:B1 7.23195e-05
3 *495:A1 0.000103166
4 *223:3 0.000510222969

*RES
1 *495:B1 *223:3 0.384316
2 *495:A1 *223:3 1.40773
3 *532:ZN *223:3 2.72788
*END

*D_NET *224 0.000865082

*CONN
*I *495:ZN O *C 30.1 36.8 *L 0 *D MAOI22D0
*I *468:C I *C 30.9 40.8 *L 0.000698 *D OAI211D0

*CAP
1 *495:ZN 0.000393065977
2 *468:C 0.000118619
3 *224:2 0.000353397

*RES
1 *495:ZN *224:2 1.90871
2 *468:C *224:2 2.04762006
*END

*D_NET *225 0.000947294

*CONN
*I *510:ZN O *C 39.5 62.2 *L 0 *D CKND0
*I *494:A1 I *C 41.5 64.4 *L 0.000647 *D NR2D0
*I *488:A1 I *C 41.9 62.4 *L 0.0007 *D OAI21D0

*CAP
1 *510:ZN 0.000424053984
2 *488:A1 0.000184284
3 *225:3 0.000338958

*RES
1 *488:A1 *225:3 1.38451
2 *494:A1 *225:3 0.811357
3 *510:ZN *225:3 2.44070005
*END

*D_NET *226 0.000957658

*CONN
*I *494:ZN O *C 41.5 64.6 *L 0 *D NR2D0
*I *481:A2 I *C 38.9 66 *L 0.00105 *D OR2XD1

*CAP
1 *494:ZN 0.000261028
2 *226:2 0.000696632031

*RES
1 *494:ZN *226:2 2.90879989
2 *481:A2 *226:2 1.28485
*END

*D_NET *227 0.00137395

*CONN
*I *560:ZN O *C 40.1 43 *L 0 *D NR2D0
*I *529:B I *C 41.5 42.8 *L 0.00072 *D AOI21D0
*I *493:B2 I *C 42.7 43 *L 0.000739 *D MOAI22D0
*I *493:A2 I *C 43.5 42.8 *L 0.000697 *D MOAI22D0

*CAP
1 *560:ZN 0.000482005
2 *529:B 0.000199348
3 *493:B2 4.1342e-05
4 *493:A2 0.000217169
5 *227:4 0.000223112
6 *227:5 0.000210983

*RES
1 *493:B2 *227:4 0.592698
2 *529:B *227:5 1.31535
3 *560:ZN *227:5 2.08844995
4 *227:4 *227:5 1.22434
5 *493:A2 *227:4 1.48629
*END

*D_NET *228 0.000953038

*CONN
*I *527:ZN O *C 42.1 46.8 *L 0 *D AOI21D0
*I *493:B1 I *C 42.3 42.8 *L 0.000689 *D MOAI22D0
*I *493:A1 I *C 43.3 42.8 *L 0.000721 *D MOAI22D0

*CAP
1 *527:ZN 0.000150139
2 *493:A1 2.17486e-06
3 *228:3 0.000800728984

*RES
1 *527:ZN *228:3 2.5661099
2 *493:A1 *228:3 1.26759
3 *493:B1 *228:3 0.224989
*END

*D_NET *229 0.000978479

*CONN
*I *493:ZN O *C 43.1 42.2 *L 0 *D MOAI22D0
*I *473:C I *C 45.9 44.4 *L 0.000686 *D AOI211D0

*CAP
1 *473:C 0.00040452
2 *229:2 0.000573962969

*RES
1 *473:C *229:2 3.40267992
2 *493:ZN *229:2 0.225025
*END

*D_NET *230 0.000847643

*CONN
*I *582:A1 I *C 31.3 37.2 *L 0.00136 *D XNR2D0
*I *535:ZN O *C 36.1 36.8 *L 0 *D AOI21D0

*CAP
1 *582:A1 0.000180996
2 *535:ZN 0.000176863
3 *230:2 0.000489783984

*RES
1 *535:ZN *230:2 3.33117008
2 *582:A1 *230:2 0.937908
*END

*D_NET *231 0.0011123

*CONN
*I *512:ZN O *C 45.7 58.4 *L 0 *D IND2D0
*I *500:A1 I *C 49.9 58.8 *L 0.000681 *D IND2D0
*I *492:B1 I *C 49.1 58.8 *L 0.000689 *D MOAI22D0
*I *492:A1 I *C 48.1 58.8 *L 0.000721 *D MOAI22D0

*CAP
1 *500:A1 6.3119e-05
2 *492:B1 0.000125441
3 *231:4 0.000448762
4 *231:5 0.000474968984

*RES
1 *231:4 *231:5 1.87457001
2 *492:A1 *231:5 0.975013
3 *492:B1 *231:5 1.38473
4 *492:B1 *500:A1 0.671757
5 *512:ZN *231:4 0.224996
*END

*D_NET *232 0.000554537

*CONN
*I *492:ZN O *C 48.3 59.4 *L 0 *D MOAI22D0
*I *438:A2 I *C 48.1 57.2 *L 0.000745 *D AO22D0

*CAP
1 *438:A2 0.000554536992

*RES
1 *438:A2 *492:ZN 2.19832
*END

*D_NET *233 0.000643943

*CONN
*I *581:A1 I *C 32.5 60.8 *L 0.0013 *D CKXOR2D0
*I *511:ZN O *C 30.5 61.2 *L 0 *D IND2D0
*I *499:A1 I *C 31.3 60.8 *L 0.000681 *D IND2D0

*CAP
1 *511:ZN 0.000535404023
2 *233:3 0.000108535

*RES
1 *511:ZN *233:3 2.13329005
2 *511:ZN *499:A1 0.509007
3 *581:A1 *233:3 0.224995
*END

*D_NET *234 0.00104814

*CONN
*I *491:ZN O *C 42.9 39.6 *L 0 *D AOI221D0
*I *463:A3 I *C 45.5 40.8 *L 0.000673 *D AN4D0

*CAP
1 *463:A3 0.000263167
2 *234:2 0.000784972031

*RES
1 *463:A3 *234:2 4.12623978
2 *491:ZN *234:2 0.449985
*END

*D_NET *235 0.000504676

*CONN
*I *490:ZN O *C 44.5 44.2 *L 0 *D OAI221D0
*I *473:B I *C 46.3 44.4 *L 0.000707 *D AOI211D0

*CAP
1 *490:ZN 0.000347566016
2 *473:B 0.000157111

*RES
1 *490:ZN *473:B 2.34546
*END

*D_NET *236 0.00153648

*CONN
*I *487:ZN O *C 48.1 28.8 *L 0 *D AOI221D0
*I *470:B I *C 43.5 30 *L 0.000726 *D OAI211D0

*CAP
1 *236:2 0.000416758
2 *236:3 0.00111972

*RES
1 *236:2 *236:3 4.15256023
2 *487:ZN *236:2 1.65435
3 *470:B *236:3 2.52153
*END

*D_NET *237 0.00152492

*CONN
*I *517:ZN O *C 38.1 28.8 *L 0 *D AOI21D0
*I *486:B2 I *C 45.5 28.2 *L 0.000744 *D MAOI22D0
*I *486:A2 I *C 44.7 28.4 *L 0.000697 *D MAOI22D0

*CAP
1 *237:3 0.00119824008
2 *237:4 0.00032668

*RES
1 *517:ZN *237:3 0.587179
2 *486:B2 *237:4 0.954518
3 *237:3 *237:4 4.86244011
4 *486:A2 *237:4 0.675026
*END

*D_NET *238 0.00036356

*CONN
*I *486:ZN O *C 45.1 28.8 *L 0 *D MAOI22D0
*I *470:C I *C 43.9 30 *L 0.000698 *D OAI211D0

*CAP
1 *486:ZN 0.00036356

*RES
1 *486:ZN *470:C 1.81189
*END

*D_NET *239 0.000425381

*CONN
*I *485:ZN O *C 34.5 29.6 *L 0 *D AOI21D0
*I *472:S I *C 36.1 30 *L 0.00146 *D MUX2ND0

*CAP
1 *485:ZN 0.000295235996
2 *472:S 0.000130145

*RES
1 *485:ZN *472:S 1.85617
*END

*D_NET *240 0.000613579

*CONN
*I *484:CO O *C 40.1 44 *L 0 *D FA1D0
*I *460:CI I *C 39.7 47.8 *L 0.001 *D FA1D0

*CAP
1 *484:CO 0.000143743
2 *460:CI 0.000469835

*RES
1 *460:CI *484:CO 2.59389
*END

*D_NET *241 0.00281868

*CONN
*I *350:I I *C 55.1 46.4 *L 0.00104 *D DEL0
*I *484:S O *C 39.5 44.2 *L 0 *D FA1D0

*CAP
1 *350:I 0.000124502
2 *241:2 8.50587e-05
3 *241:3 0.000344384
4 *241:4 0.000680514
5 *241:5 0.000602481
6 *241:6 0.00098174

*RES
1 *241:4 *241:5 2.96029
2 *241:3 *241:6 1.77579
3 *241:3 *241:5 3.10355
4 *350:I *241:2 0.702285
5 *241:2 *241:6 5.22179985
6 *484:S *241:4 0.225012
*END

*D_NET *242 0.00116244

*CONN
*I *501:ZN O *C 36.5 35.8 *L 0 *D NR2D0
*I *483:A1 I *C 37.5 35.8 *L 0.000617 *D CKND2D0
*I *482:B I *C 34.9 35.6 *L 0.00072 *D AOI21D0
*I *441:A2 I *C 39.7 35.6 *L 0.00065 *D OAI211D0

*CAP
1 *501:ZN 8.6808e-05
2 *483:A1 8.68297e-05
3 *482:B 0.000309865
4 *441:A2 0.000203626
5 *242:4 0.000355316016
6 *242:5 0.00012

*RES
1 *501:ZN *242:5 0.450011
2 *242:4 *242:5 0.5045
3 *441:A2 *242:4 2.45765996
4 *482:B *242:5 1.93628
5 *483:A1 *242:4 0.450011
*END

*D_NET *243 0.00102766

*CONN
*I *383:I I *C 36.3 32 *L 0.00104 *D DEL0
*I *602:QN O *C 39.1 33.2 *L 0 *D EDFKCND1

*CAP
1 *383:I 0.000877912969
2 *602:QN 0.00012019
3 *243:2 2.95518e-05

*RES
1 *383:I *243:2 3.60194993
2 *602:QN *243:2 0.450024
*END

*D_NET *244 0.00262767

*CONN
*I *513:ZN O *C 43.1 33.2 *L 0 *D CKND2D0
*I *501:A1 I *C 36.5 35.6 *L 0.000647 *D NR2D0
*I *482:A1 I *C 35.1 35.6 *L 0.00069 *D AOI21D0
*I *439:C I *C 41.5 35.6 *L 0.000698 *D OAI211D0

*CAP
1 *513:ZN 0.000332317
2 *501:A1 2.00187e-05
3 *482:A1 0.000404676
4 *439:C 5.51491e-05
5 *244:4 0.000416694
6 *244:5 0.000776745938
7 *244:6 0.000622061

*RES
1 *244:4 *244:6 1.59358
2 *513:ZN *244:6 3.80337
3 *244:4 *244:5 2.22262
4 *439:C *244:6 0.675003
5 *501:A1 *244:5 0.801113
6 *482:A1 *244:5 2.21571
*END

*D_NET *245 0.000285428

*CONN
*I *602:D I *C 34.3 33.8 *L 0.000646 *D EDFKCND1
*I *482:ZN O *C 34.9 36 *L 0 *D AOI21D0

*CAP
1 *482:ZN 4.13349e-06
2 *245:2 0.000281296016

*RES
1 *482:ZN *245:2 0.313194
2 *602:D *245:2 1.20667005
*END

*D_NET *246 0.00147715

*CONN
*I *498:ZN O *C 32.3 29.8 *L 0 *D NR2D0
*I *480:B I *C 33.3 30 *L 0.00072 *D AOI21D0
*I *478:A1 I *C 29.3 30 *L 0.00069 *D XNR3D0

*CAP
1 *480:B 0.000305849
2 *478:A1 0.000878036953
3 *246:3 0.000293268

*RES
1 *480:B *246:3 1.62088
2 *498:ZN *246:3 0.450007
3 *478:A1 *246:3 3.28781009
*END

*D_NET *247 0.00071641

*CONN
*I *479:Z O *C 28.5 41.4 *L 0 *D OA221D0
*I *468:B I *C 31.3 40.8 *L 0.000726 *D OAI211D0

*CAP
1 *479:Z 9.3453e-05
2 *247:2 6.58328e-05
3 *247:3 0.000557121992

*RES
1 *247:2 *247:3 2.29468012
2 *479:Z *247:3 0.45
3 *468:B *247:2 0.45
*END

*D_NET *248 0.00214159

*CONN
*I *478:ZN O *C 27.5 29.6 *L 0 *D XNR3D0
*I *454:A4 I *C 37.5 30 *L 0.00068 *D ND4D0

*CAP
1 *478:ZN 0.000678255938
2 *248:2 0.000464963
3 *248:3 0.000630565
4 *248:4 0.000367801

*RES
1 *248:3 *248:4 1.459
2 *248:2 *248:3 2.45784
3 *454:A4 *248:2 1.64372
4 *478:ZN *248:4 3.18171
*END

*D_NET *249 0.000721839

*CONN
*I *524:ZN O *C 43.5 61.2 *L 0 *D CKND2D0
*I *477:A2 I *C 44.7 62.4 *L 0.000664 *D NR2D0
*I *476:A2 I *C 43.3 62.4 *L 0.000585 *D CKAN2D0

*CAP
1 *524:ZN 0.000215404
2 *477:A2 9.72276e-05
3 *249:3 0.00040921

*RES
1 *477:A2 *249:3 1.70062006
2 *524:ZN *249:3 1.64052
3 *476:A2 *249:3 0.449989
*END

*D_NET *250 0.000393148

*CONN
*I *477:ZN O *C 44.3 62.2 *L 0 *D NR2D0
*I *467:A1 I *C 43.9 64.6 *L 0.000964 *D OR2XD1

*CAP
1 *477:ZN 0.000248903008
2 *467:A1 0.000144245

*RES
1 *467:A1 *477:ZN 1.66279
*END

*D_NET *251 0.000841005

*CONN
*I *488:ZN O *C 42.1 63 *L 0 *D OAI21D0
*I *477:A1 I *C 44.3 62.4 *L 0.000647 *D NR2D0
*I *476:A1 I *C 43.1 62.4 *L 0.000556 *D CKAN2D0
*I *471:A1 I *C 44.1 60.8 *L 0.000669 *D IOA21D0

*CAP
1 *488:ZN 3.79339e-05
2 *476:A1 9.75176e-05
3 *471:A1 0.000100888
4 *251:4 0.000140863
5 *251:5 1.88889e-06
6 *251:6 0.000114837
7 *251:7 0.000249573008
8 *251:8 8.26007e-06
9 *251:9 8.92423e-05

*RES
1 *251:4 *251:6 0.636527
2 *251:4 *251:5 0.159316
3 *471:A1 *251:5 0.685623
4 *476:A1 *251:9 0.720610976
5 *251:8 *251:9 0.463797
6 *251:6 *251:7 0.412766
7 *477:A1 *251:6 0.33451
8 *251:7 *251:8 0.650283
9 *488:ZN *476:A1 0.41988
*END

*D_NET *252 0.000475661

*CONN
*I *476:Z O *C 43.9 62.2 *L 0 *D CKAN2D0
*I *467:A2 I *C 43.5 64.4 *L 0.00105 *D OR2XD1

*CAP
1 *476:Z 0.00022443
2 *467:A2 0.00025123

*RES
1 *467:A2 *476:Z 2.15827
*END

*D_NET *253 0.000914911

*CONN
*I *500:ZN O *C 50.5 58.4 *L 0 *D IND2D0
*I *475:B1 I *C 51.1 55.2 *L 0.000689 *D MOAI22D0
*I *475:A1 I *C 50.1 55.2 *L 0.000721 *D MOAI22D0

*CAP
1 *475:B1 0.000125899
2 *475:A1 9.11525e-05
3 *253:3 0.00069786

*RES
1 *500:ZN *253:3 2.13815999
2 *475:A1 *253:3 1.01241
3 *475:B1 *253:3 0.620672
*END

*D_NET *254 0.000533941

*CONN
*I *475:ZN O *C 50.3 55.8 *L 0 *D MOAI22D0
*I *429:A2 I *C 48.5 55.2 *L 0.000745 *D AO22D0

*CAP
1 *475:ZN 0.000532375977
2 *429:A2 1.56784e-06

*RES
1 *475:ZN *429:A2 1.97926
*END

*D_NET *255 0.000619882

*CONN
*I *580:A1 I *C 34.7 62.4 *L 0.0013 *D CKXOR2D0
*I *499:ZN O *C 31.9 61.2 *L 0 *D IND2D0

*CAP
1 *255:2 7.05832e-05
2 *255:3 0.000549301992

*RES
1 *255:2 *255:3 2.84629989
2 *499:ZN *255:3 0.225016
3 *580:A1 *255:2 0.225016
*END

*D_NET *256 0.000555344

*CONN
*I *536:ZN O *C 35.1 37 *L 0 *D CKND0
*I *474:A1 I *C 34.7 37.2 *L 0.000645 *D AOI211D0
*I *452:A2 I *C 35.7 39.2 *L 0.00065 *D OAI211D0

*CAP
1 *536:ZN 0.000364033008
2 *474:A1 1.19039e-05
3 *452:A2 0.000179403

*RES
1 *474:A1 *536:ZN 0.352292
2 *536:ZN *452:A2 2.62122989
*END

*D_NET *257 0.000651421

*CONN
*I *474:ZN O *C 34.7 36.8 *L 0 *D AOI211D0
*I *452:C I *C 34.7 39.2 *L 0.000698 *D OAI211D0

*CAP
1 *474:ZN 0.000651421016

*RES
1 *474:ZN *257:2 1.98592997
2 *452:C *257:2 0.224999
*END

*D_NET *258 0.000721053

*CONN
*I *473:ZN O *C 46.9 44 *L 0 *D AOI211D0
*I *463:A1 I *C 45.9 40.8 *L 0.000655 *D AN4D0

*CAP
1 *473:ZN 3.84846e-05
2 *463:A1 0.000682568047

*RES
1 *473:ZN *463:A1 3.4499
*END

*D_NET *259 0.000489231

*CONN
*I *472:ZN O *C 36.7 29.8 *L 0 *D MUX2ND0
*I *454:A3 I *C 37.9 29.8 *L 0.000708 *D ND4D0

*CAP
1 *472:ZN 0.000489230977

*RES
1 *472:ZN *454:A3 2.33055
*END

*D_NET *260 0.00193684

*CONN
*I *508:Z O *C 35.9 28.8 *L 0 *D OA21D0
*I *470:A1 I *C 43.3 30 *L 0.000711 *D OAI211D0
*I *462:B2 I *C 41.5 29.8 *L 0.000881 *D AOI221D0

*CAP
1 *508:Z 0.000670252969
2 *470:A1 0.000215318
3 *462:B2 0.00017898
4 *260:3 0.000561914
5 *260:4 0.000310371

*RES
1 *260:3 *260:4 2.8736999
2 *470:A1 *260:4 2.74202
3 *462:B2 *260:4 1.1196
4 *508:Z *260:3 2.10744
*END

*D_NET *261 0.000216407

*CONN
*I *470:ZN O *C 42.9 30.6 *L 0 *D OAI211D0
*I *462:C I *C 42.1 29.8 *L 0.000701 *D AOI221D0

*CAP
1 *470:ZN 0.000103979
2 *462:C 0.000112427998

*RES
1 *462:C *470:ZN 1.07798
*END

*D_NET *262 0.00171296

*CONN
*I *480:ZN O *C 33.3 29.6 *L 0 *D AOI21D0
*I *469:B2 I *C 39.9 30.2 *L 0.000744 *D MAOI22D0
*I *469:A2 I *C 39.1 30 *L 0.000697 *D MAOI22D0

*CAP
1 *469:B2 0.000198843
2 *469:A2 0.000119622
3 *262:3 0.00129406
4 *262:4 0.000100429

*RES
1 *469:B2 *262:4 1.14049
2 *469:A2 *262:4 0.675003
3 *262:3 *262:4 4.54365015
4 *480:ZN *262:3 0.224978
*END

*D_NET *263 0.000309491

*CONN
*I *469:ZN O *C 39.5 29.6 *L 0 *D MAOI22D0
*I *454:A2 I *C 38.1 29.8 *L 0.000705 *D ND4D0

*CAP
1 *454:A2 0.000309491016

*RES
1 *454:A2 *469:ZN 1.73003
*END

*D_NET *264 0.00124249

*CONN
*I *533:Z O *C 30.7 43.2 *L 0 *D AO21D0
*I *468:A2 I *C 31.9 40.8 *L 0.00065 *D OAI211D0
*I *458:A1 I *C 33.5 40.8 *L 0.000675 *D AOI221D0

*CAP
1 *533:Z 0.000429065
2 *468:A2 0.000287621
3 *458:A1 0.000245942
4 *264:3 0.000279856

*RES
1 *458:A1 *264:3 1.73274
2 *468:A2 *264:3 1.13374
3 *533:Z *264:3 1.77726996
*END

*D_NET *265 0.00079456

*CONN
*I *570:ZN O *C 32.7 43.2 *L 0 *D IND2D0
*I *468:A1 I *C 31.5 40.8 *L 0.000711 *D OAI211D0
*I *458:A2 I *C 32.9 41 *L 0.000727 *D AOI221D0

*CAP
1 *570:ZN 0.000108796
2 *265:3 0.000367616992
3 *265:4 0.000318147

*RES
1 *570:ZN *265:3 1.62881005
2 *265:3 *265:4 1.45903
3 *468:A1 *265:4 0.450001
4 *458:A2 *265:3 0.450001
*END

*D_NET *266 0.00014006

*CONN
*I *468:ZN O *C 31.9 41.4 *L 0 *D OAI211D0
*I *458:C I *C 32.3 40.6 *L 0.000701 *D AOI221D0

*CAP
1 *468:ZN 4.09002e-05
2 *458:C 9.916e-05

*RES
1 *468:ZN *458:C 0.758654
*END

*D_NET *267 0.0020853

*CONN
*I *483:ZN O *C 37.3 36 *L 0 *D CKND2D0
*I *466:B1 I *C 30.9 35.6 *L 0.000689 *D MOAI22D0
*I *466:A1 I *C 29.9 35.6 *L 0.000721 *D MOAI22D0
*I *441:C I *C 38.7 35.6 *L 0.000698 *D OAI211D0

*CAP
1 *483:ZN 0.000136383
2 *466:B1 0.000113721
3 *466:A1 0.000212484
4 *267:4 0.00104732
5 *267:5 0.000575383

*RES
1 *483:ZN *267:5 0.764379
2 *267:4 *267:5 4.43156004
3 *466:A1 *267:4 1.48352
4 *441:C *267:5 1.76523
5 *466:B1 *267:4 0.450013
*END

*D_NET *268 0.000670094

*CONN
*I *466:ZN O *C 30.1 35 *L 0 *D MOAI22D0
*I *425:D I *C 32.5 33.8 *L 0.000644 *D EDFKCNQD1

*CAP
1 *268:2 0.000426629023
2 *268:3 0.000243465

*RES
1 *268:2 *268:3 2.59411001
2 *425:D *268:3 0.22499
3 *466:ZN *268:2 0.22499
*END

*D_NET *269 0.000856254

*CONN
*I *522:ZN O *C 50.9 61.2 *L 0 *D CKND2D0
*I *465:A2 I *C 47.7 60.8 *L 0.000664 *D NR2D0
*I *464:A2 I *C 48.7 60.8 *L 0.000585 *D CKAN2D0

*CAP
1 *465:A2 0.000228884
2 *269:3 0.000164294
3 *269:4 7.51264e-05
4 *269:5 0.000387945

*RES
1 *269:3 *269:5 1.77978003
2 *465:A2 *269:4 1.1087
3 *464:A2 *269:4 0.224998
4 *522:ZN *269:3 0.449996
5 *269:4 *269:5 0.224998
*END

*D_NET *270 0.000223073

*CONN
*I *465:ZN O *C 47.3 61 *L 0 *D NR2D0
*I *459:A2 I *C 46.3 60.8 *L 0.00105 *D OR2XD1

*CAP
1 *465:ZN 5.92039e-05
2 *459:A2 0.000163868984

*RES
1 *465:ZN *459:A2 1.09991
*END

*D_NET *271 0.00109091

*CONN
*I *471:ZN O *C 44.9 60.2 *L 0 *D IOA21D0
*I *465:A1 I *C 47.3 60.8 *L 0.000647 *D NR2D0
*I *464:A1 I *C 48.9 60.8 *L 0.000556 *D CKAN2D0
*I *461:A1 I *C 49.5 60.8 *L 0.000669 *D IOA21D0

*CAP
1 *471:ZN 0.00036621
2 *465:A1 0.000105152
3 *464:A1 2.54337e-05
4 *461:A1 5.12702e-05
5 *271:4 0.000102836
6 *271:5 0.00044002

*RES
1 *471:ZN *271:5 1.97044003
2 *271:4 *271:5 1.91731
3 *465:A1 *271:5 0.450006
4 *461:A1 *464:A1 0.431695
5 *461:A1 *271:4 0.224988
*END

*D_NET *272 0.000528735

*CONN
*I *464:Z O *C 48.1 61 *L 0 *D CKAN2D0
*I *459:A1 I *C 46.7 61 *L 0.000964 *D OR2XD1

*CAP
1 *459:A1 0.00011457
2 *272:2 0.000414163008

*RES
1 *464:Z *272:2 1.57071996
2 *459:A1 *272:2 0.45001
*END

*D_NET *273 0.00172083

*CONN
*I *463:Z O *C 44.7 40.4 *L 0 *D AN4D0
*I *455:B I *C 37.7 40.8 *L 0.000726 *D OAI211D0

*CAP
1 *273:2 0.000114994
2 *273:3 0.00160583

*RES
1 *455:B *273:3 0.805601
2 *273:2 *273:3 5.92746019
3 *463:Z *273:2 0.225029
*END

*D_NET *274 0.000821729

*CONN
*I *462:ZN O *C 41.7 29.6 *L 0 *D AOI221D0
*I *454:A1 I *C 38.5 29.8 *L 0.000678 *D ND4D0

*CAP
1 *274:2 9.78241e-05
2 *274:3 0.000723905

*RES
1 *454:A1 *274:3 0.449988
2 *274:2 *274:3 2.57468009
3 *462:ZN *274:2 0.224994
*END

*D_NET *275 0.00121406

*CONN
*I *460:CO O *C 38.7 47.6 *L 0 *D FA1D0
*I *448:CI I *C 45.3 47.8 *L 0.001 *D FA1D0

*CAP
1 *460:CO 0.000268568
2 *275:2 0.000217383
3 *275:3 0.000728108984

*RES
1 *275:2 *275:3 3.96571994
2 *448:CI *275:2 0.351091
3 *460:CO *275:3 1.19015
*END

*D_NET *276 0.00311473

*CONN
*I *351:I I *C 51.3 42.8 *L 0.00104 *D DEL0
*I *460:S O *C 39.3 47.8 *L 0 *D FA1D0

*CAP
1 *351:I 0.000277118
2 *460:S 0.000631954
3 *276:2 0.000241756
4 *276:3 0.000797615
5 *276:4 0.00109674
6 *276:5 6.95347e-05

*RES
1 *276:3 *276:5 3.47478
2 *460:S *276:3 2.93017
3 *276:4 *276:5 0.220325
4 *276:2 *276:4 5.49855995
5 *351:I *276:2 1.22504
*END

*D_NET *277 0.00255874

*CONN
*I *545:ZN O *C 30.3 48.6 *L 0 *D OAI21D0
*I *479:A1 I *C 30.1 40.8 *L 0.000687 *D OA221D0
*I *458:B1 I *C 32.7 40.6 *L 0.00072 *D AOI221D0
*I *435:A2 I *C 30.7 46.4 *L 0.000697 *D MOAI22D0

*CAP
1 *545:ZN 0.000208432
2 *479:A1 0.000334505
3 *458:B1 0.000300469
4 *277:4 0.000532768
5 *277:5 0.000247646
6 *277:6 0.000400538
7 *277:7 0.000534390977

*RES
1 *277:5 *277:6 1.89915
2 *545:ZN *277:6 0.746053
3 *435:A2 *277:5 1.3912
4 *479:A1 *277:4 1.69117
5 *277:4 *277:5 2.05431
6 *458:B1 *277:7 3.01290011
7 *277:4 *277:7 0.224993
*END

*D_NET *278 0.000720437

*CONN
*I *458:ZN O *C 32.7 40.4 *L 0 *D AOI221D0
*I *452:B I *C 35.1 39.2 *L 0.000726 *D OAI211D0

*CAP
1 *458:ZN 9.69255e-05
2 *452:B 0.000309199
3 *278:2 0.000314315996

*RES
1 *452:B *278:2 3.07134008
2 *458:ZN *278:2 0.449997
*END

*D_NET *279 0.00214357

*CONN
*I *554:ZN O *C 51.5 53 *L 0 *D MOAI22D0
*I *457:A2 I *C 51.7 62.4 *L 0.000585 *D CKAN2D0
*I *456:A2 I *C 50.7 62.4 *L 0.000664 *D NR2D0

*CAP
1 *554:ZN 0.000275783
2 *456:A2 0.000290328
3 *279:4 0.000651295
4 *279:5 0.000773096016
5 *279:6 0.000153062

*RES
1 *279:3 *279:4 2.70358992
2 *279:4 *279:5 2.64352
3 *279:3 *279:6 0.285474
4 *457:A2 *279:6 0.460719
5 *554:ZN *279:5 1.02861
6 *456:A2 *279:6 1.16079
*END

*D_NET *280 0.000593212

*CONN
*I *461:ZN O *C 50.3 60.2 *L 0 *D IOA21D0
*I *457:A1 I *C 51.9 62.4 *L 0.000556 *D CKAN2D0
*I *456:A1 I *C 50.3 62.4 *L 0.000647 *D NR2D0

*CAP
1 *461:ZN 0.000202504
2 *457:A1 9.39222e-05
3 *280:3 7.65953e-05
4 *280:4 0.00022019

*RES
1 *461:ZN *280:3 1.33993
2 *457:A1 *280:4 1.97679996
3 *456:A1 *280:3 0.22499
4 *280:3 *280:4 0.22499
*END

*D_NET *281 0.000521439

*CONN
*I *457:Z O *C 51.1 62.2 *L 0 *D CKAN2D0
*I *453:A1 I *C 50.3 64.6 *L 0.000964 *D OR2XD1

*CAP
1 *457:Z 0.000519003984
2 *453:A1 2.43128e-06

*RES
1 *457:Z *453:A1 2.1217
*END

*D_NET *282 0.000354998

*CONN
*I *456:ZN O *C 50.3 62.2 *L 0 *D NR2D0
*I *453:A2 I *C 49.9 64.4 *L 0.00105 *D OR2XD1

*CAP
1 *456:ZN 0.000354998008

*RES
1 *453:A2 *456:ZN 1.52712
*END

*D_NET *283 0.00297538

*CONN
*I *451:ZN O *C 35.9 43.2 *L 0 *D CKND2D0
*I *450:I I *C 34.9 53.8 *L 0.00062 *D CKND0
*I *447:A1 I *C 36.9 53.6 *L 0.000647 *D NR2D0

*CAP
1 *451:ZN 0.00135756
2 *450:I 0.000293449
3 *283:3 0.000844262
4 *283:4 4.41645e-05
5 *283:5 0.000435948

*RES
1 *283:3 *283:4 0.305198
2 *451:ZN *283:4 5.18978977
3 *283:3 *283:5 3.63846
4 *447:A1 *283:5 0.930323
5 *450:I *283:5 1.49297
*END

*D_NET *284 0.00169503

*CONN
*I *454:ZN O *C 38.3 30.4 *L 0 *D ND4D0
*I *449:A1 I *C 37.5 39.2 *L 0.000718 *D INR3D0
*I *444:A1 I *C 37.7 39.2 *L 0.000662 *D OAI31D0

*CAP
1 *454:ZN 0.00046254
2 *449:A1 5.52853e-06
3 *284:3 0.000936208047
4 *284:4 0.000290769

*RES
1 *449:A1 *284:4 1.12642
2 *454:ZN *284:3 1.95433
3 *444:A1 *449:A1 0.176133
4 *284:3 *284:4 3.60156989
*END

*D_NET *285 0.00146924

*CONN
*I *448:CO O *C 44.3 47.6 *L 0 *D FA1D0
*I *420:CI I *C 50.5 47.8 *L 0.001 *D FA1D0

*CAP
1 *448:CO 0.000830196016
2 *285:2 0.000175249
3 *285:3 0.0004638

*RES
1 *285:2 *285:3 2.30724
2 *448:CO *285:3 3.42167997
3 *420:CI *285:2 0.224976
*END

*D_NET *286 0.00428612

*CONN
*I *352:I I *C 57.7 50 *L 0.00104 *D DEL0
*I *448:S O *C 44.9 47.8 *L 0 *D FA1D0

*CAP
1 *352:I 0.00032554
2 *448:S 0.000466812
3 *286:2 0.000376417
4 *286:3 0.00013143
5 *286:4 0.0024249
6 *286:5 0.000561018

*RES
1 *286:3 *286:4 9.83613968
2 *286:4 *286:5 2.64229
3 *286:2 *286:3 1.26164
4 *448:S *286:5 1.54485
5 *352:I *286:2 3.38718
*END

*D_NET *287 0.00164512

*CONN
*I *452:ZN O *C 35.7 38.6 *L 0 *D OAI211D0
*I *449:B1 I *C 36.9 39.2 *L 0.000894 *D INR3D0
*I *446:B2 I *C 35.5 42.8 *L 0.000657 *D IND3D0
*I *444:A2 I *C 38.1 39.2 *L 0.000691 *D OAI31D0

*CAP
1 *452:ZN 0.000109822
2 *449:B1 3.20933e-05
3 *446:B2 0.000804602969
4 *287:4 0.000342111
5 *287:5 0.000356488

*RES
1 *287:4 *287:5 0.729508
2 *444:A2 *287:5 1.20679
3 *452:ZN *287:4 0.926199
4 *449:B1 *287:5 0.449975
5 *446:B2 *287:4 3.31454992
*END

*D_NET *288 0.00192019

*CONN
*I *455:ZN O *C 38.3 41.4 *L 0 *D OAI211D0
*I *451:A1 I *C 36.1 43 *L 0.000617 *D CKND2D0
*I *449:B2 I *C 36.5 39.2 *L 0.000774 *D INR3D0
*I *446:A1 I *C 34.5 42.8 *L 0.000682 *D IND3D0
*I *444:A3 I *C 38.3 39.2 *L 0.000706 *D OAI31D0

*CAP
1 *455:ZN 1.83739e-05
2 *449:B2 0.00022618
3 *288:5 0.00010083
4 *288:6 0.000126223
5 *288:7 5.03825e-06
6 *288:8 0.000529986992
7 *288:9 0.000398216
8 *288:10 0.000110987
9 *288:11 0.000119244
10 *288:12 0.00028511

*RES
1 *288:10 *288:12 1.32008
2 *288:5 *288:6 0.541549
3 *455:ZN *288:5 0.320508
4 *288:11 *288:12 0.351113
5 *288:7 *288:8 0.285423
6 *288:6 *288:7 0.159308
7 *455:ZN *288:9 1.90657997
8 *449:B2 *288:7 0.844718
9 *288:8 *288:10 1.87173
10 *446:A1 *288:11 0.224998
11 *451:A1 *288:10 0.449997
12 *444:A3 *288:9 0.449997
*END

*D_NET *289 0.00321626

*CONN
*I *342:I I *C 50.3 35.6 *L 0.00104 *D DEL0
*I *444:ZN O *C 37.7 39.6 *L 0 *D OAI31D0

*CAP
1 *342:I 0.000150765
2 *444:ZN 9.65217e-05
3 *289:2 0.000405043
4 *289:3 0.00114087
5 *289:4 0.00142307

*RES
1 *289:3 *289:4 2.94824
2 *289:2 *289:4 6.46963978
3 *342:I *289:2 1.08077
4 *444:ZN *289:3 2.8127
*END

*D_NET *290 0.000453028

*CONN
*I *606:DB I *C 33.7 50 *L 0.00109 *D DFXD1
*I *443:ZN O *C 34.1 51.4 *L 0 *D CKND0

*CAP
1 *606:DB 8.95772e-05
2 *443:ZN 0.00036345

*RES
1 *443:ZN *606:DB 2.02461
*END

*D_NET *291 0.000754001

*CONN
*I *442:ZN O *C 40.5 41.4 *L 0 *D OAI211D0
*I *424:B I *C 40.5 39.2 *L 0.000669 *D IOA21D0

*CAP
1 *442:ZN 0.000421878984
2 *424:B 0.000332121

*RES
1 *442:ZN *424:B 2.68414
*END

*D_NET *292 0.000399439

*CONN
*I *441:ZN O *C 39.7 35 *L 0 *D OAI211D0
*I *421:B I *C 40.9 35.6 *L 0.000669 *D IOA21D0

*CAP
1 *441:ZN 0.000399439023

*RES
1 *421:B *441:ZN 1.78039
*END

*D_NET *293 0.000825213

*CONN
*I *440:ZN O *C 51.1 34.2 *L 0 *D OAI211D0
*I *423:B I *C 52.3 33.6 *L 0.000669 *D IOA21D0

*CAP
1 *423:B 0.000110276
2 *293:2 0.000688803047
3 *293:3 2.6129e-05

*RES
1 *423:B *293:3 0.450009
2 *293:2 *293:3 2.07966995
3 *440:ZN *293:2 0.224989
*END

*D_NET *294 0.000619175

*CONN
*I *439:ZN O *C 42.5 35 *L 0 *D OAI211D0
*I *422:B I *C 42.9 35.6 *L 0.000669 *D IOA21D0

*CAP
1 *422:B 0.000163748
2 *294:2 0.000455426016

*RES
1 *422:B *294:2 1.98696005
2 *439:ZN *294:2 0.224994
*END

*D_NET *295 0.000985753

*CONN
*I *601:D I *C 52.7 57.2 *L 0.000958 *D DFD1
*I *438:Z O *C 48.9 56.6 *L 0 *D AO22D0

*CAP
1 *601:D 0.000154292
2 *438:Z 0.000102255
3 *295:2 0.000242511
4 *295:3 0.000486693008

*RES
1 *295:2 *295:3 3.03908992
2 *601:D *295:2 0.477316
3 *438:Z *295:3 0.450002
*END

*D_NET *296 0.00274677

*CONN
*I *340:I I *C 52.1 58.8 *L 0.00104 *D DEL0
*I *437:ZN O *C 35.3 59.4 *L 0 *D MOAI22D0

*CAP
1 *437:ZN 0.000672479
2 *296:2 0.000224467
3 *296:3 0.000816112969
4 *296:4 7.01731e-05
5 *296:5 0.000545109
6 *296:6 0.000418436

*RES
1 *296:2 *296:3 3.80091
2 *437:ZN *296:6 3.17164
3 *296:3 *296:4 0.219056
4 *340:I *296:2 0.770262
5 *296:5 *296:6 2.39807
6 *296:4 *296:5 2.93408
*END

*D_NET *297 0.00323317

*CONN
*I *339:I I *C 41.7 69.6 *L 0.00104 *D DEL0
*I *436:ZN O *C 28.3 59.4 *L 0 *D MOAI22D0

*CAP
1 *436:ZN 0.00106429008
2 *297:2 0.000955969
3 *297:3 0.000589805
4 *297:4 0.000595912
5 *297:5 2.7202e-05

*RES
1 *297:2 *297:5 4.92918015
2 *436:ZN *297:2 4.83381
3 *297:4 *297:5 0.0929637
4 *297:3 *297:4 3.69087
5 *339:I *297:3 3.1807
*END

*D_NET *298 0.000833773

*CONN
*I *607:D I *C 28.5 44.4 *L 0.000958 *D DFD1
*I *435:ZN O *C 31.1 45.8 *L 0 *D MOAI22D0

*CAP
1 *435:ZN 0.000252613
2 *298:2 0.000581161992

*RES
1 *435:ZN *298:2 3.22597003
2 *607:D *298:2 0.225005
*END

*D_NET *299 0.00313385

*CONN
*I *343:I I *C 54.7 44.4 *L 0.00104 *D DEL0
*I *446:ZN O *C 34.9 43.2 *L 0 *D IND3D0

*CAP
1 *299:2 0.000310628
2 *299:3 0.000580487
3 *299:4 0.000274561
4 *299:5 0.000187018
5 *299:6 0.00178117

*RES
1 *299:4 *299:5 1.2617
2 *299:5 *299:6 7.96364021
3 *299:3 *299:6 2.47867
4 *299:2 *299:4 2.10088
5 *343:I *299:2 1.58541
6 *446:ZN *299:3 0.225047
*END

*D_NET *300 0.00414475

*CONN
*I *338:I I *C 45.5 66 *L 0.00104 *D DEL0
*I *434:ZN O *C 28.3 53 *L 0 *D MOAI22D0

*CAP
1 *338:I 0.000180121
2 *434:ZN 0.000117911
3 *300:2 0.00137179
4 *300:3 0.000441439
5 *300:4 0.0012749
6 *300:5 0.000222446
7 *300:6 0.000536136

*RES
1 *300:4 *300:6 8.05212021
2 *434:ZN *300:2 0.35115
3 *300:4 *300:5 1.37081
4 *300:3 *300:6 2.84901
5 *300:2 *300:5 6.77592
6 *338:I *300:3 3.12398
*END

*D_NET *301 0.000446312

*CONN
*I *597:D I *C 44.7 55.2 *L 0.000958 *D DFD1
*I *433:Z O *C 44.7 56.6 *L 0 *D AO22D0

*CAP
1 *433:Z 0.000446311992

*RES
1 *597:D *433:Z 1.57059
*END

*D_NET *302 0.00048171

*CONN
*I *599:D I *C 43.3 53.6 *L 0.000958 *D DFD1
*I *432:Z O *C 42.7 55.8 *L 0 *D AO22D0

*CAP
1 *599:D 6.83429e-05
2 *432:Z 0.000413368984

*RES
1 *432:Z *599:D 2.12341
*END

*D_NET *303 0.000267689

*CONN
*I *600:D I *C 37.9 51.6 *L 0.000958 *D DFD1
*I *431:Z O *C 37.9 53 *L 0 *D AO22D0

*CAP
1 *431:Z 0.000267688984

*RES
1 *600:D *431:Z 1.33277
*END

*D_NET *304 0.00502427

*CONN
*I *606:DA I *C 34.7 50 *L 0.000727 *D DFXD1
*I *450:ZN O *C 34.5 53.8 *L 0 *D CKND0
*I *437:B1 I *C 34.5 58.8 *L 0.000689 *D MOAI22D0
*I *436:B1 I *C 29.1 58.8 *L 0.000689 *D MOAI22D0
*I *435:B1 I *C 31.9 46.4 *L 0.000689 *D MOAI22D0
*I *434:B1 I *C 29.1 53.6 *L 0.000689 *D MOAI22D0
*I *430:B1 I *C 34.3 57.2 *L 0.000689 *D MOAI22D0

*CAP
1 *437:B1 0.000126207
2 *436:B1 0.000165461
3 *435:B1 5.75212e-05
4 *434:B1 0.00020082
5 *304:7 0.000905512969
6 *304:8 0.000481517
7 *304:9 8.6192e-05
8 *304:10 5.13863e-05
9 *304:11 0.000204053
10 *304:12 0.000253367
11 *304:13 0.00042582
12 *304:14 0.000495155
13 *304:15 0.000124714
14 *304:16 0.000510754
15 *304:14 *606:CP 0.000232663008
16 *435:B1 *435:A1 0.000410386016
17 *436:B1 *30:5 0.000292753008

*RES
1 *304:8 *304:13 0.40091
2 *436:B1 *304:10 1.25102
3 *304:12 *304:13 2.14781
4 *304:14 *304:15 2.70954
5 *304:9 *304:16 3.37816
6 *304:11 *304:15 1.50286
7 *304:7 *304:10 3.92676997
8 *434:B1 *304:7 0.875099
9 *435:B1 *304:14 0.973843
10 *437:B1 *304:9 0.729678
11 *304:9 *304:12 0.842683
12 *304:8 *304:11 2.4945
13 *450:ZN *304:13 0.224991
14 *430:B1 *304:12 0.224991
15 *606:DA *304:11 0.224991
16 *304:10 *304:16 0.224991
*END

*D_NET *305 0.00352648

*CONN
*I *341:I I *C 55.1 55.2 *L 0.00104 *D DEL0
*I *430:ZN O *C 33.5 56.6 *L 0 *D MOAI22D0

*CAP
1 *305:2 0.00084644
2 *305:3 0.000750889
3 *305:4 0.00020305
4 *305:5 0.00060184
5 *305:6 0.000396555
6 *305:7 0.000727705

*RES
1 *305:2 *305:4 4.0175
2 *305:6 *305:7 3.67842
3 *305:5 *305:6 1.84512
4 *305:4 *305:5 2.98667
5 *305:3 *305:7 4.11829996
6 *430:ZN *305:3 0.225031
7 *341:I *305:2 0.449999
*END

*D_NET *306 0.00415216

*CONN
*I *595:DA I *C 35.9 55.2 *L 0.000727 *D DFXD1
*I *503:ZN O *C 35.7 51.4 *L 0 *D NR2D0
*I *447:A2 I *C 36.5 53.6 *L 0.000664 *D NR2D0
*I *438:B1 I *C 47.9 57.4 *L 0.000863 *D AO22D0
*I *433:B1 I *C 43.7 57.4 *L 0.000863 *D AO22D0
*I *432:B1 I *C 41.7 55 *L 0.000863 *D AO22D0
*I *431:B1 I *C 38.9 53.8 *L 0.000863 *D AO22D0
*I *429:B1 I *C 48.7 55 *L 0.000863 *D AO22D0

*CAP
1 *595:DA 4.01326e-05
2 *503:ZN 0.000140135
3 *447:A2 7.68227e-05
4 *438:B1 0.000268518
5 *431:B1 0.000309082
6 *306:8 0.000541698
7 *306:9 0.000522263
8 *306:10 0.000345093
9 *306:12 0.000261374
10 *306:13 0.000707202969
11 *306:14 0.000471598
12 *306:15 0.00046822

*RES
1 *438:B1 *306:12 1.6305
2 *306:11 *306:13 1.98593
3 *595:DA *306:9 0.528942
4 *431:B1 *306:14 1.20666
5 *306:8 *306:13 2.87364006
6 *306:9 *306:14 1.7385
7 *306:8 *306:12 0.48027
8 *306:13 *306:15 1.63962
9 *447:A2 *306:10 1.01873
10 *432:B1 *306:15 0.83509
11 *503:ZN *306:10 1.11028
12 *306:9 *306:10 1.19131
13 *306:14 *306:15 2.14414
14 *429:B1 *306:12 0.224985
15 *433:B1 *306:11 0.224985
*END

*D_NET *307 0.00407255

*CONN
*I *595:DB I *C 36.9 55.2 *L 0.00109 *D DFXD1
*I *447:ZN O *C 36.9 53.8 *L 0 *D NR2D0
*I *438:A1 I *C 47.7 57 *L 0.00073 *D AO22D0
*I *433:A1 I *C 43.5 57 *L 0.00073 *D AO22D0
*I *432:A1 I *C 41.5 55.4 *L 0.00073 *D AO22D0
*I *431:A1 I *C 39.1 53.4 *L 0.00073 *D AO22D0
*I *429:A1 I *C 48.9 55.4 *L 0.00073 *D AO22D0

*CAP
1 *595:DB 0.000332327
2 *447:ZN 0.000210615
3 *438:A1 4.25507e-05
4 *433:A1 5.64381e-05
5 *431:A1 0.000245613
6 *429:A1 0.000309521
7 *307:7 0.000458712
8 *307:8 0.00107833008
9 *307:9 0.000374186
10 *307:10 0.000397732
11 *307:11 0.0003331
12 *307:12 0.000233437

*RES
1 *595:DB *307:7 1.81839
2 *307:9 *307:11 2.26213
3 *447:ZN *307:7 0.946495
4 *429:A1 *307:11 2.44081
5 *438:A1 *307:11 0.675016
6 *433:A1 *307:12 0.675016
7 *307:8 *307:12 2.91854
8 *307:9 *307:12 0.899471
9 *307:8 *307:10 2.92385006
10 *431:A1 *307:10 1.15525
11 *307:7 *307:10 1.66595
12 *432:A1 *307:8 0.449981
*END

*D_NET *308 0.00180309

*CONN
*I *345:I I *C 54.9 53.6 *L 0.00104 *D DEL0
*I *429:Z O *C 47.7 55.8 *L 0 *D AO22D0

*CAP
1 *345:I 0.000209425
2 *429:Z 0.000903533984
3 *308:2 0.000197155
4 *308:3 0.000492983

*RES
1 *345:I *308:2 1.77015
2 *429:Z *308:3 3.44096994
3 *308:2 *308:3 2.11102
*END

*D_NET *309 0.000598093

*CONN
*I *428:ZN O *C 49.5 35.8 *L 0 *D MUX2ND0
*I *419:D I *C 49.3 39.2 *L 0.000885 *D DFKCNQD1

*CAP
1 *428:ZN 0.000598092969

*RES
1 *428:ZN *419:D 2.60783
*END

*D_NET *310 0.00216613

*CONN
*I *337:I I *C 53.3 37.2 *L 0.00104 *D DEL0
*I *424:ZN O *C 40.3 38.6 *L 0 *D IOA21D0

*CAP
1 *337:I 0.000122083
2 *310:2 8.50158e-05
3 *310:3 0.00195904

*RES
1 *310:2 *310:3 8.32658958
2 *337:I *310:2 0.702353
3 *424:ZN *310:3 1.86388
*END

*D_NET *311 0.000492452

*CONN
*I *423:ZN O *C 52.1 34.2 *L 0 *D IOA21D0
*I *416:D I *C 52.1 32 *L 0.000885 *D DFKCNQD1

*CAP
1 *416:D 0.000492451992

*RES
1 *416:D *423:ZN 1.59989
*END

*D_NET *312 0.00417365

*CONN
*I *445:ZN O *C 48.5 35.8 *L 0 *D CKND0
*I *428:I0 I *C 49.1 35.6 *L 0.000706 *D MUX2ND0
*I *424:A1 I *C 39.5 39.2 *L 0.000669 *D IOA21D0
*I *423:A1 I *C 51.3 33.6 *L 0.000669 *D IOA21D0
*I *422:A1 I *C 43.9 35.6 *L 0.000669 *D IOA21D0
*I *421:A1 I *C 39.9 35.6 *L 0.000669 *D IOA21D0

*CAP
1 *445:ZN 0.000100978
2 *428:I0 0.000151359
3 *424:A1 0.000589543
4 *423:A1 0.000455408
5 *422:A1 0.000237546
6 *421:A1 0.000131244
7 *312:6 6.34237e-05
8 *312:7 6.91247e-05
9 *312:8 0.000881168047
10 *312:9 0.000487557
11 *312:10 0.000534214
12 *312:11 0.000472094

*RES
1 *312:9 *312:10 1.92939
2 *312:8 *312:10 3.17467999
3 *312:9 *312:11 1.96393
4 *312:7 *312:11 0.479767
5 *423:A1 *312:6 2.27318
6 *421:A1 *312:8 0.872533
7 *422:A1 *312:10 0.903245
8 *312:6 *312:11 2.33911
9 *428:I0 *312:7 1.14134
10 *424:A1 *312:8 2.60786
11 *445:ZN *312:7 0.393202
*END

*D_NET *313 0.00123464

*CONN
*I *422:ZN O *C 43.1 35 *L 0 *D IOA21D0
*I *417:D I *C 46.7 35.6 *L 0.000885 *D DFKCNQD1

*CAP
1 *417:D 0.000239385
2 *313:2 7.79893e-05
3 *313:3 0.00091727

*RES
1 *313:2 *313:3 3.55780005
2 *422:ZN *313:3 0.675014
3 *417:D *313:2 0.545157
*END

*D_NET *314 0.00102861

*CONN
*I *421:ZN O *C 40.7 35 *L 0 *D IOA21D0
*I *415:D I *C 41.5 32 *L 0.000885 *D DFKCNQD1

*CAP
1 *421:ZN 5.64733e-07
2 *415:D 0.00102804992

*RES
1 *415:D *421:ZN 3.85454
*END

*D_NET *315 0.00116436

*CONN
*I *354:I I *C 54.5 48 *L 0.00104 *D DEL0
*I *420:S O *C 50.1 47.8 *L 0 *D FA1D0

*CAP
1 *420:S 0.000797057969
2 *315:2 0.000367302

*RES
1 *420:S *315:2 3.11184001
2 *354:I *315:2 1.84585
*END

*D_NET *316 0.000811135

*CONN
*I *553:ZN O *C 51.7 41.4 *L 0 *D MOAI22D0
*I *414:B2 I *C 49.7 44.2 *L 0.000739 *D MOAI22D0
*I *414:A2 I *C 50.5 44.4 *L 0.000697 *D MOAI22D0

*CAP
1 *553:ZN 0.000434718008
2 *414:B2 0.000182259
3 *316:3 0.000194159

*RES
1 *414:B2 *316:3 0.873492
2 *414:A2 *316:3 0.979866
3 *553:ZN *316:3 2.52037001
*END

*D_NET *317 0.00123421

*CONN
*I *420:CO O *C 49.5 47.6 *L 0 *D FA1D0
*I *414:B1 I *C 49.3 44.4 *L 0.000689 *D MOAI22D0
*I *414:A1 I *C 50.3 44.4 *L 0.000721 *D MOAI22D0

*CAP
1 *414:B1 0.000290017
2 *414:A1 0.000138232
3 *317:3 0.000805966016

*RES
1 *420:CO *317:3 1.77664995
2 *414:B1 *317:3 1.02105
3 *414:A1 *317:3 1.72978
*END

*D_NET *318 0.000667908

*CONN
*I *353:I I *C 52.1 44.4 *L 0.00104 *D DEL0
*I *414:ZN O *C 50.1 45 *L 0 *D MOAI22D0

*CAP
1 *353:I 0.000215023
2 *414:ZN 0.000452885

*RES
1 *414:ZN *353:I 3.04558
*END

*D_NET *319 0.00214867

*CONN
*I *344:I I *C 46.7 37.2 *L 0.00103 *D DEL015
*I *449:ZN O *C 36.9 39.6 *L 0 *D INR3D0

*CAP
1 *344:I 0.000208521
2 *319:2 6.86787e-05
3 *319:3 0.00187146

*RES
1 *319:2 *319:3 8.30475044
2 *344:I *319:2 1.09385
3 *449:ZN *319:3 0.863093
*END

*D_NET *320 0.000920094

*CONN
*I *580:Z O *C 32.9 62 *L 0 *D CKXOR2D0
*I *430:A2 I *C 33.1 57.2 *L 0.000697 *D MOAI22D0

*CAP
1 *580:Z 0.000218571
2 *430:A2 0.000283554
3 *320:2 0.000417964023

*RES
1 *430:A2 *320:2 3.09912992
2 *580:Z *320:2 1.13721
*END

*D_NET *321 0.000521307

*CONN
*I *581:Z O *C 34.3 61.2 *L 0 *D CKXOR2D0
*I *437:A2 I *C 35.7 58.8 *L 0.000697 *D MOAI22D0

*CAP
1 *581:Z 0.000174564
2 *437:A2 0.000346740977

*RES
1 *581:Z *437:A2 2.66324
*END

*D_NET *322 0.000401897

*CONN
*I *582:ZN O *C 32.9 37 *L 0 *D XNR2D0
*I *474:B I *C 34.1 37.2 *L 0.000707 *D AOI211D0

*CAP
1 *582:ZN 0.000226738008
2 *474:B 0.000175159

*RES
1 *582:ZN *474:B 2.12098
*END

*D_NET *323 0.000479187

*CONN
*I *583:Z O *C 27.5 61.2 *L 0 *D CKXOR2D0
*I *436:A2 I *C 27.9 58.8 *L 0.000697 *D MOAI22D0

*CAP
1 *583:Z 0.000432765
2 *436:A2 4.64231e-05

*RES
1 *583:Z *436:A2 2.06453
*END

*D_NET *324 0.000579788

*CONN
*I *584:Z O *C 27.5 50.4 *L 0 *D CKXOR2D0
*I *434:A2 I *C 27.9 53.6 *L 0.000697 *D MOAI22D0

*CAP
1 *584:Z 0.000579788047

*RES
1 *584:Z *434:A2 2.86134
*END

*D_NET *325 0.000334588

*CONN
*I *585:ZN O *C 33.5 35.8 *L 0 *D XNR2D0
*I *474:C I *C 33.7 37.2 *L 0.000686 *D AOI211D0

*CAP
1 *585:ZN 4.63182e-05
2 *474:C 0.000288268008

*RES
1 *585:ZN *474:C 1.63213
*END

*D_NET *326 0.00277574

*CONN
*I *376:I I *C 29.1 62.4 *L 0.00104 *D DEL0
*I *606:QN O *C 29.9 49.6 *L 0 *D DFXD1

*CAP
1 *376:I 7.03258e-06
2 *606:QN 8.96969e-06
3 *326:2 0.00275976

*RES
1 *606:QN *326:2 0.327272
2 *376:I *326:2 10.6548004
*END

*D_NET *327 0.00109668

*CONN
*I *377:I I *C 34.7 48 *L 0.00104 *D DEL0
*I *607:QN O *C 31.3 44.8 *L 0 *D DFD1

*CAP
1 *607:QN 6.27778e-05
2 *327:2 0.00065221
3 *327:3 0.000381692

*RES
1 *327:2 *327:3 2.36917
2 *607:QN *327:3 0.449987
3 *377:I *327:2 2.97221994
*END

*D_NET *328 0.00113836

*CONN
*I *359:I I *C 62.7 28.4 *L 0.00104 *D DEL0
*I *609:QN O *C 55.1 30.4 *L 0 *D DFXD1

*CAP
1 *359:I 0.000377864
2 *328:2 0.000678968047
3 *328:3 7.51128e-05
4 *328:4 6.41308e-06

*RES
1 *328:2 *328:4 2.49598
2 *359:I *328:3 3.34771991
3 *609:QN *328:2 1.02747
4 *328:3 *328:4 0.225017
*END

*D_NET *329 0.000841715

*CONN
*I *610:Z O *C 35.9 64.6 *L 0 *D CKAN2D0
*I *489:A1 I *C 36.5 65.8 *L 0.000964 *D OR2XD1

*CAP
1 *610:Z 0.000580865977
2 *489:A1 0.000260851

*RES
1 *489:A1 *610:Z 3.25038
*END

*D_NET *330 0.000558079

*CONN
*I *611:ZN O *C 38.3 61.2 *L 0 *D IND2D0
*I *526:A1 I *C 38.1 64.4 *L 0.00098 *D AN2XD1

*CAP
1 *526:A1 9.01456e-05
2 *330:2 0.000467936016

*RES
1 *526:A1 *330:2 2.43869996
2 *611:ZN *330:2 0.225019
*END

