*SPEF "IEEE 1481-1998"
*DESIGN "sram_wrapper"
*DATE "Wed Apr  1 00:28:33 2026"
*VENDOR "Cadence Design Systems, Inc."
*PROGRAM "Innovus"
*VERSION "21.16-s078_1"
*DESIGN_FLOW "COUPLING C" "PIN_CAP NONE" "NAME_SCOPE LOCAL"
*DIVIDER /
*DELIMITER :
*BUS_DELIMITER []
*T_UNIT 1 NS
*C_UNIT 1 PF
*R_UNIT 1 OHM
*L_UNIT 1 HENRY

// MMMC spef file for corner 'RC_WORST'

*NAME_MAP

*1 FE_PDN541_tpu_dout_58
*2 FE_PDN539_tpu_dout_54
*3 FE_PHN538_bus_din_5
*4 FE_PHN537_bus_din_5
*5 FE_PHN536_bus_din_5
*6 FE_PHN535_bus_din_5
*7 FE_PHN534_bus_din_5
*8 FE_PHN533_bus_din_5
*9 FE_PHN532_bus_din_5
*10 FE_PHN531_bus_din_5
*11 FE_PHN530_bus_din_5
*12 FE_PHN529_bus_din_5
*13 FE_PHN528_bus_din_5
*14 FE_PHN527_bus_din_5
*15 FE_PHN526_bus_din_3
*16 FE_PHN525_bus_din_5
*17 FE_PHN524_bus_din_5
*18 FE_PHN523_bus_din_3
*19 FE_PHN522_bus_din_5
*20 FE_PHN521_bus_din_5
*21 FE_PHN520_bus_din_3
*22 FE_PHN519_bus_din_1
*23 FE_PHN518_bus_din_3
*24 FE_PHN517_bus_din_0
*25 FE_PHN516_bus_din_5
*26 FE_PHN515_bus_din_4
*27 FE_PHN514_bus_addr_2
*28 FE_PHN513_bus_din_5
*29 FE_PHN512_bus_din_1
*30 FE_PHN511_bus_din_2
*31 FE_PHN510_bus_din_7
*32 FE_PHN509_bus_din_0
*33 FE_PHN508_bus_din_0
*34 FE_PHN507_bus_din_0
*35 FE_PHN506_bus_din_0
*36 FE_PHN505_bus_din_0
*37 FE_PHN504_bus_din_0
*38 FE_PHN503_bus_din_0
*39 FE_PHN502_bus_din_0
*40 FE_PHN501_bus_din_3
*41 FE_PHN500_bus_din_0
*42 FE_PHN499_bus_din_3
*43 FE_PHN498_bus_din_0
*44 FE_PHN497_bus_din_3
*45 FE_PHN496_bus_din_6
*46 FE_PHN495_bus_din_0
*47 FE_PHN494_bus_din_3
*48 FE_PHN493_bus_din_6
*49 FE_PHN492_bus_din_0
*50 FE_PHN491_bus_din_3
*51 FE_PHN490_bus_din_1
*52 FE_PHN489_bus_din_6
*53 FE_PHN488_bus_din_0
*54 FE_PHN487_bus_din_3
*55 FE_PHN486_bus_din_6
*56 FE_PHN485_bus_din_1
*57 FE_PHN484_bus_din_3
*58 FE_PHN483_bus_din_0
*59 FE_PHN482_bus_din_1
*60 FE_PHN481_bus_din_6
*61 FE_PHN480_bus_din_0
*62 FE_PHN479_bus_din_3
*63 FE_PHN478_bus_din_1
*64 FE_PHN477_bus_din_6
*65 FE_PHN476_bus_din_4
*66 FE_PHN475_bus_din_6
*67 FE_PHN474_bus_din_1
*68 FE_PHN473_bus_din_0
*69 FE_PHN472_bus_din_3
*70 FE_PHN471_bus_din_2
*71 FE_PHN470_bus_din_4
*72 FE_PHN469_bus_din_6
*73 FE_PHN468_bus_din_3
*74 FE_PHN467_bus_din_1
*75 FE_PHN466_bus_din_2
*76 FE_PHN465_bus_din_0
*77 FE_PHN464_bus_din_4
*78 FE_PHN463_bus_din_2
*79 FE_PHN462_bus_din_0
*80 FE_PHN461_bus_din_1
*81 FE_PHN460_bus_din_6
*82 FE_PHN459_bus_din_4
*83 FE_PHN458_bus_din_1
*84 FE_PHN457_bus_din_6
*85 FE_PHN456_bus_din_3
*86 FE_PHN455_bus_din_1
*87 FE_PHN454_bus_din_0
*88 FE_PHN453_bus_din_2
*89 FE_PHN452_bus_din_4
*90 FE_PHN451_bus_din_1
*91 FE_PHN450_bus_din_2
*92 FE_PHN449_bus_din_0
*93 FE_PHN448_bus_din_1
*94 FE_PHN447_bus_din_2
*95 FE_PHN446_bus_din_4
*96 FE_PHN445_bus_din_3
*97 FE_PHN444_bus_din_6
*98 FE_PHN443_bus_din_1
*99 FE_PHN442_bus_din_2
*100 FE_PHN441_bus_din_3
*101 FE_PHN440_bus_din_4
*102 FE_PHN439_bus_din_0
*103 FE_PHN438_bus_din_1
*104 FE_PHN437_bus_din_3
*105 FE_PHN436_bus_din_2
*106 FE_PHN435_bus_din_4
*107 FE_PHN434_bus_din_6
*108 FE_PHN433_bus_din_7
*109 FE_PHN432_bus_din_0
*110 FE_PHN431_bus_din_6
*111 FE_PHN430_bus_din_2
*112 FE_PHN429_bus_din_1
*113 FE_PHN428_bus_din_3
*114 FE_PHN427_bus_din_4
*115 FE_PHN426_bus_din_7
*116 FE_PHN425_bus_din_1
*117 FE_PHN424_bus_din_0
*118 FE_PHN423_bus_din_2
*119 FE_PHN422_bus_din_4
*120 FE_PHN421_bus_din_3
*121 FE_PHN420_bus_din_7
*122 FE_PHN419_bus_addr_7
*123 FE_PHN418_FE_OFN4_sram_addr_7
*124 FE_PHN417_bus_addr_11
*125 FE_PHN416_bus_addr_9
*126 FE_PHN415_bus_addr_6
*127 FE_PHN414_bus_addr_10
*128 FE_PHN413_bus_addr_2
*129 FE_PHN412_bus_din_1
*130 FE_PHN411_bus_din_6
*131 FE_PHN410_bus_din_2
*132 FE_PHN409_bus_din_5
*133 FE_PHN408_bus_addr_8
*134 FE_PHN407_bus_addr_8
*135 FE_PHN406_bus_addr_8
*136 FE_PHN405_bus_addr_8
*137 FE_PHN404_bus_addr_8
*138 FE_PHN403_bus_addr_8
*139 FE_PHN402_bus_addr_8
*140 FE_PHN401_tpu_dout_3
*141 FE_PHN400_tpu_dout_1
*142 FE_PHN399_bus_addr_8
*143 FE_PHN398_tpu_dout_3
*144 FE_PHN397_tpu_dout_1
*145 FE_PHN396_bus_addr_9
*146 FE_PHN395_bus_addr_8
*147 FE_PHN394_tpu_dout_0
*148 FE_PHN393_tpu_dout_3
*149 FE_PHN392_tpu_dout_1
*150 FE_PHN391_bus_addr_9
*151 FE_PHN390_bus_addr_8
*152 FE_PHN389_tpu_dout_1
*153 FE_PHN388_tpu_dout_3
*154 FE_PHN387_bus_addr_9
*155 FE_PHN386_tpu_dout_0
*156 FE_PHN385_bus_addr_8
*157 FE_PHN384_bus_addr_9
*158 FE_PHN383_tpu_dout_1
*159 FE_PHN382_tpu_dout_3
*160 FE_PHN381_tpu_dout_0
*161 FE_PHN380_bus_addr_8
*162 FE_PHN379_bus_addr_9
*163 FE_PHN378_tpu_dout_1
*164 FE_PHN377_tpu_dout_3
*165 FE_PHN376_tpu_dout_0
*166 FE_PHN375_bus_addr_9
*167 FE_PHN374_bus_addr_8
*168 FE_PHN373_tpu_dout_1
*169 FE_PHN372_tpu_dout_3
*170 FE_PHN371_tpu_dout_0
*171 FE_PHN370_bus_addr_3
*172 FE_PHN369_bus_addr_11
*173 FE_PHN368_bus_addr_8
*174 FE_PHN367_bus_addr_9
*175 FE_PHN366_tpu_dout_1
*176 FE_PHN365_tpu_dout_3
*177 FE_PHN364_tpu_dout_0
*178 FE_PHN363_bus_addr_3
*179 FE_PHN362_bus_addr_11
*180 FE_PHN361_bus_addr_9
*181 FE_PHN360_bus_addr_8
*182 FE_PHN359_tpu_dout_3
*183 FE_PHN358_tpu_dout_1
*184 FE_PHN357_tpu_dout_0
*185 FE_PHN356_bus_addr_3
*186 FE_PHN355_bus_addr_11
*187 FE_PHN354_bus_addr_9
*188 FE_PHN353_bus_addr_8
*189 FE_PHN352_tpu_dout_3
*190 FE_PHN351_tpu_dout_1
*191 FE_PHN350_bus_addr_11
*192 FE_PHN349_bus_addr_7
*193 FE_PHN348_bus_wbuf_0
*194 FE_PHN347_FE_OFN10_sram_addr_1
*195 FE_PHN346_bus_addr_11
*196 FE_PHN345_tpu_dout_0
*197 FE_PHN344_bus_addr_7
*198 FE_PHN343_bus_wbuf_0
*199 FE_PHN342_bus_addr_3
*200 FE_PHN341_bus_addr_6
*201 FE_PHN340_bus_addr_5
*202 FE_PHN339_bus_addr_4
*203 FE_PHN338_tpu_addr_7
*204 FE_PHN337_bus_addr_10
*205 FE_PHN336_FE_OFN10_sram_addr_1
*206 FE_PHN335_tpu_dout_31
*207 FE_PHN334_FE_OFN11_sram_addr_0
*208 FE_PHN332_tpu_dout_31
*209 FE_PHN331_tpu_dout_12
*210 FE_PHN330_tpu_dout_18
*211 FE_PHN329_tpu_dout_19
*212 FE_PHN328_tpu_dout_2
*213 FE_PHN327_tpu_dout_17
*214 FE_PHN326_tpu_dout_5
*215 FE_PHN325_tpu_dout_8
*216 FE_PHN324_bus_wbuf_0
*217 FE_PHN323_tpu_re
*218 FE_PHN322_bus_addr_6
*219 FE_PHN321_tpu_addr_7
*220 FE_PHN320_bus_addr_5
*221 FE_PHN319_bus_addr_4
*222 FE_PHN318_bus_addr_10
*223 FE_PHN317_tpu_dout_23
*224 FE_PHN316_tpu_dout_21
*225 FE_PHN315_tpu_dout_20
*226 FE_PHN314_FE_OFN9_sram_addr_2
*227 FE_PHN313_FE_OFN8_sram_addr_3
*228 FE_PHN312_FE_OFN7_sram_addr_4
*229 FE_PHN311_FE_OFN6_sram_addr_5
*230 FE_PHN310_FE_OFN5_sram_addr_6
*231 FE_PHN309_FE_OFN10_sram_addr_1
*232 FE_PHN308_FE_OFN11_sram_addr_0
*233 FE_PHN307_n_8
*234 FE_PHN306_bus_din_1
*235 FE_PHN305_bus_din_0
*236 FE_PHN304_bus_wbuf_0
*237 FE_PHN303_bus_din_6
*238 FE_PHN302_bus_din_2
*239 FE_PHN301_bus_din_3
*240 FE_PHN300_bus_din_4
*241 FE_PHN299_bus_din_5
*242 FE_PHN298_bus_din_7
*243 FE_PHN297_tpu_addr_8
*244 FE_PHN296_tpu_dout_19
*245 FE_PHN295_tpu_dout_18
*246 FE_PHN294_tpu_dout_13
*247 FE_PHN293_tpu_dout_7
*248 FE_PHN292_tpu_dout_11
*249 FE_PHN291_tpu_dout_6
*250 FE_PHN290_tpu_dout_4
*251 FE_PHN289_tpu_dout_9
*252 FE_PHN288_tpu_dout_2
*253 FE_PHN287_tpu_dout_10
*254 FE_PHN286_tpu_dout_8
*255 FE_PHN285_tpu_dout_14
*256 FE_PHN284_tpu_dout_5
*257 FE_PHN283_tpu_dout_17
*258 FE_PHN282_tpu_dout_52
*259 FE_PHN281_tpu_dout_60
*260 FE_PHN280_tpu_dout_56
*261 FE_PHN279_tpu_dout_55
*262 FE_PHN278_tpu_dout_12
*263 FE_PHN277_tpu_dout_54
*264 FE_PHN276_tpu_dout_58
*265 FE_PHN275_tpu_dout_57
*266 FE_PHN274_tpu_dout_59
*267 FE_PHN273_tpu_dout_50
*268 FE_PHN272_tpu_dout_51
*269 FE_PHN271_tpu_dout_53
*270 FE_PHN270_tpu_dout_62
*271 FE_PHN269_tpu_dout_47
*272 FE_PHN268_tpu_dout_48
*273 FE_PHN267_tpu_dout_49
*274 FE_PHN266_tpu_dout_61
*275 FE_PHN265_tpu_dout_44
*276 FE_PHN264_tpu_dout_63
*277 FE_PHN263_tpu_dout_40
*278 FE_PHN262_tpu_dout_46
*279 FE_PHN261_tpu_dout_43
*280 FE_PHN260_tpu_dout_39
*281 FE_PHN259_tpu_dout_45
*282 FE_PHN258_tpu_dout_41
*283 FE_PHN257_tpu_dout_38
*284 FE_PHN256_tpu_dout_37
*285 FE_PHN255_tpu_dout_36
*286 FE_PHN254_tpu_dout_32
*287 FE_PHN253_tpu_dout_34
*288 FE_PHN252_tpu_dout_35
*289 FE_PHN251_tpu_dout_33
*290 FE_PHN250_tpu_dout_27
*291 FE_PHN249_tpu_dout_24
*292 FE_PHN248_tpu_dout_22
*293 FE_PHN247_tpu_dout_25
*294 FE_PHN246_tpu_dout_26
*295 FE_PHN245_tpu_dout_28
*296 FE_PHN244_tpu_dout_29
*297 FE_PHN243_tpu_dout_30
*298 FE_PHN242_bus_addr_11
*299 FE_PHN241_bus_addr_8
*300 FE_PHN240_bus_addr_9
*301 FE_PHN239_tpu_re
*302 FE_PHN238_tpu_dout_42
*303 FE_PHN237_tpu_dout_16
*304 FE_PHN236_tpu_dout_15
*305 FE_PHN235_bus_addr_1
*306 FE_PHN234_FE_OFN9_sram_addr_2
*307 FE_PHN233_FE_OFN8_sram_addr_3
*308 FE_PHN232_FE_OFN5_sram_addr_6
*309 FE_PHN231_FE_OFN6_sram_addr_5
*310 FE_PHN230_bus_wbuf_57
*311 FE_PHN229_bus_wbuf_58
*312 FE_PHN228_bus_wbuf_59
*313 FE_PHN227_bus_wbuf_61
*314 FE_PHN226_bus_wbuf_60
*315 FE_PHN225_bus_wbuf_63
*316 FE_PHN224_bus_wbuf_56
*317 FE_PHN223_bus_wbuf_62
*318 FE_PHN222_bus_wbuf_47
*319 FE_PHN221_bus_wbuf_46
*320 FE_PHN220_bus_wbuf_43
*321 FE_PHN219_bus_wbuf_41
*322 FE_PHN218_bus_wbuf_45
*323 FE_PHN217_bus_wbuf_32
*324 FE_PHN216_bus_wbuf_44
*325 FE_PHN215_bus_wbuf_42
*326 FE_PHN214_bus_wbuf_38
*327 FE_PHN213_bus_wbuf_37
*328 FE_PHN212_bus_wbuf_40
*329 FE_PHN211_bus_wbuf_39
*330 FE_PHN210_bus_wbuf_36
*331 FE_PHN209_bus_wbuf_35
*332 FE_PHN208_bus_wbuf_34
*333 FE_PHN207_bus_wbuf_33
*334 FE_PHN206_FE_OFN4_sram_addr_7
*335 FE_PHN205_bus_wbuf_18
*336 FE_PHN204_bus_wbuf_17
*337 FE_PHN203_bus_wbuf_27
*338 FE_PHN202_bus_wbuf_22
*339 FE_PHN201_bus_wbuf_21
*340 FE_PHN200_bus_wbuf_20
*341 FE_PHN199_bus_wbuf_16
*342 FE_PHN198_bus_wbuf_26
*343 FE_PHN197_bus_wbuf_25
*344 FE_PHN196_bus_wbuf_23
*345 FE_PHN195_bus_wbuf_29
*346 FE_PHN194_bus_wbuf_28
*347 FE_PHN193_bus_wbuf_19
*348 FE_PHN192_bus_wbuf_31
*349 FE_PHN191_bus_wbuf_30
*350 FE_PHN190_bus_wbuf_24
*351 FE_PHN189_n_91
*352 FE_PHN188_n_4
*353 FE_PHN187_FE_OFN7_sram_addr_4
*354 FE_PHN186_n_10
*355 FE_PHN185_n_12
*356 FE_PHN184_n_6
*357 FE_PHN183_bus_addr_10
*358 FE_PHN182_FE_OFN3_sram_addr_8
*359 FE_PHN181_n_3
*360 FE_PHN180_bus_din_6
*361 FE_PHN179_bus_din_7
*362 FE_PHN178_bus_din_5
*363 FE_PHN177_bus_din_0
*364 FE_PHN176_bus_din_4
*365 FE_PHN175_bus_din_1
*366 FE_PHN174_bus_din_3
*367 FE_PHN173_bus_din_2
*368 FE_PHN171_tpu_dout_27
*369 FE_PHN169_tpu_dout_11
*370 FE_PHN167_tpu_dout_18
*371 FE_PHN165_tpu_dout_22
*372 FE_PHN163_tpu_dout_24
*373 FE_PHN161_tpu_dout_30
*374 FE_PHN159_tpu_dout_16
*375 FE_PHN157_tpu_dout_28
*376 FE_PHN155_tpu_dout_6
*377 FE_PHN153_tpu_dout_25
*378 FE_PHN151_tpu_dout_31
*379 FE_PHN149_tpu_dout_12
*380 FE_PHN147_tpu_dout_17
*381 FE_PHN145_tpu_dout_19
*382 FE_PHN143_tpu_dout_9
*383 FE_PHN141_tpu_dout_0
*384 FE_PHN139_tpu_dout_23
*385 FE_PHN137_tpu_dout_26
*386 FE_PHN135_tpu_dout_29
*387 FE_PHN133_tpu_dout_33
*388 FE_PHN131_tpu_dout_7
*389 FE_PHN129_tpu_dout_8
*390 FE_PHN127_tpu_dout_15
*391 FE_PHN125_tpu_dout_21
*392 FE_PHN123_tpu_dout_20
*393 FE_PHN121_tpu_dout_42
*394 FE_PHN119_tpu_dout_45
*395 FE_PHN117_tpu_dout_36
*396 FE_PHN115_tpu_dout_5
*397 FE_PHN113_tpu_dout_13
*398 FE_PHN111_tpu_dout_56
*399 FE_PHN109_tpu_dout_59
*400 FE_PHN107_tpu_dout_47
*401 FE_PHN105_tpu_dout_40
*402 FE_PHN103_tpu_dout_38
*403 FE_PHN101_tpu_dout_34
*404 FE_PHN99_tpu_dout_1
*405 FE_PHN97_tpu_dout_2
*406 FE_PHN95_tpu_dout_14
*407 FE_PHN93_tpu_dout_60
*408 FE_PHN91_tpu_dout_52
*409 FE_PHN89_tpu_dout_37
*410 FE_PHN87_tpu_dout_32
*411 FE_PHN85_tpu_dout_35
*412 FE_PHN83_tpu_dout_10
*413 FE_PHN81_tpu_dout_62
*414 FE_PHN79_tpu_dout_58
*415 FE_PHN77_tpu_dout_55
*416 FE_PHN75_tpu_dout_44
*417 FE_PHN73_tpu_dout_46
*418 FE_PHN71_tpu_dout_39
*419 FE_PHN69_tpu_dout_41
*420 FE_PHN67_tpu_dout_3
*421 FE_PHN65_tpu_dout_63
*422 FE_PHN63_tpu_dout_49
*423 FE_PHN61_tpu_dout_4
*424 FE_PHN59_tpu_dout_54
*425 FE_PHN57_tpu_dout_61
*426 FE_PHN55_tpu_dout_57
*427 FE_PHN53_tpu_dout_53
*428 FE_PHN51_tpu_dout_51
*429 FE_PHN49_tpu_dout_50
*430 FE_PHN47_tpu_dout_48
*431 FE_PHN45_tpu_dout_43
*432 FE_PHN44_bus_wbuf_1
*433 FE_PHN43_bus_wbuf_2
*434 FE_PHN42_bus_wbuf_4
*435 FE_PHN41_bus_wbuf_3
*436 FE_PHN40_bus_wbuf_6
*437 FE_PHN39_bus_wbuf_7
*438 FE_PHN38_bus_wbuf_8
*439 FE_PHN37_bus_wbuf_5
*440 FE_PHN36_bus_wbuf_11
*441 FE_PHN35_bus_wbuf_9
*442 FE_PHN34_bus_wbuf_15
*443 FE_PHN33_bus_wbuf_13
*444 FE_PHN32_bus_wbuf_10
*445 FE_PHN31_bus_wbuf_12
*446 FE_PHN30_bus_wbuf_14
*447 FE_PHN29_bus_wbuf_54
*448 FE_PHN28_bus_wbuf_53
*449 FE_PHN27_bus_wbuf_50
*450 FE_PHN26_bus_wbuf_55
*451 FE_PHN25_bus_wbuf_51
*452 FE_PHN24_bus_wbuf_52
*453 FE_PHN23_bus_wbuf_49
*454 FE_PHN22_bus_wbuf_48
*455 FE_PHN21_rstn
*456 FE_PHN20_bus_addr_3
*457 FE_PHN19_bus_addr_4
*458 FE_PHN18_bus_addr_5
*459 FE_PHN17_bus_addr_6
*460 FE_PHN16_bus_addr_7
*461 FE_PHN15_tpu_re
*462 FE_PHN14_bus_we
*463 FE_PHN13_bus_addr_0
*464 FE_PHN12_bus_addr_1
*465 CTS_12
*466 CTS_11
*467 CTS_8
*468 CTS_7
*469 CTS_6
*470 CTS_5
*471 CTS_4
*472 CTS_3
*473 CTS_2
*474 CTS_1
*475 CTS_10
*476 CTS_9
*477 LTIELO_NET
*478 LTIEHI_NET
*479 FE_OFN11_sram_addr_0
*480 FE_OFN10_sram_addr_1
*481 FE_OFN9_sram_addr_2
*482 FE_OFN8_sram_addr_3
*483 FE_OFN7_sram_addr_4
*484 FE_OFN6_sram_addr_5
*485 FE_OFN5_sram_addr_6
*486 FE_OFN4_sram_addr_7
*487 FE_OFN3_sram_addr_8
*488 FE_OFN2_bus_we_d1
*489 FE_OFN1_tpu_re
*490 FE_OFN0_rstn
*491 clk
*492 rstn
*493 bus_we
*494 bus_addr[11]
*495 bus_addr[10]
*496 bus_addr[9]
*497 bus_addr[8]
*498 bus_addr[7]
*499 bus_addr[6]
*500 bus_addr[5]
*501 bus_addr[4]
*502 bus_addr[3]
*503 bus_addr[2]
*504 bus_addr[1]
*505 bus_addr[0]
*506 bus_din[7]
*507 bus_din[6]
*508 bus_din[5]
*509 bus_din[4]
*510 bus_din[3]
*511 bus_din[2]
*512 bus_din[1]
*513 bus_din[0]
*514 tpu_re
*515 tpu_addr[8]
*516 tpu_addr[7]
*517 tpu_addr[6]
*518 tpu_addr[5]
*519 tpu_addr[4]
*520 tpu_addr[3]
*521 tpu_addr[2]
*522 tpu_addr[1]
*523 tpu_addr[0]
*524 tpu_dout[63]
*525 tpu_dout[62]
*526 tpu_dout[61]
*527 tpu_dout[60]
*528 tpu_dout[59]
*529 tpu_dout[58]
*530 tpu_dout[57]
*531 tpu_dout[56]
*532 tpu_dout[55]
*533 tpu_dout[54]
*534 tpu_dout[53]
*535 tpu_dout[52]
*536 tpu_dout[51]
*537 tpu_dout[50]
*538 tpu_dout[49]
*539 tpu_dout[48]
*540 tpu_dout[47]
*541 tpu_dout[46]
*542 tpu_dout[45]
*543 tpu_dout[44]
*544 tpu_dout[43]
*545 tpu_dout[42]
*546 tpu_dout[41]
*547 tpu_dout[40]
*548 tpu_dout[39]
*549 tpu_dout[38]
*550 tpu_dout[37]
*551 tpu_dout[36]
*552 tpu_dout[35]
*553 tpu_dout[34]
*554 tpu_dout[33]
*555 tpu_dout[32]
*556 tpu_dout[31]
*557 tpu_dout[30]
*558 tpu_dout[29]
*559 tpu_dout[28]
*560 tpu_dout[27]
*561 tpu_dout[26]
*562 tpu_dout[25]
*563 tpu_dout[24]
*564 tpu_dout[23]
*565 tpu_dout[22]
*566 tpu_dout[21]
*567 tpu_dout[20]
*568 tpu_dout[19]
*569 tpu_dout[18]
*570 tpu_dout[17]
*571 tpu_dout[16]
*572 tpu_dout[15]
*573 tpu_dout[14]
*574 tpu_dout[13]
*575 tpu_dout[12]
*576 tpu_dout[11]
*577 tpu_dout[10]
*578 tpu_dout[9]
*579 tpu_dout[8]
*580 tpu_dout[7]
*581 tpu_dout[6]
*582 tpu_dout[5]
*583 tpu_dout[4]
*584 tpu_dout[3]
*585 tpu_dout[2]
*586 tpu_dout[1]
*587 tpu_dout[0]
*588 sram_addr[8]
*589 sram_addr[7]
*590 sram_addr[6]
*591 sram_addr[5]
*592 sram_addr[4]
*593 sram_addr[3]
*594 sram_addr[2]
*595 sram_addr[1]
*596 sram_addr[0]
*597 sram_din[63]
*598 sram_din[62]
*599 sram_din[61]
*600 sram_din[60]
*601 sram_din[59]
*602 sram_din[58]
*603 sram_din[57]
*604 sram_din[56]
*605 sram_din[55]
*606 sram_din[54]
*607 sram_din[53]
*608 sram_din[52]
*609 sram_din[51]
*610 sram_din[50]
*611 sram_din[49]
*612 sram_din[48]
*613 sram_din[47]
*614 sram_din[46]
*615 sram_din[45]
*616 sram_din[44]
*617 sram_din[43]
*618 sram_din[42]
*619 sram_din[41]
*620 sram_din[40]
*621 sram_din[39]
*622 sram_din[38]
*623 sram_din[37]
*624 sram_din[36]
*625 sram_din[35]
*626 sram_din[34]
*627 sram_din[33]
*628 sram_din[32]
*629 sram_din[31]
*630 sram_din[30]
*631 sram_din[29]
*632 sram_din[28]
*633 sram_din[27]
*634 sram_din[26]
*635 sram_din[25]
*636 sram_din[24]
*637 sram_din[23]
*638 sram_din[22]
*639 sram_din[21]
*640 sram_din[20]
*641 sram_din[19]
*642 sram_din[18]
*643 sram_din[17]
*644 sram_din[16]
*645 sram_din[15]
*646 sram_din[14]
*647 sram_din[13]
*648 sram_din[12]
*649 sram_din[11]
*650 sram_din[10]
*651 sram_din[9]
*652 sram_din[8]
*653 sram_din[7]
*654 sram_din[6]
*655 sram_din[5]
*656 sram_din[4]
*657 sram_din[3]
*658 sram_din[2]
*659 sram_din[1]
*660 sram_din[0]
*661 bus_waddr_d1[8]
*662 bus_waddr_d1[7]
*663 bus_waddr_d1[6]
*664 bus_waddr_d1[5]
*665 bus_waddr_d1[4]
*666 bus_waddr_d1[3]
*667 bus_waddr_d1[2]
*668 bus_waddr_d1[1]
*669 bus_waddr_d1[0]
*670 sram_addr_ff[8]
*671 sram_addr_ff[7]
*672 sram_addr_ff[6]
*673 sram_addr_ff[5]
*674 sram_addr_ff[4]
*675 sram_addr_ff[3]
*676 sram_addr_ff[2]
*677 sram_addr_ff[1]
*678 sram_addr_ff[0]
*679 sram_din_ff[63]
*680 sram_din_ff[62]
*681 sram_din_ff[61]
*682 sram_din_ff[60]
*683 sram_din_ff[59]
*684 sram_din_ff[58]
*685 sram_din_ff[57]
*686 sram_din_ff[56]
*687 sram_din_ff[55]
*688 sram_din_ff[54]
*689 sram_din_ff[53]
*690 sram_din_ff[52]
*691 sram_din_ff[51]
*692 sram_din_ff[50]
*693 sram_din_ff[49]
*694 sram_din_ff[48]
*695 sram_din_ff[47]
*696 sram_din_ff[46]
*697 sram_din_ff[45]
*698 sram_din_ff[44]
*699 sram_din_ff[43]
*700 sram_din_ff[42]
*701 sram_din_ff[41]
*702 sram_din_ff[40]
*703 sram_din_ff[39]
*704 sram_din_ff[38]
*705 sram_din_ff[37]
*706 sram_din_ff[36]
*707 sram_din_ff[35]
*708 sram_din_ff[34]
*709 sram_din_ff[33]
*710 sram_din_ff[32]
*711 sram_din_ff[31]
*712 sram_din_ff[30]
*713 sram_din_ff[29]
*714 sram_din_ff[28]
*715 sram_din_ff[27]
*716 sram_din_ff[26]
*717 sram_din_ff[25]
*718 sram_din_ff[24]
*719 sram_din_ff[23]
*720 sram_din_ff[22]
*721 sram_din_ff[21]
*722 sram_din_ff[20]
*723 sram_din_ff[19]
*724 sram_din_ff[18]
*725 sram_din_ff[17]
*726 sram_din_ff[16]
*727 sram_din_ff[15]
*728 sram_din_ff[14]
*729 sram_din_ff[13]
*730 sram_din_ff[12]
*731 sram_din_ff[11]
*732 sram_din_ff[10]
*733 sram_din_ff[9]
*734 sram_din_ff[8]
*735 sram_din_ff[7]
*736 sram_din_ff[6]
*737 sram_din_ff[5]
*738 sram_din_ff[4]
*739 sram_din_ff[3]
*740 sram_din_ff[2]
*741 sram_din_ff[1]
*742 sram_din_ff[0]
*743 bus_wbuf[63]
*744 bus_wbuf[62]
*745 bus_wbuf[61]
*746 bus_wbuf[60]
*747 bus_wbuf[59]
*748 bus_wbuf[58]
*749 bus_wbuf[57]
*750 bus_wbuf[56]
*751 bus_wbuf[55]
*752 bus_wbuf[54]
*753 bus_wbuf[53]
*754 bus_wbuf[52]
*755 bus_wbuf[51]
*756 bus_wbuf[50]
*757 bus_wbuf[49]
*758 bus_wbuf[48]
*759 bus_wbuf[47]
*760 bus_wbuf[46]
*761 bus_wbuf[45]
*762 bus_wbuf[44]
*763 bus_wbuf[43]
*764 bus_wbuf[42]
*765 bus_wbuf[41]
*766 bus_wbuf[40]
*767 bus_wbuf[39]
*768 bus_wbuf[38]
*769 bus_wbuf[37]
*770 bus_wbuf[36]
*771 bus_wbuf[35]
*772 bus_wbuf[34]
*773 bus_wbuf[33]
*774 bus_wbuf[32]
*775 bus_wbuf[31]
*776 bus_wbuf[30]
*777 bus_wbuf[29]
*778 bus_wbuf[28]
*779 bus_wbuf[27]
*780 bus_wbuf[26]
*781 bus_wbuf[25]
*782 bus_wbuf[24]
*783 bus_wbuf[23]
*784 bus_wbuf[22]
*785 bus_wbuf[21]
*786 bus_wbuf[20]
*787 bus_wbuf[19]
*788 bus_wbuf[18]
*789 bus_wbuf[17]
*790 bus_wbuf[16]
*791 bus_wbuf[15]
*792 bus_wbuf[14]
*793 bus_wbuf[13]
*794 bus_wbuf[12]
*795 bus_wbuf[11]
*796 bus_wbuf[10]
*797 bus_wbuf[9]
*798 bus_wbuf[8]
*799 bus_wbuf[7]
*800 bus_wbuf[6]
*801 bus_wbuf[5]
*802 bus_wbuf[4]
*803 bus_wbuf[3]
*804 bus_wbuf[2]
*805 bus_wbuf[1]
*806 bus_wbuf[0]
*807 UNCONNECTED
*808 UNCONNECTED0
*809 UNCONNECTED1
*810 UNCONNECTED2
*811 UNCONNECTED3
*812 UNCONNECTED4
*813 UNCONNECTED5
*814 UNCONNECTED6
*815 UNCONNECTED7
*816 UNCONNECTED8
*817 UNCONNECTED9
*818 UNCONNECTED10
*819 UNCONNECTED11
*820 UNCONNECTED12
*821 UNCONNECTED13
*822 UNCONNECTED14
*823 UNCONNECTED15
*824 UNCONNECTED16
*825 UNCONNECTED17
*826 UNCONNECTED18
*827 UNCONNECTED19
*828 UNCONNECTED20
*829 UNCONNECTED21
*830 UNCONNECTED22
*831 UNCONNECTED23
*832 UNCONNECTED24
*833 UNCONNECTED25
*834 UNCONNECTED26
*835 UNCONNECTED27
*836 UNCONNECTED28
*837 UNCONNECTED29
*838 UNCONNECTED30
*839 UNCONNECTED31
*840 UNCONNECTED32
*841 UNCONNECTED33
*842 UNCONNECTED34
*843 UNCONNECTED35
*844 UNCONNECTED36
*845 UNCONNECTED37
*846 UNCONNECTED38
*847 UNCONNECTED39
*848 UNCONNECTED40
*849 UNCONNECTED41
*850 UNCONNECTED42
*851 UNCONNECTED43
*852 UNCONNECTED44
*853 UNCONNECTED45
*854 UNCONNECTED46
*855 UNCONNECTED47
*856 UNCONNECTED48
*857 UNCONNECTED49
*858 UNCONNECTED50
*859 UNCONNECTED51
*860 UNCONNECTED52
*861 UNCONNECTED53
*862 UNCONNECTED54
*863 UNCONNECTED55
*864 UNCONNECTED56
*865 UNCONNECTED57
*866 UNCONNECTED58
*867 UNCONNECTED59
*868 UNCONNECTED60
*869 UNCONNECTED61
*870 UNCONNECTED62
*871 UNCONNECTED63
*872 UNCONNECTED64
*873 UNCONNECTED65
*874 UNCONNECTED66
*875 UNCONNECTED67
*876 UNCONNECTED68
*877 UNCONNECTED69
*878 UNCONNECTED70
*879 UNCONNECTED71
*880 UNCONNECTED72
*881 bus_we_d1
*882 n_0
*883 n_1
*884 n_2
*885 n_3
*886 n_4
*887 n_5
*888 n_6
*889 n_7
*890 n_8
*891 n_9
*892 n_10
*893 n_11
*894 n_12
*895 n_13
*896 n_14
*897 n_15
*898 n_16
*899 n_17
*900 n_18
*901 n_19
*902 n_20
*903 n_21
*904 n_22
*905 n_23
*906 n_24
*907 n_25
*908 n_26
*909 n_27
*910 n_28
*911 n_29
*912 n_30
*913 n_31
*914 n_32
*915 n_33
*916 n_34
*917 n_35
*918 n_36
*919 n_37
*920 n_38
*921 n_39
*922 n_40
*923 n_41
*924 n_42
*925 n_43
*926 n_44
*927 n_45
*928 n_46
*929 n_47
*930 n_48
*931 n_49
*932 n_50
*933 n_51
*934 n_52
*935 n_53
*936 n_54
*937 n_55
*938 n_56
*939 n_57
*940 n_58
*941 n_59
*942 n_60
*943 n_61
*944 n_62
*945 n_63
*946 n_64
*947 n_65
*948 n_66
*949 n_67
*950 n_68
*951 n_69
*952 n_70
*953 n_71
*954 n_72
*955 n_73
*956 n_74
*957 n_75
*958 n_76
*959 n_77
*960 n_78
*961 n_79
*962 n_80
*963 n_81
*964 n_82
*965 n_83
*966 n_84
*967 n_85
*968 n_86
*969 n_89
*970 n_90
*971 n_91
*972 sram_cen
*973 sram_cen_ff
*974 sram_wen
*975 FE_PDC542_tpu_dout_58
*976 FE_PDC540_tpu_dout_54
*977 FE_PHC538_bus_din_5
*978 FE_PHC537_bus_din_5
*979 FE_PHC536_bus_din_5
*980 FE_PHC535_bus_din_5
*981 FE_PHC534_bus_din_5
*982 FE_PHC533_bus_din_5
*983 FE_PHC532_bus_din_5
*984 FE_PHC531_bus_din_5
*985 FE_PHC530_bus_din_5
*986 FE_PHC529_bus_din_5
*987 FE_PHC528_bus_din_5
*988 FE_PHC527_bus_din_5
*989 FE_PHC526_bus_din_3
*990 FE_PHC525_bus_din_5
*991 FE_PHC524_bus_din_5
*992 FE_PHC523_bus_din_3
*993 FE_PHC522_bus_din_5
*994 FE_PHC521_bus_din_5
*995 FE_PHC520_bus_din_3
*996 FE_PHC519_bus_din_1
*997 FE_PHC518_bus_din_3
*998 FE_PHC517_bus_din_0
*999 FE_PHC516_bus_din_5
*1000 FE_PHC515_bus_din_4
*1001 FE_PHC514_bus_addr_2
*1002 FE_PHC513_bus_din_5
*1003 FE_PHC512_bus_din_1
*1004 FE_PHC511_bus_din_2
*1005 FE_PHC510_bus_din_7
*1006 FE_PHC509_bus_din_0
*1007 FE_PHC508_bus_din_0
*1008 FE_PHC507_bus_din_0
*1009 FE_PHC506_bus_din_0
*1010 FE_PHC505_bus_din_0
*1011 FE_PHC504_bus_din_0
*1012 FE_PHC503_bus_din_0
*1013 FE_PHC502_bus_din_0
*1014 FE_PHC501_bus_din_3
*1015 FE_PHC500_bus_din_0
*1016 FE_PHC499_bus_din_3
*1017 FE_PHC498_bus_din_0
*1018 FE_PHC497_bus_din_3
*1019 FE_PHC496_bus_din_6
*1020 FE_PHC495_bus_din_0
*1021 FE_PHC494_bus_din_3
*1022 FE_PHC493_bus_din_6
*1023 FE_PHC492_bus_din_0
*1024 FE_PHC491_bus_din_3
*1025 FE_PHC490_bus_din_1
*1026 FE_PHC489_bus_din_6
*1027 FE_PHC488_bus_din_0
*1028 FE_PHC487_bus_din_3
*1029 FE_PHC486_bus_din_6
*1030 FE_PHC485_bus_din_1
*1031 FE_PHC484_bus_din_3
*1032 FE_PHC483_bus_din_0
*1033 FE_PHC482_bus_din_1
*1034 FE_PHC481_bus_din_6
*1035 FE_PHC480_bus_din_0
*1036 FE_PHC479_bus_din_3
*1037 FE_PHC478_bus_din_1
*1038 FE_PHC477_bus_din_6
*1039 FE_PHC476_bus_din_4
*1040 FE_PHC475_bus_din_6
*1041 FE_PHC474_bus_din_1
*1042 FE_PHC473_bus_din_0
*1043 FE_PHC472_bus_din_3
*1044 FE_PHC471_bus_din_2
*1045 FE_PHC470_bus_din_4
*1046 FE_PHC469_bus_din_6
*1047 FE_PHC468_bus_din_3
*1048 FE_PHC467_bus_din_1
*1049 FE_PHC466_bus_din_2
*1050 FE_PHC465_bus_din_0
*1051 FE_PHC464_bus_din_4
*1052 FE_PHC463_bus_din_2
*1053 FE_PHC462_bus_din_0
*1054 FE_PHC461_bus_din_1
*1055 FE_PHC460_bus_din_6
*1056 FE_PHC459_bus_din_4
*1057 FE_PHC458_bus_din_1
*1058 FE_PHC457_bus_din_6
*1059 FE_PHC456_bus_din_3
*1060 FE_PHC455_bus_din_1
*1061 FE_PHC454_bus_din_0
*1062 FE_PHC453_bus_din_2
*1063 FE_PHC452_bus_din_4
*1064 FE_PHC451_bus_din_1
*1065 FE_PHC450_bus_din_2
*1066 FE_PHC449_bus_din_0
*1067 FE_PHC448_bus_din_1
*1068 FE_PHC447_bus_din_2
*1069 FE_PHC446_bus_din_4
*1070 FE_PHC445_bus_din_3
*1071 FE_PHC444_bus_din_6
*1072 FE_PHC443_bus_din_1
*1073 FE_PHC442_bus_din_2
*1074 FE_PHC441_bus_din_3
*1075 FE_PHC440_bus_din_4
*1076 FE_PHC439_bus_din_0
*1077 FE_PHC438_bus_din_1
*1078 FE_PHC437_bus_din_3
*1079 FE_PHC436_bus_din_2
*1080 FE_PHC435_bus_din_4
*1081 FE_PHC434_bus_din_6
*1082 FE_PHC433_bus_din_7
*1083 FE_PHC432_bus_din_0
*1084 FE_PHC431_bus_din_6
*1085 FE_PHC430_bus_din_2
*1086 FE_PHC429_bus_din_1
*1087 FE_PHC428_bus_din_3
*1088 FE_PHC427_bus_din_4
*1089 FE_PHC426_bus_din_7
*1090 FE_PHC425_bus_din_1
*1091 FE_PHC424_bus_din_0
*1092 FE_PHC423_bus_din_2
*1093 FE_PHC422_bus_din_4
*1094 FE_PHC421_bus_din_3
*1095 FE_PHC420_bus_din_7
*1096 FE_PHC419_bus_addr_7
*1097 FE_PHC418_FE_OFN4_sram_addr_7
*1098 FE_PHC417_bus_addr_11
*1099 FE_PHC416_bus_addr_9
*1100 FE_PHC415_bus_addr_6
*1101 FE_PHC414_bus_addr_10
*1102 FE_PHC413_bus_addr_2
*1103 FE_PHC412_bus_din_1
*1104 FE_PHC411_bus_din_6
*1105 FE_PHC410_bus_din_2
*1106 FE_PHC409_bus_din_5
*1107 FE_PHC408_bus_addr_8
*1108 FE_PHC407_bus_addr_8
*1109 FE_PHC406_bus_addr_8
*1110 FE_PHC405_bus_addr_8
*1111 FE_PHC404_bus_addr_8
*1112 FE_PHC403_bus_addr_8
*1113 FE_PHC402_bus_addr_8
*1114 FE_PHC401_tpu_dout_3
*1115 FE_PHC400_tpu_dout_1
*1116 FE_PHC399_bus_addr_8
*1117 FE_PHC398_tpu_dout_3
*1118 FE_PHC397_tpu_dout_1
*1119 FE_PHC396_bus_addr_9
*1120 FE_PHC395_bus_addr_8
*1121 FE_PHC394_tpu_dout_0
*1122 FE_PHC393_tpu_dout_3
*1123 FE_PHC392_tpu_dout_1
*1124 FE_PHC391_bus_addr_9
*1125 FE_PHC390_bus_addr_8
*1126 FE_PHC389_tpu_dout_1
*1127 FE_PHC388_tpu_dout_3
*1128 FE_PHC387_bus_addr_9
*1129 FE_PHC386_tpu_dout_0
*1130 FE_PHC385_bus_addr_8
*1131 FE_PHC384_bus_addr_9
*1132 FE_PHC383_tpu_dout_1
*1133 FE_PHC382_tpu_dout_3
*1134 FE_PHC381_tpu_dout_0
*1135 FE_PHC380_bus_addr_8
*1136 FE_PHC379_bus_addr_9
*1137 FE_PHC378_tpu_dout_1
*1138 FE_PHC377_tpu_dout_3
*1139 FE_PHC376_tpu_dout_0
*1140 FE_PHC375_bus_addr_9
*1141 FE_PHC374_bus_addr_8
*1142 FE_PHC373_tpu_dout_1
*1143 FE_PHC372_tpu_dout_3
*1144 FE_PHC371_tpu_dout_0
*1145 FE_PHC370_bus_addr_3
*1146 FE_PHC369_bus_addr_11
*1147 FE_PHC368_bus_addr_8
*1148 FE_PHC367_bus_addr_9
*1149 FE_PHC366_tpu_dout_1
*1150 FE_PHC365_tpu_dout_3
*1151 FE_PHC364_tpu_dout_0
*1152 FE_PHC363_bus_addr_3
*1153 FE_PHC362_bus_addr_11
*1154 FE_PHC361_bus_addr_9
*1155 FE_PHC360_bus_addr_8
*1156 FE_PHC359_tpu_dout_3
*1157 FE_PHC358_tpu_dout_1
*1158 FE_PHC357_tpu_dout_0
*1159 FE_PHC356_bus_addr_3
*1160 FE_PHC355_bus_addr_11
*1161 FE_PHC354_bus_addr_9
*1162 FE_PHC353_bus_addr_8
*1163 FE_PHC352_tpu_dout_3
*1164 FE_PHC351_tpu_dout_1
*1165 FE_PHC350_bus_addr_11
*1166 FE_PHC349_bus_addr_7
*1167 FE_PHC348_bus_wbuf_0
*1168 FE_PHC347_FE_OFN10_sram_addr_1
*1169 FE_PHC346_bus_addr_11
*1170 FE_PHC345_tpu_dout_0
*1171 FE_PHC344_bus_addr_7
*1172 FE_PHC343_bus_wbuf_0
*1173 FE_PHC342_bus_addr_3
*1174 FE_PHC341_bus_addr_6
*1175 FE_PHC340_bus_addr_5
*1176 FE_PHC339_bus_addr_4
*1177 FE_PHC338_tpu_addr_7
*1178 FE_PHC337_bus_addr_10
*1179 FE_PHC336_FE_OFN10_sram_addr_1
*1180 FE_PHC335_tpu_dout_31
*1181 FE_PHC334_FE_OFN11_sram_addr_0
*1182 FE_PHC333_tpu_dout_31
*1183 FE_PHC331_tpu_dout_12
*1184 FE_PHC330_tpu_dout_18
*1185 FE_PHC329_tpu_dout_19
*1186 FE_PHC328_tpu_dout_2
*1187 FE_PHC327_tpu_dout_17
*1188 FE_PHC326_tpu_dout_5
*1189 FE_PHC325_tpu_dout_8
*1190 FE_PHC324_bus_wbuf_0
*1191 FE_PHC323_tpu_re
*1192 FE_PHC322_bus_addr_6
*1193 FE_PHC321_tpu_addr_7
*1194 FE_PHC320_bus_addr_5
*1195 FE_PHC319_bus_addr_4
*1196 FE_PHC318_bus_addr_10
*1197 FE_PHC317_tpu_dout_23
*1198 FE_PHC316_tpu_dout_21
*1199 FE_PHC315_tpu_dout_20
*1200 FE_PHC314_FE_OFN9_sram_addr_2
*1201 FE_PHC313_FE_OFN8_sram_addr_3
*1202 FE_PHC312_FE_OFN7_sram_addr_4
*1203 FE_PHC311_FE_OFN6_sram_addr_5
*1204 FE_PHC310_FE_OFN5_sram_addr_6
*1205 FE_PHC309_FE_OFN10_sram_addr_1
*1206 FE_PHC308_FE_OFN11_sram_addr_0
*1207 FE_PHC307_n_8
*1208 FE_PHC306_bus_din_1
*1209 FE_PHC305_bus_din_0
*1210 FE_PHC304_bus_wbuf_0
*1211 FE_PHC303_bus_din_6
*1212 FE_PHC302_bus_din_2
*1213 FE_PHC301_bus_din_3
*1214 FE_PHC300_bus_din_4
*1215 FE_PHC299_bus_din_5
*1216 FE_PHC298_bus_din_7
*1217 FE_PHC297_tpu_addr_8
*1218 FE_PHC296_tpu_dout_19
*1219 FE_PHC295_tpu_dout_18
*1220 FE_PHC294_tpu_dout_13
*1221 FE_PHC293_tpu_dout_7
*1222 FE_PHC292_tpu_dout_11
*1223 FE_PHC291_tpu_dout_6
*1224 FE_PHC290_tpu_dout_4
*1225 FE_PHC289_tpu_dout_9
*1226 FE_PHC288_tpu_dout_2
*1227 FE_PHC287_tpu_dout_10
*1228 FE_PHC286_tpu_dout_8
*1229 FE_PHC285_tpu_dout_14
*1230 FE_PHC284_tpu_dout_5
*1231 FE_PHC283_tpu_dout_17
*1232 FE_PHC282_tpu_dout_52
*1233 FE_PHC281_tpu_dout_60
*1234 FE_PHC280_tpu_dout_56
*1235 FE_PHC279_tpu_dout_55
*1236 FE_PHC278_tpu_dout_12
*1237 FE_PHC277_tpu_dout_54
*1238 FE_PHC276_tpu_dout_58
*1239 FE_PHC275_tpu_dout_57
*1240 FE_PHC274_tpu_dout_59
*1241 FE_PHC273_tpu_dout_50
*1242 FE_PHC272_tpu_dout_51
*1243 FE_PHC271_tpu_dout_53
*1244 FE_PHC270_tpu_dout_62
*1245 FE_PHC269_tpu_dout_47
*1246 FE_PHC268_tpu_dout_48
*1247 FE_PHC267_tpu_dout_49
*1248 FE_PHC266_tpu_dout_61
*1249 FE_PHC265_tpu_dout_44
*1250 FE_PHC264_tpu_dout_63
*1251 FE_PHC263_tpu_dout_40
*1252 FE_PHC262_tpu_dout_46
*1253 FE_PHC261_tpu_dout_43
*1254 FE_PHC260_tpu_dout_39
*1255 FE_PHC259_tpu_dout_45
*1256 FE_PHC258_tpu_dout_41
*1257 FE_PHC257_tpu_dout_38
*1258 FE_PHC256_tpu_dout_37
*1259 FE_PHC255_tpu_dout_36
*1260 FE_PHC254_tpu_dout_32
*1261 FE_PHC253_tpu_dout_34
*1262 FE_PHC252_tpu_dout_35
*1263 FE_PHC251_tpu_dout_33
*1264 FE_PHC250_tpu_dout_27
*1265 FE_PHC249_tpu_dout_24
*1266 FE_PHC248_tpu_dout_22
*1267 FE_PHC247_tpu_dout_25
*1268 FE_PHC246_tpu_dout_26
*1269 FE_PHC245_tpu_dout_28
*1270 FE_PHC244_tpu_dout_29
*1271 FE_PHC243_tpu_dout_30
*1272 FE_PHC242_bus_addr_11
*1273 FE_PHC241_bus_addr_8
*1274 FE_PHC240_bus_addr_9
*1275 FE_PHC239_tpu_re
*1276 FE_PHC238_tpu_dout_42
*1277 FE_PHC237_tpu_dout_16
*1278 FE_PHC236_tpu_dout_15
*1279 FE_PHC235_bus_addr_1
*1280 FE_PHC234_FE_OFN9_sram_addr_2
*1281 FE_PHC233_FE_OFN8_sram_addr_3
*1282 FE_PHC232_FE_OFN5_sram_addr_6
*1283 FE_PHC231_FE_OFN6_sram_addr_5
*1284 FE_PHC230_bus_wbuf_57
*1285 FE_PHC229_bus_wbuf_58
*1286 FE_PHC228_bus_wbuf_59
*1287 FE_PHC227_bus_wbuf_61
*1288 FE_PHC226_bus_wbuf_60
*1289 FE_PHC225_bus_wbuf_63
*1290 FE_PHC224_bus_wbuf_56
*1291 FE_PHC223_bus_wbuf_62
*1292 FE_PHC222_bus_wbuf_47
*1293 FE_PHC221_bus_wbuf_46
*1294 FE_PHC220_bus_wbuf_43
*1295 FE_PHC219_bus_wbuf_41
*1296 FE_PHC218_bus_wbuf_45
*1297 FE_PHC217_bus_wbuf_32
*1298 FE_PHC216_bus_wbuf_44
*1299 FE_PHC215_bus_wbuf_42
*1300 FE_PHC214_bus_wbuf_38
*1301 FE_PHC213_bus_wbuf_37
*1302 FE_PHC212_bus_wbuf_40
*1303 FE_PHC211_bus_wbuf_39
*1304 FE_PHC210_bus_wbuf_36
*1305 FE_PHC209_bus_wbuf_35
*1306 FE_PHC208_bus_wbuf_34
*1307 FE_PHC207_bus_wbuf_33
*1308 FE_PHC206_FE_OFN4_sram_addr_7
*1309 FE_PHC205_bus_wbuf_18
*1310 FE_PHC204_bus_wbuf_17
*1311 FE_PHC203_bus_wbuf_27
*1312 FE_PHC202_bus_wbuf_22
*1313 FE_PHC201_bus_wbuf_21
*1314 FE_PHC200_bus_wbuf_20
*1315 FE_PHC199_bus_wbuf_16
*1316 FE_PHC198_bus_wbuf_26
*1317 FE_PHC197_bus_wbuf_25
*1318 FE_PHC196_bus_wbuf_23
*1319 FE_PHC195_bus_wbuf_29
*1320 FE_PHC194_bus_wbuf_28
*1321 FE_PHC193_bus_wbuf_19
*1322 FE_PHC192_bus_wbuf_31
*1323 FE_PHC191_bus_wbuf_30
*1324 FE_PHC190_bus_wbuf_24
*1325 FE_PHC189_n_91
*1326 FE_PHC188_n_4
*1327 FE_PHC187_FE_OFN7_sram_addr_4
*1328 FE_PHC186_n_10
*1329 FE_PHC185_n_12
*1330 FE_PHC184_n_6
*1331 FE_PHC183_bus_addr_10
*1332 FE_PHC182_FE_OFN3_sram_addr_8
*1333 FE_PHC181_n_3
*1334 FE_PHC180_bus_din_6
*1335 FE_PHC179_bus_din_7
*1336 FE_PHC178_bus_din_5
*1337 FE_PHC177_bus_din_0
*1338 FE_PHC176_bus_din_4
*1339 FE_PHC175_bus_din_1
*1340 FE_PHC174_bus_din_3
*1341 FE_PHC173_bus_din_2
*1342 FE_PHC172_tpu_dout_27
*1343 FE_PHC170_tpu_dout_11
*1344 FE_PHC168_tpu_dout_18
*1345 FE_PHC166_tpu_dout_22
*1346 FE_PHC164_tpu_dout_24
*1347 FE_PHC162_tpu_dout_30
*1348 FE_PHC160_tpu_dout_16
*1349 FE_PHC158_tpu_dout_28
*1350 FE_PHC156_tpu_dout_6
*1351 FE_PHC154_tpu_dout_25
*1352 FE_PHC152_tpu_dout_31
*1353 FE_PHC150_tpu_dout_12
*1354 FE_PHC148_tpu_dout_17
*1355 FE_PHC146_tpu_dout_19
*1356 FE_PHC144_tpu_dout_9
*1357 FE_PHC142_tpu_dout_0
*1358 FE_PHC140_tpu_dout_23
*1359 FE_PHC138_tpu_dout_26
*1360 FE_PHC136_tpu_dout_29
*1361 FE_PHC134_tpu_dout_33
*1362 FE_PHC132_tpu_dout_7
*1363 FE_PHC130_tpu_dout_8
*1364 FE_PHC128_tpu_dout_15
*1365 FE_PHC126_tpu_dout_21
*1366 FE_PHC124_tpu_dout_20
*1367 FE_PHC122_tpu_dout_42
*1368 FE_PHC120_tpu_dout_45
*1369 FE_PHC118_tpu_dout_36
*1370 FE_PHC116_tpu_dout_5
*1371 FE_PHC114_tpu_dout_13
*1372 FE_PHC112_tpu_dout_56
*1373 FE_PHC110_tpu_dout_59
*1374 FE_PHC108_tpu_dout_47
*1375 FE_PHC106_tpu_dout_40
*1376 FE_PHC104_tpu_dout_38
*1377 FE_PHC102_tpu_dout_34
*1378 FE_PHC100_tpu_dout_1
*1379 FE_PHC98_tpu_dout_2
*1380 FE_PHC96_tpu_dout_14
*1381 FE_PHC94_tpu_dout_60
*1382 FE_PHC92_tpu_dout_52
*1383 FE_PHC90_tpu_dout_37
*1384 FE_PHC88_tpu_dout_32
*1385 FE_PHC86_tpu_dout_35
*1386 FE_PHC84_tpu_dout_10
*1387 FE_PHC82_tpu_dout_62
*1388 FE_PHC80_tpu_dout_58
*1389 FE_PHC78_tpu_dout_55
*1390 FE_PHC76_tpu_dout_44
*1391 FE_PHC74_tpu_dout_46
*1392 FE_PHC72_tpu_dout_39
*1393 FE_PHC70_tpu_dout_41
*1394 FE_PHC68_tpu_dout_3
*1395 FE_PHC66_tpu_dout_63
*1396 FE_PHC64_tpu_dout_49
*1397 FE_PHC62_tpu_dout_4
*1398 FE_PHC60_tpu_dout_54
*1399 FE_PHC58_tpu_dout_61
*1400 FE_PHC56_tpu_dout_57
*1401 FE_PHC54_tpu_dout_53
*1402 FE_PHC52_tpu_dout_51
*1403 FE_PHC50_tpu_dout_50
*1404 FE_PHC48_tpu_dout_48
*1405 FE_PHC46_tpu_dout_43
*1406 FE_PHC44_bus_wbuf_1
*1407 FE_PHC43_bus_wbuf_2
*1408 FE_PHC42_bus_wbuf_4
*1409 FE_PHC41_bus_wbuf_3
*1410 FE_PHC40_bus_wbuf_6
*1411 FE_PHC39_bus_wbuf_7
*1412 FE_PHC38_bus_wbuf_8
*1413 FE_PHC37_bus_wbuf_5
*1414 FE_PHC36_bus_wbuf_11
*1415 FE_PHC35_bus_wbuf_9
*1416 FE_PHC34_bus_wbuf_15
*1417 FE_PHC33_bus_wbuf_13
*1418 FE_PHC32_bus_wbuf_10
*1419 FE_PHC31_bus_wbuf_12
*1420 FE_PHC30_bus_wbuf_14
*1421 FE_PHC29_bus_wbuf_54
*1422 FE_PHC28_bus_wbuf_53
*1423 FE_PHC27_bus_wbuf_50
*1424 FE_PHC26_bus_wbuf_55
*1425 FE_PHC25_bus_wbuf_51
*1426 FE_PHC24_bus_wbuf_52
*1427 FE_PHC23_bus_wbuf_49
*1428 FE_PHC22_bus_wbuf_48
*1429 FE_PHC21_rstn
*1430 FE_PHC20_bus_addr_3
*1431 FE_PHC19_bus_addr_4
*1432 FE_PHC18_bus_addr_5
*1433 FE_PHC17_bus_addr_6
*1434 FE_PHC16_bus_addr_7
*1435 FE_PHC15_tpu_re
*1436 FE_PHC14_bus_we
*1437 FE_PHC13_bus_addr_0
*1438 FE_PHC12_bus_addr_1
*1439 CTS_ccl_a_inv_00009
*1440 CTS_ccl_a_inv_00008
*1441 CTS_ccl_a_inv_00007
*1442 CTS_ccl_a_inv_00006
*1443 CTS_ccl_a_inv_00005
*1444 CTS_ccl_a_inv_00004
*1445 CTS_ccl_a_inv_00003
*1446 CTS_ccl_a_inv_00002
*1447 CTS_ccl_a_inv_00001
*1448 CTS_ccl_a_inv_00010
*1449 CTS_ccl_a_inv_00011
*1450 CTS_cmf_inv_00057
*1451 LTIELO
*1452 LTIEHI
*1453 FE_OFC11_sram_addr_0
*1454 FE_OFC10_sram_addr_1
*1455 FE_OFC9_sram_addr_2
*1456 FE_OFC8_sram_addr_3
*1457 FE_OFC7_sram_addr_4
*1458 FE_OFC6_sram_addr_5
*1459 FE_OFC5_sram_addr_6
*1460 FE_OFC4_sram_addr_7
*1461 FE_OFC3_sram_addr_8
*1462 FE_OFC2_bus_we_d1
*1463 FE_OFC1_tpu_re
*1464 FE_OFC0_rstn
*1465 u_sram
*1466 bus_waddr_d1_reg\[0\]
*1467 bus_waddr_d1_reg\[1\]
*1468 bus_waddr_d1_reg\[2\]
*1469 bus_waddr_d1_reg\[3\]
*1470 bus_waddr_d1_reg\[4\]
*1471 bus_waddr_d1_reg\[5\]
*1472 bus_waddr_d1_reg\[6\]
*1473 bus_waddr_d1_reg\[7\]
*1474 bus_waddr_d1_reg\[8\]
*1475 sram_addr_ff_reg\[0\]
*1476 sram_addr_ff_reg\[1\]
*1477 sram_addr_ff_reg\[2\]
*1478 sram_addr_ff_reg\[3\]
*1479 sram_addr_ff_reg\[4\]
*1480 sram_addr_ff_reg\[5\]
*1481 sram_addr_ff_reg\[6\]
*1482 sram_addr_ff_reg\[7\]
*1483 sram_addr_ff_reg\[8\]
*1484 sram_din_ff_reg\[0\]
*1485 sram_din_ff_reg\[1\]
*1486 sram_din_ff_reg\[2\]
*1487 sram_din_ff_reg\[3\]
*1488 sram_din_ff_reg\[4\]
*1489 sram_din_ff_reg\[5\]
*1490 sram_din_ff_reg\[6\]
*1491 sram_din_ff_reg\[7\]
*1492 sram_din_ff_reg\[8\]
*1493 sram_din_ff_reg\[9\]
*1494 sram_din_ff_reg\[10\]
*1495 sram_din_ff_reg\[11\]
*1496 sram_din_ff_reg\[12\]
*1497 sram_din_ff_reg\[13\]
*1498 sram_din_ff_reg\[14\]
*1499 sram_din_ff_reg\[15\]
*1500 sram_din_ff_reg\[16\]
*1501 sram_din_ff_reg\[17\]
*1502 sram_din_ff_reg\[18\]
*1503 sram_din_ff_reg\[19\]
*1504 sram_din_ff_reg\[20\]
*1505 sram_din_ff_reg\[21\]
*1506 sram_din_ff_reg\[22\]
*1507 sram_din_ff_reg\[23\]
*1508 sram_din_ff_reg\[24\]
*1509 sram_din_ff_reg\[25\]
*1510 sram_din_ff_reg\[26\]
*1511 sram_din_ff_reg\[27\]
*1512 sram_din_ff_reg\[28\]
*1513 sram_din_ff_reg\[29\]
*1514 sram_din_ff_reg\[30\]
*1515 sram_din_ff_reg\[31\]
*1516 sram_din_ff_reg\[32\]
*1517 sram_din_ff_reg\[33\]
*1518 sram_din_ff_reg\[34\]
*1519 sram_din_ff_reg\[35\]
*1520 sram_din_ff_reg\[36\]
*1521 sram_din_ff_reg\[37\]
*1522 sram_din_ff_reg\[38\]
*1523 sram_din_ff_reg\[39\]
*1524 sram_din_ff_reg\[40\]
*1525 sram_din_ff_reg\[41\]
*1526 sram_din_ff_reg\[42\]
*1527 sram_din_ff_reg\[43\]
*1528 sram_din_ff_reg\[44\]
*1529 sram_din_ff_reg\[45\]
*1530 sram_din_ff_reg\[46\]
*1531 sram_din_ff_reg\[47\]
*1532 sram_din_ff_reg\[48\]
*1533 sram_din_ff_reg\[49\]
*1534 sram_din_ff_reg\[50\]
*1535 sram_din_ff_reg\[51\]
*1536 sram_din_ff_reg\[52\]
*1537 sram_din_ff_reg\[53\]
*1538 sram_din_ff_reg\[54\]
*1539 sram_din_ff_reg\[55\]
*1540 sram_din_ff_reg\[56\]
*1541 sram_din_ff_reg\[57\]
*1542 sram_din_ff_reg\[58\]
*1543 sram_din_ff_reg\[59\]
*1544 sram_din_ff_reg\[60\]
*1545 sram_din_ff_reg\[61\]
*1546 sram_din_ff_reg\[62\]
*1547 sram_din_ff_reg\[63\]
*1548 p11362A__2398
*1549 p11362A3056__5107
*1550 p11362A3057__6260
*1551 p11362A3058__4319
*1552 p11362A3059__8428
*1553 p11362A3060__5526
*1554 p11362A3061__6783
*1555 p11362A3062__3680
*1556 p11362A3063__1617
*1557 p11608A__2802
*1558 p11608A3064__1705
*1559 p11608A3065__5122
*1560 p11608A3066__8246
*1561 p11608A3067__7098
*1562 p11608A3068__6131
*1563 p11608A3069__1881
*1564 p11608A3070__5115
*1565 p11608A3071__7482
*1566 p11608A3072__4733
*1567 p11608A3073__6161
*1568 p11608A3074__9315
*1569 p11608A3075__9945
*1570 p11608A3076__2883
*1571 p11608A3077__2346
*1572 p11608A3078__1666
*1573 p11608A3079__7410
*1574 p11608A3080__6417
*1575 p11608A3081__5477
*1576 p11608A3082__2398
*1577 p11608A3083__5107
*1578 p11608A3084__6260
*1579 p11608A3085__4319
*1580 p11608A3086__8428
*1581 p11608A3087__5526
*1582 p11608A3088__6783
*1583 p11608A3089__3680
*1584 p11608A3090__1617
*1585 p11608A3091__2802
*1586 p11608A3092__1705
*1587 p11608A3093__5122
*1588 p11608A3094__8246
*1589 p11608A3095__7098
*1590 p11608A3096__6131
*1591 p11608A3097__1881
*1592 p11608A3098__5115
*1593 p11608A3099__7482
*1594 p11608A3100__4733
*1595 p11608A3101__6161
*1596 p11608A3102__9315
*1597 p11608A3103__9945
*1598 p11608A3104__2883
*1599 p11608A3105__2346
*1600 p11608A3106__1666
*1601 p11608A3107__7410
*1602 p11608A3108__6417
*1603 p11608A3109__5477
*1604 p11608A3110__2398
*1605 p11608A3111__5107
*1606 p11608A3112__6260
*1607 p11608A3113__4319
*1608 p11608A3114__8428
*1609 p11608A3115__5526
*1610 p11608A3116__6783
*1611 p11608A3117__3680
*1612 p11608A3118__1617
*1613 p11608A3119__2802
*1614 p11608A3120__1705
*1615 p11608A3121__5122
*1616 p11608A3122__8246
*1617 p11608A3123__7098
*1618 p11608A3124__6131
*1619 p11608A3125__1881
*1620 p11608A3126__5115
*1621 p11422A__7482
*1622 p11422A3200__4733
*1623 p11422A3201__6161
*1624 p11422A3202__9315
*1625 p11422A3203__9945
*1626 p11422A3204__2883
*1627 p11422A3205__2346
*1628 p11422A3206__1666
*1629 p11422A3207__7410
*1630 p11422A3208__6417
*1631 p11774A__5477
*1632 p11422A3209__2398
*1633 p11422A3210__5107
*1634 p11422A3211__6260
*1635 p11422A3212__4319
*1636 p11422A3213__8428
*1637 p11422A3214__5526
*1638 p11422A3215__6783
*1639 p11422A3216__3680
*1640 p11422A3217__1617
*1641 p11422A3218__2802
*1642 p11422A3219__1705
*1643 p11422A3220__5122
*1644 p11422A3221__8246
*1645 p11422A3222__7098
*1646 p11422A3223__6131
*1647 p11422A3224__1881
*1648 p11422A3225__5115
*1649 p11422A3226__7482
*1650 p11422A3227__4733
*1651 p11422A3228__6161
*1652 p11422A3229__9315
*1653 p11422A3230__9945
*1654 p11422A3231__2883
*1655 p11422A3232__2346
*1656 p11422A3233__1666
*1657 p11774A3234__7410
*1658 p11422A3235__6417
*1659 p11422A3236__5477
*1660 p11422A3237__2398
*1661 p11422A3238__5107
*1662 p11422A3239__6260
*1663 p11422A3240__4319
*1664 p11422A3241__8428
*1665 p11422A3242__5526
*1666 p11422A3243__6783
*1667 p11422A3244__3680
*1668 p11422A3245__1617
*1669 p11422A3246__2802
*1670 p11422A3247__1705
*1671 p11422A3248__5122
*1672 p11422A3249__8246
*1673 p11422A3250__7098
*1674 p11422A3251__6131
*1675 p11422A3252__1881
*1676 p11422A3253__5115
*1677 p11422A3254__7482
*1678 p11422A3255__4733
*1679 p11774A3256__6161
*1680 p11422A3257__9315
*1681 p11422A3258__9945
*1682 p11422A3259__2883
*1683 p11422A3260__2346
*1684 p11422A3261__1666
*1685 p11774A3262__7410
*1686 p11422A3263__6417
*1687 p11774A3264__5477
*1688 p11774A3265__2398
*1689 p11422A3266__5107
*1690 p11774A3267__6260
*1691 p11774A3268__4319
*1692 p11774A3269__8428
*1693 p11422A3270__5526
*1694 Fp23701A
*1695 p23616A__6783
*1696 p23543A__3680
*1697 p11189A__1617
*1698 p11168A__2802
*1699 p23533A__1705
*1700 bus_wbuf_reg\[0\]
*1701 bus_wbuf_reg\[1\]
*1702 bus_wbuf_reg\[2\]
*1703 bus_wbuf_reg\[3\]
*1704 bus_wbuf_reg\[4\]
*1705 bus_wbuf_reg\[5\]
*1706 bus_wbuf_reg\[6\]
*1707 bus_wbuf_reg\[7\]
*1708 bus_wbuf_reg\[8\]
*1709 bus_wbuf_reg\[9\]
*1710 bus_wbuf_reg\[10\]
*1711 bus_wbuf_reg\[11\]
*1712 bus_wbuf_reg\[12\]
*1713 bus_wbuf_reg\[13\]
*1714 bus_wbuf_reg\[14\]
*1715 bus_wbuf_reg\[15\]
*1716 bus_wbuf_reg\[16\]
*1717 bus_wbuf_reg\[17\]
*1718 bus_wbuf_reg\[18\]
*1719 bus_wbuf_reg\[19\]
*1720 bus_wbuf_reg\[20\]
*1721 bus_wbuf_reg\[21\]
*1722 bus_wbuf_reg\[22\]
*1723 bus_wbuf_reg\[23\]
*1724 bus_wbuf_reg\[24\]
*1725 bus_wbuf_reg\[25\]
*1726 bus_wbuf_reg\[26\]
*1727 bus_wbuf_reg\[27\]
*1728 bus_wbuf_reg\[28\]
*1729 bus_wbuf_reg\[29\]
*1730 bus_wbuf_reg\[30\]
*1731 bus_wbuf_reg\[31\]
*1732 bus_wbuf_reg\[32\]
*1733 bus_wbuf_reg\[33\]
*1734 bus_wbuf_reg\[34\]
*1735 bus_wbuf_reg\[35\]
*1736 bus_wbuf_reg\[36\]
*1737 bus_wbuf_reg\[37\]
*1738 bus_wbuf_reg\[38\]
*1739 bus_wbuf_reg\[39\]
*1740 bus_wbuf_reg\[40\]
*1741 bus_wbuf_reg\[41\]
*1742 bus_wbuf_reg\[42\]
*1743 bus_wbuf_reg\[43\]
*1744 bus_wbuf_reg\[44\]
*1745 bus_wbuf_reg\[45\]
*1746 bus_wbuf_reg\[46\]
*1747 bus_wbuf_reg\[47\]
*1748 bus_wbuf_reg\[48\]
*1749 bus_wbuf_reg\[49\]
*1750 bus_wbuf_reg\[50\]
*1751 bus_wbuf_reg\[51\]
*1752 bus_wbuf_reg\[52\]
*1753 bus_wbuf_reg\[53\]
*1754 bus_wbuf_reg\[54\]
*1755 bus_wbuf_reg\[55\]
*1756 bus_wbuf_reg\[56\]
*1757 bus_wbuf_reg\[57\]
*1758 bus_wbuf_reg\[58\]
*1759 bus_wbuf_reg\[59\]
*1760 bus_wbuf_reg\[60\]
*1761 bus_wbuf_reg\[61\]
*1762 bus_wbuf_reg\[62\]
*1763 bus_wbuf_reg\[63\]
*1764 sram_cen_ff_reg
*1765 p23572A__5122
*1766 p23649A__8246
*1767 p23572A3363__7098
*1768 p23649A3364__6131
*1769 p23566A__1881
*1770 p23658A__5115
*1771 p23607A__7482
*1772 p23658A3365__4733
*1773 p23566A3367__6161
*1774 p23639A__9315
*1775 p23529A__9945
*1776 Fp23597A
*1777 bus_we_d1_reg


*PORTS

*491 I *C 10 324
*492 I *C 15 324
*493 I *C 0 5
*494 I *C 0 48.2
*495 I *C 0 44.6
*496 I *C 0 41
*497 I *C 0 37.4
*498 I *C 0 33.8
*499 I *C 0 30.2
*500 I *C 0 26.6
*501 I *C 0 23
*502 I *C 0 19.4
*503 I *C 0 15.8
*504 I *C 0 12.2
*505 I *C 0 8.6
*506 I *C 0 77
*507 I *C 0 73.4
*508 I *C 0 69.8
*509 I *C 0 66.2
*510 I *C 0 62.6
*511 I *C 0 59
*512 I *C 0 55.4
*513 I *C 0 51.8
*514 I *C 155 5
*515 I *C 155 37.4
*516 I *C 155 33.8
*517 I *C 155 30.2
*518 I *C 155 26.6
*519 I *C 155 23
*520 I *C 155 19.4
*521 I *C 155 15.8
*522 I *C 155 12.2
*523 I *C 155 8.6
*524 O *C 155 267.8
*525 O *C 155 264.2
*526 O *C 155 260.6
*527 O *C 155 257
*528 O *C 155 253.4
*529 O *C 155 249.8
*530 O *C 155 246.2
*531 O *C 155 242.6
*532 O *C 155 239
*533 O *C 155 235.4
*534 O *C 155 231.8
*535 O *C 155 228.2
*536 O *C 155 224.6
*537 O *C 155 221
*538 O *C 155 217.4
*539 O *C 155 213.8
*540 O *C 155 210.2
*541 O *C 155 206.6
*542 O *C 155 203
*543 O *C 155 199.4
*544 O *C 155 195.8
*545 O *C 155 192.2
*546 O *C 155 188.6
*547 O *C 155 185
*548 O *C 155 181.4
*549 O *C 155 177.8
*550 O *C 155 174.2
*551 O *C 155 170.6
*552 O *C 155 167
*553 O *C 155 163.4
*554 O *C 155 159.8
*555 O *C 155 156.2
*556 O *C 155 152.6
*557 O *C 155 149
*558 O *C 155 145.4
*559 O *C 155 141.8
*560 O *C 155 138.2
*561 O *C 155 134.6
*562 O *C 155 131
*563 O *C 155 127.4
*564 O *C 155 123.8
*565 O *C 155 120.2
*566 O *C 155 116.6
*567 O *C 155 113
*568 O *C 155 109.4
*569 O *C 155 105.8
*570 O *C 155 102.2
*571 O *C 155 98.6
*572 O *C 155 95
*573 O *C 155 91.4
*574 O *C 155 87.8
*575 O *C 155 84.2
*576 O *C 155 80.6
*577 O *C 155 77
*578 O *C 155 73.4
*579 O *C 155 69.8
*580 O *C 155 66.2
*581 O *C 155 62.6
*582 O *C 155 59
*583 O *C 155 55.4
*584 O *C 155 51.8
*585 O *C 155 48.2
*586 O *C 155 44.6
*587 O *C 155 41


*D_NET *1 0.0044523

*CONN
*I *1388:Z O *C 150.7 276 *L 0 *D BUFFD8
*I *975:I I *C 140.5 256.8 *L 0.00287 *D BUFFD8

*CAP
1 *975:I 0.000110055
2 *1:2 0.000245946
3 *1:3 0.00131157
4 *1:4 0.00278474

*RES
1 *1:2 *1:4 23.7259998
2 *1388:Z *1:2 3.97075
3 *975:I *1:3 3.00014
4 *1:3 *1:4 11.2208
*END

*D_NET *2 0.00453256

*CONN
*I *1398:Z O *C 146.5 257.2 *L 0 *D BUFFD8
*I *976:I I *C 145.9 231.6 *L 0.00287 *D BUFFD8

*CAP
1 *1398:Z 0.000208823
2 *2:2 0.00420436
3 *2:3 0.000119327

*RES
1 *2:2 *2:3 26.6278
2 *1398:Z *2:3 2.69667
3 *976:I *2:2 8.89083
*END

*D_NET *3 0.00490325

*CONN
*I *977:Z O *C 145.3 81.6 *L 0 *D BUFFD1
*I *1721:DB I *C 147.1 110.8 *L 0.0011 *D DFXQD1

*CAP
1 *1721:DB 0.000175828
2 *977:Z 0.000146903
3 *3:2 0.000619862
4 *3:3 0.000230703
5 *3:4 0.000862118
6 *3:5 0.00286782

*RES
1 *3:2 *3:4 3.25151
2 *977:Z *3:3 4.92833
3 *3:4 *3:5 28.9801006
4 *1721:DB *3:2 8.44516
5 *3:3 *3:5 3.22586
*END

*D_NET *4 0.00937463

*CONN
*I *977:I I *C 144.7 82 *L 0.00072 *D BUFFD1
*I *978:Z O *C 151.9 135.8 *L 0 *D DEL005

*CAP
1 *4:2 0.000602423
2 *4:3 0.000290546
3 *4:4 6.81619e-05
4 *4:5 0.000151876
5 *4:6 0.000153875
6 *4:7 0.00284703
7 *4:2 *95:2 0.000309965996
8 *4:2 *193:2 0.001818
9 *4:2 *455:7 0.00218993
10 *4:2 *805:8 0.000942798984

*RES
1 *4:6 *4:2 10.259
2 *4:5 *4:7 4.75278
3 *4:3 *4:5 2.99996
4 *978:Z *4:4 2.99996
5 *4:2 *4:7 60.3639984
6 *977:I *4:3 1.50044
7 *4:4 *4:6 1.50044
*END

*D_NET *5 0.00332191

*CONN
*I *979:I I *C 138.3 82 *L 0.000643 *D CKBD0
*I *1106:Z O *C 139.7 106.8 *L 0 *D BUFFD2

*CAP
1 *5:2 0.000127979
2 *5:3 0.000251027
3 *5:4 0.000255031
4 *5:5 0.00216889
5 *5:6 0.000518965

*RES
1 *5:5 *5:6 25.9449997
2 *5:4 *5:6 3.22571
3 *979:I *5:3 5.53968
4 *5:3 *5:5 4.3631
5 *5:2 *5:4 3.27044
6 *1106:Z *5:2 1.50002
*END

*D_NET *6 0.00419813

*CONN
*I *980:I I *C 138.7 139.6 *L 0.000643 *D CKBD0
*I *1336:Z O *C 140.7 117.6 *L 0 *D BUFFD2

*CAP
1 *1336:Z 0.000153374
2 *980:I 0.000272022
3 *6:2 9.73191e-05
4 *6:3 0.000124114
5 *6:4 0.00351201
6 *6:5 3.92814e-05

*RES
1 *6:2 *6:4 5.83245
2 *1336:Z *6:2 2.08352
3 *6:4 *6:5 24.2059002
4 *6:3 *6:5 2.99988
5 *980:I *6:3 4.46289
*END

*D_NET *7 0.0039573

*CONN
*I *979:Z O *C 138.9 81.6 *L 0 *D CKBD0
*I *981:I I *C 151.3 92.8 *L 0.000643 *D CKBD0

*CAP
1 *7:2 0.000159484
2 *7:3 0.000116491
3 *7:4 1.24578e-05
4 *7:5 0.00172039
5 *7:6 0.0019485

*RES
1 *7:4 *7:6 14.3109
2 *7:2 *7:5 3.00002
3 *7:5 *7:6 14.4853001
4 *981:I *7:3 4.49991
5 *979:Z *7:2 1.4999
6 *7:3 *7:4 1.4999
*END

*D_NET *8 0.00440597

*CONN
*I *980:Z O *C 139.3 139.2 *L 0 *D CKBD0
*I *982:I I *C 151.3 130.8 *L 0.000643 *D CKBD0

*CAP
1 *8:2 0.000930644
2 *8:3 0.000101055
3 *8:4 0.000202497
4 *8:5 0.00317176

*RES
1 *8:3 *8:5 16.4053993
2 *8:2 *8:3 6.00784
3 *980:Z *8:2 1.84666
4 *8:4 *8:5 11.485
5 *982:I *8:4 4.95672
*END

*D_NET *9 0.00438694

*CONN
*I *981:Z O *C 151.9 92.4 *L 0 *D CKBD0
*I *983:I I *C 137.7 84 *L 0.000643 *D CKBD0

*CAP
1 *981:Z 0.000316359
2 *983:I 0.000160896
3 *9:2 0.00129076
4 *9:3 0.00231184
5 *9:4 0.000307046

*RES
1 *9:2 *9:3 11.8055
2 *981:Z *9:4 6.97
3 *983:I *9:2 1.74481
4 *9:3 *9:4 16.3939991
*END

*D_NET *10 0.000425413

*CONN
*I *982:Z O *C 151.9 131.2 *L 0 *D CKBD0
*I *984:I I *C 150.5 130.8 *L 0.000643 *D CKBD0

*CAP
1 *10:2 0.000425413008

*RES
1 *984:I *10:2 4.49997
2 *982:Z *10:2 4.75991011
*END

*D_NET *11 1.3355e-05

*CONN
*I *983:Z O *C 138.3 84.4 *L 0 *D CKBD0
*I *985:I I *C 138.5 84 *L 0.000643 *D CKBD0

*CAP
1 *983:Z 1.3355e-05

*RES
1 *983:Z *985:I 0.250219
*END

*D_NET *12 0.00374772

*CONN
*I *984:Z O *C 151.1 131.2 *L 0 *D CKBD0
*I *986:I I *C 140.5 139.6 *L 0.000643 *D CKBD0

*CAP
1 *984:Z 0.000130335
2 *12:2 0.000597313
3 *12:3 3.36169e-05
4 *12:4 0.000165631
5 *12:5 0.00282085

*RES
1 *12:4 *12:5 9.73903
2 *12:2 *12:3 3.95248
3 *984:Z *12:4 3.19464
4 *12:3 *12:5 15.7121
5 *986:I *12:2 2.99996
*END

*D_NET *13 0.00429526

*CONN
*I *986:Z O *C 141.1 139.2 *L 0 *D CKBD0
*I *987:I I *C 151.3 127.2 *L 0.000643 *D CKBD0

*CAP
1 *13:2 0.00022501
2 *13:3 0.000201374
3 *13:4 0.000241284
4 *13:5 0.00362756

*RES
1 *13:4 *13:5 11.2321
2 *13:3 *13:5 19.9416008
3 *987:I *13:2 4.90842
4 *986:Z *13:3 5.47195
5 *13:2 *13:4 1.50012
*END

*D_NET *14 0.000423501

*CONN
*I *985:Z O *C 139.1 84.4 *L 0 *D CKBD0
*I *988:I I *C 140.1 84 *L 0.000643 *D CKBD0

*CAP
1 *988:I 0.000123365
2 *14:2 0.000300134004

*RES
1 *988:I *14:2 7.36031008
2 *985:Z *14:2 3.00001
*END

*D_NET *15 0.00277624

*CONN
*I *989:Z O *C 151.7 95.2 *L 0 *D CKBD1
*I *1719:DB I *C 147.5 103.6 *L 0.0011 *D DFXQD1

*CAP
1 *989:Z 0.000141019
2 *15:2 0.00263521

*RES
1 *989:Z *15:2 7.01066
2 *1719:DB *15:2 24.2173004
*END

*D_NET *16 0.00179265

*CONN
*I *990:Z O *C 139.9 206.8 *L 0 *D DEL0
*I *1737:DA I *C 145.5 200.8 *L 0.000721 *D DFXQD1

*CAP
1 *1737:DA 0.000377736
2 *990:Z 0.000241692
3 *16:2 7.99579e-05
4 *16:3 0.00109326992

*RES
1 *16:2 *16:3 7.56567001
2 *990:Z *16:3 6.32119
3 *1737:DA *16:2 3.78872
*END

*D_NET *17 0.0148883

*CONN
*I *991:Z O *C 151.1 127.6 *L 0 *D CKBD0
*I *1729:DB I *C 146.5 143.2 *L 0.0011 *D DFXQD1
*I *999:I I *C 137.5 204.4 *L 0.00104 *D DEL0

*CAP
1 *999:I 0.000174564
2 *1729:DB 0.000134966
3 *991:Z 0.000266271
4 *17:3 0.00332929
5 *17:4 0.000413416
6 *17:5 0.000264607
7 *17:6 0.00436143031
8 *17:7 0.000447756
9 *17:8 0.000514507
10 *17:9 6.74829e-05
11 *17:10 0.000514507
12 *17:11 0.00169885
13 *17:7 *91:15 0.000600881992
14 *17:4 *26:2 0.00077643
15 *999:I *207:4 0.00022478
16 *17:3 *96:8 0.00109858

*RES
1 *17:3 *17:10 23.6536
2 *17:8 *17:10 4.70158
3 *17:4 *17:6 48.2120018
4 *991:Z *17:5 3.05739
5 *17:7 *17:11 18.0295
6 *17:5 *17:3 14.8242
7 *1729:DB *17:9 4.50001
8 *17:8 *17:9 3.13022
9 *17:6 *17:7 12.6893
10 *999:I *17:4 2.72046
11 *17:9 *17:11 1.5
*END

*D_NET *18 0.00336103

*CONN
*I *992:I I *C 151.1 120 *L 0.000643 *D CKBD0
*I *1036:Z O *C 138.7 114 *L 0 *D CKBD0

*CAP
1 *1036:Z 0.000196945
2 *18:2 0.000370781
3 *18:3 0.000713398
4 *18:4 0.00147895
5 *18:5 0.000600968

*RES
1 *1036:Z *18:4 2.009
2 *18:2 *18:3 3.86965
3 *992:I *18:2 5.12232
4 *18:4 *18:5 11.5059004
5 *18:3 *18:5 5.47591
*END

*D_NET *19 0.00877513

*CONN
*I *993:Z O *C 140.5 218.4 *L 0 *D DEL0
*I *1745:DA I *C 145.3 233.2 *L 0.000721 *D DFXQD1
*I *1761:DB I *C 148.5 271.2 *L 0.0011 *D DFXQD1
*I *1753:DA I *C 145.9 267.6 *L 0.000721 *D DFXQD1

*CAP
1 *1753:DA 0.000330247
2 *19:4 0.000409985
3 *19:5 0.000304273
4 *19:6 0.000631002
5 *19:7 0.000731582
6 *19:8 0.000120571
7 *19:9 8.54977e-05
8 *19:10 8.85904e-05
9 *19:11 0.000380672
10 *19:12 0.0014687
11 *19:13 0.000200376
12 *19:14 0.0001069
13 *19:15 0.000488625
14 *19:7 *91:16 0.00144236
15 *1753:DA *1752:DA 0.000657028047
16 *1753:DA *351:11 0.000413138008
17 *19:4 *761:12 0.000253405
18 *1753:DA *258:2 0.00066216

*RES
1 *19:13 *19:14 2.13687
2 *19:6 *19:7 5.77157
3 *19:7 *19:15 10.8959
4 *19:8 *19:13 4.41814
5 *19:4 *19:8 4.0562
6 *1745:DA *19:12 5.24891
7 *19:5 *19:4 4.02411
8 *19:12 *19:15 7.01377
9 *1761:DB *19:5 4.62128
10 *1753:DA *19:4 5.58312
11 *19:10 *19:11 3.26894
12 *19:11 *19:12 17.8216
13 *19:9 *19:10 3.17023
14 *19:9 *19:14 3.34291
15 *993:Z *19:6 1.5
*END

*D_NET *20 0.00457263

*CONN
*I *994:Z O *C 151.9 81.6 *L 0 *D CKBD0
*I *1713:DB I *C 147.7 82 *L 0.0011 *D DFXQD1
*I *1705:DB I *C 147.3 64 *L 0.0011 *D DFXQD1

*CAP
1 *1705:DB 0.000238047
2 *1713:DB 0.000439982
3 *994:Z 0.000386689
4 *20:3 0.0010956
5 *20:4 0.000284033
6 *20:5 0.0021283

*RES
1 *20:4 *20:5 16.9876003
2 *20:3 *20:5 8.16408
3 *1713:DB *20:4 6.86337
4 *1705:DB *20:3 4.58672
5 *994:Z *20:4 6.88125
*END

*D_NET *21 0.00534442

*CONN
*I *992:Z O *C 151.7 120.4 *L 0 *D CKBD0
*I *995:I I *C 138.1 136 *L 0.00182 *D DEL005

*CAP
1 *21:2 0.000230257
2 *21:3 0.00177424
3 *21:4 0.00021312
4 *21:5 0.000152368
5 *21:6 0.000364242
6 *21:7 0.000265317
7 *21:6 *787:4 0.000231795996
8 *21:6 *790:3 0.000204301992
9 *21:2 *89:2 0.000640654023
10 *21:3 *464:7 0.00126811

*RES
1 *21:7 *21:3 12.2048
2 *21:2 *21:3 18.3197002
3 *21:6 *21:7 5.16304
4 *992:Z *21:5 3.38938
5 *21:5 *21:6 3.83272
6 *21:4 *21:2 5.86104
7 *995:I *21:4 1.49999
*END

*D_NET *22 0.000353797

*CONN
*I *996:Z O *C 151.9 85.2 *L 0 *D CKBD1
*I *1030:I I *C 150.5 85.6 *L 0.000643 *D CKBD0

*CAP
1 *1030:I 0.000261696992
2 *996:Z 9.21001e-05

*RES
1 *996:Z *1030:I 6.32436
*END

*D_NET *23 0.000978729

*CONN
*I *997:Z O *C 151.7 113 *L 0 *D DEL005
*I *1014:I I *C 150.7 107.2 *L 0.000643 *D CKBD0

*CAP
1 *1014:I 5.63392e-05
2 *23:2 0.000178182
3 *23:3 0.000241585
4 *23:4 0.000502611992

*RES
1 *23:2 *23:4 6.77511978
2 *23:3 *23:4 2.99389
3 *1014:I *23:3 4.50003
4 *997:Z *23:2 3.58336
*END

*D_NET *24 0.00364733

*CONN
*I *998:Z O *C 138.9 73.6 *L 0 *D BUFFD1
*I *1066:I I *C 140.5 55.2 *L 0.000643 *D CKBD0

*CAP
1 *1066:I 0.000166481
2 *24:2 0.000515859
3 *24:3 8.09303e-05
4 *24:4 0.00288405

*RES
1 *998:Z *24:2 5.12715
2 *24:3 *24:4 5.48994
3 *1066:I *24:3 4.49994
4 *24:2 *24:4 21.3423004
*END

*D_NET *25 0.00249725

*CONN
*I *990:I I *C 137.5 206.4 *L 0.00104 *D DEL0
*I *993:I I *C 138.1 218.8 *L 0.00104 *D DEL0
*I *999:Z O *C 139.9 204 *L 0 *D DEL0

*CAP
1 *990:I 7.38009e-05
2 *993:I 7.93055e-05
3 *25:3 0.0014546
4 *25:4 0.00088954

*RES
1 *990:I *25:3 3.61399
2 *25:3 *25:4 3.8628
3 *993:I *25:3 13.3217001
4 *999:Z *25:4 5.28693
*END

*D_NET *26 0.00753846

*CONN
*I *1000:I I *C 137.7 202.8 *L 0.00103 *D DEL015
*I *1069:Z O *C 151.9 157.2 *L 0 *D DEL015

*CAP
1 *1000:I 0.000136931
2 *26:2 0.00363017
3 *26:3 0.000286658
4 *26:4 6.37018e-05
5 *26:5 0.000951981
6 *26:2 *207:5 0.000346903008
7 *26:2 *70:3 0.000906993984
8 *26:2 *890:6 0.000438686016
9 *26:2 *17:4 0.00077643

*RES
1 *26:3 *26:2 45.2266006
2 *1000:I *26:3 2.23455
3 *26:4 *26:5 11.2314
4 *26:2 *26:5 9.77531
5 *1069:Z *26:4 1.50028
*END

*D_NET *27 0.00320819

*CONN
*I *1001:Z O *C 151.3 110.4 *L 0 *D CKBD1
*I *1774:A2 I *C 143.1 107.2 *L 0.000664 *D NR2D0

*CAP
1 *1774:A2 2.02967e-05
2 *27:2 0.000474355
3 *27:3 0.00120375
4 *27:4 0.00102962
5 *27:5 0.000470883
6 *27:6 9.27586e-06

*RES
1 *1774:A2 *27:2 3.74497
2 *27:5 *27:6 0.32955
3 *27:3 *27:4 4.07271
4 *27:2 *27:4 7.18413
5 *1001:Z *27:5 4.85008
6 *27:3 *27:6 9.84832954
*END

*D_NET *28 0.0058314

*CONN
*I *988:Z O *C 140.7 84.4 *L 0 *D CKBD0
*I *1002:I I *C 151.1 109.2 *L 0.000968 *D CKBD1

*CAP
1 *1002:I 3.8356e-05
2 *28:2 0.000216522
3 *28:3 0.000140498
4 *28:4 0.00125307
5 *28:5 0.000979894
6 *28:6 0.000141952
7 *28:7 0.00011394
8 *28:5 *145:2 0.00171143
9 *28:4 *480:2 0.00105669
10 *28:5 *484:2 0.000179057012

*RES
1 *28:4 *28:5 8.89932
2 *28:2 *28:4 3.00009
3 *1002:I *28:3 4.4999
4 *28:3 *28:6 3.00009
5 *28:6 *28:7 4.22541
6 *28:5 *28:7 31.5035992
7 *988:Z *28:2 1.49981
*END

*D_NET *29 0.000996276

*CONN
*I *996:I I *C 151.3 85.6 *L 0.000968 *D CKBD1
*I *1003:Z O *C 151.7 80.6 *L 0 *D DEL005

*CAP
1 *1003:Z 4.26338e-05
2 *29:2 0.000746263047
3 *29:3 2.96524e-05
4 *29:4 0.000177721

*RES
1 *29:2 *29:3 7.36143017
2 *1003:Z *29:2 0.978813
3 *29:3 *29:4 2.47242
4 *996:I *29:4 4.50002
*END

*D_NET *30 0.000375251

*CONN
*I *1004:Z O *C 138.1 181.6 *L 0 *D BUFFD1
*I *1062:I I *C 137.5 182.8 *L 0.00103 *D DEL015

*CAP
1 *1004:Z 0.000375250977

*RES
1 *1004:Z *1062:I 6.44041
*END

*D_NET *31 0.00212837

*CONN
*I *1005:Z O *C 139.9 200.4 *L 0 *D DEL01
*I *1082:I I *C 137.9 192 *L 0.00104 *D DEL0

*CAP
1 *1082:I 0.000115952
2 *1005:Z 0.000285399
3 *31:2 0.00172702

*RES
1 *1082:I *31:2 1.49811
2 *1005:Z *31:2 21.1368008
*END

*D_NET *32 0.00584402

*CONN
*I *998:I I *C 138.3 73.2 *L 0.00072 *D BUFFD1
*I *1006:Z O *C 142.3 106.8 *L 0 *D DEL01

*CAP
1 *32:2 0.000833765
2 *32:3 0.000255031
3 *32:4 0.000252773
4 *32:5 0.000264892
5 *32:6 0.00146545
6 *32:7 0.000309637
7 *32:6 *336:2 0.000963181953
8 *32:4 *483:2 0.000230398008
9 *32:4 *243:2 0.000208147012
10 *32:3 *805:3 0.00106074

*RES
1 *32:5 *32:7 4.36268
2 *32:3 *32:5 2.99998
3 *32:2 *32:4 6.3872
4 *32:6 *32:7 37.1026001
5 *32:4 *32:6 3.93072
6 *1006:Z *32:3 1.50027
7 *998:I *32:2 1.50027
*END

*D_NET *33 0.00378944

*CONN
*I *1007:Z O *C 151.1 70 *L 0 *D BUFFD1
*I *1700:DB I *C 147.3 48 *L 0.0011 *D DFXQD1

*CAP
1 *1700:DB 0.000112711
2 *1007:Z 0.000205908
3 *33:2 0.000120389
4 *33:3 0.000446595
5 *33:4 0.00198883
6 *33:5 0.000915041

*RES
1 *33:4 *33:5 22.2301998
2 *33:2 *33:4 2.99994
3 *33:3 *33:5 6.07043
4 *1700:DB *33:2 4.49991
5 *1007:Z *33:3 7.90214
*END

*D_NET *34 0.00101261

*CONN
*I *1007:I I *C 150.5 69.6 *L 0.00072 *D BUFFD1
*I *1008:Z O *C 151.3 67.2 *L 0 *D CKBD0

*CAP
1 *1007:I 0.000242848
2 *1008:Z 0.000132242
3 *34:2 0.00063752

*RES
1 *1008:Z *34:2 1.77579
2 *1007:I *34:2 11.4715004
*END

*D_NET *35 0.000311601

*CONN
*I *1008:I I *C 150.7 67.6 *L 0.000643 *D CKBD0
*I *1009:Z O *C 151.3 66.4 *L 0 *D CKBD0

*CAP
1 *1009:Z 0.000311601016

*RES
1 *1009:Z *1008:I 6.05751
*END

*D_NET *36 0.02659

*CONN
*I *1010:Z O *C 144.3 66.4 *L 0 *D CKBD1
*I *1708:DB I *C 147.1 66 *L 0.0011 *D DFXQD1
*I *1716:DB I *C 147.5 94.8 *L 0.0011 *D DFXQD1
*I *1724:DB I *C 146.3 120 *L 0.0011 *D DFXQD1
*I *1732:DA I *C 144.3 170.4 *L 0.000721 *D DFXQD1
*I *1740:DA I *C 145.3 213.6 *L 0.000721 *D DFXQD1
*I *1748:DA I *C 145.3 242.4 *L 0.000721 *D DFXQD1
*I *1756:DB I *C 147.1 247.6 *L 0.0011 *D DFXQD1

*CAP
1 *1756:DB 7.36538e-05
2 *1732:DA 0.000270022
3 *1724:DB 0.000180824
4 *1716:DB 0.000320249
5 *1010:Z 9.02385e-05
6 *36:8 0.00103762
7 *36:9 0.00206631
8 *36:10 0.000204093
9 *36:11 0.000150744
10 *36:12 0.000300826
11 *36:13 4.225e-06
12 *36:14 0.000557669
13 *36:15 0.000358873
14 *36:16 0.00137549
15 *36:17 0.000652921
16 *36:19 0.00154471
17 *36:20 0.0012652
18 *36:21 0.000352252
19 *36:22 0.000177229
20 *36:23 0.000168748
21 *36:24 0.000418023
22 *36:25 0.000389678
23 *36:26 0.000290296
24 *36:27 0.000157019
25 *36:28 0.000273017
26 *36:29 0.000165879
27 *36:30 0.000228245
28 *36:31 6.30597e-08
29 *36:32 0.000778788
30 *36:33 0.000234109
31 *36:34 0.000330023
32 *36:35 0.000471403
33 *36:36 0.000127791
34 *36:37 0.000540107
35 *36:38 0.00131303
36 *36:39 0.000189116
37 *36:40 0.000259522
38 *36:41 0.000940694
39 *36:43 3.1656e-05
40 *36:44 0.000131448
41 *36:45 0.000798525
42 *36:46 1.63955e-06
43 *36:12 *467:20 0.000932793984
44 *36:8 *195:3 0.000485153008
45 *36:8 *437:4 0.000154955996
46 *36:9 *804:8 0.000916238984
47 *36:9 *243:9 0.000657366953
48 *36:10 *292:4 0.00150125
49 *36:10 *338:2 0.000376106992
50 *1724:DB *347:2 0.000289689004
51 *1716:DB *341:4 0.000411466992
52 *36:11 *364:16 0.000829533984
53 *1732:DA *114:3 0.000567576992
54 *36:12 *531:9 0.000245895

*RES
1 *36:21 *36:22 3.49951
2 *36:10 *36:36 2.02262
3 *36:11 *36:17 6.29955
4 *1724:DB *36:36 6.74467
5 *36:13 *36:16 7.40537
6 *36:21 *36:23 2.16068
7 *36:31 *36:32 7.87618
8 *36:8 *36:37 3.32399
9 *1756:DB *36:13 3.47076
10 *36:24 *36:26 0.256529
11 *36:30 *36:32 0.256529
12 *36:12 *36:25 4.83964
13 *36:9 *36:37 28.5431004
14 *36:18 *36:19 0.256529
15 *36:27 *36:38 3.86231
16 *36:25 *36:26 5.58528
17 *1010:Z *36:17 2.99995
18 *36:14 *36:38 6.86705
19 *36:39 *36:41 18.0145
20 *36:15 *36:23 5.57918
21 *36:24 *36:38 20.173
22 *36:9 *36:17 0.346249
23 *36:10 *36:31 2.77652
24 *36:40 *36:46 6.08004
25 *36:19 *36:28 14.5198
26 *36:35 *36:39 7.02079
27 *36:8 *36:34 11.6936
28 *36:30 *36:33 5.24295
29 *36:42 *36:44 0.256529
30 *36:28 *36:29 3.4969
31 *1732:DA *36:15 4.5535
32 *36:18 *36:20 13.1649
33 *1748:DA *36:16 6.3614
34 *36:15 *36:35 5.52866
35 *36:43 *36:44 4.04218
36 *36:42 *36:45 15.5289
37 *36:41 *36:43 0.256529
38 *36:12 *36:16 2.03307
39 *36:27 *36:29 0.256529
40 *1716:DB *36:8 7.52471
41 *36:33 *36:34 1.85842
42 *36:45 *36:46 0.256529
43 *36:20 *36:22 0.256529
44 *1740:DA *36:14 2.99995
45 *1708:DB *36:11 2.99995
46 *36:36 *36:40 1.49998
*END

*D_NET *37 0.00186882

*CONN
*I *1011:Z O *C 145.7 77 *L 0 *D DEL005
*I *1013:I I *C 144.9 71.2 *L 0.000643 *D CKBD0

*CAP
1 *1013:I 7.6571e-05
2 *37:2 0.000375122
3 *37:3 6.56205e-05
4 *37:4 0.00135149

*RES
1 *37:2 *37:4 11.5524998
2 *37:3 *37:4 1.75431
3 *1013:I *37:3 4.5
4 *1011:Z *37:2 4.2236
*END

*D_NET *38 0.00101869

*CONN
*I *1011:I I *C 145.1 76.8 *L 0.00182 *D DEL005
*I *1012:Z O *C 145.9 74.6 *L 0 *D DEL005

*CAP
1 *1012:Z 0.000328051
2 *38:2 0.00017884
3 *38:3 0.000511803984

*RES
1 *1012:Z *38:3 7.48292017
2 *38:2 *38:3 2.99997
3 *1011:I *38:2 1.49999
*END

*D_NET *39 0.00169343

*CONN
*I *1012:I I *C 145.3 74.8 *L 0.00182 *D DEL005
*I *1015:Z O *C 144.7 71 *L 0 *D DEL005

*CAP
1 *1015:Z 0.000111027
2 *39:2 0.00127495
3 *39:3 0.000307439

*RES
1 *39:2 *39:3 11.3901997
2 *1015:Z *39:2 2.99997
3 *1012:I *39:3 4.50005
*END

*D_NET *40 0.00441049

*CONN
*I *997:I I *C 151.1 112.8 *L 0.00182 *D DEL005
*I *1340:Z O *C 138.1 102.4 *L 0 *D BUFFD2

*CAP
1 *1340:Z 0.000203663
2 *40:2 0.00214445
3 *40:3 0.00148451
4 *40:4 0.000577841

*RES
1 *997:I *40:3 4.48891
2 *40:2 *40:4 15.6395
3 *1340:Z *40:2 2.19309
4 *40:3 *40:4 17.0879002
*END

*D_NET *41 0.00260928

*CONN
*I *1015:I I *C 144.1 71.2 *L 0.00182 *D DEL005
*I *1023:Z O *C 138.7 63.8 *L 0 *D DEL005

*CAP
1 *1015:I 0.00108232
2 *41:2 0.00152695

*RES
1 *1023:Z *41:2 10.7475
2 *1015:I *41:2 11.1552
*END

*D_NET *42 0.00253223

*CONN
*I *1014:Z O *C 151.3 106.8 *L 0 *D CKBD0
*I *1016:I I *C 145.3 112.8 *L 0.000643 *D CKBD0

*CAP
1 *1014:Z 0.000185029
2 *42:2 0.00132393
3 *42:3 6.59793e-05
4 *42:4 0.000374805
5 *42:5 0.000582481

*RES
1 *42:2 *42:3 8.37456036
2 *42:3 *42:5 5.00345
3 *1014:Z *42:2 6.12796
4 *1016:I *42:4 6.47924
5 *42:4 *42:5 1.49995
*END

*D_NET *43 0.00287265

*CONN
*I *1013:Z O *C 145.5 70.8 *L 0 *D CKBD0
*I *1017:I I *C 138.5 62.4 *L 0.000643 *D CKBD0

*CAP
1 *1017:I 0.000151385
2 *43:2 0.00140127
3 *43:3 0.000140416
4 *43:4 0.000581398
5 *43:5 0.000598162

*RES
1 *43:3 *43:5 4.99699
2 *43:2 *43:4 4.60831
3 *1017:I *43:4 4.49996
4 *43:2 *43:5 10.9750004
5 *1013:Z *43:3 1.49999
*END

*D_NET *44 0.00261805

*CONN
*I *1016:Z O *C 145.9 113.2 *L 0 *D CKBD0
*I *1018:I I *C 151.1 105.6 *L 0.000643 *D CKBD0

*CAP
1 *1018:I 0.000218082
2 *44:2 0.000530296
3 *44:3 8.96949e-05
4 *44:4 0.000817302
5 *44:5 0.000962685

*RES
1 *44:3 *44:4 7.33889008
2 *44:2 *44:5 7.09085
3 *44:2 *44:3 5.46262
4 *1018:I *44:5 6.84079
5 *1016:Z *44:4 1.50001
*END

*D_NET *45 0.00112237

*CONN
*I *1019:Z O *C 151.7 117.6 *L 0 *D CKBD1
*I *1722:DB I *C 147.3 116.4 *L 0.0011 *D DFXQD1

*CAP
1 *1019:Z 6.69353e-05
2 *45:2 7.67172e-05
3 *45:3 0.000978716016

*RES
1 *45:2 *45:3 6.15509987
2 *1722:DB *45:3 5.84751
3 *1019:Z *45:2 1.75657
*END

*D_NET *46 0.00228323

*CONN
*I *1017:Z O *C 139.1 62.8 *L 0 *D CKBD0
*I *1020:I I *C 138.1 71.2 *L 0.00182 *D DEL005

*CAP
1 *1017:Z 0.000185777
2 *1020:I 0.000267856
3 *46:2 6.07832e-05
4 *46:3 0.00176884

*RES
1 *1020:I *46:2 5.68757
2 *1017:Z *46:3 8.2166
3 *46:2 *46:3 10.4338999
*END

*D_NET *47 0.00579626

*CONN
*I *1018:Z O *C 151.7 106 *L 0 *D CKBD0
*I *1021:I I *C 138.1 85.6 *L 0.000643 *D CKBD0

*CAP
1 *1021:I 0.000179416
2 *47:2 0.00162113
3 *47:3 5.20958e-05
4 *47:4 0.000178452
5 *47:5 0.000721896
6 *47:6 0.000523531
7 *47:7 1.90474e-06
8 *47:9 0.000804319
9 *47:2 *91:9 0.000818646016
10 *1021:I *1021:Z 0.00033446
11 *47:4 *787:3 0.00020582
12 *47:4 *790:4 0.000354586992

*RES
1 *47:8 *47:9 0.452827
2 *47:6 *47:8 6.53403
3 *47:5 *47:7 9.70381
4 *47:6 *47:7 0.256455
5 *47:2 *47:5 12.5801001
6 *1021:I *47:2 4.64037
7 *47:4 *47:9 10.1211
8 *47:3 *47:4 3.95912
9 *1018:Z *47:3 1.49995
*END

*D_NET *48 0.00165138

*CONN
*I *1019:I I *C 151.1 118 *L 0.000968 *D CKBD1
*I *1022:Z O *C 145.9 117.8 *L 0 *D DEL005

*CAP
1 *1022:Z 0.000302521
2 *48:2 0.000174484
3 *48:3 0.00117437008

*RES
1 *48:2 *48:3 7.98290014
2 *1022:Z *48:3 7.85451
3 *1019:I *48:2 3.00004
*END

*D_NET *49 0.00136614

*CONN
*I *1023:I I *C 138.1 64 *L 0.00182 *D DEL005
*I *1032:Z O *C 138.9 60 *L 0 *D CKBD0

*CAP
1 *1032:Z 3.91824e-05
2 *1023:I 7.14022e-05
3 *49:2 0.000243802
4 *49:3 0.00101175

*RES
1 *1023:I *49:2 1.75641
2 *49:2 *49:3 9.30467987
3 *1032:Z *49:3 4.77984
*END

*D_NET *50 0.00573369

*CONN
*I *1021:Z O *C 138.7 85.2 *L 0 *D CKBD0
*I *1024:I I *C 150.3 105.6 *L 0.000643 *D CKBD0

*CAP
1 *1021:Z 8.58e-05
2 *1024:I 0.000103489
3 *50:2 0.000235382
4 *50:3 0.0012207
5 *50:4 0.00204098016
6 *50:4 *129:5 0.00035535
7 *50:2 *790:4 0.000869545
8 *50:2 *225:3 0.000298359004
9 *50:2 *1719:CP 0.000189637012
10 *1021:Z *1021:I 0.00033446

*RES
1 *50:2 *50:4 28.0870991
2 *1024:I *50:2 7.30935
3 *1021:Z *50:3 4.75461
4 *50:3 *50:4 12.5808
*END

*D_NET *51 0.000713845

*CONN
*I *1003:I I *C 151.1 80.4 *L 0.00182 *D DEL005
*I *1025:Z O *C 151.7 84.2 *L 0 *D DEL005

*CAP
1 *51:2 0.000167109
2 *51:3 0.000167474
3 *51:4 0.00037926

*RES
1 *51:2 *51:4 5.0138402
2 *51:3 *51:4 2.66682
3 *1003:I *51:3 3
4 *1025:Z *51:2 3.58342
*END

*D_NET *52 0.00181128

*CONN
*I *1026:I I *C 138.3 134.4 *L 0.000643 *D CKBD0
*I *1334:Z O *C 138.1 127.6 *L 0 *D BUFFD1

*CAP
1 *1334:Z 0.000288111
2 *52:2 0.000345815
3 *52:3 0.00117736008

*RES
1 *52:2 *52:3 11.5524998
2 *1026:I *52:2 5.5284
3 *1334:Z *52:3 5.27791
*END

*D_NET *53 0.00274479

*CONN
*I *1020:Z O *C 138.7 71 *L 0 *D DEL005
*I *1027:I I *C 137.5 60.4 *L 0.000643 *D CKBD0

*CAP
1 *1020:Z 6.35085e-05
2 *1027:I 0.000244508
3 *53:2 0.0016516
4 *53:3 0.000693352
5 *53:4 9.18102e-05

*RES
1 *53:3 *53:4 6.3809
2 *53:2 *53:3 14.5417995
3 *1027:I *53:2 2.72259
4 *1020:Z *53:4 2.99996
*END

*D_NET *54 0.000745291

*CONN
*I *1024:Z O *C 150.9 106 *L 0 *D CKBD0
*I *1028:I I *C 151.1 103.6 *L 0.000643 *D CKBD0

*CAP
1 *1028:I 0.000155818
2 *54:2 0.000589476992

*RES
1 *1028:I *54:2 9.94686985
2 *1024:Z *54:2 1.50001
*END

*D_NET *55 1.0504e-05

*CONN
*I *1029:Z O *C 138.3 131.2 *L 0 *D CKBD0
*I *1034:I I *C 138.5 130.8 *L 0.000643 *D CKBD0

*CAP
1 *1029:Z 1.05040002e-05

*RES
1 *1029:Z *1034:I 0.250232
*END

*D_NET *56 0.00180531

*CONN
*I *1025:I I *C 151.1 84 *L 0.00182 *D DEL005
*I *1033:Z O *C 146.1 87.8 *L 0 *D DEL005

*CAP
1 *1033:Z 0.000589563
2 *56:2 0.00111741992
3 *56:3 9.83316e-05

*RES
1 *1033:Z *56:2 6.61005
2 *56:2 *56:3 7.28342009
3 *1025:I *56:3 3.00001
*END

*D_NET *57 0.00531918

*CONN
*I *1028:Z O *C 151.7 103.2 *L 0 *D CKBD0
*I *1031:I I *C 138.1 87.6 *L 0.000643 *D CKBD0

*CAP
1 *57:2 0.00189779
2 *57:3 0.00194638
3 *57:5 0.000180189
4 *57:3 *1500:CDN 0.000476298984
5 *57:2 *364:6 0.000319546016
6 *57:2 *1716:CP 0.000498963008

*RES
1 *57:2 *57:4 12.3033
2 *57:3 *57:4 5.45908
3 *1031:I *57:3 16.6681995
4 *57:2 *57:5 7.03495
5 *1028:Z *57:5 1.50008
*END

*D_NET *58 0.00142905

*CONN
*I *1027:Z O *C 138.1 60 *L 0 *D CKBD0
*I *1053:I I *C 139.7 56.8 *L 0.000643 *D CKBD0

*CAP
1 *1053:I 0.000355148
2 *58:2 0.0010739

*RES
1 *1053:I *58:2 9.80681992
2 *1027:Z *58:2 4.77981
*END

*D_NET *59 0.00102157

*CONN
*I *1033:I I *C 145.5 87.6 *L 0.00182 *D DEL005
*I *1037:Z O *C 146.3 91.4 *L 0 *D DEL005

*CAP
1 *1037:Z 0.000171484
2 *59:2 0.000563857031
3 *59:3 0.000286226

*RES
1 *1037:Z *59:3 4.81793022
2 *59:2 *59:3 4.73331
3 *1033:I *59:2 1.50002
*END

*D_NET *60 0.00258645

*CONN
*I *1034:Z O *C 139.1 131.2 *L 0 *D CKBD0
*I *1038:I I *C 144.7 127.2 *L 0.00182 *D DEL005

*CAP
1 *60:2 0.000303886
2 *60:3 0.000254558
3 *60:4 0.00202801984

*RES
1 *60:3 *60:4 6.02107
2 *1038:I *60:3 3.76363
3 *60:2 *60:4 13.368
4 *1034:Z *60:2 3.5827
*END

*D_NET *61 0.00182447

*CONN
*I *1035:Z O *C 138.1 59.2 *L 0 *D CKBD0
*I *1076:I I *C 144.3 60.4 *L 0.000968 *D CKBD1

*CAP
1 *61:2 9.18846e-05
2 *61:3 0.00131248
3 *61:4 0.00042011

*RES
1 *61:2 *61:4 4.07931
2 *61:3 *61:4 10.2277002
3 *1035:Z *61:3 1.50007
4 *1076:I *61:2 1.50007
*END

*D_NET *62 0.00396907

*CONN
*I *1031:Z O *C 138.7 88 *L 0 *D CKBD0
*I *1036:I I *C 138.1 114.4 *L 0.000643 *D CKBD0

*CAP
1 *1031:Z 0.000251114
2 *62:2 0.000282503
3 *62:3 0.000223773
4 *62:4 0.00080004
5 *62:5 0.00241160016

*RES
1 *62:3 *62:5 2.99991
2 *1031:Z *62:3 5.16369
3 *1036:I *62:2 2.99991
4 *62:4 *62:5 28.406601
5 *62:2 *62:4 3.38915
*END

*D_NET *63 0.00317536

*CONN
*I *1030:Z O *C 151.1 85.2 *L 0 *D CKBD0
*I *1041:I I *C 143.5 92.8 *L 0.000643 *D CKBD0

*CAP
1 *1030:Z 0.000107915
2 *1041:I 4.38535e-05
3 *63:2 0.00110411
4 *63:3 5.7493e-05
5 *63:4 3.02977e-05
6 *63:5 0.0018317

*RES
1 *63:2 *63:3 8.37202
2 *63:4 *63:5 4.14821
3 *1041:I *63:2 3.86411
4 *1030:Z *63:4 2.99999
5 *63:3 *63:5 12.5123997
*END

*D_NET *64 0.00174778

*CONN
*I *1038:Z O *C 145.3 127.4 *L 0 *D DEL005
*I *1104:I I *C 141.3 123.6 *L 0.00104 *D DEL0

*CAP
1 *1104:I 0.000929858984
2 *1038:Z 6.20474e-05
3 *64:2 0.000615593
4 *64:3 0.000140284

*RES
1 *1038:Z *64:3 5.21265
2 *1104:I *64:2 9.01290035
3 *64:2 *64:3 5.12215
*END

*D_NET *65 0.00150829

*CONN
*I *1039:I I *C 145.3 107.2 *L 0.000968 *D CKBD1
*I *1338:Z O *C 138.1 106.8 *L 0 *D BUFFD2

*CAP
1 *1338:Z 0.000127827
2 *65:2 0.0001929
3 *65:3 0.00118757

*RES
1 *65:2 *65:3 9.77686024
2 *1039:I *65:2 3.19446
3 *1338:Z *65:3 3.00007
*END

*D_NET *66 0.000378588

*CONN
*I *1040:Z O *C 151.5 98.8 *L 0 *D CKBD0
*I *1046:I I *C 150.9 96.4 *L 0.000643 *D CKBD0

*CAP
1 *1046:I 8.01125e-05
2 *1040:Z 0.000298475

*RES
1 *1040:Z *1046:I 8.04989
*END

*D_NET *67 0.00213374

*CONN
*I *1037:I I *C 145.7 91.2 *L 0.00182 *D DEL005
*I *1048:Z O *C 138.7 95 *L 0 *D DEL005

*CAP
1 *1037:I 0.000218387
2 *1048:Z 0.000361116
3 *67:2 0.00011497
4 *67:3 0.00143926

*RES
1 *67:2 *67:3 7.94574022
2 *1037:I *67:2 2.35101
3 *1048:Z *67:3 7.72629
*END

*D_NET *68 0.00139469

*CONN
*I *1009:I I *C 150.7 66 *L 0.000643 *D CKBD0
*I *1042:Z O *C 145.5 66.2 *L 0 *D DEL005

*CAP
1 *68:2 8.26898e-05
2 *68:3 0.00103536
3 *68:4 0.000276649

*RES
1 *68:3 *68:4 5.26379
2 *68:2 *68:3 7.4218502
3 *1042:Z *68:4 5.00909
4 *1009:I *68:2 2.99995
*END

*D_NET *69 0.00856406

*CONN
*I *995:Z O *C 138.7 135.8 *L 0 *D DEL005
*I *1043:I I *C 139.5 91.2 *L 0.000643 *D CKBD0

*CAP
1 *995:Z 0.00046604
2 *69:2 0.000915223
3 *69:3 0.000615292
4 *69:4 4.84142e-05
5 *69:5 0.000199549
6 *69:6 0.00199048
7 *995:Z *372:2 0.00180769
8 *69:4 *788:3 0.000625246992
9 *69:2 *132:5 0.000371291016
10 *69:3 *391:6 0.000453886992
11 *69:3 *397:2 0.00107095

*RES
1 *69:5 *69:6 5.06485
2 *1043:I *69:5 5.34337
3 *69:3 *69:6 26.9518
4 *69:3 *69:2 5.77344
5 *69:4 *69:2 30.3715
6 *995:Z *69:4 5.13807
*END

*D_NET *70 0.0069128

*CONN
*I *1004:I I *C 137.5 181.2 *L 0.00072 *D BUFFD1
*I *1044:Z O *C 138.3 117.6 *L 0 *D CKBD1

*CAP
1 *1004:I 6.45874e-05
2 *1044:Z 0.000142764
3 *70:2 0.00196597
4 *70:3 2.03392e-05
5 *70:4 0.000126835
6 *70:5 0.00132697
7 *70:6 0.000393584
8 *70:5 *386:3 0.000350398008
9 *70:3 *26:2 0.000906993984
10 *1004:I *108:3 0.000776669063
11 *70:5 *207:2 0.000226965
12 *70:5 *377:3 0.000368564023
13 *70:2 *391:6 0.000242154004

*RES
1 *70:5 *70:6 3.38869
2 *70:4 *70:2 6.31165
3 *70:6 *70:2 37.1310997
4 *1044:Z *70:4 3.00002
5 *70:3 *70:5 27.5072
6 *1004:I *70:3 2.98925
*END

*D_NET *71 0.00779514

*CONN
*I *1039:Z O *C 145.9 106.8 *L 0 *D CKBD1
*I *1045:I I *C 138.3 175.6 *L 0.00103 *D DEL01

*CAP
1 *1039:Z 0.000157953
2 *71:2 0.0041012
3 *71:3 0.000228418
4 *71:4 0.000176915
5 *71:5 0.000496262
6 *71:6 0.000452393
7 *71:7 0.000106825
8 *71:5 *77:3 0.000237118008
9 *71:4 *371:4 0.000546989023
10 *71:5 *788:7 0.000441503008
11 *71:2 *123:5 0.000849529063

*RES
1 *71:7 *71:2 6.68203
2 *71:5 *71:6 4.02781
3 *71:6 *71:2 56.4030991
4 *71:4 *71:5 11.8278
5 *71:3 *71:7 3.0002
6 *1045:I *71:4 5.1914
7 *1039:Z *71:3 3.0002
*END

*D_NET *72 0.00162603

*CONN
*I *1046:Z O *C 151.5 96 *L 0 *D CKBD0
*I *1058:I I *C 150.5 92.8 *L 0.000643 *D CKBD0

*CAP
1 *1046:Z 0.000160712
2 *72:2 0.000604355
3 *72:3 8.80515e-05
4 *72:4 0.000772898047

*RES
1 *72:2 *72:4 4.22365
2 *72:3 *72:4 3.83199
3 *1058:I *72:3 4.50005
4 *1046:Z *72:2 7.55379009
*END

*D_NET *73 0.00413213

*CONN
*I *1043:Z O *C 140.1 91.6 *L 0 *D CKBD0
*I *1047:I I *C 151.1 102 *L 0.00182 *D DEL005

*CAP
1 *1043:Z 0.000121184
2 *73:2 0.000606362
3 *73:3 0.00207195
4 *73:4 0.00133261

*RES
1 *73:3 *73:4 10.3158
2 *73:2 *73:3 16.8257008
3 *1047:I *73:2 7.27755
4 *1043:Z *73:4 3
*END

*D_NET *74 0.0023503

*CONN
*I *1041:Z O *C 144.1 92.4 *L 0 *D CKBD0
*I *1103:I I *C 139.3 102 *L 0.00104 *D DEL0

*CAP
1 *1041:Z 0.000581531
2 *1103:I 6.03255e-05
3 *74:2 6.39938e-05
4 *74:3 0.000541667
5 *74:4 0.00110277

*RES
1 *74:3 *74:4 4.38606
2 *1103:I *74:3 6.81439018
3 *1041:Z *74:2 5.20385
4 *74:2 *74:4 5.85321
*END

*D_NET *75 0.000671099

*CONN
*I *1049:I I *C 138.5 123.6 *L 0.00182 *D DEL005
*I *1052:Z O *C 139.1 121.4 *L 0 *D DEL005

*CAP
1 *1052:Z 0.000470135
2 *1049:I 0.000200967

*RES
1 *1049:I *1052:Z 8.94545
*END

*D_NET *76 0.00697155

*CONN
*I *1032:I I *C 138.3 60.4 *L 0.000643 *D CKBD0
*I *1050:Z O *C 138.3 30.4 *L 0 *D CKBD0

*CAP
1 *1032:I 0.000450756
2 *76:2 0.0014149
3 *76:3 0.000107626
4 *76:2 *201:3 0.000416011016
5 *76:2 *357:2 0.00108861992
6 *76:3 *438:3 0.0016919
7 *76:2 *1470:CP 0.000241952012
8 *76:3 *485:3 0.00155979

*RES
1 *76:3 *76:2 51.2187996
2 *1032:I *76:3 6.37187
3 *1050:Z *76:2 7.416
*END

*D_NET *77 0.00702143

*CONN
*I *1045:Z O *C 140.1 175.2 *L 0 *D DEL01
*I *1051:I I *C 138.1 110.8 *L 0.000643 *D CKBD0

*CAP
1 *77:2 0.00341932
2 *77:3 0.000194145
3 *77:4 0.000545495
4 *77:5 0.000414169
5 *77:4 *286:3 0.000196213008
6 *77:4 *368:2 0.000362783008
7 *77:3 *485:5 0.000383468008
8 *77:2 *111:2 0.000367618008
9 *77:3 *89:6 0.000901071016
10 *77:3 *71:5 0.000237118008

*RES
1 *77:3 *77:2 62.7584
2 *1051:I *77:5 9.46413
3 *77:4 *77:3 8.89626
4 *1045:Z *77:4 1.49963
5 *77:5 *77:2 1.49963
*END

*D_NET *78 0.00123431

*CONN
*I *1049:Z O *C 139.1 123.8 *L 0 *D DEL005
*I *1079:I I *C 138.5 118 *L 0.000643 *D CKBD0

*CAP
1 *1049:Z 9.76196e-05
2 *1079:I 0.000206434
3 *78:2 7.22328e-05
4 *78:3 0.000858033984

*RES
1 *1079:I *78:3 4.32345
2 *1049:Z *78:2 2.34329
3 *78:2 *78:3 5.69325018
*END

*D_NET *79 0.000724315

*CONN
*I *1053:Z O *C 140.3 56.4 *L 0 *D CKBD0
*I *1061:I I *C 139.7 55.2 *L 0.000643 *D CKBD0

*CAP
1 *1061:I 7.25712e-05
2 *1053:Z 0.000353576016
3 *79:2 0.000298167

*RES
1 *1053:Z *79:2 7.27136993
2 *1061:I *79:2 4.5
*END

*D_NET *80 0.00197368

*CONN
*I *1048:I I *C 138.1 94.8 *L 0.00182 *D DEL005
*I *1054:Z O *C 138.7 103.2 *L 0 *D CKBD0

*CAP
1 *1048:I 0.00011077
2 *80:2 0.000407865
3 *80:3 0.00145506

*RES
1 *80:2 *80:3 13.4204998
2 *1054:Z *80:2 3.49499
3 *1048:I *80:3 1.95238
*END

*D_NET *81 0.00189738

*CONN
*I *1022:I I *C 145.3 118 *L 0.00182 *D DEL005
*I *1055:Z O *C 151.9 116.6 *L 0 *D DEL005

*CAP
1 *1055:Z 0.000173361
2 *81:2 0.00074722
3 *81:3 0.000976802969

*RES
1 *81:3 *81:4 6.56281
2 *1055:Z *81:2 9.52855968
3 *1022:I *81:3 2.77267
4 *81:2 *81:4 1.50003
*END

*D_NET *82 0.00449609

*CONN
*I *1051:Z O *C 138.7 110.4 *L 0 *D CKBD0
*I *1056:I I *C 137.7 148.8 *L 0.00103 *D DEL01

*CAP
1 *1051:Z 0.000149525
2 *1056:I 0.000198646
3 *82:2 0.000363788
4 *82:3 0.000242741
5 *82:4 0.00354142

*RES
1 *82:3 *82:4 41.3017006
2 *1051:Z *82:2 2.99982
3 *82:2 *82:4 4.28735
4 *1056:I *82:3 5.96434
*END

*D_NET *83 0.0241659

*CONN
*I *1057:Z O *C 151.5 63.6 *L 0 *D CKBD1
*I *1709:DB I *C 147.1 67.6 *L 0.0011 *D DFXQD1
*I *1717:DB I *C 147.3 96.4 *L 0.0011 *D DFXQD1
*I *1725:DB I *C 146.9 127.2 *L 0.0011 *D DFXQD1
*I *1733:DA I *C 144.3 181.2 *L 0.000721 *D DFXQD1
*I *1741:DA I *C 145.5 220.8 *L 0.000721 *D DFXQD1
*I *1749:DA I *C 145.7 249.6 *L 0.000721 *D DFXQD1
*I *1757:DB I *C 146.9 254.8 *L 0.0011 *D DFXQD1

*CAP
1 *1757:DB 6.71486e-05
2 *1733:DA 0.000136138
3 *1717:DB 0.000267745
4 *1709:DB 7.83322e-06
5 *1057:Z 0.000285865
6 *83:8 0.000108202
7 *83:9 0.000390623
8 *83:10 0.000319888
9 *83:11 0.00309247
10 *83:12 0.000924509
11 *83:13 3.64292e-05
12 *83:14 0.00066941
13 *83:15 0.00024014
14 *83:16 0.00182264
15 *83:17 0.000157467
16 *83:18 0.000389254
17 *83:20 0.000317528
18 *83:22 0.00055814
19 *83:23 5.11047e-05
20 *83:25 0.000598298
21 *83:26 0.000427571
22 *83:27 0.000175964
23 *83:28 0.000276805
24 *83:29 0.000163979
25 *83:30 0.000253353
26 *83:31 0.00134618
27 *83:32 0.000141753
28 *83:33 0.000906483
29 *83:14 *115:8 0.00190529
30 *83:14 *351:12 0.00215651016
31 *1757:DB *1757:CP 0.000416415977
32 *83:8 *432:6 0.000327347012
33 *83:8 *480:2 0.00148996
34 *83:9 *760:3 0.000512228008
35 *83:10 *292:6 0.000667248047
36 *83:11 *336:3 0.000544861953
37 *83:8 *341:2 0.0013648
38 *1733:DA *472:29 0.000183191992
39 *83:12 *196:8 0.000199671992
40 *1057:Z *800:5 0.000265502012

*RES
1 *83:31 *83:32 21.9726
2 *83:9 *83:19 3.28171
3 *1709:DB *83:12 4.49972
4 *83:26 *83:27 0.256422
5 *83:13 *83:12 6.55356
6 *83:24 *83:25 0.256422
7 *83:10 *83:29 0.614756
8 *83:12 *83:30 4.16275
9 *83:21 *83:22 14.5429
10 *83:16 *83:17 2.02343
11 *1749:DA *83:9 4.03783
12 *83:22 *83:23 0.256422
13 *83:10 *83:32 32.0709
14 *1717:DB *83:8 7.13462
15 *83:11 *83:33 53.8618011
16 *83:23 *83:28 8.04114
17 *83:20 *83:21 0.256422
18 *83:17 *83:33 5.20323
19 *83:16 *83:27 20.9707
20 *83:29 *83:11 2.23794
21 *83:30 *83:31 6.41466
22 *1057:Z *83:13 6.3596
23 *83:8 *83:32 2.99981
24 *1725:DB *83:18 4.49972
25 *83:25 *83:28 10.3777
26 *83:18 *83:29 3.19952
27 *1733:DA *83:17 3.25459
28 *83:14 *83:9 7.65568
29 *83:19 *83:20 4.79477
30 *1757:DB *83:14 3.46499
31 *83:24 *83:26 8.49645
32 *83:15 *83:28 3.7625
33 *1741:DA *83:15 1.49991
*END

*D_NET *84 0.00497846

*CONN
*I *1058:Z O *C 151.1 92.4 *L 0 *D CKBD0
*I *1714:DB I *C 147.1 84 *L 0.0011 *D DFXQD1
*I *1706:DB I *C 146.9 69.6 *L 0.0011 *D DFXQD1

*CAP
1 *1706:DB 0.000308064
2 *1058:Z 0.000171429
3 *84:3 0.000711969
4 *84:4 1.63588e-06
5 *84:5 0.00127414
6 *84:6 0.000307467
7 *84:7 0.000502084
8 *84:8 0.0017017

*RES
1 *1706:DB *84:6 4.99229
2 *1058:Z *84:8 6.97832
3 *84:7 *84:8 15.6513004
4 *84:4 *84:5 6.1852
5 *84:3 *84:7 0.426771
6 *84:5 *84:6 2.77174
7 *84:3 *84:4 4.9087
8 *1714:DB *84:7 3.00006
*END

*D_NET *85 0.00330398

*CONN
*I *1059:Z O *C 151.7 192.4 *L 0 *D DEL0
*I *1087:I I *C 137.5 186.4 *L 0.00104 *D DEL0

*CAP
1 *1087:I 0.00104101
2 *1059:Z 7.53061e-05
3 *85:2 0.00189596
4 *85:3 0.000291706

*RES
1 *85:2 *85:3 17.0056992
2 *1087:I *85:2 12.0059
3 *1059:Z *85:3 2.99992
*END

*D_NET *86 0.00272789

*CONN
*I *1060:Z O *C 138.7 56.6 *L 0 *D DEL005
*I *1067:I I *C 150.9 58.8 *L 0.000643 *D CKBD0

*CAP
1 *1060:Z 0.000593766
2 *86:2 0.000310683
3 *86:3 0.00182345

*RES
1 *1060:Z *86:3 7.429
2 *86:2 *86:3 18.5352993
3 *1067:I *86:2 4.50005
*END

*D_NET *87 0.0104587

*CONN
*I *1006:I I *C 140.5 107.2 *L 0.00103 *D DEL01
*I *1061:Z O *C 140.3 55.6 *L 0 *D CKBD0

*CAP
1 *1006:I 0.000219782
2 *1061:Z 0.000781137
3 *87:2 0.000274651
4 *87:3 0.000537479
5 *87:4 0.00078703
6 *87:5 0.000578765
7 *87:6 0.00030507
8 *87:7 0.000433442
9 *87:8 0.00250756
10 *1061:Z *464:6 0.000716982031
11 *87:2 *241:3 0.00175527
12 *87:4 *1356:I 0.000304955996
13 *87:2 *371:2 0.000432929023
14 *87:2 *515:2 0.000823686016

*RES
1 *1061:Z *87:4 8.98067
2 *87:7 *87:8 44.4328003
3 *87:3 *87:5 4.16693
4 *1006:I *87:6 5.06323
5 *87:2 *87:7 0.25628
6 *87:6 *87:2 11.3923
7 *87:4 *87:5 7.59892
8 *87:3 *87:8 7.27552
*END

*D_NET *88 0.0125073

*CONN
*I *1062:Z O *C 139.7 182.4 *L 0 *D DEL015
*I *1068:I I *C 138.1 116.4 *L 0.00182 *D DEL005

*CAP
1 *1068:I 0.000246323
2 *88:2 0.00174934
3 *88:3 0.000537271
4 *88:4 8.29313e-05
5 *88:5 0.00035102
6 *88:6 0.00204936
7 *88:2 *106:2 0.00155903
8 *88:2 *1095:Z 0.000402680977
9 *88:2 *371:5 0.00294388
10 *88:6 *780:3 0.000337983984
11 *1068:I *784:6 0.00224745984

*RES
1 *88:5 *88:6 59.4734993
2 *88:2 *88:3 0.650673
3 *1068:I *88:5 4.06376
4 *1062:Z *88:2 25.8191
5 *88:4 *88:6 8.98691
6 *88:3 *88:4 9.14118
*END

*D_NET *89 0.00523831

*CONN
*I *1056:Z O *C 139.5 149.2 *L 0 *D DEL01
*I *1063:I I *C 138.1 109.2 *L 0.000643 *D CKBD0

*CAP
1 *1056:Z 0.000112738
2 *1063:I 5.76839e-05
3 *89:2 0.0016107
4 *89:3 0.000248997
5 *89:4 7.74198e-05
6 *89:5 0.000172929
7 *89:6 0.000191165
8 *89:5 *464:5 0.000565443984
9 *89:2 *21:2 0.000640654023
10 *89:6 *77:3 0.000901071016
11 *89:5 *371:2 0.000450899023
12 *89:2 *111:2 0.000208635

*RES
1 *89:6 *89:2 41.4315987
2 *89:3 *89:5 2.99977
3 *1056:Z *89:4 2.99977
4 *89:5 *89:2 4.16807
5 *89:4 *89:6 3.77864
6 *1063:I *89:3 2.26642
*END

*D_NET *90 0.00182893

*CONN
*I *1057:I I *C 150.9 64 *L 0.000968 *D CKBD1
*I *1064:Z O *C 145.7 60 *L 0 *D CKBD1

*CAP
1 *90:2 0.000238601
2 *90:3 0.00084674
3 *90:4 0.000743596

*RES
1 *90:2 *90:4 6.35776
2 *90:3 *90:4 8.86233044
3 *1057:I *90:2 3.99532
4 *1064:Z *90:3 1.49995
*END

*D_NET *91 0.0300598

*CONN
*I *1065:Z O *C 139.5 138.4 *L 0 *D DEL01
*I *1710:DB I *C 147.1 71.2 *L 0.0011 *D DFXQD1
*I *1718:DB I *C 147.3 98.4 *L 0.0011 *D DFXQD1
*I *1726:DB I *C 146.9 130.8 *L 0.0011 *D DFXQD1
*I *1734:DA I *C 143.7 184.8 *L 0.000721 *D DFXQD1
*I *1742:DA I *C 145.5 224.4 *L 0.000721 *D DFXQD1
*I *1750:DA I *C 145.3 253.2 *L 0.000721 *D DFXQD1
*I *1758:DB I *C 146.9 260.4 *L 0.0011 *D DFXQD1

*CAP
1 *1734:DA 0.00054114
2 *1065:Z 7.63e-05
3 *91:8 0.00020015
4 *91:9 0.00192823
5 *91:10 0.000402226
6 *91:11 0.000557555
7 *91:12 0.000228444
8 *91:13 0.0002617
9 *91:14 0.000705423
10 *91:15 0.00190165
11 *91:16 0.00164195
12 *91:17 0.000130077
13 *91:18 0.0017464
14 *91:19 0.000650611
15 *91:20 0.000185565
16 *91:21 0.000148217
17 *91:22 0.000351038
18 *91:24 0.000755665
19 *91:25 0.000189248
20 *91:26 1.311e-06
21 *91:27 0.00027131
22 *91:28 2.5103e-05
23 *91:29 0.00060472
24 *91:30 3.4e-08
25 *91:31 9.4607e-05
26 *91:32 0.000372536
27 *91:33 0.000558035
28 *91:34 0.00234295
29 *91:35 0.000165999
30 *91:36 0.000750895
31 *91:37 0.000227811
32 *91:39 0.000109942
33 *91:40 2.5217e-05
34 *91:11 *467:20 0.00100897
35 *91:8 *483:11 0.000613686992
36 *91:9 *47:2 0.000818646016
37 *91:10 *129:8 0.000424173008
38 *91:8 *224:6 0.000213222988
39 *91:11 *761:13 0.000868147031
40 *91:12 *292:5 0.000610418984
41 *91:13 *347:5 0.000502156992
42 *91:10 *104:10 0.00113297
43 *91:13 *294:5 0.00215346
44 *91:14 *296:6 0.000325905
45 *91:8 *341:2 0.000251890996
46 *91:15 *17:7 0.000600881992
47 *1734:DA *472:15 0.000249195
48 *91:14 *1727:DB 0.000489946016
49 *91:12 *290:2 0.000201665996
50 *91:16 *19:7 0.00144236

*RES
1 *91:10 *91:9 3.63705
2 *91:19 *91:23 4.67077
3 *91:9 *91:22 21.9466
4 *91:31 *91:33 6.20283
5 *91:15 *91:31 36.2080994
6 *91:25 *91:34 25.25
7 *91:8 *91:36 3.44644
8 *91:29 *91:30 1.24918
9 *91:11 *91:26 6.36691
10 *91:28 *91:29 7.32494
11 *91:16 *91:30 22.2135
12 *91:13 *91:33 3.35362
13 *91:16 *91:19 0.968518
14 *91:24 *91:25 0.256356
15 *91:26 *91:27 3.83761
16 *91:36 *91:38 10.2344
17 *1742:DA *91:19 3.81993
18 *91:39 *91:40 4.81994
19 *91:35 *91:37 7.11609
20 *91:28 *91:32 1.42543
21 *91:12 *91:15 2.24533
22 *91:14 *91:31 12.1222
23 *91:18 *91:8 18.551
24 *91:21 *91:22 3.51219
25 *1758:DB *91:11 3.58291
26 *1734:DA *91:34 7.95367
27 *91:37 *91:40 0.256356
28 *91:33 *91:35 3.0923
29 *91:27 *91:32 1.42543
30 *1065:Z *91:14 5.26359
31 *91:38 *91:39 0.256356
32 *91:12 *91:34 9.09512
33 *91:18 *91:20 5.20447
34 *91:17 *91:32 3.50832
35 *1718:DB *91:18 4.84646
36 *91:23 *91:24 11.609
37 *91:20 *91:21 4.04811
38 *1750:DA *91:17 1.50002
39 *1726:DB *91:13 3.00003
40 *1710:DB *91:10 3.00003
*END

*D_NET *92 0.00196777

*CONN
*I *1066:Z O *C 141.1 55.6 *L 0 *D CKBD0
*I *1083:I I *C 147.1 55.2 *L 0.000968 *D CKBD1

*CAP
1 *1083:I 0.000237476
2 *92:2 0.00084144
3 *92:3 0.000888856016

*RES
1 *1066:Z *92:2 3.34654
2 *1083:I *92:3 8.53554
3 *92:2 *92:3 8.87716007
*END

*D_NET *93 0.00184425

*CONN
*I *1067:Z O *C 151.5 59.2 *L 0 *D CKBD0
*I *1090:I I *C 148.1 53.2 *L 0.00182 *D DEL005

*CAP
1 *1090:I 4.19404e-05
2 *93:2 9.4351e-05
3 *93:3 0.000625224
4 *93:4 0.000108078
5 *93:5 0.000974668047

*RES
1 *93:4 *93:5 1.88855
2 *93:2 *93:3 5.50218
3 *1090:I *93:4 4.49997
4 *93:3 *93:5 9.2364397
5 *1067:Z *93:2 1.49999
*END

*D_NET *94 0.000993832

*CONN
*I *1052:I I *C 138.5 121.6 *L 0.00182 *D DEL005
*I *1068:Z O *C 138.7 116.6 *L 0 *D DEL005

*CAP
1 *1052:I 0.000120496
2 *1068:Z 0.000873332969

*RES
1 *1052:I *94:2 1.99959
2 *1068:Z *94:2 6.95238018
*END

*D_NET *95 0.00795956

*CONN
*I *1063:Z O *C 138.7 109.6 *L 0 *D CKBD0
*I *1069:I I *C 149.7 157.6 *L 0.00103 *D DEL015

*CAP
1 *1063:Z 0.000149414
2 *95:2 0.000523235
3 *95:3 0.000253435
4 *95:4 0.000444091
5 *95:5 0.00041801
6 *95:6 0.000368948
7 *95:7 0.00197138
8 *95:2 *193:2 0.00160956
9 *95:2 *336:4 0.00159028
10 *95:3 *890:4 0.000321262988
11 *95:2 *4:2 0.000309965996

*RES
1 *95:6 *95:7 5.97626
2 *95:5 *95:2 6.94524
3 *1069:I *95:3 5.3112
4 *95:2 *95:7 46.8661003
5 *1063:Z *95:4 2.99993
6 *95:4 *95:6 4.73338
7 *95:3 *95:5 3.65569
*END

*D_NET *96 0.011417

*CONN
*I *989:I I *C 151.1 94.8 *L 0.000968 *D CKBD1
*I *1070:Z O *C 139.7 145.6 *L 0 *D DEL015

*CAP
1 *989:I 0.000229818
2 *1070:Z 5.86362e-05
3 *96:2 0.00124895
4 *96:3 0.000877883
5 *96:4 0.00014427
6 *96:5 0.000295353
7 *96:6 3.78133e-05
8 *96:7 7.32846e-05
9 *96:8 0.00279065
10 *96:8 *17:3 0.00109858
11 *96:7 *362:6 0.00108237008
12 *96:3 *788:6 0.00296525
13 *96:2 *1719:CP 0.000514183984

*RES
1 *96:6 *96:8 9.79238
2 *96:5 *96:8 60.3776016
3 *989:I *96:7 5.66777
4 *96:3 *96:7 5.62631
5 *96:2 *96:3 3.06789
6 *1070:Z *96:4 1.91167
7 *96:4 *96:5 3.78834
8 *96:2 *96:6 11.6792
*END

*D_NET *97 0.0202989

*CONN
*I *1071:Z O *C 148.1 193.2 *L 0 *D DEL0
*I *1730:DB I *C 146.5 146.8 *L 0.0011 *D DFXQD1
*I *1738:DA I *C 145.5 204.4 *L 0.000721 *D DFXQD1
*I *1746:DA I *C 145.1 235.2 *L 0.000721 *D DFXQD1
*I *1754:DA I *C 142.5 271.2 *L 0.000721 *D DFXQD1
*I *1762:DB I *C 147.5 278.4 *L 0.0011 *D DFXQD1

*CAP
1 *1746:DA 0.000224816
2 *1071:Z 7.98057e-05
3 *97:6 0.00113768
4 *97:7 0.000382905
5 *97:8 0.000440922
6 *97:9 0.000216171
7 *97:10 0.000554139
8 *97:11 0.000296042
9 *97:12 0.0002862
10 *97:13 0.000198753
11 *97:14 0.000751598
12 *97:15 0.000281797
13 *97:16 2.57062e-05
14 *97:18 0.000528984
15 *97:20 0.000100267
16 *97:21 0.000310967
17 *97:22 0.000195581
18 *97:24 4.17968e-05
19 *97:25 0.000346483
20 *97:26 4.43868e-05
21 *97:27 0.00132037
22 *97:28 0.000123059
23 *97:29 9.77093e-05
24 *97:30 0.000503245
25 *97:31 0.00212173016
26 *97:32 0.00013601
27 *97:33 0.000555532
28 *97:34 0.000231194
29 *97:35 0.000218923
30 *97:36 0.000933063
31 *97:11 *101:5 0.00107278
32 *97:8 *115:9 0.0018842
33 *97:10 *1754:SA 0.0012535
34 *97:6 *336:7 0.000989847031
35 *97:6 *343:4 0.000614399023
36 *97:7 *472:14 0.00041439
37 *97:6 *114:5 0.000818258984
38 *97:8 *527:4 0.000565641992

*RES
1 *97:27 *97:28 5.43937
2 *97:25 *97:26 10.3001
3 *97:22 *97:26 1.05736
4 *97:11 *97:15 5.67243
5 *97:17 *97:7 0.256478
6 *97:17 *97:18 11.158
7 *97:8 *97:14 5.03123
8 *97:24 *97:25 0.256478
9 *97:10 *97:32 4.42918
10 *97:12 *97:31 3.37368
11 *97:12 *97:30 8.47303
12 *97:32 *97:33 9.45702
13 *97:13 *97:36 5.9847
14 *97:22 *97:23 4.60366
15 *97:9 *97:14 6.7082
16 *97:6 *97:24 15.0126
17 *97:19 *97:20 0.256478
18 *97:31 *97:34 20.2026005
19 *97:11 *97:28 3.70506
20 *97:18 *97:20 2.13999
21 *97:8 *97:10 4.30187
22 *97:21 *97:23 0.256478
23 *97:34 *97:35 0.256478
24 *1730:DB *97:6 5.85985
25 *97:29 *97:30 0.256478
26 *97:27 *97:29 17.2213
27 *97:33 *97:35 3.73342
28 *97:16 *97:36 6.19001
29 *1738:DA *97:11 3.38847
30 *1071:Z *97:13 3.48835
31 *1762:DB *97:9 4.01672
32 *97:19 *97:21 4.81082
33 *1746:DA *97:12 7.02479
34 *97:7 *97:36 6.19001
35 *97:15 *97:16 0.256478
36 *1754:DA *97:10 1.50003
*END

*D_NET *98 0.00220932

*CONN
*I *1064:I I *C 145.1 60.4 *L 0.000968 *D CKBD1
*I *1072:Z O *C 151.7 56.4 *L 0 *D CKBD1

*CAP
1 *1072:Z 2.82066e-06
2 *98:2 0.000157645
3 *98:3 0.000509391
4 *98:4 6.13165e-05
5 *98:5 0.00107472
6 *98:6 0.000271275
7 *98:7 0.000132128

*RES
1 *98:6 *98:7 3.8367
2 *98:4 *98:5 6.0074501
3 *1072:Z *98:2 1.98944
4 *98:5 *98:7 5.06778
5 *98:2 *98:4 2.99997
6 *1064:I *98:3 5.08345
7 *98:3 *98:6 4.5
*END

*D_NET *99 0.0146413

*CONN
*I *1065:I I *C 137.7 138 *L 0.00103 *D DEL01
*I *1073:Z O *C 151.5 60 *L 0 *D CKBD1

*CAP
1 *1065:I 0.000211431
2 *1073:Z 0.000505881
3 *99:2 0.00361025
4 *99:3 2.39086e-05
5 *99:4 0.000503127
6 *99:5 9.03458e-06
7 *99:6 1.37722e-06
8 *99:7 0.000662389
9 *99:8 0.00117053
10 *99:9 0.000114144
11 *99:10 0.00147925
12 *99:11 9.03458e-06
13 *99:3 *373:2 0.000209721992
14 *1073:Z *436:2 0.000191288984
15 *1065:I *783:4 0.000416668008
16 *99:2 *172:5 0.00145851
17 *99:2 *237:5 0.0037439
18 *99:2 *1338:I 0.000320735

*RES
1 *99:9 *99:10 13.9198
2 *99:2 *99:9 15.1893
3 *99:6 *99:7 12.9502
4 *99:2 *99:5 33.5335999
5 *1073:Z *99:8 7.53094
6 *99:3 *99:4 23.8838
7 *99:10 *99:11 0.256353
8 *99:8 *99:11 11.4898
9 *99:5 *99:7 0.259935
10 *1065:I *99:3 2.62391
11 *99:4 *99:6 0.256864
*END

*D_NET *100 0.013146

*CONN
*I *1074:Z O *C 139.9 196 *L 0 *D DEL0
*I *1735:DA I *C 144.1 190 *L 0.000721 *D DFXQD1
*I *1743:DA I *C 143.1 226 *L 0.000721 *D DFXQD1
*I *1751:DA I *C 146.1 262 *L 0.000721 *D DFXQD1
*I *1759:DB I *C 147.3 264 *L 0.0011 *D DFXQD1

*CAP
1 *1759:DB 7.40078e-05
2 *1735:DA 0.000975004
3 *1074:Z 0.000398052
4 *100:5 0.00160759
5 *100:6 0.000219889
6 *100:7 0.000353628
7 *100:8 0.00065508
8 *100:9 1.10386e-06
9 *100:10 0.0010785
10 *100:11 0.000705637
11 *100:12 0.000386499
12 *100:13 0.000278737
13 *100:14 0.000678997
14 *100:15 0.000146446
15 *100:16 0.000270789
16 *100:17 0.000970098
17 *100:18 0.000430678
18 *100:19 0.000174214
19 *100:20 0.000362778
20 *100:21 0.000559731
21 *100:22 0.000268852
22 *100:23 9.00996e-05
23 *100:24 0.000702424
24 *100:25 0.000334176
25 *1735:DA *324:2 0.00086334
26 *100:5 *765:7 0.000559631992

*RES
1 *100:17 *100:18 3.1122
2 *100:14 *100:25 6.29349
3 *100:8 *100:25 3.63577
4 *100:12 *100:13 1.84168
5 *100:5 *100:15 1.89011
6 *100:18 *100:23 1.01437
7 *100:5 *100:23 13.6813002
8 *1735:DA *100:24 12.1348
9 *100:7 *100:22 2.82912
10 *1759:DB *100:6 4.54116
11 *1074:Z *100:21 3.58358
12 *100:6 *100:22 1.7634
13 *100:19 *100:20 1.9661
14 *100:16 *100:20 3.85246
15 *100:13 *100:17 6.91038
16 *100:9 *100:11 4.60128
17 *100:10 *100:14 7.50889
18 *100:21 *100:24 5.56575
19 *100:19 *100:24 5.69059
20 *100:15 *100:16 2.97671
21 *100:9 *100:10 0.450713
22 *100:7 *100:8 3.87313
23 *100:11 *100:12 2.78235
24 *1743:DA *100:23 1.49994
25 *1751:DA *100:22 1.49994
*END

*D_NET *101 0.0144967

*CONN
*I *1075:Z O *C 151.7 186 *L 0 *D DEL0
*I *1736:DA I *C 145.7 195.6 *L 0.000721 *D DFXQD1
*I *1744:DA I *C 145.5 229.6 *L 0.000721 *D DFXQD1
*I *1752:DA I *C 146.1 265.6 *L 0.000721 *D DFXQD1
*I *1760:DB I *C 141.9 269.2 *L 0.0011 *D DFXQD1

*CAP
1 *1752:DA 0.000256837
2 *101:5 0.00021531
3 *101:6 7.83737e-05
4 *101:7 0.000912754
5 *101:8 0.000391351
6 *101:9 0.00141554
7 *101:10 0.000212262
8 *101:11 0.000595776
9 *101:12 0.00173821
10 *101:14 0.000293031
11 *101:15 8.75717e-05
12 *101:16 8.5558e-05
13 *101:17 0.000237625
14 *101:18 0.00178341
15 *101:19 0.000758728
16 *101:20 1.77701e-05
17 *101:21 0.000162462
18 *101:22 0.000292432
19 *101:23 0.000220943
20 *101:24 0.000588538
21 *101:25 0.000221079
22 *101:26 0.00016698
23 *101:27 0.000198737
24 *1752:DA *351:11 0.0018357
25 *1752:DA *1753:DA 0.000657028047
26 *101:5 *97:11 0.00107278

*RES
1 *101:22 *101:24 10.2962
2 *101:5 *101:25 6.08447
3 *101:5 *101:23 5.30427
4 *101:20 *101:26 0.229524
5 *101:20 *101:21 4.76037
6 *101:17 *101:26 3
7 *101:8 *101:12 12.3296003
8 *101:9 *101:13 8.90705
9 *101:18 *101:27 10.8659
10 *101:15 *101:27 3.38831
11 *101:23 *101:27 4.11357
12 *1760:DB *101:19 6.95271
13 *101:7 *101:11 6.14881
14 *101:10 *101:11 3.86354
15 *101:24 *101:25 2.04973
16 *101:9 *101:26 6.52884
17 *101:21 *101:22 1.2622
18 *1752:DA *101:6 4.28326
19 *101:7 *101:8 2.99548
20 *101:16 *101:18 8.56484
21 *101:12 *101:14 2.35319
22 *101:6 *101:19 4.60648
23 *101:10 *101:19 2.89069
24 *101:13 *101:14 0.256428
25 *1744:DA *101:17 1.5
26 *1075:Z *101:16 1.5
27 *1736:DA *101:15 1.5
*END

*D_NET *102 0.00144042

*CONN
*I *1010:I I *C 143.7 66 *L 0.000968 *D CKBD1
*I *1076:Z O *C 144.9 60 *L 0 *D CKBD1

*CAP
1 *1010:I 1.13826e-05
2 *102:2 0.00142904

*RES
1 *1010:I *102:2 13.3633003
2 *1076:Z *102:2 1.49995
*END

*D_NET *103 0.00193201

*CONN
*I *1077:Z O *C 149.7 56.6 *L 0 *D DEL005
*I *1701:DB I *C 147.3 49.6 *L 0.0011 *D DFXQD1

*CAP
1 *1077:Z 0.000332113
2 *103:2 0.0015999

*RES
1 *1701:DB *103:2 14.7739
2 *1077:Z *103:2 7.30016
*END

*D_NET *104 0.0165172

*CONN
*I *1078:Z O *C 151.9 145.6 *L 0 *D DEL015
*I *1711:DB I *C 147.3 76.8 *L 0.0011 *D DFXQD1
*I *1703:DB I *C 145.1 56.8 *L 0.0011 *D DFXQD1

*CAP
1 *1703:DB 0.000364134
2 *104:3 0.00223148984
3 *104:4 0.000448341
4 *104:5 0.000382692
5 *104:6 0.000330731
6 *104:7 3.61615e-05
7 *104:8 0.0004068
8 *104:9 0.000395529
9 *104:10 0.000443029
10 *104:11 0.00114494
11 *104:12 0.0012679
12 *104:13 5.24716e-05
13 *104:10 *91:10 0.00113297
14 *104:6 *467:12 3.924e-06
15 *104:8 *467:13 7.329e-05
16 *104:8 *467:14 0.000109256
17 *104:9 *467:14 7.131e-06
18 *104:10 *467:13 9.4026e-05
19 *104:10 *467:14 4.4051e-05
20 *104:11 *467:12 2.62e-06
21 *104:11 *467:13 8.1866e-05
22 *104:12 *467:15 2.504e-05
23 *104:12 *467:13 0.000279095
24 *104:12 *467:14 3.6981e-05
25 *104:13 *467:13 2.6006e-05
26 *104:13 *467:14 5.8168e-05
27 *104:3 *467:16 1.3567e-05
28 *104:3 *467:12 0.00234952
29 *104:3 *467:17 0.000478734
30 *104:3 *467:13 0.000442119892
31 *104:4 *109:3 0.000424019023
32 *104:6 *294:2 0.000607133984
33 *104:4 *305:6 0.00240487
34 *104:3 *132:3 0.000318561992

*RES
1 *104:12 *104:13 6.40364
2 *104:10 *104:13 5.81563
3 *1703:DB *104:4 5.15875
4 *104:7 *104:11 15.9566
5 *104:11 *104:12 11.0538
6 *104:8 *104:10 17.1935
7 *104:7 *104:3 1.88851
8 *104:6 *104:3 57.8614006
9 *104:5 *104:6 6.77445
10 *104:4 *104:8 4.04278
11 *1711:DB *104:9 6.58198
12 *1078:Z *104:5 1.50004
13 *104:9 *104:13 1.50004
*END

*D_NET *105 0.000886456

*CONN
*I *1079:Z O *C 139.1 117.6 *L 0 *D CKBD0
*I *1085:I I *C 141.5 118 *L 0.00103 *D DEL01

*CAP
1 *105:2 0.000171207
2 *105:3 0.000715243984

*RES
1 *1085:I *105:2 3.09883
2 *105:3 *105:4 5.12736988
3 *1079:Z *105:3 1.49997
4 *105:2 *105:4 1.49997
*END

*D_NET *106 0.0105256

*CONN
*I *1000:Z O *C 139.9 203.2 *L 0 *D DEL015
*I *1080:I I *C 137.5 143.2 *L 0.00103 *D DEL015

*CAP
1 *1000:Z 2.65294e-06
2 *1080:I 0.000180973
3 *106:2 0.00469892969
4 *106:3 0.000334772
5 *106:4 0.000498681
6 *106:5 0.000372344
7 *106:6 0.000380159
8 *106:2 *368:4 0.000630913008
9 *106:2 *88:2 0.00155903
10 *106:2 *371:5 0.000391103008
11 *106:3 *373:6 0.000353013008
12 *1080:I *783:4 0.000808121953
13 *106:4 *762:4 0.000314817012

*RES
1 *106:4 *106:2 48.9296989
2 *106:3 *106:5 17.5251
3 *1000:Z *106:4 0.430793
4 *106:5 *106:6 4.95225
5 *106:2 *106:6 13.7144
6 *1080:I *106:3 2.23609
*END

*D_NET *107 0.020062

*CONN
*I *1040:I I *C 150.9 98.4 *L 0.000643 *D CKBD0
*I *1055:I I *C 151.3 116.4 *L 0.00182 *D DEL005
*I *1071:I I *C 145.7 193.6 *L 0.00104 *D DEL0
*I *1081:Z O *C 145.7 135.6 *L 0 *D DEL01

*CAP
1 *1071:I 0.000523875
2 *1081:Z 0.00017669
3 *107:4 0.00094899
4 *107:5 0.00217045
5 *107:6 0.001163
6 *107:7 0.00046754
7 *107:8 0.000890204
8 *107:9 0.00163376
9 *107:10 0.000501023
10 *107:12 0.00101692
11 *107:13 1.65595e-06
12 *107:15 0.00052424
13 *107:16 0.000176524
14 *107:17 0.000320691
15 *107:18 5.29903e-07
16 *107:19 3.45431e-05
17 *107:20 0.000568652
18 *107:21 4.66315e-05
19 *107:22 0.000399183
20 *107:23 0.000653635
21 *107:24 0.000584516
22 *107:25 0.000495194
23 *107:26 0.000227262
24 *1071:I *768:3 0.000900505
25 *107:4 *225:3 0.00074495
26 *107:5 *888:4 0.000508539023
27 *107:6 *293:2 0.00107894
28 *1081:Z *295:3 0.000677205
29 *107:7 *296:6 0.000783023984
30 *107:5 *784:6 0.000634926016
31 *107:8 *1695:A1 0.000838096016
32 *107:9 *472:11 0.000370111992

*RES
1 *107:22 *107:23 1.79588
2 *107:16 *107:17 3.55056
3 *107:7 *107:17 7.11738
4 *107:13 *107:8 6.47202
5 *1040:I *107:22 6.39903
6 *107:21 *107:24 5.68429
7 *107:16 *107:6 23.6809998
8 *107:7 *107:19 2.0181
9 *107:23 *107:4 4.25446
10 *107:5 *107:18 15.3477
11 *1081:Z *107:25 7.46174
12 *107:11 *107:12 6.77302
13 *107:9 *107:14 15.3701
14 *107:14 *107:15 2.05532
15 *107:5 *107:24 8.83123
16 *107:10 *107:6 4.92222
17 *107:4 *107:26 13.7918
18 *107:19 *107:20 4.02211
19 *107:12 *107:13 0.256554
20 *107:18 *107:20 0.450957
21 *1071:I *107:15 13.8911
22 *107:24 *107:26 2.85642
23 *107:10 *107:8 3.26727
24 *107:11 *107:9 0.256554
25 *1055:I *107:21 1.49994
26 *107:7 *107:25 1.49994
*END

*D_NET *108 0.0109688

*CONN
*I *1005:I I *C 138.1 200.8 *L 0.00103 *D DEL01
*I *1335:Z O *C 140.7 124 *L 0 *D BUFFD2

*CAP
1 *1005:I 8.45417e-05
2 *1335:Z 0.000231567
3 *108:2 0.00233488
4 *108:3 0.00306271
5 *108:4 4.3556e-05
6 *108:5 0.000516971
7 *108:6 0.000411586
8 *108:5 *1074:I 0.000510385977
9 *108:3 *207:5 0.000317988008
10 *108:2 *391:2 0.00029023998
11 *108:2 *392:8 0.000232725996
12 *108:3 *1004:I 0.000776669063
13 *108:3 *375:2 0.00159748
14 *108:3 *1270:I 0.000303540996
15 *108:2 *231:4 0.000253973008

*RES
1 *108:2 *108:6 36.9226
2 *108:4 *108:2 6.18865
3 *1335:Z *108:4 2.77275
4 *108:5 *108:3 50.0592003
5 *1005:I *108:5 2.90107
6 *108:3 *108:6 1.75607
*END

*D_NET *109 0.00538599

*CONN
*I *1035:I I *C 137.5 58.8 *L 0.000643 *D CKBD0
*I *1042:I I *C 144.9 66 *L 0.00182 *D DEL005
*I *1083:Z O *C 147.7 55.6 *L 0 *D CKBD1

*CAP
1 *1035:I 0.00041843
2 *1042:I 0.000494571
3 *1083:Z 5.88918e-05
4 *109:3 0.000861529
5 *109:4 6.20951e-05
6 *109:5 0.00037832
7 *109:6 0.00179427
8 *109:7 0.000149214
9 *109:8 0.000234773
10 *109:9 0.000342043
11 *109:9 *467:13 0.000167781992
12 *109:3 *104:4 0.000424019023

*RES
1 *1042:I *109:8 8.83397
2 *1083:Z *109:5 1.75643
3 *109:8 *109:9 7.61077
4 *109:6 *109:7 13.7525997
5 *109:4 *109:7 2.47138
6 *109:3 *109:5 5.78236
7 *109:3 *109:4 4.56419
8 *1035:I *109:6 4.80132
9 *109:7 *109:9 1.49999
*END

*D_NET *110 0.00239943

*CONN
*I *1081:I I *C 143.9 136 *L 0.00103 *D DEL01
*I *1084:Z O *C 140.7 127.6 *L 0 *D DEL01

*CAP
1 *1081:I 0.000204999
2 *110:2 0.00188477
3 *110:3 0.000309656

*RES
1 *110:2 *110:3 10.2804003
2 *1084:Z *110:2 7.38794
3 *1081:I *110:3 5.24609
*END

*D_NET *111 0.00778176

*CONN
*I *1085:Z O *C 143.3 117.6 *L 0 *D DEL01
*I *1212:I I *C 138.7 49.6 *L 0.00072 *D BUFFD1

*CAP
1 *1085:Z 3.73145e-06
2 *111:2 0.00113948
3 *111:3 0.000305581
4 *111:4 0.000346627
5 *111:5 0.000415236
6 *111:6 1.81597e-05
7 *111:7 0.00326054
8 *111:2 *89:2 0.000208635
9 *111:2 *464:5 0.000456736992
10 *111:2 *77:2 0.000367618008
11 *111:4 *485:3 0.000436818008
12 *111:3 *805:4 0.000388974023
13 *111:2 *515:3 0.000433598008

*RES
1 *111:5 *111:2 5.39294
2 *1085:Z *111:3 4.75379
3 *111:2 *111:7 65.2449036
4 *1212:I *111:4 2.99962
5 *111:4 *111:6 3.69253
6 *111:3 *111:5 6.59259
7 *111:6 *111:7 1.50031
*END

*D_NET *112 0.0126414

*CONN
*I *1054:I I *C 138.1 103.6 *L 0.000643 *D CKBD0
*I *1086:Z O *C 151.7 52 *L 0 *D CKBD1

*CAP
1 *1054:I 3.45751e-05
2 *1086:Z 0.000169766
3 *112:2 0.000524016
4 *112:3 0.000163498
5 *112:4 0.00117889
6 *112:5 0.000960204
7 *112:6 0.000401111
8 *112:7 0.00164313
9 *112:8 0.00040788
10 *112:7 *255:2 0.000173663008
11 *112:2 *397:4 0.000222624004
12 *112:5 *462:3 0.0026619
13 *112:5 *789:3 0.000414051016
14 *112:5 *802:3 0.00368613

*RES
1 *112:7 *112:8 53.7258987
2 *112:5 *112:6 25.1881
3 *112:4 *112:7 5.88939
4 *1054:I *112:2 0.522208
5 *112:6 *112:8 5.57377
6 *112:3 *112:4 9.63584
7 *112:2 *112:5 7.9733
8 *1086:Z *112:3 2.08391
*END

*D_NET *113 0.0109647

*CONN
*I *1074:I I *C 137.5 195.6 *L 0.00104 *D DEL0
*I *1087:Z O *C 139.9 186 *L 0 *D DEL0
*I *1727:DB I *C 147.3 136 *L 0.0011 *D DFXQD1

*CAP
1 *1074:I 0.00011161
2 *1727:DB 0.00026817
3 *1087:Z 0.000108278
4 *113:3 0.000876298
5 *113:4 0.000407032
6 *113:5 0.000217858
7 *113:6 0.000810342
8 *113:7 0.000392222
9 *113:8 0.00151673
10 *113:9 0.000518485
11 *113:10 0.0013192
12 *113:11 0.00170577
13 *113:12 0.000501541
14 *113:13 0.000257993
15 *113:14 4.51853e-05
16 *1727:DB *91:14 0.000489946016
17 *113:6 *366:5 0.000626986992
18 *1727:DB *779:4 0.000280695996
19 *1074:I *108:5 0.000510385977

*RES
1 *113:12 *113:13 5.71178
2 *1727:DB *113:12 6.98007
3 *113:10 *113:14 3.8299
4 *1074:I *113:10 11.3793
5 *113:6 *113:13 6.06394
6 *113:4 *113:8 11.0187
7 *113:5 *113:9 1.63207
8 *113:6 *113:7 8.38824
9 *1087:Z *113:14 3.00002
10 *113:3 *113:11 7.99364
11 *113:10 *113:11 14.6438999
12 *113:8 *113:9 3.32357
13 *113:3 *113:4 3.38502
14 *113:5 *113:7 3.30636
*END

*D_NET *114 0.00928186

*CONN
*I *1075:I I *C 149.3 186.4 *L 0.00104 *D DEL0
*I *1088:Z O *C 151.7 182.4 *L 0 *D DEL0
*I *1728:DB I *C 146.5 139.6 *L 0.0011 *D DFXQD1

*CAP
1 *1728:DB 0.000464683
2 *1088:Z 0.000362984
3 *114:3 0.000268688
4 *114:4 0.000123956
5 *114:5 0.00159065
6 *114:6 4.26455e-05
7 *114:7 0.000418761
8 *114:8 0.000689609
9 *114:9 0.000269198
10 *114:10 0.00020898
11 *114:11 2.17475e-05
12 *114:12 6.48299e-05
13 *114:3 *1732:DA 0.000567576992
14 *114:5 *97:6 0.000818258984
15 *114:5 *351:10 0.000615406992
16 *114:3 *292:2 0.000393032031
17 *114:4 *336:5 0.00107492992
18 *114:5 *338:3 0.000895458984
19 *114:5 *361:19 0.000390441016

*RES
1 *114:3 *114:4 4.85633
2 *114:10 *114:11 5.57533
3 *114:5 *114:4 28.8022003
4 *114:8 *114:9 4.6256
5 *1728:DB *114:7 5.94933
6 *114:7 *114:5 4.74997
7 *114:3 *114:12 7.12364
8 *114:10 *114:12 3.39416
9 *114:6 *114:9 4.41464
10 *1075:I *114:9 5.53929
11 *1088:Z *114:6 4.60802
12 *114:8 *114:11 1.49997
*END

*D_NET *115 0.0193154

*CONN
*I *1089:Z O *C 140.5 178 *L 0 *D DEL0
*I *1731:DB I *C 146.5 148.8 *L 0.0011 *D DFXQD1
*I *1739:DA I *C 145.5 210 *L 0.000721 *D DFXQD1
*I *1747:DA I *C 145.3 238.8 *L 0.000721 *D DFXQD1
*I *1755:DA I *C 146.5 274.8 *L 0.000721 *D DFXQD1
*I *1763:DB I *C 142.3 276.4 *L 0.0011 *D DFXQD1

*CAP
1 *1739:DA 0.000288153
2 *1731:DB 0.000215728
3 *115:6 5.77366e-05
4 *115:7 0.000634642
5 *115:8 0.0008791
6 *115:9 0.000702478
7 *115:10 0.000153634
8 *115:11 0.000286862
9 *115:12 0.00041866
10 *115:13 0.000631137
11 *115:14 0.000117272
12 *115:15 0.000548682
13 *115:16 0.000130392
14 *115:18 0.000577551
15 *115:19 0.00151109
16 *115:20 0.000724313
17 *115:21 0.000161889
18 *115:22 0.000257878
19 *115:23 0.000232445
20 *115:24 5.55923e-05
21 *115:25 0.00130749
22 *115:26 0.000219787
23 *115:27 0.000342039
24 *115:28 0.00145363
25 *115:13 *354:11 0.000913852969
26 *115:6 *310:5 0.00104151
27 *115:6 *263:3 0.00101398
28 *115:7 *343:4 0.000215432012
29 *115:7 *339:4 0.000432956016
30 *115:8 *83:14 0.00190529
31 *115:9 *97:8 0.0018842

*RES
1 *115:20 *115:21 8.57665
2 *115:17 *115:8 0.256189
3 *115:18 *115:27 3.92742
4 *115:12 *115:21 5.37754
5 *115:25 *115:28 23.9427
6 *115:10 *115:14 1.96412
7 *115:13 *115:28 5.38323
8 *115:16 *115:8 7.24121
9 *115:22 *115:24 2.24389
10 *115:19 *115:27 14.3523
11 *1731:DB *115:7 7.29936
12 *115:22 *115:23 4.60978
13 *115:19 *115:20 2.68308
14 *115:14 *115:15 18.531
15 *115:11 *115:27 4.35929
16 *1739:DA *115:12 4.01729
17 *115:25 *115:26 1.89377
18 *115:17 *115:18 6.94477
19 *115:15 *115:16 1.90271
20 *115:6 *115:10 0.762468
21 *115:24 *115:28 26.6501999
22 *115:12 *115:23 2.55498
23 *115:7 *115:26 4.40768
24 *1763:DB *115:9 5.74067
25 *1089:Z *115:13 3.25442
26 *115:6 *115:9 5.5772
27 *1747:DA *115:11 1.50013
28 *1755:DA *115:10 1.50013
*END

*D_NET *116 0.00122311

*CONN
*I *1072:I I *C 151.1 56.8 *L 0.000968 *D CKBD1
*I *1090:Z O *C 148.7 53 *L 0 *D DEL005

*CAP
1 *1090:Z 0.000185411
2 *116:2 0.000723485
3 *116:3 0.000314211

*RES
1 *116:2 *116:3 6.15361977
2 *1072:I *116:3 5.98461
3 *1090:Z *116:2 2.2
*END

*D_NET *117 0.0031808

*CONN
*I *1050:I I *C 137.7 30 *L 0.000643 *D CKBD0
*I *1091:Z O *C 143.5 41.2 *L 0 *D CKBD1

*CAP
1 *1050:I 0.000557142
2 *1091:Z 0.000613364
3 *117:2 0.00151749
4 *117:3 0.000488973
5 *117:4 3.82064e-06

*RES
1 *117:2 *117:4 6.52568
2 *1050:I *117:3 5.87117
3 *1091:Z *117:4 8.06559
4 *117:2 *117:3 8.71650982
*END

*D_NET *118 0.00846454

*CONN
*I *1073:I I *C 150.9 60.4 *L 0.000968 *D CKBD1
*I *1092:Z O *C 149.1 12.4 *L 0 *D DEL01

*CAP
1 *1092:Z 1.11408e-06
2 *118:2 0.000832218
3 *118:3 0.00111775
4 *118:4 0.000160231
5 *118:5 0.00429477969
6 *118:6 0.000580698
7 *118:2 *436:4 0.00147774

*RES
1 *118:4 *118:6 5.81327
2 *118:3 *118:6 11.0277
3 *118:2 *118:3 0.971639
4 *1073:I *118:4 4.50036
5 *118:2 *118:5 54.2859001
6 *1092:Z *118:5 5.11415
*END

*D_NET *119 0.00477601

*CONN
*I *1080:Z O *C 139.7 142.8 *L 0 *D DEL015
*I *1093:I I *C 138.1 105.6 *L 0.000968 *D CKBD1

*CAP
1 *119:2 0.000200306
2 *119:3 0.000360125
3 *119:4 0.000332366
4 *119:5 0.00377432
5 *119:6 0.00010885

*RES
1 *119:2 *119:4 4.5001
2 *119:4 *119:6 3.28993
3 *1093:I *119:3 4.5001
4 *119:5 *119:6 38.2216988
5 *119:3 *119:5 4.55492
6 *1080:Z *119:2 1.50003
*END

*D_NET *120 0.00286739

*CONN
*I *1047:Z O *C 151.7 102.2 *L 0 *D DEL005
*I *1094:I I *C 138.1 100 *L 0.000968 *D CKBD1

*CAP
1 *1047:Z 4.89785e-05
2 *1094:I 0.000169741
3 *120:2 0.00229929
4 *120:3 0.000349376

*RES
1 *120:2 *120:3 15.4659004
2 *1047:Z *120:3 7.02026
3 *1094:I *120:2 3.20381
*END

*D_NET *121 0.00315957

*CONN
*I *1082:Z O *C 140.3 192.4 *L 0 *D DEL0
*I *1095:I I *C 138.1 179.2 *L 0.00104 *D DEL0

*CAP
1 *1095:I 2.88459e-05
2 *121:2 0.000225966
3 *121:3 0.00247761016
4 *121:4 0.000146914
5 *121:5 0.000280217

*RES
1 *121:2 *121:4 4.27053
2 *1095:I *121:5 2.99987
3 *121:2 *121:3 20.2910004
4 *121:3 *121:5 2.91163
5 *1082:Z *121:4 1.50009
*END

*D_NET *122 0.000426633

*CONN
*I *1096:Z O *C 144.3 106.8 *L 0 *D CKBD1
*I *1166:I I *C 144.1 109.2 *L 0.00103 *D DEL01

*CAP
1 *1166:I 0.000228375
2 *1096:Z 0.00019826

*RES
1 *1166:I *1096:Z 4.67783
*END

*D_NET *123 0.00689027

*CONN
*I *1097:Z O *C 139.1 78 *L 0 *D BUFFD1
*I *1308:I I *C 141.3 139.6 *L 0.00105 *D DEL1

*CAP
1 *1097:Z 0.000128468
2 *123:2 0.00274687
3 *123:3 0.000361723
4 *123:4 0.000361429
5 *123:5 9.43077e-05
6 *123:6 0.000485999
7 *123:4 *482:3 0.00155015
8 *123:5 *71:2 0.000849529063
9 *123:2 *515:3 0.000311796016

*RES
1 *123:6 *123:2 58.5788002
2 *123:5 *123:6 1.7564
3 *123:4 *123:2 7.42246
4 *123:3 *123:5 2.99973
5 *1308:I *123:3 5.00909
6 *1097:Z *123:4 2.99973
*END

*D_NET *124 0.00105888

*CONN
*I *1098:Z O *C 138.1 92.4 *L 0 *D BUFFD1
*I *1146:I I *C 137.5 91.2 *L 0.00072 *D BUFFD1

*CAP
1 *1146:I 0.000155542
2 *1098:Z 0.000113811
3 *124:2 0.000789517969

*RES
1 *1098:Z *124:2 7.43423986
2 *1146:I *124:2 4.51459
*END

*D_NET *125 0.000414718

*CONN
*I *1099:Z O *C 151.9 88 *L 0 *D CKBD1
*I *1119:I I *C 151.1 89.2 *L 0.000643 *D CKBD0

*CAP
1 *1099:Z 0.000414718008

*RES
1 *1099:Z *1119:I 6.59591
*END

*D_NET *126 0.000744873

*CONN
*I *1100:Z O *C 140.3 95.2 *L 0 *D CKBD1
*I *1192:I I *C 141.7 94.8 *L 0.00103 *D DEL015

*CAP
1 *1192:I 0.000583782031
2 *126:2 0.000161091

*RES
1 *1192:I *126:2 8.00555992
2 *1100:Z *126:2 1.49994
*END

*D_NET *127 0.00125953

*CONN
*I *1101:Z O *C 142.1 41.2 *L 0 *D CKBD1
*I *1473:D I *C 139.1 44.4 *L 0.000971 *D DFCNQD1

*CAP
1 *1101:Z 0.000447417
2 *127:2 5.91056e-05
3 *127:3 0.00075301

*RES
1 *127:2 *127:3 7.3455801
2 *1101:Z *127:2 4.29901
3 *1473:D *127:3 1.50003
*END

*D_NET *128 0.000728563

*CONN
*I *1102:Z O *C 143.7 102.4 *L 0 *D CKBD0
*I *1769:A2 I *C 142.7 103.6 *L 0.000606 *D CKND2D0

*CAP
1 *1769:A2 0.000426726992
2 *1102:Z 0.000301838

*RES
1 *1769:A2 *1102:Z 9.0092
*END

*D_NET *129 0.0118524

*CONN
*I *1060:I I *C 138.1 56.8 *L 0.00182 *D DEL005
*I *1077:I I *C 149.1 56.8 *L 0.00182 *D DEL005
*I *1103:Z O *C 141.7 102.4 *L 0 *D DEL0

*CAP
1 *1060:I 0.000132723
2 *1077:I 0.000134193
3 *1103:Z 0.000760146
4 *129:3 0.000350935
5 *129:4 0.000777917
6 *129:5 7.2748e-05
7 *129:6 0.00153166
8 *129:7 0.000116358
9 *129:8 0.00214079
10 *129:9 0.000365831
11 *129:10 5.15149e-05
12 *129:11 0.000931677
13 *129:12 0.00154391
14 *129:8 *91:10 0.000424173008
15 *129:4 *251:3 0.000453128008
16 *129:3 *804:8 0.00085029
17 *129:4 *893:10 0.000859046016
18 *129:5 *50:4 0.00035535

*RES
1 *129:6 *129:7 10.262
2 *1077:I *129:6 2.2637
3 *1060:I *129:9 1.75456
4 *129:5 *129:12 6.08305
5 *129:5 *129:11 13.4821
6 *129:8 *129:10 16.1375
7 *129:7 *129:8 0.256334
8 *1103:Z *129:3 11.7461
9 *129:3 *129:12 21.0251999
10 *129:9 *129:4 4.81036
11 *129:6 *129:4 12.1475
12 *129:10 *129:11 1.50015
*END

*D_NET *130 0.00161665

*CONN
*I *1084:I I *C 138.9 127.2 *L 0.00103 *D DEL01
*I *1104:Z O *C 143.7 124 *L 0 *D DEL0

*CAP
1 *1104:Z 0.000261078
2 *130:2 0.000118675
3 *130:3 4.3504e-05
4 *130:4 0.0011934

*RES
1 *130:2 *130:4 7.10975981
2 *1104:Z *130:2 2.74709
3 *130:3 *130:4 3.75591
4 *1084:I *130:3 2.99997
*END

*D_NET *131 0.00523042

*CONN
*I *1105:I I *C 146.5 19.2 *L 0.00104 *D DEL0
*I *1341:Z O *C 140.9 41.2 *L 0 *D BUFFD2

*CAP
1 *1105:I 0.000157588
2 *131:2 0.00211934
3 *131:3 0.000126478
4 *131:4 4.40781e-05
5 *131:5 0.000153611
6 *131:2 *201:4 0.00109441992
7 *131:2 *463:8 0.00153489

*RES
1 *131:2 *131:5 29.2353001
2 *131:3 *131:2 9.80027
3 *131:4 *131:5 3.50765
4 *1105:I *131:3 3.77753
5 *1341:Z *131:4 2.99999
*END

*D_NET *132 0.00663263

*CONN
*I *987:Z O *C 151.9 127.6 *L 0 *D CKBD0
*I *1106:I I *C 139.1 107.2 *L 0.00103 *D BUFFD2

*CAP
1 *987:Z 6.88286e-05
2 *132:2 0.000103934
3 *132:3 0.000714903
4 *132:4 0.00078903
5 *132:5 0.000167092
6 *132:6 0.000814442
7 *132:7 0.000262591
8 *132:8 0.000998033
9 *132:9 0.00116135
10 *132:5 *69:2 0.000371291016
11 *132:3 *104:3 0.000318561992
12 *132:4 *305:4 0.000447248008
13 *132:6 *377:2 0.000207975996
14 *132:5 *788:3 0.00020734

*RES
1 *132:7 *132:9 5.11814
2 *132:4 *132:8 8.02164
3 *132:2 *132:3 6.35548
4 *1106:I *132:7 2.99992
5 *132:6 *132:9 11.5063
6 *132:5 *132:6 5.96037
7 *987:Z *132:2 1.69474
8 *132:5 *132:8 4.61983
9 *132:3 *132:4 13.4723997
*END

*D_NET *133 0.00157152

*CONN
*I *1107:Z O *C 151.7 38.4 *L 0 *D BUFFD1
*I *1108:I I *C 150.9 49.6 *L 0.000643 *D CKBD0

*CAP
1 *1107:Z 5.13165e-05
2 *133:2 0.000668327969
3 *133:3 0.000217065
4 *133:4 0.00042895
5 *133:5 0.000205857

*RES
1 *133:3 *133:5 4.5903
2 *1108:I *133:5 4.50003
3 *1107:Z *133:2 1.01205
4 *133:2 *133:4 7.39503002
5 *133:3 *133:4 3.93899
*END

*D_NET *134 0.00155759

*CONN
*I *1108:Z O *C 151.5 49.2 *L 0 *D CKBD0
*I *1109:I I *C 144.7 51.6 *L 0.00182 *D DEL005

*CAP
1 *1109:I 0.000607532031
2 *134:2 0.000389521
3 *134:3 0.000560531

*RES
1 *1108:Z *134:2 4.66894
2 *1109:I *134:3 7.56076002
3 *134:2 *134:3 3.83022
*END

*D_NET *135 0.000756387

*CONN
*I *1109:Z O *C 145.3 51.8 *L 0 *D DEL005
*I *1110:I I *C 144.5 49.6 *L 0.000643 *D CKBD0

*CAP
1 *135:2 0.000756387031

*RES
1 *1109:Z *135:2 3.2326
2 *1110:I *135:2 8.1484499
*END

*D_NET *136 0.00254184

*CONN
*I *1110:Z O *C 145.1 49.2 *L 0 *D CKBD0
*I *1111:I I *C 138.1 55.2 *L 0.000643 *D CKBD0

*CAP
1 *1111:I 0.000271761
2 *1110:Z 0.000998216
3 *136:2 0.00127186

*RES
1 *1110:Z *136:2 8.21409
2 *1111:I *136:2 13.3611002
*END

*D_NET *137 0.000403343

*CONN
*I *1111:Z O *C 138.7 55.6 *L 0 *D CKBD0
*I *1112:I I *C 138.1 53.2 *L 0.00182 *D DEL005

*CAP
1 *1112:I 0.000300408008
2 *1111:Z 0.000102937

*RES
1 *1111:Z *1112:I 4.78372
*END

*D_NET *138 0.000384891

*CONN
*I *1112:Z O *C 138.7 53 *L 0 *D DEL005
*I *1113:I I *C 137.9 51.6 *L 0.000643 *D CKBD0

*CAP
1 *1113:I 7.00067e-05
2 *1112:Z 0.000314885996

*RES
1 *1112:Z *1113:I 6.48223
*END

*D_NET *139 0.000563351

*CONN
*I *1113:Z O *C 138.5 52 *L 0 *D CKBD0
*I *1116:I I *C 137.9 49.6 *L 0.00182 *D DEL005

*CAP
1 *139:2 0.000563350977

*RES
1 *1113:Z *139:2 1.70833
2 *1116:I *139:2 6.13395023
*END

*D_NET *140 0.00115836

*CONN
*I *1114:Z O *C 143.5 30.4 *L 0 *D CKBD1
*I *1122:I I *C 148.1 28 *L 0.000643 *D CKBD0

*CAP
1 *1122:I 0.000257823
2 *1114:Z 0.000110004
3 *140:2 8.28671e-05
4 *140:3 0.000707675

*RES
1 *140:2 *140:3 5.96786022
2 *1122:I *140:2 4.78123
3 *1114:Z *140:3 2.99996
*END

*D_NET *141 0.000389328

*CONN
*I *1115:Z O *C 151.9 45.6 *L 0 *D BUFFD1
*I *1118:I I *C 151.3 48 *L 0.00182 *D DEL005

*CAP
1 *1118:I 5.00815e-06
2 *1115:Z 0.00038432

*RES
1 *1115:Z *1118:I 5.5024
*END

*D_NET *142 0.00115237

*CONN
*I *1116:Z O *C 138.5 49.4 *L 0 *D DEL005
*I *1120:I I *C 140.5 46 *L 0.000643 *D CKBD0

*CAP
1 *1120:I 0.000550302031
2 *1116:Z 0.000531249
3 *142:2 7.08125e-05

*RES
1 *1116:Z *142:2 7.34159994
2 *1120:I *142:2 6.35758
*END

*D_NET *143 0.00134971

*CONN
*I *1114:I I *C 142.9 30 *L 0.000968 *D CKBD1
*I *1117:Z O *C 149.1 31.4 *L 0 *D DEL005

*CAP
1 *143:2 0.00134971

*RES
1 *1117:Z *143:2 2.51782
2 *1114:I *143:2 12.6977997
*END

*D_NET *144 0.00192247

*CONN
*I *1118:Z O *C 151.9 48.2 *L 0 *D DEL005
*I *1123:I I *C 147.9 40.8 *L 0.000643 *D CKBD0

*CAP
1 *1123:I 0.000394547
2 *1118:Z 8.52373e-05
3 *144:2 0.000834732031
4 *144:3 0.000263787
5 *144:4 0.000297579
6 *144:5 4.66054e-05

*RES
1 *144:2 *144:4 2.80228
2 *1123:I *144:3 7.14007998
3 *144:3 *144:4 2.14215
4 *144:2 *144:5 4.60996
5 *1118:Z *144:5 3.00002
*END

*D_NET *145 0.00789477

*CONN
*I *1119:Z O *C 151.7 88.8 *L 0 *D CKBD0
*I *1124:I I *C 149.7 138 *L 0.00103 *D DEL015

*CAP
1 *1124:I 0.000107897
2 *1119:Z 8.90194e-05
3 *145:2 0.000263704
4 *145:3 0.0001092
5 *145:4 5.67947e-05
6 *145:5 0.000583988
7 *145:6 0.000362501
8 *145:7 0.00024247
9 *145:8 0.00116935
10 *145:7 *484:3 0.00155191
11 *145:6 *786:3 0.000505119961
12 *145:6 *787:5 0.000443358008
13 *145:2 *28:5 0.00171143
14 *145:3 *225:2 0.000264416992
15 *145:2 *480:3 0.000433605

*RES
1 *145:7 *145:3 2.09814
2 *145:6 *145:7 3.71648
3 *145:2 *145:8 42.0372009
4 *1119:Z *145:5 3
5 *145:3 *145:2 5.41629
6 *145:5 *145:8 8.74792
7 *145:4 *145:6 5.48942
8 *1124:I *145:4 4.50032
*END

*D_NET *146 0.000928666

*CONN
*I *1120:Z O *C 141.1 45.6 *L 0 *D CKBD0
*I *1125:I I *C 142.9 44.4 *L 0.00182 *D DEL005

*CAP
1 *1125:I 0.000310626
2 *1120:Z 0.000618036992

*RES
1 *1120:Z *1125:I 9.92693
*END

*D_NET *147 0.00114651

*CONN
*I *1121:Z O *C 148.9 6 *L 0 *D CKBD1
*I *1129:I I *C 145.1 8.4 *L 0.000643 *D CKBD0

*CAP
1 *147:2 0.000211465
2 *147:3 0.000935047969

*RES
1 *147:2 *147:3 4.66085
2 *1121:Z *147:2 3.77768
3 *147:3 *147:4 5.03649998
4 *1129:I *147:4 3.00003
*END

*D_NET *148 0.00112279

*CONN
*I *1122:Z O *C 148.7 27.6 *L 0 *D CKBD0
*I *1127:I I *C 151.3 24.4 *L 0.000643 *D CKBD0

*CAP
1 *1122:Z 0.000461449
2 *148:2 0.00066134

*RES
1 *1127:I *148:2 4.50002
2 *1122:Z *148:2 9.25160027
*END

*D_NET *149 0.000839432

*CONN
*I *1123:Z O *C 148.5 41.2 *L 0 *D CKBD0
*I *1126:I I *C 149.5 37.2 *L 0.00182 *D DEL005

*CAP
1 *1126:I 0.000589046016
2 *1123:Z 5.07837e-06
3 *149:2 0.000245308

*RES
1 *1123:Z *149:2 1.66343
2 *1126:I *149:2 6.48585987
*END

*D_NET *150 0.00497625

*CONN
*I *1124:Z O *C 151.9 138.4 *L 0 *D DEL015
*I *1128:I I *C 143.9 116.4 *L 0.00103 *D DEL01

*CAP
1 *1128:I 0.000125218
2 *1124:Z 4.10643e-05
3 *150:2 0.000558795
4 *150:3 0.00139944
5 *150:5 0.00154309
6 *150:6 0.00130867

*RES
1 *150:5 *150:6 11.7854004
2 *1124:Z *150:2 6.05904
3 *150:4 *150:5 0.256439
4 *150:3 *150:4 6.52049
5 *1128:I *150:3 4.37205
6 *150:2 *150:6 11.0177
*END

*D_NET *151 0.00111962

*CONN
*I *1125:Z O *C 143.5 44.6 *L 0 *D DEL005
*I *1130:I I *C 139.7 42.4 *L 0.000643 *D CKBD0

*CAP
1 *1130:I 0.000339442
2 *1125:Z 0.000143717
3 *151:2 0.000636471992

*RES
1 *1125:Z *151:2 8.63409996
2 *1130:I *151:2 5.03572
*END

*D_NET *152 0.00102041

*CONN
*I *1126:Z O *C 150.1 37.4 *L 0 *D DEL005
*I *1132:I I *C 150.9 33.6 *L 0.000643 *D CKBD0

*CAP
1 *1132:I 0.0002262
2 *1126:Z 0.000323405
3 *152:2 0.000470796992

*RES
1 *1132:I *152:2 7.19264
2 *1126:Z *152:2 8.69554043
*END

*D_NET *153 0.000861143

*CONN
*I *1127:Z O *C 151.9 24 *L 0 *D CKBD0
*I *1133:I I *C 151.3 19.2 *L 0.00182 *D DEL005

*CAP
1 *1133:I 0.000267633
2 *1127:Z 4.16364e-06
3 *153:2 0.000589339961

*RES
1 *1127:Z *153:2 0.518822
2 *1133:I *153:2 8.89393997
*END

*D_NET *154 0.0114162

*CONN
*I *1128:Z O *C 145.7 116.8 *L 0 *D DEL01
*I *1131:I I *C 137.9 48 *L 0.00182 *D DEL005

*CAP
1 *1131:I 0.000480361
2 *154:2 3.69355e-05
3 *154:3 0.000909624
4 *154:4 0.000289068
5 *154:5 0.00051221
6 *154:6 0.000245051
7 *154:7 8.36451e-05
8 *154:8 0.000356888
9 *154:9 9.77411e-06
10 *154:10 0.000512376
11 *154:11 0.000950483
12 *154:13 0.000372148
13 *154:14 0.00217873
14 *154:16 0.000397215
15 *154:17 0.00153095
16 *154:3 *239:4 0.00144976
17 *154:8 *384:2 0.00035098
18 *1131:I *479:3 0.000749998984

*RES
1 *154:12 *154:14 22.3841991
2 *154:2 *154:3 0.732637
3 *154:6 *154:7 2.53298
4 *154:11 *154:13 0.256508
5 *1131:I *154:5 5.9762
6 *154:15 *154:16 3.69495
7 *154:14 *154:16 0.256508
8 *154:6 *154:10 1.03662
9 *154:2 *154:5 7.8469
10 *154:4 *154:17 12.7878
11 *154:8 *154:17 6.9148
12 *154:3 *154:15 10.9995
13 *154:12 *154:13 3.16383
14 *154:8 *154:9 0.256508
15 *154:9 *154:10 4.8132
16 *1128:Z *154:4 2.28842
17 *154:7 *154:11 8.97711
*END

*D_NET *155 0.000992739

*CONN
*I *1129:Z O *C 145.7 8.8 *L 0 *D CKBD0
*I *1134:I I *C 151.3 10 *L 0.00182 *D DEL005

*CAP
1 *1134:I 0.000354867
2 *155:2 0.000448226016
3 *155:3 0.000189652

*RES
1 *155:2 *155:3 5.61039
2 *1134:I *155:3 6.8842802
3 *1129:Z *155:2 1.49995
*END

*D_NET *156 0.000657616

*CONN
*I *1130:Z O *C 140.3 42 *L 0 *D CKBD0
*I *1135:I I *C 138.1 42.4 *L 0.00182 *D DEL005

*CAP
1 *1135:I 6.87954e-05
2 *156:2 0.00012484
3 *156:3 0.000463981016

*RES
1 *156:2 *156:3 4.10644
2 *1135:I *156:3 4.72057009
3 *1130:Z *156:2 1.50003
*END

*D_NET *157 0.00124713

*CONN
*I *1131:Z O *C 138.5 48.2 *L 0 *D DEL005
*I *1136:I I *C 137.9 40.8 *L 0.00182 *D DEL005

*CAP
1 *1131:Z 5.98748e-05
2 *157:2 0.00015553
3 *157:3 0.000217802
4 *157:4 0.000813916953

*RES
1 *157:2 *157:4 2.99997
2 *1131:Z *157:3 3.5828
3 *157:3 *157:4 8.6967001
4 *1136:I *157:2 1.50005
*END

*D_NET *158 0.00296677

*CONN
*I *1132:Z O *C 151.5 34 *L 0 *D CKBD0
*I *1149:I I *C 150.9 13.6 *L 0.000643 *D CKBD0

*CAP
1 *158:2 0.000593742
2 *158:3 0.00169798
3 *158:4 0.000397063
4 *158:5 0.000275029
5 *158:6 2.95368e-06

*RES
1 *158:5 *158:6 2.33639
2 *158:3 *158:6 13.8818998
3 *158:2 *158:4 6.30972
4 *158:4 *158:5 3.73207
5 *1149:I *158:3 5.47218
6 *1132:Z *158:2 1.4999
*END

*D_NET *159 0.00298716

*CONN
*I *1133:Z O *C 151.9 19.4 *L 0 *D DEL005
*I *1138:I I *C 138.3 24.4 *L 0.000643 *D CKBD0

*CAP
1 *1133:Z 0.000182865
2 *159:2 0.000229283
3 *159:3 1.86843e-05
4 *159:4 0.00255632

*RES
1 *159:2 *159:4 16.6858997
2 *1133:Z *159:2 2.27847
3 *159:3 *159:4 6.24066
4 *1138:I *159:3 1.49989
*END

*D_NET *160 0.00189556

*CONN
*I *1134:Z O *C 151.9 9.8 *L 0 *D DEL005
*I *1139:I I *C 137.9 10 *L 0.000643 *D CKBD0

*CAP
1 *160:2 0.000478586
2 *160:3 9.1726e-06
3 *160:4 0.00140779

*RES
1 *160:2 *160:3 4.81106
2 *1139:I *160:4 5.12215
3 *160:3 *160:4 9.58059978
4 *1134:Z *160:2 1.50004
*END

*D_NET *161 0.000295819

*CONN
*I *1135:Z O *C 138.7 42.2 *L 0 *D DEL005
*I *1141:I I *C 138.7 40.8 *L 0.000643 *D CKBD0

*CAP
1 *1141:I 0.000244089004
2 *1135:Z 5.17304e-05

*RES
1 *1135:Z *1141:I 6.27202
*END

*D_NET *162 0.00173171

*CONN
*I *1136:Z O *C 138.5 41 *L 0 *D DEL005
*I *1140:I I *C 147.1 40.8 *L 0.000643 *D CKBD0

*CAP
1 *162:2 9.25606e-05
2 *162:3 0.000903613984
3 *162:4 0.000735535

*RES
1 *162:2 *162:4 6.6516
2 *162:3 *162:4 6.7203002
3 *1136:Z *162:3 1.50001
4 *1140:I *162:2 3.00002
*END

*D_NET *163 0.00257019

*CONN
*I *1115:I I *C 151.3 46 *L 0.00072 *D BUFFD1
*I *1137:Z O *C 138.7 45.8 *L 0 *D BUFFD4

*CAP
1 *163:2 0.000462774
2 *163:3 0.00210742

*RES
1 *1137:Z *163:3 3.00008
2 *163:2 *163:3 19.5986004
3 *1115:I *163:2 1.50004
*END

*D_NET *164 0.00256805

*CONN
*I *1138:Z O *C 138.9 24 *L 0 *D CKBD0
*I *1156:I I *C 150.7 20.8 *L 0.00182 *D DEL005

*CAP
1 *1156:I 6.10698e-06
2 *1138:Z 0.000649665
3 *164:2 0.000139788
4 *164:3 0.000917937969
5 *164:4 0.000854557

*RES
1 *1138:Z *164:3 6.13538
2 *164:3 *164:4 6.90808
3 *164:2 *164:4 7.69369984
4 *1156:I *164:2 1.69462
*END

*D_NET *165 0.000914747

*CONN
*I *1139:Z O *C 138.5 9.6 *L 0 *D CKBD0
*I *1144:I I *C 137.9 15.6 *L 0.00182 *D DEL005

*CAP
1 *1144:I 0.000704280938
2 *1139:Z 0.000210462

*RES
1 *1144:I *1139:Z 8.75598
*END

*D_NET *166 0.000899896

*CONN
*I *1140:Z O *C 147.7 41.2 *L 0 *D CKBD0
*I *1148:I I *C 145.5 38.8 *L 0.00182 *D DEL005

*CAP
1 *1148:I 9.36886e-05
2 *1140:Z 0.000359866
3 *166:2 0.000446341992

*RES
1 *1148:I *166:2 2.99998
2 *1140:Z *166:2 7.23084021
*END

*D_NET *167 0.000948

*CONN
*I *1141:Z O *C 139.3 41.2 *L 0 *D CKBD0
*I *1147:I I *C 140.1 35.2 *L 0.00182 *D DEL005

*CAP
1 *1147:I 0.000418628
2 *1141:Z 0.000529373008

*RES
1 *1141:Z *1147:I 8.51289
*END

*D_NET *168 0.00621877

*CONN
*I *1137:I I *C 137.5 46 *L 0.00201 *D BUFFD4
*I *1142:Z O *C 151.9 12.2 *L 0 *D DEL005

*CAP
1 *1137:I 5.484e-05
2 *1142:Z 0.000168686
3 *168:2 2.34125e-05
4 *168:3 0.00345571
5 *168:4 0.000179812
6 *168:5 0.000344596
7 *168:6 0.000326192
8 *168:2 *806:28 0.000599062031
9 *1137:I *479:9 0.00055693
10 *168:3 *461:19 0.000509605

*RES
1 *168:4 *168:5 3.16841
2 *1142:Z *168:4 6.17712
3 *1137:I *168:2 0.981865
4 *168:3 *168:6 15.0504
5 *168:2 *168:3 28.1362
6 *168:5 *168:6 4.54912
*END

*D_NET *169 0.00115717

*CONN
*I *1143:Z O *C 151.9 30.2 *L 0 *D DEL005
*I *1163:I I *C 150.3 24.4 *L 0.000643 *D CKBD0

*CAP
1 *1143:Z 3.58559e-06
2 *169:2 3.46266e-05
3 *169:3 0.00111896

*RES
1 *169:2 *169:3 7.5881
2 *1143:Z *169:2 0.489329
3 *1163:I *169:3 8.19750977
*END

*D_NET *170 0.00272167

*CONN
*I *1144:Z O *C 138.5 15.8 *L 0 *D DEL005
*I *1151:I I *C 143.7 26.4 *L 0.000643 *D CKBD0

*CAP
1 *1144:Z 0.000510216
2 *170:2 0.000757665
3 *170:3 0.000907626953
4 *170:4 0.000546169

*RES
1 *170:2 *170:3 8.98272991
2 *170:3 *170:4 4.11923
3 *1151:I *170:2 7.86057
4 *1144:Z *170:4 4.97205
*END

*D_NET *171 0.00159422

*CONN
*I *1145:Z O *C 141.7 23.2 *L 0 *D CKBD1
*I *1152:I I *C 143.7 30 *L 0.000643 *D CKBD0

*CAP
1 *1152:I 0.000373076
2 *171:2 0.00087217
3 *171:3 0.000348974

*RES
1 *1152:I *171:3 8.42500973
2 *171:2 *171:3 7.48925
3 *1145:Z *171:2 1.49998
*END

*D_NET *172 0.00631611

*CONN
*I *1146:Z O *C 138.1 91.6 *L 0 *D BUFFD1
*I *1153:I I *C 137.5 132.4 *L 0.00103 *D DEL015

*CAP
1 *1153:I 0.000255509
2 *1146:Z 0.000371586
3 *172:2 5.31997e-06
4 *172:3 8.60813e-05
5 *172:4 0.000401522
6 *172:5 1.09405e-05
7 *172:6 2.10394e-06
8 *172:7 0.00120865
9 *172:8 0.00196974
10 *172:5 *99:2 0.00145851
11 *172:5 *1338:I 0.000546108008

*RES
1 *172:4 *172:6 0.256482
2 *172:2 *172:4 11.7808
3 *1153:I *172:2 2.96845
4 *172:6 *172:7 10.927
5 *1146:Z *172:3 3.28151
6 *172:5 *172:8 22.7453003
7 *172:5 *172:7 0.256829
8 *172:3 *172:8 4.41398
*END

*D_NET *173 0.000673623

*CONN
*I *1147:Z O *C 140.7 35 *L 0 *D DEL005
*I *1155:I I *C 137.9 35.2 *L 0.000643 *D CKBD0

*CAP
1 *173:2 9.41356e-05
2 *173:3 0.000579482969

*RES
1 *1155:I *173:3 2.99998
2 *173:2 *173:3 4.21957016
3 *1147:Z *173:2 1.49999
*END

*D_NET *174 0.000906387

*CONN
*I *1148:Z O *C 146.1 38.6 *L 0 *D DEL005
*I *1154:I I *C 143.1 37.2 *L 0.000643 *D CKBD0

*CAP
1 *174:2 0.000906386953

*RES
1 *1148:Z *174:2 2.26331
2 *1154:I *174:2 10.0411997
*END

*D_NET *175 0.000476088

*CONN
*I *1149:Z O *C 151.5 13.2 *L 0 *D CKBD0
*I *1157:I I *C 150.9 15.6 *L 0.00182 *D DEL005

*CAP
1 *1149:Z 0.000216294
2 *175:2 0.000259793008

*RES
1 *1149:Z *175:2 6.35449982
2 *1157:I *175:2 3
*END

*D_NET *176 0.000941808

*CONN
*I *1143:I I *C 151.3 30 *L 0.00182 *D DEL005
*I *1150:Z O *C 150.3 26.6 *L 0 *D DEL005

*CAP
1 *1150:Z 0.000434314
2 *176:2 0.000507493984

*RES
1 *1143:I *176:2 1.66368
2 *1150:Z *176:2 6.69352007
*END

*D_NET *177 0.00253041

*CONN
*I *1151:Z O *C 144.3 26.8 *L 0 *D CKBD0
*I *1158:I I *C 144.9 40.8 *L 0.000643 *D CKBD0

*CAP
1 *1158:I 0.000260406
2 *1151:Z 0.000232108
3 *177:2 0.000289693
4 *177:3 0.00024185
5 *177:4 0.000696176
6 *177:5 0.000810183984

*RES
1 *177:2 *177:3 2.77903
2 *1151:Z *177:5 7.29937983
3 *177:4 *177:5 3.97559
4 *177:3 *177:4 6.31579
5 *1158:I *177:2 6.26154
*END

*D_NET *178 0.00300518

*CONN
*I *1152:Z O *C 144.3 30.4 *L 0 *D CKBD0
*I *1159:I I *C 143.7 44.4 *L 0.000643 *D CKBD0

*CAP
1 *178:2 0.000797202
2 *178:3 3.39608e-06
3 *178:4 0.00119657
4 *178:5 0.000891818
5 *178:6 0.000116197

*RES
1 *178:5 *178:6 3.97131
2 *178:4 *178:5 5.28795
3 *178:3 *178:4 7.65264
4 *178:2 *178:3 0.256385
5 *1159:I *178:2 8.06645012
6 *1152:Z *178:6 1.50003
*END

*D_NET *179 0.00141571

*CONN
*I *1153:Z O *C 139.7 132 *L 0 *D DEL015
*I *1160:I I *C 137.5 128.8 *L 0.00103 *D DEL015

*CAP
1 *1160:I 0.000703136953
2 *179:2 0.00019702
3 *179:3 0.000515548

*RES
1 *1160:I *179:3 8.33477974
2 *179:2 *179:3 4.80506
3 *1153:Z *179:2 3.00002
*END

*D_NET *180 0.000909826

*CONN
*I *1154:Z O *C 143.7 37.6 *L 0 *D CKBD0
*I *1161:I I *C 143.1 33.6 *L 0.00182 *D DEL005

*CAP
1 *180:2 0.000321729
2 *180:3 0.000588098008

*RES
1 *180:2 *180:3 7.01832008
2 *1154:Z *180:2 1.7881
3 *1161:I *180:3 1.50002
*END

*D_NET *181 0.00116024

*CONN
*I *1155:Z O *C 138.5 34.8 *L 0 *D CKBD0
*I *1162:I I *C 137.9 28 *L 0.00182 *D DEL005

*CAP
1 *1162:I 0.000712185
2 *181:2 0.000448057

*RES
1 *1162:I *181:2 5.89698
2 *1155:Z *181:2 6.06408978
*END

*D_NET *182 0.00124117

*CONN
*I *1150:I I *C 149.7 26.4 *L 0.00182 *D DEL005
*I *1156:Z O *C 151.3 20.6 *L 0 *D DEL005

*CAP
1 *1150:I 8.7515e-05
2 *1156:Z 0.000168218
3 *182:3 0.000985445938

*RES
1 *1156:Z *182:3 4.81986
2 *1150:I *182:2 1.7564
3 *182:2 *182:3 6.27220011
*END

*D_NET *183 0.00132617

*CONN
*I *1157:Z O *C 151.5 15.8 *L 0 *D DEL005
*I *1164:I I *C 148.1 20.8 *L 0.000643 *D CKBD0

*CAP
1 *1164:I 0.000250721
2 *1157:Z 0.000181043
3 *183:2 0.000661313984
4 *183:3 0.000233092

*RES
1 *183:2 *183:3 5.58258
2 *1164:I *183:2 6.69484997
3 *1157:Z *183:3 3.94146
*END

*D_NET *184 0.00610365

*CONN
*I *1158:Z O *C 145.5 41.2 *L 0 *D CKBD0
*I *1170:I I *C 144.1 73.2 *L 0.00103 *D DEL01

*CAP
1 *1170:I 0.000248631
2 *1158:Z 0.000308304
3 *184:2 0.00108898
4 *184:3 0.00068898
5 *184:4 0.000527437
6 *184:5 0.000100296
7 *184:6 0.000662598
8 *184:8 5.05119e-05
9 *184:9 0.00110972
10 *184:10 0.000467865
11 *1170:I *804:8 0.000354395
12 *1170:I *893:21 0.000296997988
13 *184:2 *504:4 0.000198929004

*RES
1 *184:6 *184:8 7.33234
2 *184:9 *184:10 7.11454
3 *184:8 *184:10 2.00851
4 *184:7 *184:9 10.2058
5 *184:5 *184:6 0.663474
6 *184:2 *184:5 10.3060999
7 *184:3 *184:4 4.93399
8 *1158:Z *184:3 3.24802
9 *1170:I *184:7 3.01307
10 *184:4 *184:2 3.44444
*END

*D_NET *185 0.00367139

*CONN
*I *1159:Z O *C 144.3 44.8 *L 0 *D CKBD0
*I *1173:I I *C 143.9 64 *L 0.00103 *D DEL01

*CAP
1 *1173:I 0.00233935
2 *1159:Z 0.00027611
3 *185:2 0.00051888
4 *185:3 0.000537049

*RES
1 *185:2 *185:3 3.14265
2 *1173:I *185:2 21.8383007
3 *1159:Z *185:3 4.68516
*END

*D_NET *186 0.00118254

*CONN
*I *1160:Z O *C 139.7 128.4 *L 0 *D DEL015
*I *1165:I I *C 137.5 125.2 *L 0.00103 *D DEL015

*CAP
1 *1165:I 0.00070014
2 *186:2 0.000366977
3 *186:3 0.000115424

*RES
1 *186:2 *186:3 5.09668
2 *1165:I *186:2 7.58178997
3 *1160:Z *186:3 1.50002
*END

*D_NET *187 0.00119404

*CONN
*I *1161:Z O *C 143.7 33.8 *L 0 *D DEL005
*I *1274:I I *C 143.5 28 *L 0.00104 *D DEL0

*CAP
1 *1274:I 0.000441509
2 *1161:Z 9.19205e-05
3 *187:2 0.0006606

*RES
1 *1274:I *187:2 5.87824
2 *1161:Z *187:2 6.02948999
*END

*D_NET *188 0.000933252

*CONN
*I *1162:Z O *C 138.5 27.8 *L 0 *D DEL005
*I *1273:I I *C 137.5 22.8 *L 0.00104 *D DEL0

*CAP
1 *1273:I 0.000146458
2 *188:2 0.000786793984

*RES
1 *1162:Z *188:2 3.7741
2 *1273:I *188:2 5.6472702
*END

*D_NET *189 0.00102417

*CONN
*I *1163:Z O *C 150.9 24 *L 0 *D CKBD0
*I *1394:I I *C 149.1 28 *L 0.00287 *D BUFFD8

*CAP
1 *1394:I 0.000299688
2 *189:2 0.000724485

*RES
1 *1163:Z *189:2 2.99997
2 *1394:I *189:2 8.47657967
*END

*D_NET *190 0.00114166

*CONN
*I *1164:Z O *C 148.7 20.4 *L 0 *D CKBD0
*I *1378:I I *C 146.1 24.4 *L 0.00287 *D BUFFD8

*CAP
1 *1378:I 0.000111967
2 *1164:Z 0.000153197
3 *190:2 0.000333599
4 *190:3 0.000542895977

*RES
1 *190:2 *190:3 5.02845001
2 *1164:Z *190:2 4.01948
3 *1378:I *190:3 2.99999
*END

*D_NET *191 0.00448023

*CONN
*I *1165:Z O *C 139.7 124.8 *L 0 *D DEL015
*I *1169:I I *C 144.3 100 *L 0.00103 *D DEL01

*CAP
1 *1169:I 0.000138651
2 *1165:Z 0.000109809
3 *191:2 0.00357314
4 *191:3 0.000658633

*RES
1 *191:2 *191:3 26.0464001
2 *1169:I *191:2 5.88325
3 *1165:Z *191:3 7.46386
*END

*D_NET *192 0.00694846

*CONN
*I *1166:Z O *C 145.9 109.6 *L 0 *D DEL01
*I *1171:I I *C 143.7 67.6 *L 0.00103 *D DEL01

*CAP
1 *192:2 0.000557162
2 *192:3 0.000527133
3 *192:4 0.000561436
4 *192:5 0.000304721
5 *192:6 0.000125207
6 *192:7 1.38281e-06
7 *192:8 0.00044176
8 *192:9 0.00102980008
9 *192:10 0.000207296
10 *192:11 9.27111e-05
11 *192:12 0.000256103
12 *192:13 0.000543978
13 *192:4 *1494:CPN 0.000445123984
14 *192:2 *195:3 0.00021528
15 *192:3 *437:2 0.000414366992
16 *192:4 *893:19 0.00122502008

*RES
1 *192:6 *192:3 5.58962
2 *192:9 *192:10 2.51007
3 *192:7 *192:9 12.5658998
4 *192:5 *192:12 3.87987
5 *1166:Z *192:5 3.76271
6 *192:11 *192:13 0.256549
7 *192:6 *192:8 1.28619
8 *192:2 *192:11 4.20583
9 *192:2 *192:8 7.25354
10 *192:3 *192:7 0.256549
11 *192:4 *192:10 5.60093
12 *192:12 *192:13 4.33966
13 *1171:I *192:4 4.55422
*END

*D_NET *193 0.00864629

*CONN
*I *1167:Z O *C 151.5 174.4 *L 0 *D DEL0
*I *1190:I I *C 143.9 114.4 *L 0.00103 *D DEL015

*CAP
1 *193:2 0.00298416
2 *193:3 0.000141934
3 *193:4 0.000441784
4 *193:5 0.000112518
5 *193:6 0.000463732
6 *193:7 7.37673e-05
7 *193:6 *455:8 0.000726755
8 *193:6 *291:2 0.00027412998
9 *193:2 *4:2 0.001818
10 *193:2 *95:2 0.00160956

*RES
1 *193:7 *193:2 2.47337
2 *193:5 *193:6 9.75098
3 *193:4 *193:7 3.00045
4 *193:3 *193:5 3.00045
5 *1190:I *193:4 6.19905
6 *193:6 *193:2 63.9679985
7 *1167:Z *193:3 1.50023
*END

*D_NET *194 0.00116094

*CONN
*I *1168:Z O *C 139.9 164.4 *L 0 *D DEL0
*I *1465:A[1] I *C 134.265 162.125 *L 0.00555 *D sram00

*CAP
1 *194:2 0.000483668
2 *194:3 0.000677276016

*RES
1 *194:2 *194:3 6.93644
2 *1168:Z *194:2 4.09147
3 *1168:Z *1465:A[1] 0.0001
*END

*D_NET *195 0.00861608

*CONN
*I *1169:Z O *C 146.1 99.6 *L 0 *D DEL01
*I *1272:I I *C 143.1 48 *L 0.00104 *D DEL0

*CAP
1 *1272:I 0.000734798
2 *195:2 0.000179977
3 *195:3 0.000201346
4 *195:4 0.000494147
5 *195:5 0.00252782016
6 *195:6 0.000122582
7 *195:7 0.000354786
8 *195:9 7.71441e-08
9 *195:10 0.000694799
10 *195:3 *36:8 0.000485153008
11 *195:2 *432:2 0.000440985
12 *195:3 *192:2 0.00021528
13 *195:2 *251:2 0.000318385
14 *195:3 *434:2 0.00133926
15 *1272:I *805:5 0.000506684023

*RES
1 *195:9 *195:10 7.46226
2 *195:5 *195:6 4.00774
3 *195:4 *195:9 4.16969
4 *195:3 *195:4 6.58667
5 *1169:Z *195:3 3.00007
6 *195:8 *195:10 0.256514
7 *195:6 *195:7 6.57135
8 *195:5 *195:8 25.0909004
9 *195:2 *195:7 4.04029
10 *1272:I *195:2 8.30876
*END

*D_NET *196 0.00638063

*CONN
*I *1170:Z O *C 145.9 73.6 *L 0 *D DEL01
*I *1357:I I *C 149.1 17.2 *L 0.00287 *D BUFFD8

*CAP
1 *1357:I 8.98716e-05
2 *1170:Z 7.43016e-05
3 *196:2 0.00237298016
4 *196:3 0.000227286
5 *196:4 0.000282614
6 *196:5 0.000133287
7 *196:7 0.00112025
8 *196:8 0.000235506
9 *196:8 *83:12 0.000199671992
10 *196:2 *251:4 0.000350176992
11 *196:2 *432:6 0.000603565977
12 *196:2 *480:5 0.0004852
13 *196:3 *305:14 0.000205867012

*RES
1 *196:4 *196:3 4.16853
2 *196:6 *196:7 0.256461
3 *196:3 *196:8 2.89404
4 *196:2 *196:6 34.1613998
5 *196:5 *196:2 5.06562
6 *1170:Z *196:4 4.50005
7 *196:7 *196:8 20.5883
8 *1357:I *196:5 2.99986
*END

*D_NET *197 0.006659

*CONN
*I *1171:Z O *C 145.5 67.2 *L 0 *D DEL01
*I *1434:I I *C 140.7 31.6 *L 0.00105 *D DEL1

*CAP
1 *1434:I 0.000212052
2 *1171:Z 0.000374567
3 *197:2 0.00104065
4 *197:3 0.000533061
5 *197:4 0.000301417
6 *197:5 0.000128121
7 *197:7 0.000766511
8 *197:8 0.00117154
9 *197:9 1.53738e-06
10 *197:10 0.000977293
11 *197:4 *249:2 0.000765793984
12 *197:2 *806:17 0.000386466992

*RES
1 *197:4 *197:8 14.1857996
2 *1171:Z *197:2 4.99217
3 *197:9 *197:10 6.95199
4 *197:6 *197:7 5.81731
5 *197:5 *197:7 0.256503
6 *197:3 *197:6 5.4502
7 *197:8 *197:9 0.256503
8 *197:4 *197:5 4.11249
9 *197:2 *197:3 7.23013
10 *1434:I *197:10 9.5984
*END

*D_NET *198 0.00369713

*CONN
*I *1172:Z O *C 151.9 62.8 *L 0 *D DEL01
*I *1700:DA I *C 146.3 48 *L 0.000721 *D DFXQD1

*CAP
1 *1700:DA 0.000473449
2 *198:2 0.000525462
3 *198:3 0.000525727
4 *198:4 0.00217248984

*RES
1 *198:2 *198:3 5.97004
2 *1172:Z *198:2 0.49297
3 *198:3 *198:4 5.19773
4 *1700:DA *198:4 20.0293007
*END

*D_NET *199 0.00871829

*CONN
*I *1173:Z O *C 145.7 63.6 *L 0 *D DEL01
*I *1430:I I *C 138.1 13.6 *L 0.00105 *D DEL1

*CAP
1 *1430:I 0.000414292
2 *1173:Z 0.000208236
3 *199:2 0.00101347
4 *199:3 0.00160569
5 *199:4 7.47778e-05
6 *199:5 0.000351128
7 *199:7 0.000463441
8 *199:8 0.000170504
9 *199:9 0.000730775
10 *199:10 0.000798888
11 *199:11 2.94015e-06
12 *199:12 0.000727075
13 *199:14 0.000357522
14 *199:15 5.11341e-05
15 *199:16 0.000288282
16 *199:2 *804:3 0.000699372969
17 *199:2 *805:5 0.000379968984
18 *199:3 *1691:A1 0.000380793008

*RES
1 *199:13 *199:14 3.11221
2 *199:12 *199:14 1.04182
3 *199:11 *199:12 5.90269
4 *199:7 *199:8 0.25657
5 *199:4 *199:10 7.12921
6 *199:6 *199:2 0.25657
7 *199:2 *199:13 11.5723
8 *1430:I *199:5 8.82119
9 *199:9 *199:16 3.07071
10 *199:15 *199:16 3.32411
11 *199:3 *199:5 5.00373
12 *199:3 *199:15 10.6108
13 *1173:Z *199:4 3.65219
14 *199:6 *199:7 4.60784
15 *199:8 *199:9 3.4862
16 *199:10 *199:11 0.25657
*END

*D_NET *200 0.00114103

*CONN
*I *1174:Z O *C 143.5 26.6 *L 0 *D DEL005
*I *1433:I I *C 139.1 24.4 *L 0.00105 *D DEL1

*CAP
1 *200:2 0.000242024
2 *200:3 0.000899

*RES
1 *200:2 *200:3 5.57937
2 *1433:I *200:3 5.93154001
3 *1174:Z *200:2 2.26334
*END

*D_NET *201 0.00873611

*CONN
*I *1175:Z O *C 149.5 59.2 *L 0 *D DEL01
*I *1194:I I *C 140.9 6.4 *L 0.00103 *D DEL015

*CAP
1 *1194:I 0.000180636
2 *1175:Z 0.000216942
3 *201:2 0.000673217
4 *201:3 9.19577e-05
5 *201:4 0.00153501
6 *201:5 7.12286e-05
7 *201:6 0.000758124
8 *201:7 0.00131294
9 *201:8 3.27216e-05
10 *201:9 0.000358743
11 *201:10 0.000261445
12 *201:12 0.000282314
13 *201:4 *357:3 0.000322315996
14 *201:2 *438:3 0.000659012031
15 *201:2 *463:3 0.000469078984
16 *201:3 *76:2 0.000416011016
17 *201:4 *131:2 0.00109441992

*RES
1 *201:2 *201:3 6.51223
2 *201:5 *201:6 5.85255
3 *201:6 *201:2 0.132117
4 *1194:I *201:4 5.53135
5 *201:8 *201:10 0.256356
6 *201:3 *201:7 19.8588009
7 *201:8 *201:12 2.77022
8 *201:4 *201:11 17.1355
9 *201:11 *201:12 3.90534
10 *201:7 *201:9 0.256356
11 *201:9 *201:10 10.7897
12 *1175:Z *201:5 3.74716
*END

*D_NET *202 0.00240631

*CONN
*I *1176:Z O *C 144.5 24 *L 0 *D DEL01
*I *1195:I I *C 143.7 10 *L 0.00103 *D DEL015

*CAP
1 *1195:I 0.000756888
2 *202:2 0.000578812
3 *202:3 1.90796e-06
4 *202:5 0.00106869992

*RES
1 *202:2 *202:3 2.03
2 *202:4 *202:5 7.09596
3 *1195:I *202:3 8.02402973
4 *202:2 *202:5 4.05254
5 *1176:Z *202:4 1.49998
*END

*D_NET *203 0.00145283

*CONN
*I *1177:Z O *C 148.7 55.6 *L 0 *D CKBD0
*I *1193:I I *C 142.1 55.2 *L 0.00103 *D DEL015

*CAP
1 *203:2 0.000144318
2 *203:3 0.00130850992

*RES
1 *1193:I *203:3 4.49999
2 *203:2 *203:3 10.0047998
3 *1177:Z *203:2 1.50005
*END

*D_NET *204 0.00120051

*CONN
*I *1178:Z O *C 138.1 38.4 *L 0 *D CKBD0
*I *1196:I I *C 137.5 31.6 *L 0.00103 *D DEL015

*CAP
1 *1196:I 0.00106972
2 *1178:Z 8.57931e-05
3 *204:2 4.50022e-05

*RES
1 *1178:Z *204:2 2.1404
2 *1196:I *204:2 8.92492008
*END

*D_NET *205 0.00189203

*CONN
*I *1168:I I *C 137.5 164.8 *L 0.00104 *D DEL0
*I *1179:Z O *C 139.9 156.4 *L 0 *D DEL0

*CAP
1 *1179:Z 0.000272036
2 *205:2 4.85743e-06
3 *205:3 0.000396084
4 *205:4 0.000570714
5 *205:5 0.000648334023

*RES
1 *205:2 *205:4 3.82592
2 *205:2 *205:3 0.450854
3 *1179:Z *205:4 3.14767
4 *205:3 *205:5 5.73175001
5 *1168:I *205:5 4.944
*END

*D_NET *206 0.0023134

*CONN
*I *1180:Z O *C 151.7 196.8 *L 0 *D DEL0
*I *1182:I I *C 137.9 199.6 *L 0.00373 *D CKBD12

*CAP
1 *1182:I 0.000262991
2 *206:2 0.000110613
3 *206:3 0.0019398

*RES
1 *206:2 *206:3 15.7784004
2 *1182:I *206:3 5.21196
3 *1180:Z *206:2 1.49993
*END

*D_NET *207 0.00513929

*CONN
*I *1181:Z O *C 144.9 204 *L 0 *D DEL1
*I *1465:A[0] I *C 134.195 162.705 *L 0.00555 *D sram00

*CAP
1 *207:2 1.27866e-05
2 *207:3 7.99233e-05
3 *207:4 0.000336183
4 *207:5 0.00027422
5 *207:6 0.000116284
6 *207:7 0.000164403
7 *207:8 0.000102557
8 *207:9 4.63843e-05
9 *207:10 6.49616e-05
10 *207:12 0.00192636
11 *207:13 0.00021017
12 *207:14 1.38154e-06
13 *207:16 1.44032e-06
14 *207:17 7.30156e-05
15 *207:2 *70:5 0.000226965
16 *207:3 *386:6 0.000213025996
17 *207:2 *377:9 0.000399595
18 *207:4 *999:I 0.00022478
19 *207:5 *26:2 0.000346903008
20 *207:5 *108:3 0.000317988008

*RES
1 *207:6 *207:7 3.66682
2 *207:13 *207:14 0.256435
3 *207:4 *207:9 0.132006
4 *207:8 *207:4 5.93567
5 *207:9 *207:5 0.613552
6 *207:2 *207:15 2.88343
7 *207:15 *207:17 0.256435
8 *207:11 *207:12 0.256435
9 *207:2 *207:10 1.94158
10 *207:14 *207:3 1.88203
11 *207:3 *207:16 0.256435
12 *207:16 *207:17 3.0488
13 *207:11 *207:13 5.00225
14 *207:7 *207:8 0.132006
15 *207:5 *207:12 30.0442
16 *1181:Z *207:6 1.5
17 *1181:Z *1465:A[0] 0.0001
*END

*D_NET *208 0.00704869

*CONN
*I *1180:I I *C 149.3 197.2 *L 0.00104 *D DEL0
*I *1352:Z O *C 150.7 142 *L 0 *D BUFFD8

*CAP
1 *208:2 0.0012849
2 *208:3 0.000704246
3 *208:4 0.000486694
4 *208:5 0.00199934
5 *208:7 0.000462287
6 *208:8 0.00058316
7 *208:9 1.37286e-06
8 *208:10 0.000767947
9 *208:11 3.21554e-05
10 *208:2 *786:4 0.000409745
11 *208:2 *790:5 0.00031681498

*RES
1 *208:6 *208:7 5.00352
2 *208:5 *208:6 13.8617
3 *208:2 *208:11 14.3055
4 *1352:Z *208:2 4.16618
5 *208:8 *208:11 5.75617
6 *208:7 *208:9 0.256484
7 *208:4 *208:5 3.34041
8 *208:3 *208:4 11.38
9 *208:9 *208:10 9.66062
10 *208:8 *208:10 0.256484
11 *1180:I *208:3 3.0001
*END

*D_NET *209 0.000858124

*CONN
*I *1183:Z O *C 140.7 62.8 *L 0 *D CKBD1
*I *1236:I I *C 139.7 66 *L 0.00104 *D DEL0

*CAP
1 *1236:I 7.12896e-06
2 *1183:Z 0.000850995

*RES
1 *1183:Z *1236:I 9.80854
*END

*D_NET *210 0.00191921

*CONN
*I *1184:Z O *C 145.9 95.2 *L 0 *D BUFFD1
*I *1219:I I *C 143.5 103.6 *L 0.00104 *D DEL0

*CAP
1 *1184:Z 0.000287384
2 *210:2 9.5904e-05
3 *210:3 0.00153594

*RES
1 *210:2 *210:3 9.74680996
2 *1184:Z *210:3 6.51815
3 *1219:I *210:2 3.00007
*END

*D_NET *211 0.00237725

*CONN
*I *1185:Z O *C 142.1 96 *L 0 *D BUFFD1
*I *1218:I I *C 140.1 109.2 *L 0.00104 *D DEL0

*CAP
1 *1218:I 8.68923e-07
2 *1185:Z 0.000701528
3 *211:2 0.00167485

*RES
1 *1218:I *211:2 11.9766998
2 *1185:Z *211:2 10.495
*END

*D_NET *212 0.000328949

*CONN
*I *1186:Z O *C 138.1 20.4 *L 0 *D CKBD1
*I *1226:I I *C 137.5 19.2 *L 0.00104 *D DEL0

*CAP
1 *1226:I 6.99297e-05
2 *1186:Z 0.00025902

*RES
1 *1186:Z *1226:I 6.12783
*END

*D_NET *213 0.000420596

*CONN
*I *1187:Z O *C 146.1 81.6 *L 0 *D CKBD1
*I *1231:I I *C 146.5 80.4 *L 0.00104 *D DEL0

*CAP
1 *1231:I 0.000231916992
2 *1187:Z 0.00018868

*RES
1 *1187:Z *1231:I 6.6735
*END

*D_NET *214 0.00141889

*CONN
*I *1188:Z O *C 151.5 34.8 *L 0 *D CKBD1
*I *1230:I I *C 149.5 40.8 *L 0.00104 *D DEL0

*CAP
1 *1188:Z 8.90295e-05
2 *214:2 0.000662907
3 *214:3 0.000666957969

*RES
1 *1230:I *214:2 7.64530993
2 *1188:Z *214:3 2.99998
3 *214:2 *214:3 6.05164
*END

*D_NET *215 0.000757167

*CONN
*I *1189:Z O *C 151.5 42 *L 0 *D CKBD1
*I *1228:I I *C 149.3 44.4 *L 0.00104 *D DEL0

*CAP
1 *1228:I 0.000660255
2 *1189:Z 7.74554e-05
3 *215:2 1.94545e-05

*RES
1 *1228:I *215:2 8.5341301
2 *1189:Z *215:2 3.00002
*END

*D_NET *216 0.00658128

*CONN
*I *1172:I I *C 150.1 62.4 *L 0.00103 *D DEL01
*I *1190:Z O *C 146.1 114 *L 0 *D DEL015

*CAP
1 *216:2 0.00301338
2 *216:3 0.000244574
3 *216:4 5.1453e-05
4 *216:5 0.000106676
5 *216:6 0.000485378
6 *216:7 0.000690684
7 *216:8 0.000222779
8 *216:2 *432:6 0.0014108
9 *216:2 *483:2 0.000355542969

*RES
1 *216:7 *216:8 2.80703
2 *216:2 *216:7 46.0593987
3 *216:6 *216:8 4.84096
4 *216:5 *216:2 5.78413
5 *216:3 *216:6 3.38895
6 *1172:I *216:4 3.0003
7 *1190:Z *216:3 3.78112
8 *216:4 *216:5 1.4998
*END

*D_NET *217 0.00193141

*CONN
*I *1191:Z O *C 139.5 16.8 *L 0 *D DEL01
*I *1275:I I *C 146.9 13.6 *L 0.00104 *D DEL0

*CAP
1 *1275:I 0.000540926
2 *217:2 0.000253079
3 *217:3 0.000882115
4 *217:4 0.0002553

*RES
1 *217:2 *217:4 4.89895
2 *1191:Z *217:3 1.6944
3 *217:3 *217:4 6.82550001
4 *1275:I *217:2 6.18603
*END

*D_NET *218 0.00984529

*CONN
*I *1174:I I *C 142.9 26.4 *L 0.00182 *D DEL005
*I *1192:Z O *C 143.9 95.2 *L 0 *D DEL015

*CAP
1 *1174:I 0.000128578
2 *1192:Z 6.76423e-05
3 *218:2 0.000545446
4 *218:3 0.000535631
5 *218:4 0.000519975
6 *218:5 0.000364438
7 *218:6 0.000222402
8 *218:7 0.000859385
9 *218:8 0.00145533
10 *218:9 0.000575537
11 *218:10 0.000259355
12 *218:12 0.000320801
13 *218:13 0.000132597
14 *218:14 0.000158202
15 *218:15 0.00040763
16 *218:7 *798:3 0.000956222031
17 *218:7 *247:2 0.000619443008
18 *218:2 *433:3 0.00110306
19 *218:2 *799:4 0.000360846992
20 *218:7 *803:3 0.000252755996

*RES
1 *218:10 *218:13 0.256494
2 *218:2 *218:4 2.77782
3 *218:6 *218:8 21.3320007
4 *218:12 *218:13 6.74567
5 *218:11 *218:12 0.256494
6 *1174:I *218:7 3.00014
7 *218:9 *218:14 1.21477
8 *1192:Z *218:3 4.94663
9 *218:4 *218:5 2.80516
10 *218:7 *218:11 14.2996
11 *218:14 *218:15 4.02319
12 *218:10 *218:15 2.73583
13 *218:2 *218:3 3.56846
14 *218:5 *218:6 2.83023
15 *218:8 *218:9 9.24617
*END

*D_NET *219 0.00299869

*CONN
*I *1193:Z O *C 144.3 55.6 *L 0 *D DEL015
*I *1549:B2 I *C 150.5 45.8 *L 0.000739 *D MOAI22D0

*CAP
1 *1549:B2 0.00026628
2 *1193:Z 0.000233132
3 *219:2 0.00189722
4 *219:3 0.000194137
5 *219:4 0.000407959

*RES
1 *219:2 *219:4 6.07531
2 *219:2 *219:3 9.76795006
3 *1549:B2 *219:4 5.94594
4 *1193:Z *219:3 2.60654
*END

*D_NET *220 0.00238336

*CONN
*I *1194:Z O *C 143.1 6 *L 0 *D DEL015
*I *1432:I I *C 143.3 20.8 *L 0.00105 *D DEL1

*CAP
1 *1194:Z 0.00131156
2 *220:2 0.000467967
3 *220:3 0.000603836

*RES
1 *1432:I *220:3 6.94414
2 *1194:Z *220:2 9.44054985
3 *220:2 *220:3 3.27112
*END

*D_NET *221 0.00229265

*CONN
*I *1195:Z O *C 145.9 9.6 *L 0 *D DEL015
*I *1431:I I *C 139.7 17.2 *L 0.00105 *D DEL1

*CAP
1 *1195:Z 0.00057359
2 *221:2 3.07598e-05
3 *221:4 0.00168831

*RES
1 *221:3 *221:4 5.61974
2 *221:2 *221:4 9.38930035
3 *1195:Z *221:2 5.36314
4 *1431:I *221:3 3.00006
*END

*D_NET *222 0.00418639

*CONN
*I *1196:Z O *C 139.7 31.2 *L 0 *D DEL015
*I *1331:I I *C 144.9 6.4 *L 0.00105 *D DEL1

*CAP
1 *222:2 0.000764386
2 *222:3 0.000301898
3 *222:4 0.00312015

*RES
1 *222:2 *222:4 23.0900993
2 *222:3 *222:4 9.14147
3 *1331:I *222:3 5.77217
4 *1196:Z *222:2 7.55107
*END

*D_NET *223 0.00812673

*CONN
*I *1197:Z O *C 139.9 152.8 *L 0 *D DEL0
*I *1358:I I *C 149.1 114.4 *L 0.00287 *D BUFFD8

*CAP
1 *1358:I 0.000707171
2 *1197:Z 0.000192817
3 *223:2 4.83681e-05
4 *223:4 0.000150547
5 *223:5 0.000543954
6 *223:6 0.000166112
7 *223:7 2.98546e-06
8 *223:8 0.000249668
9 *223:9 0.00119299992
10 *223:10 0.000764732
11 *223:11 0.000382703
12 *223:12 0.000421204
13 *223:13 0.000777348
14 *1197:Z *361:6 0.000358871016
15 *223:4 *384:3 0.000898100938
16 *1197:Z *783:5 0.000880321953
17 *1358:I *488:92 0.000388844023

*RES
1 *223:3 *223:4 2.74276
2 *223:7 *223:8 4.21679
3 *223:9 *223:12 11.6387997
4 *223:2 *223:10 6.67913
5 *223:6 *223:9 5.20102
6 *1197:Z *223:13 6.85832
7 *223:6 *223:8 0.256446
8 *223:11 *223:12 2.7195
9 *1358:I *223:2 11.4504
10 *223:4 *223:13 4.97583
11 *223:10 *223:11 2.46323
12 *223:5 *223:7 0.256446
13 *223:3 *223:5 7.48683
*END

*D_NET *224 0.00523546

*CONN
*I *1198:Z O *C 151.9 132 *L 0 *D DEL0
*I *1365:I I *C 146.5 107.2 *L 0.00287 *D BUFFD8

*CAP
1 *1198:Z 0.000241596
2 *224:2 6.0593e-05
3 *224:3 0.000629343
4 *224:4 0.000168773
5 *224:5 0.000722189
6 *224:6 0.00028245
7 *224:7 0.00103816
8 *224:8 0.000248962
9 *224:9 0.000350346
10 *224:6 *91:8 0.000213222988
11 *224:4 *361:5 0.000511339023
12 *224:5 *882:4 0.000768477031

*RES
1 *224:6 *224:7 0.256469
2 *224:5 *224:6 6.41155
3 *224:4 *224:8 6.69121
4 *1198:Z *224:2 4.91345
5 *224:8 *224:9 5.1993
6 *224:3 *224:4 0.132217
7 *1365:I *224:5 4.62176
8 *224:7 *224:9 11.5997
9 *224:2 *224:3 4.33608
*END

*D_NET *225 0.0052343

*CONN
*I *1199:Z O *C 151.9 128.4 *L 0 *D DEL0
*I *1366:I I *C 146.5 102 *L 0.00287 *D BUFFD8

*CAP
1 *1366:I 0.000177915
2 *1199:Z 0.000104616
3 *225:2 0.000552696
4 *225:3 0.00107058
5 *225:4 0.000237215
6 *225:5 0.000114319
7 *225:6 0.000255953
8 *225:7 0.000136357
9 *225:2 *145:3 0.000264416992
10 *225:3 *50:2 0.000298359004
11 *225:3 *107:4 0.00074495
12 *225:2 *236:2 0.000392441992
13 *225:2 *790:3 0.00088447

*RES
1 *225:6 *225:7 2.06016
2 *225:5 *225:6 3.43377
3 *225:4 *225:5 4.11794
4 *225:3 *225:7 15.6829996
5 *1199:Z *225:2 6.49901
6 *1366:I *225:3 6.44253
7 *225:2 *225:4 5.63751
*END

*D_NET *226 0.00364438

*CONN
*I *1200:Z O *C 151.9 167.2 *L 0 *D DEL0
*I *1465:A[2] I *C 134.265 156.66 *L 0.00555 *D sram00

*CAP
1 *226:2 9.15195e-05
2 *226:3 0.000942742969
3 *226:4 0.000311514
4 *226:5 6.51512e-05
5 *226:6 0.000106768
6 *226:7 0.000729624
7 *226:8 0.000643226
8 *226:9 7.37968e-06
9 *226:10 4.9802e-05
10 *226:11 0.000204243
11 *226:13 0.00017458
12 *226:14 0.000315168
13 *226:15 2.66129e-06

*RES
1 *226:2 *226:3 8.24241
2 *226:12 *226:14 2.48512
3 *226:7 *226:13 2.64277
4 *226:12 *226:13 0.256435
5 *226:5 *226:6 0.327454
6 *226:4 *226:5 0.644628
7 *226:6 *226:7 5.46751
8 *226:8 *226:15 6.52354
9 *226:10 *226:11 2.16682
10 *226:8 *226:9 0.419393
11 *226:9 *226:10 0.073758
12 *226:14 *226:15 0.256435
13 *226:3 *226:4 2.05691
14 *1200:Z *226:2 1.5
15 *1200:Z *1465:A[2] 0.0001
*END

*D_NET *227 0.00143647

*CONN
*I *1201:Z O *C 140.3 150 *L 0 *D DEL0
*I *1465:A[3] I *C 134.265 155 *L 0.00555 *D sram00

*CAP
1 *1201:Z 0.000191589
2 *227:2 5.7492e-05
3 *227:3 0.000414871
4 *227:4 3.17346e-06
5 *227:5 9.25644e-05
6 *227:6 3.72805e-06
7 *227:7 0.000673051016

*RES
1 *227:2 *227:5 2.11355
2 *227:2 *227:3 2.84261
3 *1201:Z *227:4 2.44096
4 *227:6 *227:7 5.77117014
5 *227:3 *227:4 0.256434
6 *227:5 *227:6 0.132004
7 *1201:Z *1465:A[3] 8.80611e-05
*END

*D_NET *228 0.00311842

*CONN
*I *1202:Z O *C 151.7 150 *L 0 *D DEL0
*I *1465:A[4] I *C 134.265 153.41 *L 0.00555 *D sram00

*CAP
1 *228:2 0.000440202
2 *228:4 9.59533e-05
3 *228:5 4.43124e-05
4 *228:6 0.000250973
5 *228:7 0.00159561
6 *228:8 4.92062e-05
7 *228:9 0.000400662
8 *228:10 5.44409e-05
9 *228:11 0.000187061

*RES
1 *228:9 *228:10 0.132006
2 *228:5 *228:11 3.63574
3 *228:2 *228:3 2.31645
4 *228:8 *228:9 2.78037
5 *228:7 *228:8 0.132006
6 *228:6 *228:7 13.132
7 *228:4 *228:5 0.74892
8 *228:3 *228:4 0.256432
9 *228:2 *228:10 2.11355
10 *1202:Z *228:6 1.5
11 *1202:Z *1465:A[4] 0.0001
*END

*D_NET *229 0.00343545

*CONN
*I *1203:Z O *C 148.7 142 *L 0 *D DEL0
*I *1465:A[5] I *C 134.265 151.75 *L 0.00555 *D sram00

*CAP
1 *1203:Z 0.000111738
2 *229:2 5.8087e-05
3 *229:3 0.000206722
4 *229:4 0.000417329
5 *229:5 0.000305666
6 *229:6 0.000142675
7 *229:7 0.000608133
8 *229:8 5.26644e-05
9 *229:9 0.000498918
10 *229:10 0.000147385
11 *229:11 3.84456e-05
12 *229:12 0.000818827969
13 *229:14 2.19654e-05
14 *229:15 6.89697e-06

*RES
1 *229:7 *229:8 0.326402
2 *229:2 *229:3 3.04147
3 *229:12 *229:13 0.256503
4 *229:9 *229:13 2.05775
5 *229:5 *229:6 0.326402
6 *229:4 *229:5 2.3508
7 *229:6 *229:7 3.75292
8 *229:10 *229:11 0.256435
9 *229:8 *229:9 4.30463
10 *229:11 *229:14 0.278181
11 *1203:Z *229:2 1.69449
12 *229:10 *229:12 8.3046
13 *229:14 *229:15 0.419826
14 *229:3 *229:4 2.48907
15 *1203:Z *1465:A[5] 0.0001
*END

*D_NET *230 0.00145126

*CONN
*I *1204:Z O *C 139.9 146.4 *L 0 *D DEL0
*I *1465:A[6] I *C 134.265 150.16 *L 0.00555 *D sram00

*CAP
1 *1204:Z 0.000633593
2 *230:2 3.56736e-05
3 *230:3 0.000136245
4 *230:4 8.20094e-06
5 *230:5 0.000637543008

*RES
1 *230:2 *230:3 1.91954
2 *230:4 *230:5 5.08608
3 *230:3 *230:4 0.0933348
4 *1204:Z *230:2 5.47118998
5 *1204:Z *1465:A[6] 8.34837e-05
*END

*D_NET *231 0.00735059

*CONN
*I *1179:I I *C 137.5 156 *L 0.00104 *D DEL0
*I *1205:Z O *C 151.9 124.8 *L 0 *D DEL0

*CAP
1 *1179:I 2.49367e-05
2 *231:2 0.00029567
3 *231:3 0.000245148
4 *231:4 0.000486617
5 *231:5 0.00177248
6 *231:6 6.86976e-06
7 *231:7 0.000167363
8 *231:8 0.000640403
9 *231:9 0.00029375
10 *231:10 8.78464e-05
11 *231:11 0.000553854
12 *231:12 0.000312006
13 *231:13 0.000706585
14 *231:4 *108:2 0.000253973008
15 *231:3 *366:5 0.000887043984
16 *231:3 *384:4 0.000616051016

*RES
1 *231:2 *231:8 5.10082
2 *231:4 *231:7 5.86492
3 *231:11 *231:12 2.33096
4 *231:5 *231:6 12.4846001
5 *1179:I *231:2 0.522541
6 *231:5 *231:13 6.38746
7 *231:8 *231:9 6.88067
8 *231:12 *231:13 4.08603
9 *231:3 *231:6 3.02457
10 *231:10 *231:11 5.07568
11 *231:3 *231:4 0.256413
12 *231:7 *231:9 3.63531
13 *1205:Z *231:10 1.5
*END

*D_NET *232 0.0105498

*CONN
*I *1181:I I *C 141.7 204.4 *L 0.00105 *D DEL1
*I *1206:Z O *C 142.5 121.2 *L 0 *D DEL0

*CAP
1 *1206:Z 0.000120488
2 *232:2 0.000167071
3 *232:3 0.000642254
4 *232:4 0.000261703
5 *232:5 0.000972977
6 *232:6 0.000362302
7 *232:7 0.00228676016
8 *232:8 0.000104891
9 *232:7 *455:11 0.000600987969
10 *232:4 *320:2 0.00121226
11 *232:4 *321:3 0.00112722
12 *232:2 *1267:Z 0.000581091992
13 *1206:Z *785:8 0.00133381
14 *232:3 *789:10 0.000776026016

*RES
1 *232:6 *232:8 0.256257
2 *232:2 *232:6 4.22791
3 *232:5 *232:2 4.19066
4 *232:3 *232:7 5.16752
5 *232:4 *232:5 29.5228
6 *1181:I *232:4 3.58245
7 *1206:Z *232:3 2.99994
8 *232:7 *232:8 42.0903015
*END

*D_NET *233 0.00109377

*CONN
*I *1207:Z O *C 149.5 157.2 *L 0 *D BUFFD1
*I *1765:A1 I *C 144.7 159.6 *L 0.00093 *D NR2D1

*CAP
1 *1207:Z 0.000132728
2 *233:2 0.000961033984

*RES
1 *1765:A1 *233:2 2.47194
2 *1207:Z *233:2 9.5188303
*END

*D_NET *234 0.00279788

*CONN
*I *1208:Z O *C 145.9 34.8 *L 0 *D BUFFD1
*I *1339:I I *C 145.3 19.2 *L 0.00103 *D BUFFD2

*CAP
1 *1339:I 0.000139025
2 *1208:Z 0.0004303
3 *234:2 0.00107925
4 *234:3 9.10368e-05
5 *234:4 0.00105825

*RES
1 *234:3 *234:4 6.9330101
2 *234:2 *234:4 4.63347
3 *1339:I *234:2 4.83732
4 *1208:Z *234:3 4.83627
*END

*D_NET *235 0.00286547

*CONN
*I *1209:Z O *C 146.5 31.2 *L 0 *D BUFFD1
*I *1337:I I *C 145.9 12 *L 0.00103 *D BUFFD2

*CAP
1 *1337:I 0.00046856
2 *1209:Z 0.000169
3 *235:2 0.000235585
4 *235:3 0.000914417969
5 *235:4 5.81985e-05
6 *235:5 0.000182451
7 *235:6 0.000837243

*RES
1 *235:5 *235:6 7.14987
2 *235:4 *235:6 0.256429
3 *235:3 *235:5 2.40958
4 *235:2 *235:3 4.73968
5 *1337:I *235:4 9.9794302
6 *1209:Z *235:2 6.35516
*END

*D_NET *236 0.0080514

*CONN
*I *1167:I I *C 149.1 174 *L 0.00104 *D DEL0
*I *1210:Z O *C 139.9 120.4 *L 0 *D DEL0

*CAP
1 *1167:I 0.000343556
2 *1210:Z 0.000632831
3 *236:2 0.00300962
4 *236:3 0.000288494
5 *236:4 0.000343189
6 *236:5 0.00059205
7 *236:6 0.000178185
8 *236:7 0.000193982
9 *236:8 0.000308241
10 *236:3 *467:12 0.000967122969
11 *236:6 *290:2 0.00022465
12 *236:3 *790:3 0.000577015
13 *236:2 *225:2 0.000392441992

*RES
1 *236:7 *236:2 39.857399
2 *236:6 *236:7 1.8525
3 *236:4 *236:5 3.88503
4 *1210:Z *236:5 6.52755
5 *236:2 *236:8 4.2402
6 *236:3 *236:8 5.58062
7 *236:3 *236:4 2.12192
8 *1167:I *236:6 9.91326
*END

*D_NET *237 0.00908646

*CONN
*I *1211:Z O *C 138.1 73.6 *L 0 *D CKBD1
*I *1334:I I *C 137.5 127.2 *L 0.00072 *D BUFFD1

*CAP
1 *1334:I 0.0001582
2 *237:2 2.61126e-05
3 *237:3 0.000268714
4 *237:4 0.000268602
5 *237:5 0.000204362
6 *237:6 0.000183941
7 *237:7 0.00243773
8 *237:8 0.000650433
9 *237:9 3.27337e-06
10 *237:10 0.000482227
11 *237:11 0.000120631
12 *237:5 *99:2 0.0037439
13 *237:7 *397:3 0.000244841992
14 *1334:I *783:3 0.000293518984

*RES
1 *237:5 *237:7 37.0298996
2 *237:2 *237:3 13.1104
3 *1334:I *237:2 2.22227
4 *237:9 *237:10 4.42307
5 *237:7 *237:9 0.256524
6 *237:5 *237:6 4.80616
7 *237:3 *237:4 2.26634
8 *1211:Z *237:11 2.99975
9 *237:8 *237:11 5.98594
10 *237:8 *237:10 0.256524
11 *237:4 *237:6 2.78617
*END

*D_NET *238 0.00188017

*CONN
*I *1212:Z O *C 139.3 49.2 *L 0 *D BUFFD1
*I *1341:I I *C 140.3 40.8 *L 0.00103 *D BUFFD2

*CAP
1 *1341:I 0.00015383
2 *238:2 0.00137309
3 *238:3 7.19492e-05
4 *238:4 0.000281302

*RES
1 *238:3 *238:4 3.77705
2 *238:2 *238:3 9.85793018
3 *1341:I *238:2 2.31421
4 *1212:Z *238:4 1.49999
*END

*D_NET *239 0.00621106

*CONN
*I *1213:Z O *C 138.1 62.8 *L 0 *D CKBD1
*I *1340:I I *C 137.5 102 *L 0.00103 *D BUFFD2

*CAP
1 *1340:I 2.03106e-05
2 *239:2 0.00034295
3 *239:3 6.14801e-05
4 *239:4 0.000116723
5 *239:5 1.66095e-05
6 *239:6 0.000321451
7 *239:7 0.000518046
8 *239:8 0.00149725
9 *239:9 0.000309023
10 *239:3 *479:2 0.000896996016
11 *239:2 *1098:I 0.000441689023
12 *239:3 *511:4 0.000218770996
13 *239:4 *154:3 0.00144976

*RES
1 *239:7 *239:8 2.00664
2 *239:4 *239:8 17.8290997
3 *239:2 *239:5 1.24545
4 *1340:I *239:3 0.512543
5 *239:6 *239:7 9.07098
6 *239:4 *239:9 4.3724
7 *239:5 *239:6 5.18909
8 *239:3 *239:2 6.43671
9 *1213:Z *239:9 2.9999
*END

*D_NET *240 0.00559274

*CONN
*I *1214:Z O *C 138.1 66.4 *L 0 *D CKBD1
*I *1338:I I *C 137.5 107.2 *L 0.00103 *D BUFFD2

*CAP
1 *1338:I 0.000266022
2 *240:2 0.000521892
3 *240:5 0.00110275
4 *240:6 0.000209082
5 *240:7 1.40767e-05
6 *240:8 0.000409363
7 *240:9 1.60394e-06
8 *240:10 0.00138308
9 *240:11 9.96763e-05
10 *240:10 *506:2 0.000198282012
11 *240:10 *508:2 0.000242908008
12 *1338:I *99:2 0.000320735
13 *240:2 *496:8 0.000277177988
14 *1338:I *172:5 0.000546108008

*RES
1 *240:9 *240:10 12.216
2 *240:6 *240:8 0.256533
3 *240:3 *240:5 15.8605003
4 *1214:Z *240:11 2.99998
5 *1338:I *240:3 3.44383
6 *240:7 *240:8 4.21633
7 *240:4 *240:2 7.91137
8 *240:4 *240:5 0.450868
9 *240:10 *240:11 5.29716
10 *240:6 *240:9 2.54887
11 *240:2 *240:7 0.45111
*END

*D_NET *241 0.00783219

*CONN
*I *1215:Z O *C 138.1 67.2 *L 0 *D CKBD1
*I *1336:I I *C 140.1 118 *L 0.00103 *D BUFFD2

*CAP
1 *1336:I 0.00031183
2 *1215:Z 9.2509e-05
3 *241:2 0.000531513
4 *241:3 0.000912352031
5 *241:4 0.000333019
6 *241:5 0.000476884
7 *241:6 4.11662e-05
8 *241:7 0.00065348
9 *241:8 1.92118e-06
10 *241:9 0.00026568
11 *241:10 0.000217636
12 *241:11 0.000183904
13 *241:12 0.000454025
14 *241:6 *242:3 0.000879615
15 *241:4 *371:3 0.000440781016
16 *241:2 *806:4 0.000280593984
17 *241:3 *87:2 0.00175527

*RES
1 *241:6 *241:7 10.6137
2 *241:7 *241:8 0.256588
3 *241:4 *241:3 16.2313995
4 *241:6 *241:3 0.256588
5 *1336:I *241:4 7.81354
6 *241:5 *241:12 6.13111
7 *241:8 *241:2 7.7224
8 *241:10 *241:11 3.31459
9 *241:11 *241:12 5.1907
10 *241:2 *241:9 5.3185
11 *241:9 *241:10 3.11274
12 *1215:Z *241:5 3.00004
*END

*D_NET *242 0.00661936

*CONN
*I *1216:Z O *C 138.1 77.2 *L 0 *D CKBD1
*I *1335:I I *C 140.1 123.6 *L 0.00103 *D BUFFD2

*CAP
1 *1335:I 0.000289596
2 *242:2 0.000151653
3 *242:3 0.00119640992
4 *242:4 0.00029164
5 *242:5 0.00036921
6 *242:6 0.000333958
7 *242:7 2.95748e-06
8 *242:8 0.000707057
9 *242:9 0.000322694
10 *242:10 0.00040125
11 *242:2 *464:7 0.000262957988
12 *242:5 *392:2 0.000544356992
13 *242:5 *784:3 0.000531840977
14 *242:2 *1210:I 0.000334166992
15 *242:3 *241:6 0.000879615

*RES
1 *242:6 *242:3 21.7567005
2 *242:5 *242:2 8.10399
3 *242:4 *242:10 4.78185
4 *1335:I *242:5 8.27363
5 *242:9 *242:10 3.63453
6 *242:8 *242:9 3.52331
7 *242:7 *242:8 8.3304
8 *242:3 *242:7 0.256621
9 *242:2 *242:6 2.22494
10 *1216:Z *242:4 1.49989
*END

*D_NET *243 0.00921729

*CONN
*I *1217:Z O *C 140.3 113.2 *L 0 *D DEL0
*I *1550:B2 I *C 143.3 49.4 *L 0.000739 *D MOAI22D0

*CAP
1 *1550:B2 0.000275906
2 *243:2 0.000667056
3 *243:3 0.000324817
4 *243:4 0.000262679
5 *243:5 0.000101318
6 *243:6 0.000863348
7 *243:7 0.000339873
8 *243:9 0.000540843
9 *243:10 0.000145176
10 *243:11 1.34422e-06
11 *243:12 0.00117458
12 *243:13 0.000280709
13 *243:9 *36:9 0.000657366953
14 *243:2 *798:4 0.000460756016
15 *1550:B2 *253:2 0.000201715996
16 *243:4 *335:2 0.000510034023
17 *243:5 *799:5 0.000977161016
18 *1550:B2 *803:4 0.000363759023
19 *243:3 *805:6 0.000860708984
20 *243:2 *32:4 0.000208147012

*RES
1 *243:5 *243:7 3.63427
2 *243:2 *243:11 0.256585
3 *243:8 *243:2 11.0271
4 *243:5 *243:6 0.451042
5 *243:3 *243:4 4.60802
6 *243:9 *243:10 10.5193
7 *243:8 *243:9 0.256585
8 *243:11 *243:12 15.9587
9 *243:4 *243:6 16.0300999
10 *243:7 *243:10 0.451042
11 *243:12 *243:13 5.16986
12 *1550:B2 *243:13 6.4978
13 *1217:Z *243:3 1.49989
*END

*D_NET *244 0.00256639

*CONN
*I *1218:Z O *C 142.5 109.6 *L 0 *D DEL0
*I *1355:I I *C 142.9 96.4 *L 0.00287 *D BUFFD8

*CAP
1 *1355:I 0.000514105
2 *1218:Z 0.000346077
3 *244:2 0.000672762
4 *244:3 0.000148461
5 *244:4 0.000884975

*RES
1 *1218:Z *244:2 3.45724
2 *244:3 *244:4 5.55082989
3 *244:2 *244:3 5.1724
4 *1355:I *244:4 5.03501
*END

*D_NET *245 0.00278574

*CONN
*I *1219:Z O *C 145.9 103.2 *L 0 *D DEL0
*I *1344:I I *C 137.7 96.4 *L 0.00287 *D BUFFD8

*CAP
1 *1344:I 0.000936881
2 *245:2 0.00085103
3 *245:3 0.00099089
4 *245:4 6.94009e-06

*RES
1 *245:3 *245:4 7.77200985
2 *1219:Z *245:2 3.70409
3 *245:2 *245:4 4.55071
4 *1344:I *245:3 7.66421
*END

*D_NET *246 0.00492544

*CONN
*I *1220:Z O *C 142.5 103.2 *L 0 *D DEL0
*I *1371:I I *C 140.3 74.8 *L 0.00287 *D BUFFD8

*CAP
1 *1220:Z 0.0001481
2 *246:2 0.000442738
3 *246:3 0.00249504
4 *246:4 0.000386277
5 *246:5 0.000495163
6 *246:6 0.000817479
7 *246:7 0.000140714

*RES
1 *246:4 *246:5 3.19999
2 *246:6 *246:7 1.24566
3 *1220:Z *246:2 6.87009
4 *246:4 *246:6 6.75001
5 *246:3 *246:7 17.6053009
6 *246:2 *246:5 5.13873
7 *1371:I *246:3 3.19435
*END

*D_NET *247 0.00559336

*CONN
*I *1221:Z O *C 139.9 6 *L 0 *D DEL0
*I *1362:I I *C 141.5 46 *L 0.00287 *D BUFFD8

*CAP
1 *1221:Z 0.000682918
2 *247:2 0.0020653
3 *247:3 0.000438019
4 *247:4 0.000294786
5 *247:6 0.000620961
6 *247:7 2.71024e-06
7 *247:2 *218:7 0.000619443008
8 *1221:Z *462:8 0.000628862969
9 *247:3 *513:4 0.000240330996

*RES
1 *247:5 *247:3 6.74554
2 *1362:I *247:4 4.01688
3 *1221:Z *247:2 7.29732
4 *247:3 *247:7 0.256437
5 *247:5 *247:6 0.256437
6 *247:2 *247:7 24.7509003
7 *247:4 *247:6 9.06745
*END

*D_NET *248 0.00620434

*CONN
*I *1222:Z O *C 140.3 98.8 *L 0 *D DEL0
*I *1343:I I *C 138.3 59.2 *L 0.00373 *D CKBD12

*CAP
1 *1343:I 0.000509583
2 *248:2 0.000897516
3 *248:3 0.000350701
4 *248:4 0.000467457
5 *248:5 0.000139592
6 *248:6 8.79242e-05
7 *248:7 6.07733e-06
8 *248:8 0.00135931
9 *248:8 *492:67 0.000590336016
10 *248:3 *301:36 0.000233188008
11 *248:4 *487:2 0.000877311016
12 *248:4 *463:4 0.000318861016
13 *248:2 *515:3 0.000366505

*RES
1 *248:2 *248:8 10.2673
2 *248:6 *248:7 2.72357
3 *248:4 *248:7 11.8719
4 *248:3 *248:4 3.98192
5 *1343:I *248:3 4.54
6 *1222:Z *248:5 3.00005
7 *248:6 *248:8 3.53166
8 *248:5 *248:2 13.9917002
*END

*D_NET *249 0.00709013

*CONN
*I *1223:Z O *C 144.9 12.4 *L 0 *D DEL0
*I *1350:I I *C 140.7 56.8 *L 0.00287 *D BUFFD8

*CAP
1 *1350:I 0.000143838
2 *1223:Z 0.000772874
3 *249:2 0.000420138
4 *249:3 0.000719287
5 *249:4 0.00313275
6 *249:2 *357:3 0.000529443008
7 *249:2 *464:6 0.000380281016
8 *249:2 *485:3 0.00022574
9 *249:2 *197:4 0.000765793984

*RES
1 *249:3 *249:4 9.60726
2 *1350:I *249:2 7.97293
3 *249:2 *249:4 42.1517982
4 *1223:Z *249:3 6.00092
*END

*D_NET *250 0.00483089

*CONN
*I *1224:Z O *C 145.5 13.2 *L 0 *D DEL0
*I *1397:I I *C 146.5 46 *L 0.00287 *D BUFFD8

*CAP
1 *1397:I 0.000335423
2 *1224:Z 0.000300936
3 *250:2 0.0003132
4 *250:3 0.00239925
5 *250:4 0.000906615
6 *250:6 0.000575476

*RES
1 *250:4 *250:6 0.256626
2 *250:2 *250:4 9.06289
3 *250:5 *250:6 3.69559
4 *250:3 *250:5 19.8796997
5 *1224:Z *250:3 5.03454
6 *1397:I *250:2 6.36681
*END

*D_NET *251 0.00762067

*CONN
*I *1225:Z O *C 145.5 16 *L 0 *D DEL0
*I *1356:I I *C 141.1 62.4 *L 0.00287 *D BUFFD8

*CAP
1 *1356:I 0.000206857
2 *251:2 0.000145886
3 *251:3 0.00109514
4 *251:4 0.001196
5 *251:5 0.000160893
6 *251:6 0.000129538
7 *251:7 0.000297384
8 *251:8 0.000569819
9 *251:9 0.00199888
10 *251:10 2.83659e-06
11 *251:11 2.83659e-06
12 *251:2 *195:2 0.000318385
13 *1356:I *87:4 0.000304955996
14 *251:3 *129:4 0.000453128008
15 *251:4 *805:9 0.000387985
16 *251:4 *196:2 0.000350176992

*RES
1 *251:8 *251:9 0.25655
2 *251:2 *251:10 0.25655
3 *251:6 *251:2 4.60667
4 *251:5 *251:7 6.25867
5 *251:9 *251:10 21.0429001
6 *251:6 *251:7 0.25655
7 *1225:Z *251:4 3.97123
8 *251:8 *251:11 2.14134
9 *251:4 *251:11 10.0366
10 *251:3 *251:5 10.3082
11 *1356:I *251:3 6.70434
*END

*D_NET *252 0.00283704

*CONN
*I *1226:Z O *C 139.9 19.6 *L 0 *D DEL0
*I *1379:I I *C 141.1 35.2 *L 0.00287 *D BUFFD8

*CAP
1 *252:2 0.000692498
2 *252:3 5.58935e-06
3 *252:4 0.000594422
4 *252:5 0.000518771
5 *252:6 0.000747546953
6 *252:7 0.000278213

*RES
1 *252:6 *252:7 2.59277
2 *252:5 *252:6 5.15125
3 *252:2 *252:3 0.2564
4 *1379:I *252:2 5.74870014
5 *252:3 *252:4 3.82644
6 *252:4 *252:5 3.71004
7 *1226:Z *252:7 2.99996
*END

*D_NET *253 0.00664844

*CONN
*I *1227:Z O *C 143.9 19.6 *L 0 *D DEL0
*I *1386:I I *C 145.7 62.4 *L 0.00287 *D BUFFD8

*CAP
1 *1227:Z 5.29029e-05
2 *253:2 0.00184899
3 *253:3 0.000336955
4 *253:4 4.97039e-05
5 *253:5 0.00225422
6 *253:6 0.000171986
7 *253:3 *803:4 0.00152583
8 *253:2 *1550:B2 0.000201715996
9 *253:3 *798:4 0.000206108008

*RES
1 *253:4 *253:5 1.69415
2 *1386:I *253:3 5.24883
3 *1227:Z *253:4 1.75659
4 *253:2 *253:6 1.84644
5 *253:5 *253:6 26.4036999
6 *253:3 *253:2 21.9909
*END

*D_NET *254 0.00245649

*CONN
*I *1228:Z O *C 151.7 44.8 *L 0 *D DEL0
*I *1363:I I *C 149.1 55.2 *L 0.00287 *D BUFFD8

*CAP
1 *1363:I 0.000334075
2 *254:2 0.00107427
3 *254:3 0.000652299
4 *254:4 0.000322388
5 *254:5 7.34703e-05

*RES
1 *254:2 *254:4 5.4389
2 *1228:Z *254:5 2.99995
3 *1363:I *254:3 8.09473991
4 *254:3 *254:4 1.89708
5 *254:2 *254:5 4.22128
*END

*D_NET *255 0.00542109

*CONN
*I *1229:Z O *C 142.7 49.2 *L 0 *D DEL0
*I *1380:I I *C 140.3 82 *L 0.00287 *D BUFFD8

*CAP
1 *1380:I 4.24764e-06
2 *255:2 0.000435438
3 *255:3 0.000775828
4 *255:4 0.00180759
5 *255:5 3.39259e-06
6 *255:6 0.000492533
7 *255:7 0.000490519
8 *255:9 0.000608129
9 *255:10 7.44716e-06
10 *255:11 0.000447409
11 *255:2 *112:7 0.000173663008
12 *255:3 *492:83 0.000174862988

*RES
1 *255:6 *255:9 1.82421
2 *255:5 *255:3 5.10389
3 *255:2 *255:5 3.30217
4 *255:2 *255:4 0.25647
5 *1380:I *255:11 3.07061
6 *255:9 *255:10 4.0762
7 *255:7 *255:11 3.31041
8 *255:7 *255:8 2.22428
9 *255:4 *255:8 13.1620998
10 *1229:Z *255:6 2.73179
11 *255:3 *255:10 0.25647
*END

*D_NET *256 0.0026693

*CONN
*I *1230:Z O *C 151.9 41.2 *L 0 *D DEL0
*I *1370:I I *C 149.1 53.2 *L 0.00287 *D BUFFD8

*CAP
1 *1370:I 4.71111e-06
2 *1230:Z 1.02023e-05
3 *256:2 0.000939621
4 *256:3 0.000712371
5 *256:4 0.00100241008

*RES
1 *1230:Z *256:2 0.518794
2 *256:3 *256:4 3.72451
3 *256:2 *256:4 13.7818003
4 *1370:I *256:3 5.66342
*END

*D_NET *257 0.00295676

*CONN
*I *1231:Z O *C 148.9 80.8 *L 0 *D DEL0
*I *1354:I I *C 140.5 87.6 *L 0.00287 *D BUFFD8

*CAP
1 *1354:I 0.00103968
2 *1231:Z 0.000871389
3 *257:2 9.10781e-05
4 *257:3 0.000954599

*RES
1 *257:2 *257:3 8.47856
2 *1231:Z *257:2 6.51034
3 *1354:I *257:3 8.6216898
*END

*D_NET *258 0.00723898

*CONN
*I *1232:Z O *C 145.1 311.2 *L 0 *D DEL1
*I *1382:I I *C 140.5 253.6 *L 0.00373 *D CKBD12

*CAP
1 *1382:I 9.58531e-05
2 *258:2 0.000215784
3 *258:3 0.000322865
4 *258:4 0.000631147
5 *258:5 0.000169916
6 *258:6 0.000283289
7 *258:8 0.000969607
8 *258:9 1.46792e-06
9 *258:10 0.00124934992
10 *258:11 1.43932e-05
11 *258:12 8.38238e-05
12 *258:13 0.000101153
13 *258:2 *1753:DA 0.00066216
14 *258:10 *1755:SA 0.00062653
15 *258:5 *749:3 0.000535516992
16 *258:2 *475:35 0.00027092498
17 *258:3 *760:6 0.00100519

*RES
1 *258:7 *258:3 5.77244
2 *258:3 *258:9 0.25633
3 *258:2 *258:11 2.71966
4 *258:5 *258:8 12.1547
5 *258:6 *258:13 8.75811
6 *258:7 *258:8 0.25633
7 *258:9 *258:10 22.6704998
8 *258:11 *258:12 4.47419
9 *1382:I *258:4 1.69434
10 *258:4 *258:6 6.8538
11 *1232:Z *258:5 3.38833
12 *258:2 *258:10 0.25633
13 *258:12 *258:13 2.06102
*END

*D_NET *259 0.00508363

*CONN
*I *1233:Z O *C 145.5 308.4 *L 0 *D DEL1
*I *1381:I I *C 140.9 282.4 *L 0.00373 *D CKBD12

*CAP
1 *259:2 0.000801768
2 *259:3 0.000798301
3 *259:4 0.000805401
4 *259:5 0.000629371
5 *259:6 0.000787299
6 *259:7 8.30897e-05
7 *259:8 0.000340009
8 *259:9 0.000838381016

*RES
1 *259:4 *259:8 6.72407
2 *259:3 *259:7 2.86315
3 *1381:I *259:9 3
4 *1233:Z *259:2 6.9254899
5 *259:7 *259:9 5.50501
6 *259:5 *259:6 5.36668
7 *259:4 *259:5 4.06657
8 *259:3 *259:6 3.14773
9 *259:2 *259:8 4.37007
*END

*D_NET *260 0.0048891

*CONN
*I *1234:Z O *C 145.7 307.6 *L 0 *D DEL1
*I *1372:I I *C 139.5 264.4 *L 0.00373 *D CKBD12

*CAP
1 *1372:I 0.000113196
2 *260:2 5.86605e-05
3 *260:3 0.00115221
4 *260:4 5.42676e-05
5 *260:5 0.00351079

*RES
1 *260:4 *260:5 2.66476
2 *260:2 *260:3 7.02368
3 *1372:I *260:4 4.50026
4 *260:3 *260:5 42.4908981
5 *1234:Z *260:2 1.5003
*END

*D_NET *261 0.00509645

*CONN
*I *1235:Z O *C 141.5 307.6 *L 0 *D DEL1
*I *1389:I I *C 138.5 260.8 *L 0.00373 *D CKBD12

*CAP
1 *1389:I 0.000464198
2 *261:2 0.000139205
3 *261:3 0.000239494
4 *261:4 0.000852234
5 *261:5 0.0032202
6 *1389:I *492:88 0.000181106992

*RES
1 *261:4 *261:5 0.256404
2 *261:3 *261:4 10.2116
3 *1235:Z *261:3 2.99976
4 *261:2 *261:5 37.4247017
5 *1389:I *261:2 6.03263
*END

*D_NET *262 0.00352048

*CONN
*I *1236:Z O *C 142.1 66.4 *L 0 *D DEL0
*I *1353:I I *C 137.9 80.4 *L 0.00287 *D BUFFD8

*CAP
1 *1353:I 7.65486e-05
2 *1236:Z 0.000143748
3 *262:2 8.71154e-05
4 *262:3 2.18154e-05
5 *262:4 0.00319123

*RES
1 *262:2 *262:4 6.73955
2 *1353:I *262:3 2.49201
3 *262:3 *262:4 18.6861
4 *1236:Z *262:2 1.75439
*END

*D_NET *263 0.00686301

*CONN
*I *1237:Z O *C 146.5 304.8 *L 0 *D DEL1
*I *1398:I I *C 144.9 256.8 *L 0.00287 *D BUFFD8

*CAP
1 *263:2 0.000849854
2 *263:3 0.000894615
3 *263:4 0.000519896
4 *263:5 0.000652311
5 *263:7 0.00018826
6 *263:3 *115:6 0.00101398
7 *263:2 *310:3 0.000989386016
8 *263:3 *760:6 0.0017547

*RES
1 *263:6 *263:7 2.5268
2 *1398:I *263:4 5.03289
3 *263:3 *263:5 17.0797
4 *263:3 *263:6 22.2425995
5 *263:4 *263:5 2.98226
6 *263:2 *263:7 8.99703
7 *1237:Z *263:2 1.50013
*END

*D_NET *264 0.00451851

*CONN
*I *1238:Z O *C 143.3 294 *L 0 *D DEL1
*I *1388:I I *C 149.1 276.4 *L 0.00287 *D BUFFD8

*CAP
1 *1388:I 0.000266525
2 *1238:Z 8.66581e-05
3 *264:2 0.000620785
4 *264:3 0.000288295
5 *264:4 0.000329954
6 *264:5 0.00119586
7 *264:7 0.000602738
8 *264:8 0.000157496
9 *264:9 0.00097021

*RES
1 *264:8 *264:9 4.45852
2 *264:2 *264:7 8.24892044
3 *1238:Z *264:2 1.75637
4 *264:6 *264:7 3.31953
5 *264:4 *264:9 5.44444
6 *264:3 *264:5 1.04483
7 *264:5 *264:6 7.12693
8 *264:3 *264:4 2.15877
9 *1388:I *264:8 4.95872
*END

*D_NET *265 0.00429033

*CONN
*I *1239:Z O *C 143.9 293.2 *L 0 *D DEL1
*I *1400:I I *C 143.7 269.2 *L 0.00287 *D BUFFD8

*CAP
1 *1400:I 0.000451585
2 *1239:Z 0.000269527
3 *265:2 0.000886086
4 *265:3 3.6275e-06
5 *265:4 0.000913819
6 *265:5 3.61775e-05
7 *265:6 0.00127811
8 *265:7 0.000451429

*RES
1 *265:4 *265:5 0.450579
2 *1400:I *265:2 6.88731
3 *1239:Z *265:3 3.02803
4 *265:6 *265:7 2.28095
5 *265:5 *265:6 8.96724987
6 *265:3 *265:4 6.79207
7 *265:2 *265:7 6.65798
*END

*D_NET *266 0.00268301

*CONN
*I *1240:Z O *C 141.7 286.8 *L 0 *D DEL1
*I *1373:I I *C 139.5 272.4 *L 0.00373 *D CKBD12

*CAP
1 *266:2 0.00028163
2 *266:3 0.000719388984
3 *266:4 0.000630287
4 *266:5 0.0004972
5 *266:6 0.000554501

*RES
1 *266:2 *266:3 4.67048
2 *1240:Z *266:2 3.04135
3 *266:4 *266:5 0.644784
4 *266:3 *266:4 4.44678
5 *1373:I *266:6 6.84095001
6 *266:5 *266:6 3.302
*END

*D_NET *267 0.00671957

*CONN
*I *1241:Z O *C 143.7 289.6 *L 0 *D DEL1
*I *1403:I I *C 145.9 240.4 *L 0.00287 *D BUFFD8

*CAP
1 *1241:Z 0.000124801
2 *267:2 0.000120906
3 *267:3 0.000611255
4 *267:4 0.000543619
5 *267:5 0.00139475
6 *267:6 0.000117458
7 *267:3 *455:6 0.000212341992
8 *267:4 *316:2 0.00153951
9 *267:3 *318:2 0.00172309
10 *267:5 *319:2 0.000331862969

*RES
1 *267:5 *267:6 2.30121
2 *267:4 *267:5 43.2499008
3 *267:3 *267:6 4.63939
4 *267:2 *267:3 4.54963
5 *1241:Z *267:4 5.09277
6 *1403:I *267:2 1.50005
*END

*D_NET *268 0.00472912

*CONN
*I *1242:Z O *C 142.1 286 *L 0 *D DEL1
*I *1402:I I *C 141.9 242.4 *L 0.00287 *D BUFFD8

*CAP
1 *268:2 0.000278196
2 *268:3 0.000653753
3 *268:4 0.00125553
4 *268:5 0.0010322
5 *268:6 0.000338601
6 *268:8 0.000247792
7 *268:9 0.000923059

*RES
1 *1242:Z *268:2 3.38839
2 *268:4 *268:5 0.256274
3 *1402:I *268:3 3
4 *268:8 *268:9 11.2205
5 *268:7 *268:9 0.256274
6 *268:6 *268:8 2.00468
7 *268:4 *268:6 13.7440004
8 *268:3 *268:7 7.2971
9 *268:2 *268:5 10.5993
*END

*D_NET *269 0.00408181

*CONN
*I *1243:Z O *C 141.9 271.6 *L 0 *D DEL1
*I *1401:I I *C 145.9 251.2 *L 0.00287 *D BUFFD8

*CAP
1 *1401:I 0.000184043
2 *1243:Z 0.000284238
3 *269:2 0.000955211
4 *269:3 0.000456155
5 *269:4 0.000494012
6 *269:5 0.0010768
7 *269:6 0.000631358

*RES
1 *269:4 *269:5 3.29318
2 *269:2 *269:3 8.87790966
3 *1401:I *269:6 7.70098
4 *269:5 *269:6 6.85161
5 *269:3 *269:4 3.71245
6 *1243:Z *269:2 3.28343
*END

*D_NET *270 0.00289068

*CONN
*I *1244:Z O *C 151.9 297.6 *L 0 *D DEL1
*I *1387:I I *C 147.7 286 *L 0.00373 *D CKBD12

*CAP
1 *1387:I 7.40327e-06
2 *270:2 0.000661742
3 *270:3 0.000268679
4 *270:4 0.0010045
5 *270:5 0.000518919
6 *270:6 0.000347187
7 *270:7 8.2233e-05

*RES
1 *270:4 *270:5 8.11260986
2 *270:2 *270:4 3.47957
3 *270:2 *270:3 4.6927
4 *270:5 *270:6 4.74742
5 *270:3 *270:7 3.83014
6 *1244:Z *270:7 3.00002
7 *1387:I *270:6 2.01775
*END

*D_NET *271 0.00300994

*CONN
*I *1245:Z O *C 144.7 214 *L 0 *D DEL1
*I *1374:I I *C 145.9 228 *L 0.00287 *D BUFFD8

*CAP
1 *1374:I 0.00027626
2 *271:2 0.00112034
3 *271:3 0.000399876
4 *271:4 0.00100631
5 *271:5 0.000207161

*RES
1 *1374:I *271:2 10.3760004
2 *271:4 *271:5 4.6193
3 *271:3 *271:4 4.82385
4 *271:2 *271:3 2.74013
5 *1245:Z *271:5 1.49997
*END

*D_NET *272 0.00337773

*CONN
*I *1246:Z O *C 144.9 221.2 *L 0 *D DEL1
*I *1404:I I *C 149.1 236.8 *L 0.00287 *D BUFFD8

*CAP
1 *1404:I 0.000287122
2 *272:3 0.000441852
3 *272:4 0.00187921
4 *272:5 9.08134e-05
5 *272:6 0.000678735

*RES
1 *272:5 *272:6 5.50457
2 *272:4 *272:5 0.256465
3 *272:2 *272:4 13.2867002
4 *272:2 *272:3 2.93363
5 *1246:Z *272:6 2.99993
6 *1404:I *272:3 3.26612
*END

*D_NET *273 0.00339351

*CONN
*I *1247:Z O *C 148.7 222 *L 0 *D DEL1
*I *1396:I I *C 144.5 236.4 *L 0.00373 *D CKBD12

*CAP
1 *1396:I 0.000371798
2 *1247:Z 0.000288621
3 *273:2 8.79461e-05
4 *273:3 0.00041702
5 *273:4 0.00036771
6 *273:5 0.00186041

*RES
1 *273:3 *273:5 10.3022003
2 *1396:I *273:4 7.76894
3 *273:3 *273:4 2.96053
4 *273:2 *273:5 4.89565
5 *1247:Z *273:2 2.89891
*END

*D_NET *274 0.00254505

*CONN
*I *1248:Z O *C 151.9 294 *L 0 *D DEL1
*I *1399:I I *C 147.7 283.2 *L 0.00373 *D CKBD12

*CAP
1 *1399:I 6.41566e-06
2 *274:2 0.000220637
3 *274:3 0.000590520039
4 *274:4 0.000527111
5 *274:5 0.000386102
6 *274:6 0.000341562
7 *274:7 0.000472704

*RES
1 *274:4 *274:5 2.65646
2 *274:3 *274:6 4.15004
3 *274:3 *274:5 3.84305
4 *274:2 *274:7 4.9951
5 *1248:Z *274:2 2.47209
6 *1399:I *274:6 1.98825
7 *274:4 *274:7 5.18120003
*END

*D_NET *275 0.0017939

*CONN
*I *1249:Z O *C 144.9 224.8 *L 0 *D DEL1
*I *1390:I I *C 149.1 218.8 *L 0.00287 *D BUFFD8

*CAP
1 *1390:I 0.000276367
2 *1249:Z 9.1468e-05
3 *275:2 0.000699121
4 *275:3 0.000726941016

*RES
1 *275:2 *275:3 6.45763
2 *1390:I *275:2 7.82659006
3 *1249:Z *275:3 3.00006
*END

*D_NET *276 0.00187678

*CONN
*I *1250:Z O *C 151.9 301.2 *L 0 *D DEL1
*I *1395:I I *C 149.1 290.8 *L 0.00287 *D BUFFD8

*CAP
1 *1395:I 0.000827566953
2 *1250:Z 8.70439e-05
3 *276:2 0.000683458
4 *276:4 0.000268519
5 *276:5 1.02033e-05

*RES
1 *276:2 *276:4 3.1387
2 *1395:I *276:3 6.96951008
3 *276:3 *276:4 2.14341
4 *276:2 *276:5 4.21823
5 *1250:Z *276:5 3.00003
*END

*D_NET *277 0.00201501

*CONN
*I *1251:Z O *C 148.7 211.2 *L 0 *D DEL1
*I *1375:I I *C 145.9 202.8 *L 0.00287 *D BUFFD8

*CAP
1 *1375:I 0.000499625
2 *277:2 0.000890431016
3 *277:3 0.000219255
4 *277:4 0.000405697

*RES
1 *277:2 *277:4 7.26223993
2 *1375:I *277:2 4.95755
3 *277:3 *277:4 4.02406
4 *1251:Z *277:3 1.49996
*END

*D_NET *278 0.00196767

*CONN
*I *1252:Z O *C 144.7 232.8 *L 0 *D DEL1
*I *1391:I I *C 149.1 226 *L 0.00287 *D BUFFD8

*CAP
1 *1391:I 9.1835e-05
2 *1252:Z 0.000282756
3 *278:2 0.00110775008
4 *278:3 0.000485324

*RES
1 *278:2 *278:3 8.99921989
2 *1391:I *278:2 1.38608
3 *1252:Z *278:3 8.44336
*END

*D_NET *279 0.00303344

*CONN
*I *1253:Z O *C 144.9 229.2 *L 0 *D DEL1
*I *1405:I I *C 149.1 217.2 *L 0.00287 *D BUFFD8

*CAP
1 *1405:I 3.34292e-06
2 *1253:Z 9.54168e-05
3 *279:2 7.784e-05
4 *279:3 0.000991303047
5 *279:4 0.00078675
6 *279:5 0.000540267
7 *279:6 0.000538542

*RES
1 *279:3 *279:5 5.35871
2 *279:2 *279:4 5.70695019
3 *1405:I *279:3 2.69908
4 *279:2 *279:6 5.11628
5 *279:4 *279:5 3.28165
6 *1253:Z *279:6 3.00003
*END

*D_NET *280 0.00193234

*CONN
*I *1254:Z O *C 145.5 207.6 *L 0 *D DEL1
*I *1392:I I *C 149.1 199.2 *L 0.00287 *D BUFFD8

*CAP
1 *1392:I 0.000194315
2 *280:2 0.000579278
3 *280:3 3.55285e-05
4 *280:4 0.000719296016
5 *280:5 0.00040393

*RES
1 *280:3 *280:5 3.41966
2 *280:2 *280:4 5.1504302
3 *1392:I *280:2 2.21394
4 *280:3 *280:4 4.82688
5 *1254:Z *280:5 2.99999
*END

*D_NET *281 0.0035944

*CONN
*I *1255:Z O *C 143.9 236.4 *L 0 *D DEL1
*I *1368:I I *C 145.9 218.8 *L 0.00287 *D BUFFD8

*CAP
1 *1255:Z 0.000250538
2 *281:2 0.00126802
3 *281:4 0.00141458
4 *281:5 0.000661281

*RES
1 *281:4 *281:5 10.9000998
2 *281:2 *281:5 5.54369
3 *1255:Z *281:3 3.44287
4 *281:2 *281:3 7.93973
5 *1368:I *281:4 1.50006
*END

*D_NET *282 0.00118435

*CONN
*I *1256:Z O *C 148.7 214.8 *L 0 *D DEL1
*I *1393:I I *C 149.1 208 *L 0.00287 *D BUFFD8

*CAP
1 *1393:I 0.00021254
2 *1256:Z 0.000368359
3 *282:2 0.00060345

*RES
1 *1256:Z *282:2 7.29257011
2 *1393:I *282:2 3.08546
*END

*D_NET *283 0.00226377

*CONN
*I *1257:Z O *C 148.7 206.8 *L 0 *D DEL1
*I *1376:I I *C 149.1 193.6 *L 0.00287 *D BUFFD8

*CAP
1 *1376:I 0.000934072969
2 *1257:Z 0.000667228
3 *283:2 0.000658405
4 *283:3 4.07637e-06

*RES
1 *1257:Z *283:2 6.24022
2 *283:2 *283:3 3.77315
3 *1376:I *283:3 7.63625002
*END

*D_NET *284 0.00260339

*CONN
*I *1258:Z O *C 144.9 200.4 *L 0 *D DEL1
*I *1383:I I *C 149.1 190 *L 0.00287 *D BUFFD8

*CAP
1 *1383:I 0.000282708
2 *1258:Z 0.000300331
3 *284:2 0.00129471008
4 *284:3 5.13656e-06
5 *284:4 0.000575591
6 *284:5 0.00014493

*RES
1 *284:3 *284:4 4.02035
2 *284:2 *284:5 10.6640997
3 *1383:I *284:5 4.55571
4 *1258:Z *284:3 3.26972
5 *284:2 *284:4 0.256449
*END

*D_NET *285 0.00302092

*CONN
*I *1259:Z O *C 142.5 196.8 *L 0 *D DEL1
*I *1369:I I *C 149.1 184.8 *L 0.00287 *D BUFFD8

*CAP
1 *1369:I 0.000521066
2 *1259:Z 0.000569179
3 *285:2 0.00014065
4 *285:3 0.000446569
5 *285:4 0.00134346

*RES
1 *285:3 *285:4 4.24233
2 *285:2 *285:4 7.90724
3 *1369:I *285:2 4.63104
4 *1259:Z *285:3 8.81472015
*END

*D_NET *286 0.00537567

*CONN
*I *1260:Z O *C 140.7 193.2 *L 0 *D DEL1
*I *1384:I I *C 149.1 170.4 *L 0.00287 *D BUFFD8

*CAP
1 *1384:I 0.000205865
2 *286:2 0.000522667
3 *286:3 0.000719616016
4 *286:4 0.000386903
5 *286:5 0.000323907
6 *286:6 0.000569807
7 *286:7 9.95505e-05
8 *286:8 0.000463174
9 *286:9 0.000191524
10 *286:10 0.000452918
11 *286:11 0.000134699
12 *286:12 0.000308797
13 *286:2 *489:39 0.000503498984
14 *286:3 *77:4 0.000196213008
15 *286:2 *556:3 0.000296537988

*RES
1 *286:6 *286:12 5.44757
2 *1384:I *286:9 5.00658
3 *286:9 *286:10 3.05178
4 *286:2 *286:5 4.36686
5 *286:4 *286:7 4.35761
6 *286:3 *286:8 3.93035
7 *1260:Z *286:11 2.99997
8 *286:11 *286:12 6.3812499
9 *286:3 *286:5 2.15801
10 *286:7 *286:8 3.70854
11 *286:2 *286:10 5.60842
12 *286:4 *286:6 1.45783
*END

*D_NET *287 0.00384362

*CONN
*I *1261:Z O *C 145.1 196 *L 0 *D DEL1
*I *1377:I I *C 149.1 177.6 *L 0.00287 *D BUFFD8

*CAP
1 *1377:I 0.000252188
2 *287:2 5.0073e-05
3 *287:3 0.000658401
4 *287:4 0.000173111
5 *287:5 0.000858139
6 *287:6 0.00117113992
7 *287:7 0.00068056

*RES
1 *287:5 *287:6 7.96239996
2 *287:3 *287:4 0.256479
3 *1261:Z *287:7 6.67369
4 *287:4 *287:5 4.00453
5 *287:3 *287:7 6.0922
6 *287:2 *287:6 5.9656
7 *1377:I *287:2 2.66636
*END

*D_NET *288 0.00339722

*CONN
*I *1262:Z O *C 144.7 192.4 *L 0 *D DEL1
*I *1385:I I *C 149.1 181.2 *L 0.00287 *D BUFFD8

*CAP
1 *1385:I 3.11649e-05
2 *1262:Z 0.00014667
3 *288:2 0.000888768047
4 *288:4 0.00075071
5 *288:5 8.58322e-05
6 *288:6 0.000844286
7 *288:7 0.000649783

*RES
1 *288:2 *288:3 5.97226
2 *1385:I *288:7 2.99997
3 *288:5 *288:7 7.03557
4 *288:4 *288:6 7.34454012
5 *288:3 *288:4 5.1908
6 *1262:Z *288:6 2.99997
7 *288:2 *288:5 1.7894
*END

*D_NET *289 0.0040913

*CONN
*I *1263:Z O *C 141.9 188.8 *L 0 *D DEL1
*I *1361:I I *C 149.1 172 *L 0.00287 *D BUFFD8

*CAP
1 *1361:I 0.000120629
2 *289:2 0.000129844
3 *289:3 0.00100501
4 *289:4 0.000469992
5 *289:5 0.000318846
6 *289:7 0.00204697984

*RES
1 *289:4 *289:5 2.33271
2 *289:2 *289:3 7.58353
3 *1361:I *289:4 5.01789
4 *289:6 *289:7 6.55432
5 *289:3 *289:5 0.25642
6 *289:2 *289:7 10.5424995
7 *1263:Z *289:6 1.50007
*END

*D_NET *290 0.00623957

*CONN
*I *1264:Z O *C 150.1 188.8 *L 0 *D DEL1
*I *1342:I I *C 145.3 128.8 *L 0.00287 *D BUFFD8

*CAP
1 *290:2 0.000681651
2 *290:3 0.000525228
3 *290:4 2.62347e-05
4 *290:5 0.000186558
5 *290:6 0.0026906
6 *290:2 *91:12 0.000201665996
7 *290:6 *467:12 0.000691243984
8 *290:2 *236:6 0.00022465
9 *290:2 *341:6 0.00079988
10 *290:2 *481:6 0.000211809004

*RES
1 *290:2 *290:6 58.7258987
2 *290:5 *290:2 3.83346
3 *290:3 *290:6 8.8614
4 *1264:Z *290:4 3.0001
5 *1342:I *290:3 1.50005
6 *290:4 *290:5 1.50005
*END

*D_NET *291 0.00962391

*CONN
*I *1265:Z O *C 147.9 182.4 *L 0 *D DEL1
*I *1346:I I *C 143.3 121.6 *L 0.00287 *D BUFFD8

*CAP
1 *1346:I 2.17196e-05
2 *291:2 0.00300929
3 *291:3 0.00056425
4 *291:4 0.000382412
5 *291:5 0.000490183
6 *291:6 6.53884e-05
7 *291:7 0.000233635
8 *291:8 0.000262793
9 *291:9 0.000104925
10 *291:11 0.000386545
11 *291:6 *455:10 0.000766463984
12 *291:5 *320:2 0.000437559023
13 *291:4 *368:3 0.000354441992
14 *291:3 *785:3 0.000901257969
15 *1346:I *890:5 0.00106523
16 *1346:I *969:3 0.000303667012
17 *291:2 *193:6 0.00027412998

*RES
1 *291:10 *291:11 4.2277
2 *291:7 *291:8 0.256366
3 *291:6 *291:11 2.08472
4 *291:6 *291:7 5.58295
5 *291:5 *291:9 10.2115
6 *1346:I *291:3 0.74987
7 *291:4 *291:5 7.60182
8 *291:3 *291:2 7.79119
9 *1265:Z *291:4 3.44404
10 *291:9 *291:10 0.256366
11 *291:2 *291:8 38.1845016
*END

*D_NET *292 0.00809893

*CONN
*I *1266:Z O *C 145.1 178.8 *L 0 *D DEL1
*I *1345:I I *C 146.3 112.8 *L 0.00287 *D BUFFD8

*CAP
1 *1345:I 0.00026525
2 *292:2 0.000449548
3 *292:3 0.000135614
4 *292:4 0.000984433984
5 *292:5 4.77233e-05
6 *292:6 0.000187649
7 *292:7 0.000140481
8 *292:8 0.000201649
9 *292:9 8.69745e-05
10 *292:11 0.00045392
11 *292:12 0.000914659
12 *292:13 1.67039e-05
13 *292:14 0.000221237
14 *292:15 1.17769e-05
15 *292:4 *36:10 0.00150125
16 *292:6 *83:10 0.000667248047
17 *292:5 *91:12 0.000610418984
18 *292:3 *338:2 0.000281717012
19 *292:2 *351:10 0.000254081016
20 *292:2 *114:3 0.000393032031
21 *1345:I *471:23 0.000273579004

*RES
1 *292:9 *292:12 16.6795998
2 *292:6 *292:10 6.74224
3 *292:12 *292:15 0.256547
4 *292:8 *292:9 0.256547
5 *292:14 *292:15 4.81941
6 *292:13 *292:14 0.256547
7 *292:3 *292:4 8.23036
8 *292:2 *292:5 7.16651
9 *292:3 *292:7 6.27292
10 *292:5 *292:8 16.0731
11 *1345:I *292:4 8.78748
12 *292:11 *292:13 8.12728
13 *292:6 *292:7 4.25771
14 *292:10 *292:11 0.256547
15 *1266:Z *292:2 1.50008
*END

*D_NET *293 0.00908552

*CONN
*I *1267:Z O *C 142.3 174.4 *L 0 *D DEL1
*I *1351:I I *C 145.9 123.6 *L 0.00287 *D BUFFD8

*CAP
1 *1351:I 0.000130059
2 *1267:Z 0.000230835
3 *293:2 0.0019
4 *293:3 0.000254899
5 *293:4 0.000304765
6 *293:5 0.000260089
7 *293:7 0.000772322
8 *293:8 0.000641654
9 *293:9 0.000796037
10 *293:10 0.000312071
11 *293:11 0.000109416
12 *293:2 *107:6 0.00107894
13 *1267:Z *232:2 0.000581091992
14 *293:2 *295:2 0.00062229
15 *293:2 *1270:Z 0.000791398984
16 *293:9 *362:7 0.000299703008

*RES
1 *293:5 *293:7 8.52858
2 *293:6 *293:8 4.71378
3 *293:3 *293:4 3.34186
4 *293:2 *293:3 3.1273
5 *293:4 *293:5 3.34553
6 *293:2 *293:10 20.0872993
7 *293:8 *293:9 4.60252
8 *293:6 *293:7 0.256547
9 *1351:I *293:11 5.24527
10 *293:9 *293:11 6.21935
11 *1267:Z *293:10 15.0094
*END

*D_NET *294 0.0079911

*CONN
*I *1268:Z O *C 146.3 175.2 *L 0 *D DEL1
*I *1359:I I *C 149.1 123.6 *L 0.00287 *D BUFFD8

*CAP
1 *1359:I 0.00014619
2 *1268:Z 0.000226197
3 *294:2 0.00136865
4 *294:3 0.000709877
5 *294:4 6.62449e-05
6 *294:5 0.00117787
7 *294:6 0.000449179
8 *294:5 *91:13 0.00215346
9 *294:2 *467:18 0.000801327969
10 *294:5 *341:3 0.000284975
11 *294:2 *104:6 0.000607133984

*RES
1 *294:4 *294:5 2.85979
2 *294:6 *294:2 35.2291985
3 *294:3 *294:4 3.62205
4 *1359:I *294:3 2.46791
5 *294:5 *294:2 12.6761
6 *1268:Z *294:6 7.08927
*END

*D_NET *295 0.0063471

*CONN
*I *1269:Z O *C 142.1 168 *L 0 *D DEL1
*I *1349:I I *C 145.9 134.4 *L 0.00287 *D BUFFD8

*CAP
1 *1349:I 0.000287334
2 *1269:Z 5.03504e-05
3 *295:2 0.00125369
4 *295:3 7.68455e-05
5 *295:4 0.000163428
6 *295:5 0.000307287
7 *295:6 0.000296229
8 *295:7 0.000597739
9 *295:8 0.000234037
10 *295:9 0.000966108
11 *295:3 *1081:Z 0.000677205
12 *295:2 *492:89 0.000814542031
13 *295:2 *293:2 0.00062229

*RES
1 *295:8 *295:9 5.54037
2 *295:6 *295:7 5.89144
3 *295:2 *295:5 2.92068
4 *295:3 *295:9 5.50652
5 *1349:I *295:3 2.55862
6 *295:5 *295:6 3.18164
7 *295:2 *295:4 14.9890003
8 *1269:Z *295:4 2.95087
9 *295:7 *295:8 2.80998
*END

*D_NET *296 0.00682609

*CONN
*I *1270:Z O *C 142.1 167.2 *L 0 *D DEL1
*I *1360:I I *C 149.1 134.4 *L 0.00287 *D BUFFD8

*CAP
1 *1360:I 0.000472658
2 *1270:Z 0.000253091
3 *296:2 5.5685e-05
4 *296:4 0.000292423
5 *296:5 7.38814e-09
6 *296:6 0.00331284
7 *296:6 *91:14 0.000325905
8 *296:6 *107:7 0.000783023984
9 *296:4 *969:4 0.000327883984
10 *1360:I *488:98 0.000211175996
11 *1270:Z *293:2 0.000791398984

*RES
1 *296:5 *296:6 26.2261009
2 *1270:Z *296:3 3.08017
3 *296:3 *296:4 6.35884
4 *296:2 *296:6 9.97005
5 *1360:I *296:2 5.46284
6 *296:4 *296:5 0.256514
*END

*D_NET *297 0.00544014

*CONN
*I *1271:Z O *C 150.3 168 *L 0 *D DEL1
*I *1347:I I *C 145.5 145.2 *L 0.00287 *D BUFFD8

*CAP
1 *1347:I 0.00029207
2 *1271:Z 7.31556e-05
3 *297:2 0.0013418
4 *297:4 0.000422656
5 *297:5 0.000328862
6 *297:6 0.000234823
7 *297:7 2.10888e-06
8 *297:8 0.00113871
9 *297:9 6.00314e-05
10 *297:2 *335:5 0.000222400996
11 *297:2 *1311:Z 0.000783557031
12 *297:5 *1695:A1 0.00053994

*RES
1 *297:3 *297:5 5.12286
2 *1347:I *297:6 8.97204
3 *297:7 *297:8 10.9212999
4 *297:5 *297:7 0.256468
5 *297:3 *297:4 3.90318
6 *297:2 *297:9 8.52827
7 *297:6 *297:8 0.256468
8 *297:2 *297:4 2.80915
9 *1271:Z *297:9 2.99996
*END

*D_NET *298 0.000772874

*CONN
*I *1272:Z O *C 145.5 48.4 *L 0 *D DEL0
*I *1474:D I *C 141.9 48 *L 0.000971 *D DFCNQD1

*CAP
1 *1474:D 0.000633782969
2 *298:2 0.000139087

*RES
1 *1272:Z *298:2 3.00001
2 *1474:D *298:2 6.69101
*END

*D_NET *299 0.00171783

*CONN
*I *1273:Z O *C 139.9 23.2 *L 0 *D DEL0
*I *1471:D I *C 139.1 33.6 *L 0.000971 *D DFCNQD1

*CAP
1 *1471:D 0.000239752
2 *1273:Z 0.000650249
3 *299:3 0.000827827969

*RES
1 *299:2 *299:3 3.61927
2 *1471:D *299:3 4.95649
3 *1273:Z *299:2 5.70324993
*END

*D_NET *300 0.0026605

*CONN
*I *1274:Z O *C 145.9 27.6 *L 0 *D DEL0
*I *1472:D I *C 139.1 37.2 *L 0.000971 *D DFCNQD1

*CAP
1 *1472:D 1.60771e-06
2 *1274:Z 0.00043256
3 *300:2 0.000471631
4 *300:3 0.000816752031
5 *300:4 0.000362644
6 *300:5 0.000575285

*RES
1 *300:2 *300:4 2.33629
2 *1274:Z *300:5 4.97298
3 *300:3 *300:4 3.96838
4 *1472:D *300:2 6.46317
5 *300:3 *300:5 7.20320988
*END

*D_NET *301 0.027769

*CONN
*I *1275:Z O *C 149.3 13.2 *L 0 *D DEL0
*I *1553:A1 I *C 143.7 6.4 *L 0.000721 *D MOAI22D0
*I *1554:A1 I *C 150.3 12 *L 0.000721 *D MOAI22D0
*I *1554:B1 I *C 149.3 12 *L 0.000689 *D MOAI22D0
*I *1591:A1 I *C 145.3 12 *L 0.000647 *D NR2D0
*I *1582:A1 I *C 139.7 49.6 *L 0.000647 *D NR2D0
*I *1463:I I *C 139.5 139.6 *L 0.000968 *D CKBD1
*I *1613:A1 I *C 137.9 134.4 *L 0.000647 *D NR2D0
*I *1614:A1 I *C 139.5 134.4 *L 0.000647 *D NR2D0
*I *1616:A1 I *C 139.5 130.8 *L 0.000647 *D NR2D0
*I *1617:A1 I *C 139.5 123.6 *L 0.000647 *D NR2D0
*I *1619:A1 I *C 139.5 121.6 *L 0.000647 *D NR2D0
*I *1620:A1 I *C 139.5 118 *L 0.000647 *D NR2D0
*I *1559:A1 I *C 139.5 110.8 *L 0.000647 *D NR2D0
*I *1558:A1 I *C 139.3 109.2 *L 0.000647 *D NR2D0
*I *1561:A1 I *C 139.3 105.6 *L 0.000647 *D NR2D0
*I *1562:A1 I *C 139.1 103.6 *L 0.000647 *D NR2D0
*I *1564:A1 I *C 139.1 94.8 *L 0.000647 *D NR2D0
*I *1565:A1 I *C 139.1 91.2 *L 0.000647 *D NR2D0
*I *1568:A1 I *C 139.1 87.6 *L 0.000647 *D NR2D0
*I *1567:A1 I *C 139.5 84 *L 0.000647 *D NR2D0
*I *1570:A1 I *C 139.5 82 *L 0.000647 *D NR2D0
*I *1571:A1 I *C 139.5 78.4 *L 0.000647 *D NR2D0
*I *1557:A1 I *C 139.5 74.8 *L 0.000647 *D NR2D0
*I *1574:A1 I *C 139.1 71.2 *L 0.000647 *D NR2D0
*I *1576:A1 I *C 139.1 66 *L 0.000647 *D NR2D0
*I *1580:A1 I *C 139.3 56.8 *L 0.000647 *D NR2D0
*I *1577:A1 I *C 139.3 55.2 *L 0.000647 *D NR2D0
*I *1579:A1 I *C 139.3 53.2 *L 0.000647 *D NR2D0
*I *1583:A1 I *C 139.1 42.4 *L 0.000647 *D NR2D0
*I *1585:A1 I *C 139.1 35.2 *L 0.000647 *D NR2D0
*I *1586:A1 I *C 140.1 31.6 *L 0.000647 *D NR2D0
*I *1588:A1 I *C 140.3 22.8 *L 0.000647 *D NR2D0
*I *1605:A1 I *C 140.3 19.2 *L 0.000647 *D NR2D0
*I *1592:A1 I *C 144.5 8.4 *L 0.000647 *D NR2D0
*I *1553:B1 I *C 144.7 6.4 *L 0.000689 *D MOAI22D0

*CAP
1 *1579:A1 7.30413e-05
2 *1562:A1 7.92404e-05
3 *1463:I 0.00044016
4 *1554:A1 0.000263464
5 *1553:A1 0.000304
6 *1275:Z 5.4947e-06
7 *301:36 0.00113712
8 *301:37 0.000383562
9 *301:38 0.00017897
10 *301:39 0.00014085
11 *301:40 0.000792284
12 *301:41 0.000258714
13 *301:42 0.00102558
14 *301:43 0.000621102
15 *301:44 0.000521916
16 *301:45 0.00030557
17 *301:46 9.06726e-05
18 *301:47 0.00041967
19 *301:48 0.000164116
20 *301:49 0.000279223
21 *301:50 0.000352466
22 *301:51 0.000341859
23 *301:52 0.000266885
24 *301:53 0.000903284
25 *301:54 0.000419429
26 *301:55 0.000378692
27 *301:56 0.000632676
28 *301:57 0.000169209
29 *301:58 0.000727696
30 *301:59 0.00039592
31 *301:60 0.000824205
32 *301:61 0.000147813
33 *301:62 0.000522097
34 *301:63 0.000615386
35 *301:64 0.00046554
36 *301:65 0.00131903
37 *301:66 0.000265336
38 *301:67 0.000127002
39 *301:68 0.000583686
40 *301:69 0.000493778
41 *301:70 0.000609207
42 *301:71 0.000549832
43 *301:72 0.000633038
44 *301:73 0.00077427
45 *301:74 0.000463366
46 *301:75 0.000104097
47 *301:76 0.000317123
48 *301:77 0.000584511
49 *301:78 0.000572596
50 *301:79 0.000544821
51 *301:80 0.000555267
52 *301:81 0.000370681
53 *301:82 0.000371728
54 *301:83 0.000616674
55 *301:84 0.000345703
56 *301:85 0.000575917
57 *301:86 0.000783065
58 *301:87 0.000317606
59 *301:88 8.5037e-05
60 *301:89 0.000728682
61 *301:50 *438:2 0.00019586
62 *301:36 *248:3 0.000233188008

*RES
1 *301:58 *301:83 4.88061
2 *301:66 *301:81 1.93396
3 *301:59 *301:61 0.256448
4 *301:51 *301:68 4.22151
5 *301:50 *301:84 1.50107
6 *301:49 *301:66 2.62425
7 *301:56 *301:57 3.98649
8 *301:64 *301:88 4.57011
9 *301:55 *301:62 3.51432
10 *301:49 *301:82 2.72973
11 *301:86 *301:88 3.23453
12 *301:58 *301:67 0.510515
13 *301:52 *301:70 1.85943
14 *301:41 *301:43 2.16064
15 *301:36 *301:84 2.41709
16 *301:62 *301:86 3.19786
17 *301:46 *301:71 3.72362
18 *301:69 *301:70 4.26128
19 *301:69 *301:74 4.78775
20 *301:60 *301:61 6.80885
21 *301:55 *301:68 2.66306
22 *301:40 *301:42 1.58631
23 *1579:A1 *301:50 3.42002
24 *301:52 *301:53 3.77648
25 *301:47 *301:53 3.07333
26 *301:43 *301:64 4.25294
27 *301:38 *301:87 5.16016
28 *301:42 *301:79 6.71075
29 *301:46 *301:47 3.19524
30 *1562:A1 *301:59 1.75751
31 *1591:A1 *301:39 3.76338
32 *301:41 *301:78 3.87006
33 *301:73 *301:89 7.6794
34 *301:54 *301:72 3.38169
35 *1463:I *301:45 5.67115
36 *301:76 *301:77 2.10897
37 *301:44 *301:80 3.70362
38 *301:45 *301:69 4.45867
39 *301:65 *301:71 7.0572
40 *301:59 *301:63 2.62972
41 *301:37 *301:75 0.240971
42 *301:82 *301:83 4.90466
43 *301:78 *301:79 3.7429
44 *301:67 *301:73 5.45137
45 *301:57 *301:60 1.44773
46 *301:54 *301:81 2.3928
47 *1619:A1 *301:46 3.30359
48 *1553:A1 *301:76 5.14206
49 *301:44 *301:51 2.17898
50 *301:50 *301:80 4.95585
51 *301:40 *301:87 6.16214
52 *1275:Z *301:37 2.98809
53 *301:72 *301:85 4.28676
54 *301:56 *301:85 4.14508
55 *301:48 *301:63 5.09253
56 *301:48 *301:65 2.55496
57 *1554:A1 *301:37 10.6772
58 *301:39 *301:77 3.92268
59 *301:36 *301:89 15.6049995
60 *301:38 *301:75 0.883639
61 *1585:A1 *301:86 1.50011
62 *1565:A1 *301:85 1.50011
63 *1564:A1 *301:56 1.50011
64 *1577:A1 *301:84 1.50011
65 *1558:A1 *301:48 1.50011
66 *1557:A1 *301:83 1.50011
67 *1571:A1 *301:82 1.50011
68 *1567:A1 *301:81 1.50011
69 *1617:A1 *301:47 1.50011
70 *1582:A1 *301:80 1.50011
71 *1605:A1 *301:79 1.50011
72 *1588:A1 *301:78 1.50011
73 *1592:A1 *301:77 1.50011
74 *1553:B1 *301:76 1.50011
75 *1554:B1 *301:75 1.50011
76 *1613:A1 *301:74 1.50011
77 *1576:A1 *301:73 1.50011
78 *1568:A1 *301:72 1.50011
79 *1620:A1 *301:71 1.50011
80 *1616:A1 *301:70 1.50011
81 *1614:A1 *301:69 1.50011
82 *1583:A1 *301:68 2.99999
83 *1574:A1 *301:67 2.99999
84 *1580:A1 *301:36 2.99999
85 *1570:A1 *301:66 2.99999
86 *1559:A1 *301:65 2.99999
87 *1586:A1 *301:64 2.99999
88 *1561:A1 *301:63 2.99999
89 *301:39 *301:87 1.50011
*END

*D_NET *302 0.00306241

*CONN
*I *1276:Z O *C 142.5 225.6 *L 0 *D DEL0
*I *1367:I I *C 145.9 208 *L 0.00287 *D BUFFD8

*CAP
1 *302:2 0.000677725
2 *302:3 0.00056053
3 *302:4 3.95275e-05
4 *302:5 0.00168429
5 *302:6 0.000100335

*RES
1 *302:3 *302:5 0.256427
2 *1367:I *302:6 2.99995
3 *1276:Z *302:2 6.06108
4 *302:2 *302:4 0.450746
5 *302:4 *302:5 12.1864996
6 *302:3 *302:6 5.35242
*END

*D_NET *303 0.00364448

*CONN
*I *1277:Z O *C 139.9 70 *L 0 *D DEL0
*I *1348:I I *C 137.7 89.2 *L 0.00287 *D BUFFD8

*CAP
1 *1348:I 0.000173917
2 *303:2 3.07539e-05
3 *303:3 0.00332584
4 *303:4 0.000113982

*RES
1 *303:2 *303:3 22.1016998
2 *1348:I *303:2 1.96681
3 *303:3 *303:4 5.34466
4 *1277:Z *303:4 3.00013
*END

*D_NET *304 0.00452874

*CONN
*I *1278:Z O *C 142.3 70.8 *L 0 *D DEL0
*I *1364:I I *C 146.3 92.8 *L 0.00287 *D BUFFD8

*CAP
1 *1278:Z 9.62639e-05
2 *304:2 0.000257662
3 *304:3 0.00060926
4 *304:4 0.000914305
5 *304:5 3.12007e-06
6 *304:6 0.000824263
7 *304:7 0.00115522
8 *304:8 0.000668665

*RES
1 *304:4 *304:8 3.47567
2 *304:4 *304:6 5.45603
3 *304:2 *304:8 5.98797
4 *1364:I *304:2 1.88898
5 *304:3 *304:6 3.94064
6 *304:3 *304:5 3.1842
7 *1278:Z *304:7 1.75647
8 *304:5 *304:7 7.88007021
*END

*D_NET *305 0.0182735

*CONN
*I *1279:Z O *C 142.5 52.8 *L 0 *D DEL0
*I *1776:I I *C 144.3 153.8 *L 0.00062 *D CKND0
*I *1770:A2 I *C 144.5 123.6 *L 0.000677 *D ND2D0
*I *1768:A2 I *C 145.3 102 *L 0.000606 *D CKND2D0

*CAP
1 *1770:A2 0.000451779
2 *305:4 5.42972e-05
3 *305:5 0.00263974
4 *305:6 0.00131252
5 *305:7 0.000950564
6 *305:8 0.000205709
7 *305:9 0.000537615
8 *305:10 6.30782e-05
9 *305:11 0.000569235
10 *305:12 0.00134313
11 *305:13 0.000447751
12 *305:14 0.000314022
13 *305:15 0.000106701
14 *305:16 0.0013383
15 *305:17 0.000254931
16 *305:14 *196:3 0.000205867012
17 *305:10 *341:2 0.000284323008
18 *305:4 *132:4 0.000447248008
19 *305:5 *1330:Z 0.000668275
20 *305:6 *434:3 0.00132756
21 *1770:A2 *338:2 0.00114037
22 *305:5 *347:3 0.00120557
23 *305:6 *104:4 0.00240487

*RES
1 *305:7 *305:6 6.70272
2 *305:11 *305:12 13.191
3 *1768:A2 *305:9 4.03615
4 *305:4 *305:5 0.799003
5 *305:8 *305:17 4.74756
6 *305:4 *305:16 26.3206
7 *305:10 *305:16 1.5438
8 *305:12 *305:13 6.01164
9 *305:6 *305:15 17.9362
10 *305:14 *305:15 2.28425
11 *305:5 *305:17 31.7161999
12 *305:10 *305:11 10.3464
13 *305:13 *305:14 6.28749
14 *305:9 *305:16 3.53381
15 *1770:A2 *305:5 5.57076
16 *1776:I *305:8 1.49976
17 *1279:Z *305:7 1.49976
*END

*D_NET *306 0.00149729

*CONN
*I *1200:I I *C 149.5 166.8 *L 0.00104 *D DEL0
*I *1280:Z O *C 151.9 160 *L 0 *D DEL1

*CAP
1 *1200:I 3.29453e-06
2 *1280:Z 9.51895e-05
3 *306:2 0.000377141
4 *306:3 0.000380993
5 *306:4 0.000640673984

*RES
1 *306:3 *306:4 2.51226
2 *306:2 *306:3 2.74625
3 *1200:I *306:2 5.78466988
4 *1280:Z *306:4 3.86592
*END

*D_NET *307 0.00176212

*CONN
*I *1201:I I *C 137.9 150.4 *L 0.00104 *D DEL0
*I *1281:Z O *C 144.9 146.4 *L 0 *D DEL1

*CAP
1 *307:2 0.000134923
2 *307:4 0.00162719

*RES
1 *307:3 *307:4 4.76055
2 *307:2 *307:4 8.4207201
3 *1201:I *307:3 2.99998
4 *1281:Z *307:2 2.99998
*END

*D_NET *308 0.00187608

*CONN
*I *1204:I I *C 137.5 146.8 *L 0.00104 *D DEL0
*I *1282:Z O *C 143.9 142.8 *L 0 *D DEL1

*CAP
1 *1204:I 8.02689e-05
2 *1282:Z 0.00016093
3 *308:2 0.00151379
4 *308:3 0.000121108

*RES
1 *308:2 *308:3 8.29887009
2 *1204:I *308:2 5.28278
3 *1282:Z *308:3 3.77701
*END

*D_NET *309 0.00110044

*CONN
*I *1203:I I *C 146.3 141.6 *L 0.00104 *D DEL0
*I *1283:Z O *C 148.3 138.4 *L 0 *D DEL1

*CAP
1 *1283:Z 0.000278574
2 *309:3 0.000821876016

*RES
1 *1283:Z *309:3 5.69156981
2 *309:2 *309:3 5.36824
3 *1203:I *309:2 3.00002
*END

*D_NET *310 0.00711523

*CONN
*I *1284:Z O *C 151.1 311.2 *L 0 *D DEL2
*I *1757:DA I *C 145.9 254.8 *L 0.000721 *D DFXQD1

*CAP
1 *1757:DA 0.000212818
2 *310:2 2.45316e-05
3 *310:3 0.000346308
4 *310:5 0.00276233
5 *310:6 0.000522919
6 *310:8 0.000230437
7 *310:9 0.000546354
8 *310:5 *115:6 0.00104151
9 *310:5 *1446:I 0.000438627969
10 *310:3 *263:2 0.000989386016

*RES
1 *310:7 *310:9 5.45014
2 *310:4 *310:6 9.65746
3 *310:7 *310:8 0.256292
4 *310:4 *310:5 0.256292
5 *310:2 *310:3 5.63352
6 *1757:DA *310:9 7.26432
7 *310:6 *310:8 4.31887
8 *310:3 *310:5 35.6609993
9 *1284:Z *310:2 1.5002
*END

*D_NET *311 0.00664759

*CONN
*I *1285:Z O *C 151.1 308.4 *L 0 *D DEL2
*I *1758:DA I *C 145.9 260.4 *L 0.000721 *D DFXQD1

*CAP
1 *1758:DA 0.000163075
2 *311:2 0.000708386
3 *311:3 0.000141409
4 *311:4 0.000372997
5 *311:5 0.000286876
6 *311:6 0.00237438984
7 *311:7 0.000494914
8 *311:8 0.000427742
9 *311:9 0.000470639
10 *311:10 0.000299629
11 *311:2 *1758:Q 0.000907528984

*RES
1 *311:9 *311:10 4.29938
2 *311:7 *311:8 4.30289
3 *311:2 *311:4 6.06089
4 *311:5 *311:6 0.256594
5 *1758:DA *311:2 1.84616
6 *311:8 *311:9 4.31473
7 *311:5 *311:7 3.90155
8 *311:4 *311:10 7.85837
9 *311:3 *311:6 28.7455997
10 *1285:Z *311:3 4.16516
*END

*D_NET *312 0.00536432

*CONN
*I *1286:Z O *C 151.5 307.6 *L 0 *D DEL2
*I *1759:DA I *C 146.3 264 *L 0.000721 *D DFXQD1

*CAP
1 *312:2 0.000324406
2 *312:3 9.77179e-05
3 *312:4 0.000381875
4 *312:5 0.000611383
5 *312:6 0.000465494
6 *312:7 0.000773177
7 *312:9 8.62242e-05
8 *312:10 0.00141056
9 *312:2 *467:11 0.000279325996
10 *312:2 *1755:CP 0.000219119004
11 *312:2 *750:6 0.000715066016

*RES
1 *312:9 *312:10 19.5709991
2 *312:7 *312:9 0.256224
3 *312:8 *312:10 0.256224
4 *312:2 *312:6 4.04733
5 *312:3 *312:4 4.68879
6 *312:2 *312:8 6.99361
7 *312:5 *312:6 3.29568
8 *312:4 *312:7 10.9887
9 *1759:DA *312:5 5.06297
10 *1286:Z *312:3 1.50002
*END

*D_NET *313 0.00558506

*CONN
*I *1287:Z O *C 151.9 304.8 *L 0 *D DEL2
*I *1761:DA I *C 147.5 271.2 *L 0.000721 *D DFXQD1

*CAP
1 *1287:Z 4.22396e-06
2 *313:2 0.00188311
3 *313:3 0.000696321
4 *313:4 0.000758732
5 *313:5 0.000263121
6 *313:6 0.000528368
7 *313:7 0.000520093
8 *313:2 *747:3 0.000931063984

*RES
1 *313:2 *313:3 23.625
2 *1287:Z *313:2 0.518383
3 *313:6 *313:7 4.95095
4 *313:4 *313:6 11.5991
5 *313:4 *313:5 2.33092
6 *313:3 *313:5 5.74872
7 *1761:DA *313:7 4.16545
*END

*D_NET *314 0.00457604

*CONN
*I *1288:Z O *C 149.3 304 *L 0 *D DEL2
*I *1760:DA I *C 142.9 269.2 *L 0.000721 *D DFXQD1

*CAP
1 *1760:DA 7.80322e-05
2 *1288:Z 0.000156278
3 *314:2 0.000421656
4 *314:3 0.000266617
5 *314:4 0.000821902
6 *314:5 3.09394e-05
7 *314:6 0.00280057

*RES
1 *314:5 *314:6 4.4122
2 *314:4 *314:6 33.9426994
3 *314:3 *314:4 1.76353
4 *1760:DA *314:5 2.99982
5 *314:2 *314:3 4.72192
6 *1288:Z *314:2 6.85214
*END

*D_NET *315 0.00354322

*CONN
*I *1289:Z O *C 142.9 297.6 *L 0 *D DEL2
*I *1763:DA I *C 143.3 276.4 *L 0.000721 *D DFXQD1

*CAP
1 *1763:DA 0.00142349
2 *315:3 0.000408356
3 *315:4 0.00110554
4 *315:5 0.000605822

*RES
1 *1289:Z *315:4 9.0624
2 *315:3 *315:4 0.256344
3 *315:2 *315:5 4.07285
4 *1763:DA *315:2 11.4518003
5 *315:3 *315:5 2.72159
*END

*D_NET *316 0.00749703

*CONN
*I *1290:Z O *C 145.9 296.8 *L 0 *D DEL2
*I *1756:DA I *C 146.1 247.6 *L 0.000721 *D DFXQD1

*CAP
1 *1756:DA 0.000167107
2 *316:2 0.000397701
3 *316:3 0.000278672
4 *316:4 0.000292778
5 *316:5 0.000800167
6 *316:6 0.00125431
7 *316:7 0.000356072
8 *316:8 0.000102052
9 *316:9 0.000533075
10 *316:10 0.000181749
11 *316:2 *527:2 0.00137038
12 *316:4 *319:3 0.000223453008
13 *316:2 *267:4 0.00153951

*RES
1 *316:9 *316:10 2.30701
2 *316:8 *316:9 21.4123001
3 *316:2 *316:7 7.55325
4 *316:7 *316:8 2.30701
5 *316:6 *316:10 9.88443
6 *316:4 *316:5 5.19527
7 *316:3 *316:2 4.22914
8 *316:3 *316:5 1.58299
9 *1756:DA *316:6 6.10683
10 *1290:Z *316:4 3.04312
*END

*D_NET *317 0.00294644

*CONN
*I *1291:Z O *C 151.7 300.4 *L 0 *D DEL2
*I *1762:DA I *C 146.5 278.4 *L 0.000721 *D DFXQD1

*CAP
1 *317:2 8.86372e-05
2 *317:3 0.000517456
3 *317:4 0.000210233
4 *317:5 0.00213012

*RES
1 *317:3 *317:5 21.8978996
2 *317:2 *317:3 5.67262
3 *317:4 *317:5 2.47093
4 *1762:DA *317:4 2.99987
5 *1291:Z *317:2 1.49993
*END

*D_NET *318 0.00720435

*CONN
*I *1292:Z O *C 143.9 290.4 *L 0 *D DEL2
*I *1747:DB I *C 146.3 238.8 *L 0.0011 *D DFXQD1

*CAP
1 *1747:DB 0.000320225
2 *1292:Z 0.000227662
3 *318:2 0.00216261
4 *318:3 0.0005401
5 *318:2 *1754:SA 0.000239180996
6 *1292:Z *319:2 0.000638156016
7 *318:2 *267:3 0.00172309
8 *318:2 *1296:I 0.00135329

*RES
1 *1747:DB *318:2 7.99555
2 *318:2 *318:3 51.3872986
3 *1292:Z *318:3 5.37114
*END

*D_NET *319 0.0063658

*CONN
*I *1293:Z O *C 151.3 296.8 *L 0 *D DEL2
*I *1746:DB I *C 146.1 235.2 *L 0.0011 *D DFXQD1

*CAP
1 *319:2 0.000542211
2 *319:3 0.00101955
3 *319:4 9.42523e-05
4 *319:5 0.000338626
5 *319:6 8.97347e-05
6 *319:7 0.000130036
7 *319:8 0.00212994
8 *319:3 *749:4 0.000206111992
9 *319:2 *267:5 0.000331862969
10 *319:2 *1296:I 0.000621828984
11 *319:3 *316:4 0.000223453008
12 *319:2 *1292:Z 0.000638156016

*RES
1 *319:7 *319:8 3.44306
2 *319:5 *319:7 2.99999
3 *319:3 *319:6 5.56026
4 *319:6 *319:2 3.08726
5 *319:4 *319:3 8.09787
6 *319:2 *319:8 54.9949989
7 *1746:DB *319:5 5.96473
8 *1293:Z *319:4 1.50041
*END

*D_NET *320 0.0062782

*CONN
*I *1294:Z O *C 143.3 171.6 *L 0 *D DEL2
*I *1743:DB I *C 144.1 226 *L 0.0011 *D DFXQD1

*CAP
1 *320:2 0.00227431016
2 *320:3 5.18127e-05
3 *320:4 0.000875853
4 *320:4 *455:12 0.0010977
5 *320:3 *321:3 0.000328696992
6 *320:2 *291:5 0.000437559023
7 *320:2 *232:4 0.00121226

*RES
1 *320:3 *320:2 5.92372
2 *320:4 *320:2 51.9631996
3 *1743:DB *320:4 5.87456
4 *1294:Z *320:3 1.50016
*END

*D_NET *321 0.00689998

*CONN
*I *1295:Z O *C 147.7 174.4 *L 0 *D DEL2
*I *1741:DB I *C 146.5 220.8 *L 0.0011 *D DFXQD1

*CAP
1 *1295:Z 0.000304937
2 *321:2 0.000375547
3 *321:3 0.00234417016
4 *321:4 8.51678e-05
5 *321:5 4.65364e-05
6 *321:6 0.000709314
7 *321:6 *352:10 0.00134529
8 *321:2 *1524:CDN 0.000233100996
9 *321:3 *232:4 0.00112722
10 *321:3 *320:3 0.000328696992

*RES
1 *321:4 *321:3 7.13719
2 *1295:Z *321:4 2.98632
3 *321:5 *321:6 6.90307
4 *321:3 *321:2 39.4420013
5 *321:6 *321:2 8.07425
6 *1741:DB *321:5 3.00016
*END

*D_NET *322 0.00758208

*CONN
*I *1296:Z O *C 149.1 289.6 *L 0 *D DEL2
*I *1745:DB I *C 146.3 233.2 *L 0.0011 *D DFXQD1

*CAP
1 *1745:DB 0.000592069
2 *322:2 0.000508195
3 *322:3 0.000240518
4 *322:4 0.000194825
5 *322:5 0.000228259
6 *322:6 0.00270505
7 *322:7 1.15574e-06
8 *322:8 0.000552567
9 *322:3 *748:3 0.00124247
10 *322:3 *750:3 0.00131698

*RES
1 *322:7 *322:8 5.76612
2 *322:6 *322:7 0.256162
3 *322:4 *322:5 2.2442
4 *1296:Z *322:3 2.99969
5 *322:4 *322:8 2.59689
6 *322:3 *322:6 40.5503006
7 *322:2 *322:5 5.52604
8 *1745:DB *322:2 8.18975
*END

*D_NET *323 0.0010316

*CONN
*I *1297:Z O *C 148.7 171.6 *L 0 *D DEL2
*I *1732:DB I *C 145.3 170.4 *L 0.0011 *D DFXQD1

*CAP
1 *1297:Z 8.58769e-05
2 *323:2 0.000945713984

*RES
1 *1297:Z *323:2 2.2712
2 *1732:DB *323:2 10.5028
*END

*D_NET *324 0.0084205

*CONN
*I *1298:Z O *C 143.7 181.6 *L 0 *D DEL2
*I *1744:DB I *C 146.5 229.6 *L 0.0011 *D DFXQD1

*CAP
1 *1744:DB 0.000284442
2 *1298:Z 0.000632391
3 *324:2 0.000541455
4 *324:3 0.000388597
5 *324:4 0.000493623
6 *324:6 0.000511652
7 *324:7 0.00129694
8 *324:8 0.000646303
9 *324:10 0.000300749
10 *324:11 0.000247692
11 *324:12 0.000494038
12 *324:13 0.000189687
13 *324:14 1.7811e-06
14 *324:15 0.000487626
15 *324:16 0.000406725
16 *324:2 *1735:DA 0.00086334
17 *1298:Z *355:11 0.000633488008

*RES
1 *324:12 *324:13 1.84691
2 *324:11 *324:12 3.6297
3 *324:4 *324:16 4.94638
4 *324:3 *324:9 5.02693
5 *324:4 *324:6 3.78642
6 *324:2 *324:3 3.81954
7 *324:7 *324:11 2.07936
8 *324:14 *324:15 0.450739
9 *1744:DB *324:16 8.48982
10 *324:13 *324:15 3.45431
11 *1298:Z *324:2 8.24096
12 *324:8 *324:14 5.06532
13 *324:5 *324:6 0.256533
14 *324:8 *324:10 2.53206
15 *324:9 *324:10 0.256382
16 *324:5 *324:7 9.86627007
*END

*D_NET *325 0.00279756

*CONN
*I *1299:Z O *C 144.7 239.2 *L 0 *D DEL2
*I *1742:DB I *C 146.5 224.4 *L 0.0011 *D DFXQD1

*CAP
1 *1742:DB 0.000161624
2 *325:2 0.000496542
3 *325:3 0.000810467
4 *325:4 3.85986e-06
5 *325:5 0.000972908047
6 *325:6 4.32453e-05
7 *325:7 0.000308923

*RES
1 *325:6 *325:7 4.16497
2 *1742:DB *325:2 6.88429022
3 *325:5 *325:6 6.28626
4 *325:4 *325:5 0.452013
5 *325:2 *325:3 0.452538
6 *325:3 *325:4 4.95428
7 *1299:Z *325:7 1.49995
*END

*D_NET *326 0.00446478

*CONN
*I *1300:Z O *C 151.7 175.2 *L 0 *D DEL2
*I *1738:DB I *C 146.5 204.4 *L 0.0011 *D DFXQD1

*CAP
1 *326:2 0.000533514
2 *326:3 0.000720666016
3 *326:4 8.76214e-05
4 *326:5 0.000393482
5 *326:6 0.000464048
6 *326:7 0.000471856
7 *326:8 0.00064491
8 *326:9 0.000340292
9 *326:10 0.000425241
10 *326:11 0.000383157

*RES
1 *326:2 *326:4 4.80067
2 *326:10 *326:11 3.90799
3 *326:8 *326:9 5.72682
4 *326:7 *326:9 2.78893
5 *326:6 *326:7 4.10301
6 *326:8 *326:10 3.90275
7 *326:5 *326:6 3.67715
8 *326:4 *326:5 4.94241
9 *326:3 *326:11 8.60079002
10 *1300:Z *326:3 1.50005
11 *1738:DB *326:2 2.99996
*END

*D_NET *327 0.00332559

*CONN
*I *1301:Z O *C 143.1 185.2 *L 0 *D DEL2
*I *1737:DB I *C 146.5 200.8 *L 0.0011 *D DFXQD1

*CAP
1 *1737:DB 4.80765e-05
2 *1301:Z 0.000617286
3 *327:2 0.000825504
4 *327:3 0.000216256
5 *327:4 0.000829567031
6 *327:5 3.41523e-05
7 *327:6 0.000754769

*RES
1 *327:2 *327:3 1.78659
2 *327:5 *327:6 3.89641
3 *327:4 *327:5 0.450781
4 *327:3 *327:4 5.57559
5 *1737:DB *327:2 7.98079
6 *1301:Z *327:6 8.14737988
*END

*D_NET *328 0.000664019

*CONN
*I *1302:Z O *C 146.7 217.6 *L 0 *D DEL2
*I *1740:DB I *C 146.3 213.6 *L 0.0011 *D DFXQD1

*CAP
1 *1740:DB 0.000366785
2 *1302:Z 0.000297234

*RES
1 *1302:Z *1740:DB 8.75668
*END

*D_NET *329 0.000467478

*CONN
*I *1303:Z O *C 144.9 210.4 *L 0 *D DEL2
*I *1739:DB I *C 146.5 210 *L 0.0011 *D DFXQD1

*CAP
1 *1739:DB 0.000108589
2 *329:2 0.000358886992

*RES
1 *1739:DB *329:2 7.8136301
2 *1303:Z *329:2 1.49999
*END

*D_NET *330 0.000607871

*CONN
*I *1304:Z O *C 147.9 196.8 *L 0 *D DEL2
*I *1736:DB I *C 146.7 195.6 *L 0.0011 *D DFXQD1

*CAP
1 *1304:Z 0.000105951
2 *330:2 0.000501916992

*RES
1 *1304:Z *330:2 5.60476017
2 *1736:DB *330:2 4.49999
*END

*D_NET *331 0.000479614

*CONN
*I *1305:Z O *C 143.5 189.6 *L 0 *D DEL2
*I *1735:DB I *C 145.1 190 *L 0.0011 *D DFXQD1

*CAP
1 *1305:Z 0.00040105
2 *331:2 7.85638e-05

*RES
1 *1735:DB *331:2 4.50003
2 *1305:Z *331:2 4.85199022
*END

*D_NET *332 0.00104549

*CONN
*I *1306:Z O *C 147.9 186 *L 0 *D DEL2
*I *1734:DB I *C 144.7 184.8 *L 0.0011 *D DFXQD1

*CAP
1 *1734:DB 0.000306666
2 *1306:Z 0.000136931
3 *332:2 0.000579141016
4 *332:3 2.27468e-05

*RES
1 *332:2 *332:3 5.42701006
2 *1734:DB *332:2 4.51693
3 *1306:Z *332:3 3.00003
*END

*D_NET *333 0.00130513

*CONN
*I *1307:Z O *C 150.5 178.8 *L 0 *D DEL2
*I *1733:DB I *C 145.3 181.2 *L 0.0011 *D DFXQD1

*CAP
1 *1733:DB 0.000449428008
2 *333:2 0.000433038
3 *333:3 0.000422662

*RES
1 *333:2 *333:3 3.60508
2 *1733:DB *333:3 9.4607296
3 *1307:Z *333:2 1.50004
*END

*D_NET *334 0.00310331

*CONN
*I *1308:Z O *C 144.5 139.2 *L 0 *D DEL1
*I *1465:A[7] I *C 134.265 148.5 *L 0.00555 *D sram00

*CAP
1 *334:2 9.97781e-05
2 *334:3 0.00120325
3 *334:4 0.000100728
4 *334:5 0.000285111
5 *334:6 0.00141444

*RES
1 *334:4 *334:6 11.9391
2 *334:2 *334:3 9.19996
3 *334:4 *334:5 2.52529
4 *334:3 *334:6 1.69425
5 *1308:Z *334:2 1.5
6 *1308:Z *1465:A[7] 0.0001
*END

*D_NET *335 0.0112622

*CONN
*I *1309:Z O *C 143.7 170.8 *L 0 *D DEL2
*I *1718:DA I *C 146.3 98.4 *L 0.000721 *D DFXQD1

*CAP
1 *1309:Z 7.53566e-06
2 *335:2 0.00134482
3 *335:3 0.00031633
4 *335:4 0.00274361
5 *335:5 0.000583637
6 *335:6 0.000205347
7 *335:7 0.000129279
8 *335:8 0.000419737
9 *335:9 0.000443683
10 *335:10 0.000298664
11 *335:9 *1313:Z 0.00125948
12 *335:2 *340:2 0.000680951016
13 *335:8 *890:6 0.000984247031
14 *335:2 *243:4 0.000510034023
15 *335:3 *336:5 0.000498485
16 *335:4 *889:19 0.00061399
17 *335:5 *297:2 0.000222400996

*RES
1 *335:4 *335:10 2.7159
2 *335:9 *335:4 48.8041992
3 *335:8 *335:9 8.23333
4 *1309:Z *335:6 2.45302
5 *335:3 *335:8 4.59922
6 *335:7 *335:2 4.55082
7 *335:5 *335:6 4.92093
8 *335:2 *335:10 10.6744
9 *335:5 *335:3 4.44731
10 *1718:DA *335:7 1.49981
*END

*D_NET *336 0.00969223

*CONN
*I *1310:Z O *C 145.3 164.4 *L 0 *D DEL2
*I *1717:DA I *C 146.3 96.4 *L 0.000721 *D DFXQD1

*CAP
1 *336:2 0.00205777
2 *336:3 0.000172949
3 *336:4 0.00018284
4 *336:5 0.000106225
5 *336:6 0.000303037
6 *336:7 0.000468827
7 *336:8 0.000104372
8 *336:9 0.000133574
9 *336:3 *83:11 0.000544861953
10 *336:7 *97:6 0.000989847031
11 *336:5 *114:4 0.00107492992
12 *336:5 *335:3 0.000498485
13 *336:2 *32:6 0.000963181953
14 *336:3 *483:10 0.000501012031
15 *336:4 *95:2 0.00159028

*RES
1 *336:7 *336:4 11.214
2 *336:6 *336:9 3.00012
3 *336:9 *336:2 3.8367
4 *336:8 *336:4 8.28597
5 *336:7 *336:3 2.86267
6 *336:3 *336:2 55.6040993
7 *336:5 *336:8 4.79714
8 *1717:DA *336:6 3.00012
9 *1310:Z *336:5 1.50006
*END

*D_NET *337 0.00539737

*CONN
*I *1311:Z O *C 144.7 163.6 *L 0 *D DEL2
*I *1727:DA I *C 146.3 136 *L 0.000721 *D DFXQD1

*CAP
1 *1727:DA 0.000228194
2 *1311:Z 0.000333591
3 *337:3 0.000117693
4 *337:4 0.000272683
5 *337:5 0.000940406
6 *337:6 0.00168922
7 *337:4 *1314:Z 0.000836766016
8 *1727:DA *344:3 0.000195250996
9 *1311:Z *297:2 0.000783557031

*RES
1 *337:5 *337:6 13.3548002
2 *337:4 *337:5 9.72246
3 *1727:DA *337:2 4.27241
4 *337:3 *337:4 4.21189
5 *337:2 *337:6 6.64133
6 *1311:Z *337:3 4.08004
*END

*D_NET *338 0.00765164

*CONN
*I *1312:Z O *C 144.1 160.8 *L 0 *D DEL2
*I *1722:DA I *C 146.3 116.4 *L 0.000721 *D DFXQD1

*CAP
1 *338:2 0.00133811
2 *338:3 0.000485097
3 *338:4 0.000505372
4 *338:5 1.11484e-05
5 *338:6 0.000690423
6 *338:7 0.000463392
7 *338:8 0.00040859
8 *338:2 *36:10 0.000376106992
9 *338:2 *343:2 0.00080906
10 *338:3 *114:5 0.000895458984
11 *338:2 *1770:A2 0.00114037
12 *338:2 *1330:Z 0.000246772012
13 *338:2 *292:3 0.000281717012

*RES
1 *338:6 *338:7 6.06201
2 *338:7 *338:8 6.02063
3 *338:4 *338:5 6.14372
4 *1722:DA *338:2 3.58281
5 *338:5 *338:6 12.3873
6 *338:2 *338:8 17.2737999
7 *338:3 *338:4 6.73888
8 *1312:Z *338:3 1.50002
*END

*D_NET *339 0.00777982

*CONN
*I *1313:Z O *C 144.1 160 *L 0 *D DEL2
*I *1721:DA I *C 146.1 110.8 *L 0.000721 *D DFXQD1

*CAP
1 *1313:Z 9.12615e-05
2 *339:2 0.00279739
3 *339:3 0.000426043
4 *339:4 3.85449e-05
5 *339:5 0.000209244
6 *339:4 *115:7 0.000432956016
7 *339:2 *340:3 0.00060902
8 *339:2 *882:5 0.00125288
9 *339:2 *889:11 0.000662971016
10 *1313:Z *335:9 0.00125948

*RES
1 *1721:DA *339:2 5.28836
2 *1313:Z *339:3 2.9998
3 *339:4 *339:5 3.33646
4 *339:3 *339:4 9.92523
5 *339:2 *339:5 42.1063995
*END

*D_NET *340 0.00920183

*CONN
*I *1314:Z O *C 143.9 157.2 *L 0 *D DEL2
*I *1720:DA I *C 146.5 109.2 *L 0.000721 *D DFXQD1

*CAP
1 *1314:Z 6.80361e-05
2 *340:2 0.00185781
3 *340:3 0.00102139
4 *340:4 0.00062837
5 *340:5 0.0011889
6 *340:6 0.00114978
7 *340:7 0.000155604
8 *340:8 0.00041553
9 *340:9 0.000407423
10 *340:10 0.000182308
11 *340:2 *335:2 0.000680951016
12 *1314:Z *337:4 0.000836766016
13 *340:3 *339:2 0.00060902

*RES
1 *340:7 *340:9 1.75415
2 *340:5 *340:10 3.77153
3 *340:3 *340:4 5.1253
4 *340:2 *340:8 4.99507
5 *340:2 *340:7 10.6616
6 *340:5 *340:6 10.0204
7 *340:4 *340:8 4.40882
8 *1720:DA *340:3 6.81849
9 *340:9 *340:10 15.1323004
10 *1314:Z *340:6 10.9918
*END

*D_NET *341 0.0083783

*CONN
*I *1315:Z O *C 151.7 164.4 *L 0 *D DEL2
*I *1716:DA I *C 146.5 94.8 *L 0.000721 *D DFXQD1

*CAP
1 *1315:Z 0.000188108
2 *341:2 0.00181076
3 *341:3 0.000193109
4 *341:4 0.000188301
5 *341:5 8.09848e-05
6 *341:6 0.000169734
7 *341:8 0.000736075
8 *341:9 7.09549e-05
9 *341:4 *1716:DB 0.000411466992
10 *341:2 *83:8 0.0013648
11 *341:2 *91:8 0.000251890996
12 *341:6 *290:2 0.00079988
13 *341:2 *364:9 0.00113432
14 *341:2 *432:5 0.000408616992
15 *341:3 *294:5 0.000284975
16 *341:2 *305:10 0.000284323008

*RES
1 *341:7 *341:8 0.256774
2 *341:2 *341:9 33.521801
3 *341:5 *341:6 6.1682
4 *341:3 *341:9 0.256774
5 *341:7 *341:3 12.9962
6 *341:6 *341:8 23.6595
7 *341:4 *341:2 4.1667
8 *1315:Z *341:5 5.08382
9 *1716:DA *341:4 2.99996
*END

*D_NET *342 0.00512569

*CONN
*I *1316:Z O *C 145.3 156.4 *L 0 *D DEL2
*I *1726:DA I *C 145.9 130.8 *L 0.000721 *D DFXQD1

*CAP
1 *1726:DA 0.000756299
2 *1316:Z 0.000198266
3 *342:2 0.00133787
4 *342:3 0.000392715
5 *342:4 0.000658268
6 *342:5 8.85993e-06
7 *342:6 0.00010195
8 *342:7 0.000284988
9 *1726:DA *344:2 0.000581791992
10 *1316:Z *1767:A2 0.000204082988
11 *342:2 *1731:SA 0.000600578008

*RES
1 *342:2 *342:6 12.5142002
2 *342:3 *342:4 7.66537
3 *1726:DA *342:5 6.93517
4 *1316:Z *342:7 2.89387
5 *342:6 *342:7 4.60079
6 *342:4 *342:5 0.256448
7 *342:3 *342:2 5.65847
*END

*D_NET *343 0.00562686

*CONN
*I *1317:Z O *C 144.1 153.6 *L 0 *D DEL2
*I *1725:DA I *C 145.9 127.2 *L 0.000721 *D DFXQD1

*CAP
1 *1725:DA 0.000166743
2 *343:2 0.000643653
3 *343:3 9.88903e-05
4 *343:4 0.00106051008
5 *343:5 9.63659e-05
6 *343:6 0.000211034
7 *343:7 0.000109376
8 *343:4 *97:6 0.000614399023
9 *343:4 *115:7 0.000215432012
10 *343:2 *361:5 0.0011561
11 *343:3 *1767:A2 0.0004453
12 *343:2 *338:2 0.00080906

*RES
1 *343:5 *343:6 7.04699
2 *343:4 *343:5 3.79652
3 *343:4 *343:7 15.5320997
4 *343:2 *343:6 12.6784
5 *343:3 *343:7 3.77661
6 *1725:DA *343:2 3.72423
7 *1317:Z *343:3 1.49998
*END

*D_NET *344 0.00636128

*CONN
*I *1318:Z O *C 145.3 152.8 *L 0 *D DEL2
*I *1723:DA I *C 146.5 118 *L 0.000721 *D DFXQD1

*CAP
1 *1723:DA 8.3407e-05
2 *1318:Z 0.000142686
3 *344:2 0.0017269
4 *344:3 0.00243261
5 *344:4 3.22937e-06
6 *344:5 0.00061269
7 *344:2 *1330:Z 0.000303142012
8 *344:2 *1726:CP 0.000279554004
9 *344:3 *1727:DA 0.000195250996
10 *344:2 *1726:DA 0.000581791992

*RES
1 *1723:DA *344:5 3.1151
2 *344:4 *344:3 25.0247002
3 *344:4 *344:2 13.1279
4 *1318:Z *344:3 2.23151
5 *344:2 *344:5 4.4657
*END

*D_NET *345 0.00326838

*CONN
*I *1319:Z O *C 150.7 156.4 *L 0 *D DEL2
*I *1729:DA I *C 145.5 143.2 *L 0.000721 *D DFXQD1

*CAP
1 *1729:DA 0.000575039
2 *345:2 0.000557713
3 *345:3 0.000165935
4 *345:4 0.000600254
5 *345:5 0.00125470992
6 *345:6 0.000114721

*RES
1 *345:2 *345:6 5.91092
2 *1319:Z *345:6 3.00001
3 *345:3 *345:5 8.28209019
4 *345:3 *345:4 0.256414
5 *345:2 *345:4 4.29522
6 *1729:DA *345:5 7.75612
*END

*D_NET *346 0.00211286

*CONN
*I *1320:Z O *C 144.9 149.2 *L 0 *D DEL2
*I *1728:DA I *C 145.5 139.6 *L 0.000721 *D DFXQD1

*CAP
1 *1728:DA 0.000128629
2 *1320:Z 0.000350156
3 *346:2 5.39592e-05
4 *346:3 0.00158008

*RES
1 *1320:Z *346:2 5.84645
2 *1728:DA *346:3 5.36002
3 *346:2 *346:3 9.47367001
*END

*D_NET *347 0.00644502

*CONN
*I *1321:Z O *C 144.5 142 *L 0 *D DEL2
*I *1719:DA I *C 146.5 103.6 *L 0.000721 *D DFXQD1

*CAP
1 *347:2 0.00140234
2 *347:3 0.000606472
3 *347:4 0.000120751
4 *347:5 0.000616208
5 *347:6 0.000547519
6 *347:8 0.00036099
7 *347:2 *1724:DB 0.000289689004
8 *347:5 *91:13 0.000502156992
9 *347:3 *305:5 0.00120557
10 *347:3 *364:8 0.000349425
11 *347:2 *356:4 0.000443906016

*RES
1 *347:2 *347:7 20.1420994
2 *347:6 *347:8 0.256632
3 *347:5 *347:6 6.7588
4 *347:4 *347:5 9.0771
5 *1719:DA *347:2 3.25447
6 *347:7 *347:8 3.50188
7 *347:3 *347:4 7.8846
8 *1321:Z *347:3 1.50015
*END

*D_NET *348 0.00198454

*CONN
*I *1322:Z O *C 150.7 153.6 *L 0 *D DEL2
*I *1731:DA I *C 145.5 148.8 *L 0.000721 *D DFXQD1

*CAP
1 *1322:Z 8.13101e-05
2 *348:2 0.00033943
3 *348:3 0.000676907
4 *348:4 0.000842342031
5 *348:5 4.45496e-05

*RES
1 *348:3 *348:4 4.23997
2 *348:2 *348:5 3.83055
3 *348:2 *348:4 6.77750015
4 *1322:Z *348:5 3.00001
5 *1731:DA *348:3 1.49995
*END

*D_NET *349 0.00202502

*CONN
*I *1323:Z O *C 150.7 152.8 *L 0 *D DEL2
*I *1730:DA I *C 145.5 146.8 *L 0.000721 *D DFXQD1

*CAP
1 *1730:DA 9.33816e-05
2 *349:2 0.000180751
3 *349:3 0.000771041953
4 *349:4 0.000341819
5 *349:5 0.000638035

*RES
1 *349:2 *349:3 6.0194602
2 *1730:DA *349:3 1.75644
3 *349:2 *349:5 1.91938
4 *1323:Z *349:4 4.55336
5 *349:4 *349:5 3.83886
*END

*D_NET *350 0.00304696

*CONN
*I *1324:Z O *C 145.5 134.8 *L 0 *D DEL2
*I *1724:DA I *C 145.3 120 *L 0.000721 *D DFXQD1

*CAP
1 *1724:DA 0.000664271
2 *1324:Z 0.00146917
3 *350:2 0.000913515

*RES
1 *1324:Z *350:2 16.6289005
2 *1724:DA *350:2 9.73817
*END

*D_NET *351 0.0182735

*CONN
*I *1325:Z O *C 151.3 163.6 *L 0 *D DEL2
*I *1760:SA I *C 143.3 269.2 *L 0.00154 *D DFXQD1
*I *1761:SA I *C 147.1 271.2 *L 0.00154 *D DFXQD1
*I *1763:SA I *C 143.7 276.4 *L 0.00154 *D DFXQD1
*I *1762:SA I *C 146.1 278.4 *L 0.00154 *D DFXQD1
*I *1759:SA I *C 145.9 264 *L 0.00154 *D DFXQD1
*I *1758:SA I *C 145.5 260.4 *L 0.00154 *D DFXQD1
*I *1757:SA I *C 145.5 254.8 *L 0.00154 *D DFXQD1
*I *1756:SA I *C 145.7 247.6 *L 0.00154 *D DFXQD1
*I *1694:I I *C 145.5 164.6 *L 0.00062 *D CKND0

*CAP
1 *1758:SA 7.41705e-05
2 *1762:SA 0.000251895
3 *1763:SA 0.000130312
4 *1761:SA 0.000119906
5 *1760:SA 0.000512836
6 *351:10 0.00207282
7 *351:11 0.000596717
8 *351:12 0.000486426
9 *351:13 0.000169912
10 *351:14 0.000618604
11 *351:15 0.000611772
12 *351:16 2.0559e-06
13 *351:17 0.00016637
14 *351:18 0.000373446
15 *351:19 0.000113138
16 *351:20 0.000562399
17 *351:21 0.000455587
18 *351:22 0.000358549
19 *351:23 0.000194488
20 *351:24 0.00100831
21 *351:25 9.571e-05
22 *351:26 0.000180761
23 *351:27 0.00010697
24 *351:28 0.000466784
25 *351:29 0.000192875
26 *351:30 0.000332391
27 *351:31 0.000510211
28 *351:32 0.00025607
29 *351:33 0.000266255
30 *351:34 0.000133602
31 *351:35 7.82823e-05
32 *351:36 0.000406752
33 *1760:SA *1754:SA 0.000628314023
34 *1758:SA *474:22 0.000464131016
35 *351:10 *292:2 0.000254081016
36 *351:10 *114:5 0.000615406992
37 *351:11 *1753:DA 0.000413138008
38 *351:12 *83:14 0.00215651016
39 *351:11 *1752:DA 0.0018357

*RES
1 *1758:SA *351:15 2.06271
2 *351:19 *351:10 6.54941
3 *351:25 *351:26 3.85576
4 *351:35 *351:36 0.452165
5 *1760:SA *351:23 6.57318
6 *351:11 *351:13 1.39076
7 *351:13 *351:14 1.39076
8 *1761:SA *351:23 4.75543
9 *351:28 *351:29 2.1042
10 *351:34 *351:36 3.91496
11 *351:10 *351:35 15.2748003
12 *351:14 *351:16 4.40815
13 *351:15 *351:18 5.98397
14 *351:31 *351:33 1.85877
15 *351:24 *351:25 2.24405
16 *351:31 *351:32 13.479
17 *1763:SA *351:21 3.2204
18 *351:15 *351:20 4.81113
19 *351:33 *351:34 5.69892
20 *351:17 *351:22 4.92464
21 *351:16 *351:21 2.36315
22 *351:26 *351:27 1.8928
23 *1694:I *351:10 4.7489
24 *351:30 *351:32 3.76999
25 *351:27 *351:28 9.96978
26 *351:12 *351:17 5.06845
27 *1762:SA *351:21 4.2359
28 *351:11 *351:20 5.84412
29 *351:12 *351:18 3.43319
30 *351:22 *351:24 14.6688
31 *351:29 *351:30 5.63389
32 *1759:SA *351:20 1.50007
33 *1325:Z *351:19 1.50007
34 *1757:SA *351:18 1.50007
35 *1756:SA *351:17 1.50007
36 *351:13 *351:23 1.50007
*END

*D_NET *352 0.0132084

*CONN
*I *1326:Z O *C 150.3 160.8 *L 0 *D DEL2
*I *1747:SA I *C 144.9 238.8 *L 0.00154 *D DFXQD1
*I *1746:SA I *C 144.7 235.2 *L 0.00154 *D DFXQD1
*I *1745:SA I *C 144.9 233.2 *L 0.00154 *D DFXQD1
*I *1744:SA I *C 145.1 229.6 *L 0.00154 *D DFXQD1
*I *1743:SA I *C 142.7 226 *L 0.00154 *D DFXQD1
*I *1742:SA I *C 145.1 224.4 *L 0.00154 *D DFXQD1
*I *1741:SA I *C 145.1 220.8 *L 0.00154 *D DFXQD1
*I *1740:SA I *C 144.9 213.6 *L 0.00154 *D DFXQD1

*CAP
1 *1741:SA 1.40879e-06
2 *1742:SA 7.27106e-05
3 *1743:SA 0.000490488
4 *1747:SA 0.000350098
5 *352:9 0.00188418
6 *352:10 7.31994e-05
7 *352:11 0.000566275
8 *352:12 0.000407254
9 *352:13 0.000302573
10 *352:14 0.000461363
11 *352:15 9.54237e-05
12 *352:16 8.43547e-05
13 *352:17 0.00057053
14 *352:18 0.000277991
15 *352:19 0.000285351
16 *352:20 0.000102784
17 *352:21 0.00010816
18 *352:22 0.000170664
19 *352:23 0.00045245
20 *352:24 0.00159653
21 *352:25 0.000253812
22 *352:27 0.000265283
23 *352:28 0.000655201
24 *352:9 *556:2 0.00105823008
25 *1743:SA *473:24 0.00127681992
26 *352:10 *321:6 0.00134529

*RES
1 *352:24 *352:9 5.19469
2 *352:22 *352:23 4.93451
3 *352:9 *352:26 32.854599
4 *352:23 *352:27 2.89112
5 *1747:SA *352:18 5.5752
6 *352:14 *352:22 1.00264
7 *352:13 *352:10 2.91318
8 *1743:SA *352:11 7.56243
9 *352:15 *352:16 0.839212
10 *352:12 *352:20 1.66338
11 *1741:SA *352:10 1.73808
12 *352:12 *352:21 3.71579
13 *352:13 *352:14 4.28429
14 *352:27 *352:28 12.5761
15 *352:26 *352:28 0.256677
16 *352:19 *352:24 10.048
17 *352:16 *352:17 4.01859
18 *352:11 *352:15 1.00114
19 *352:21 *352:25 2.7713
20 *352:18 *352:25 6.12715
21 *352:10 *352:17 0.839212
22 *1742:SA *352:15 1.77017
23 *352:11 *352:20 6.50715
24 *1740:SA *352:22 1.49995
25 *1745:SA *352:21 1.49995
26 *1744:SA *352:20 1.49995
27 *1326:Z *352:19 1.49995
28 *1746:SA *352:18 2.99991
*END

*D_NET *353 0.00343407

*CONN
*I *1202:I I *C 149.3 150.4 *L 0.00104 *D DEL0
*I *1327:Z O *C 148.1 132 *L 0 *D DEL1

*CAP
1 *1327:Z 0.000585217
2 *353:2 0.00109721992
3 *353:3 0.000385479
4 *353:4 0.000627191
5 *353:5 0.000738947

*RES
1 *353:4 *353:5 5.70262
2 *353:2 *353:3 2.52835
3 *1202:I *353:2 10.5379
4 *353:3 *353:5 5.8983
5 *1327:Z *353:4 5.36704
*END

*D_NET *354 0.0173009

*CONN
*I *1328:Z O *C 148.7 157.2 *L 0 *D DEL1
*I *1748:SA I *C 144.9 242.4 *L 0.00154 *D DFXQD1
*I *1750:SA I *C 144.9 253.2 *L 0.00154 *D DFXQD1
*I *1754:SA I *C 142.1 271.2 *L 0.00154 *D DFXQD1
*I *1755:SA I *C 146.1 274.8 *L 0.00154 *D DFXQD1
*I *1753:SA I *C 145.5 267.6 *L 0.00154 *D DFXQD1
*I *1752:SA I *C 145.7 265.6 *L 0.00154 *D DFXQD1
*I *1751:SA I *C 145.7 262 *L 0.00154 *D DFXQD1
*I *1749:SA I *C 145.3 249.6 *L 0.00154 *D DFXQD1

*CAP
1 *1755:SA 0.000282793
2 *1754:SA 0.000441202
3 *1328:Z 0.000224409
4 *354:9 0.000259785
5 *354:10 8.37684e-05
6 *354:11 0.0035395
7 *354:12 0.000427106
8 *354:13 0.000519894
9 *354:14 0.000376931
10 *354:15 0.000400371
11 *354:16 0.000197134
12 *354:17 0.000542902
13 *354:18 8.39305e-05
14 *354:19 0.000353491
15 *354:20 0.000388273
16 *354:21 0.000158733
17 *354:22 0.000702013
18 *354:23 7.49109e-05
19 *354:24 0.000278364
20 *354:25 0.000157113
21 *354:27 0.000273665
22 *354:28 6.63774e-05
23 *354:29 0.000417654
24 *354:30 0.000279714
25 *354:31 0.000111637
26 *354:32 5.73039e-05
27 *354:15 *455:13 0.001921
28 *354:9 *760:14 0.000414381016
29 *1755:SA *761:10 0.000310941016
30 *1755:SA *258:10 0.00062653
31 *1754:SA *318:2 0.000239180996
32 *354:10 *1329:Z 0.000294084004
33 *1754:SA *97:10 0.0012535
34 *354:11 *115:13 0.000913852969
35 *1754:SA *1760:SA 0.000628314023

*RES
1 *354:23 *354:24 6.385
2 *354:22 *354:25 7.33696
3 *354:30 *354:31 0.256473
4 *354:29 *354:32 0.256473
5 *354:27 *354:28 7.64119
6 *354:25 *354:28 3.49706
7 *354:18 *354:20 1.7783
8 *1755:SA *354:9 5.65811
9 *354:13 *354:20 3.49641
10 *354:10 *354:12 3.92168
11 *354:26 *354:29 16.2618
12 *354:17 *354:23 5.72877
13 *354:31 *354:32 5.97085
14 *354:14 *354:21 1.51005
15 *354:26 *354:27 0.256473
16 *354:11 *354:30 42.8781013
17 *354:19 *354:24 7.79822
18 *354:16 *354:21 1.95364
19 *1754:SA *354:9 7.80084
20 *354:15 *354:22 3.07768
21 *354:17 *354:18 5.28452
22 *354:14 *354:19 3.04235
23 *354:15 *354:16 3.10908
24 *354:10 *354:11 6.15993
25 *1328:Z *354:12 2.69951
26 *354:9 *354:13 2.31153
27 *1748:SA *354:22 1.50024
28 *1749:SA *354:21 1.50024
29 *1753:SA *354:20 1.50024
30 *1750:SA *354:19 1.50024
31 *1752:SA *354:18 1.50024
32 *1751:SA *354:17 2.99982
*END

*D_NET *355 0.00953128

*CONN
*I *1329:Z O *C 148.3 160 *L 0 *D DEL1
*I *1739:SA I *C 145.1 210 *L 0.00154 *D DFXQD1
*I *1738:SA I *C 145.1 204.4 *L 0.00154 *D DFXQD1
*I *1737:SA I *C 145.1 200.8 *L 0.00154 *D DFXQD1
*I *1736:SA I *C 145.3 195.6 *L 0.00154 *D DFXQD1
*I *1735:SA I *C 143.7 190 *L 0.00154 *D DFXQD1
*I *1734:SA I *C 143.3 184.8 *L 0.00154 *D DFXQD1
*I *1733:SA I *C 143.9 181.2 *L 0.00154 *D DFXQD1
*I *1732:SA I *C 143.9 170.4 *L 0.00154 *D DFXQD1

*CAP
1 *1739:SA 1.59004e-05
2 *1329:Z 0.000601782
3 *355:9 0.00131736
4 *355:10 0.00031644
5 *355:11 0.000362352
6 *355:12 5.03948e-05
7 *355:13 0.000236275
8 *355:14 0.000588013
9 *355:15 0.000436326
10 *355:16 0.000108086
11 *355:17 0.000524009
12 *355:18 0.000265
13 *355:19 0.000578887
14 *355:20 0.000418295
15 *355:21 0.000255994
16 *355:22 0.00130484
17 *1329:Z *354:10 0.000294084004
18 *355:9 *492:75 0.000304812988
19 *355:10 *1521:CPN 0.00091892
20 *355:11 *1298:Z 0.000633488008

*RES
1 *355:16 *355:9 10.2573996
2 *355:12 *355:22 5.41418
3 *355:11 *355:21 4.20197
4 *355:17 *355:21 1.28374
5 *355:16 *355:17 3.65119
6 *355:13 *355:15 6.29004
7 *355:19 *355:10 4.81019
8 *355:15 *355:20 3.9143
9 *355:14 *355:18 1.65656
10 *355:9 *355:22 7.66456
11 *1739:SA *355:19 8.8317
12 *1329:Z *355:12 7.1537
13 *1733:SA *355:16 1.66345
14 *355:14 *355:10 4.91521
15 *355:11 *355:20 2.49079
16 *355:13 *355:18 1.49613
17 *1734:SA *355:21 1.50004
18 *1735:SA *355:20 1.50004
19 *1737:SA *355:10 1.50004
20 *1738:SA *355:19 1.50004
21 *1732:SA *355:9 1.50004
22 *1736:SA *355:18 1.50004
*END

*D_NET *356 0.00718969

*CONN
*I *1330:Z O *C 145.3 131.2 *L 0 *D DEL2
*I *1768:A1 I *C 145.7 102.2 *L 0.000617 *D CKND2D0
*I *1766:A1 I *C 144.1 102.2 *L 0.000989 *D ND2D1

*CAP
1 *1330:Z 0.000433402
2 *356:3 0.000337954
3 *356:4 0.000727016
4 *356:5 0.000713564
5 *356:6 0.000589927
6 *356:7 0.000331774
7 *356:8 0.000752816016
8 *356:9 0.000327662
9 *356:10 0.000360251
10 *356:11 8.70847e-05
11 *356:12 0.000297738
12 *356:13 0.000299874
13 *356:14 0.000268537
14 *1330:Z *338:2 0.000246772012
15 *356:4 *347:2 0.000443906016
16 *1330:Z *305:5 0.000668275
17 *1330:Z *344:2 0.000303142012

*RES
1 *356:3 *356:13 7.55489
2 *356:6 *356:13 7.96317
3 *356:4 *356:11 2.52284
4 *356:6 *356:7 2.51805
5 *1330:Z *356:3 6.28088
6 *356:5 *356:9 4.53251
7 *356:5 *356:8 2.77291
8 *356:8 *356:12 5.91709
9 *356:4 *356:7 5.18562
10 *356:12 *356:14 3.53389
11 *356:9 *356:10 4.55409
12 *356:11 *356:14 9.81927013
13 *1766:A1 *356:10 1.49995
14 *1768:A1 *356:9 1.49995
*END

*D_NET *357 0.00635705

*CONN
*I *1101:I I *C 141.5 40.8 *L 0.000968 *D CKBD1
*I *1331:Z O *C 148.1 6 *L 0 *D DEL1

*CAP
1 *1101:I 0.000236023
2 *1331:Z 0.000419642
3 *357:2 0.000343131
4 *357:3 0.00264181
5 *357:4 2.83389e-05
6 *357:5 0.000251584
7 *357:6 0.000200066
8 *1331:Z *1484:CDN 0.000296120996
9 *357:2 *76:2 0.00108861992
10 *357:3 *201:4 0.000322315996
11 *357:3 *249:2 0.000529443008

*RES
1 *357:4 *357:5 4.87028
2 *1331:Z *357:4 3.83332
3 *357:2 *357:3 34.8143997
4 *357:5 *357:6 2.07231
5 *1101:I *357:2 7.82017
6 *357:6 *357:3 5.97788
*END

*D_NET *358 0.00442846

*CONN
*I *1332:Z O *C 144.1 127.6 *L 0 *D DEL1
*I *1465:A[8] I *C 134.265 146.91 *L 0.00555 *D sram00

*CAP
1 *358:2 0.000121852
2 *358:3 0.000443759
3 *358:4 4.71117e-05
4 *358:5 0.000298104
5 *358:6 4.81467e-05
6 *358:7 9.72382e-05
7 *358:8 0.000423421
8 *358:9 0.00294887

*RES
1 *358:7 *358:9 22.1657
2 *358:2 *358:3 4.05635
3 *358:7 *358:8 3.49656
4 *358:4 *358:5 2.10634
5 *358:3 *358:4 0.132148
6 *358:6 *358:9 3.08508
7 *358:5 *358:6 0.132148
8 *1332:Z *358:2 1.5
9 *1332:Z *1465:A[8] 0.0001
*END

*D_NET *359 0.00421129

*CONN
*I *1333:Z O *C 147.9 124.8 *L 0 *D DEL1
*I *1770:A1 I *C 144.9 123.8 *L 0.000677 *D ND2D0
*I *1772:A1 I *C 144.9 107 *L 0.000617 *D CKND2D0

*CAP
1 *1772:A1 0.000459728
2 *1770:A1 1.23103e-05
3 *359:3 0.00042879
4 *359:4 0.000148964
5 *359:5 0.00111277
6 *359:6 3.12428e-06
7 *359:7 0.000580063
8 *359:8 0.000148998
9 *359:9 0.000819546
10 *359:10 0.000496998

*RES
1 *359:6 *359:9 1.49699
2 *359:3 *359:10 4.55345
3 *1333:Z *359:3 3.39007
4 *359:5 *359:6 5.93471003
5 *359:4 *359:8 0.49308
6 *359:8 *359:9 4.09433
7 *359:5 *359:7 4.69028
8 *1772:A1 *359:7 4.33132
9 *1770:A1 *359:4 1.97449
10 *359:4 *359:10 1.49998
*END

*D_NET *360 0.0014509

*CONN
*I *1026:Z O *C 138.9 134.8 *L 0 *D CKBD0
*I *1029:I I *C 137.7 130.8 *L 0.000643 *D CKBD0

*CAP
1 *1029:I 0.000138934
2 *360:2 0.00131197

*RES
1 *1026:Z *360:2 8.05346012
2 *1029:I *360:2 6.34436
*END

*D_NET *361 0.0214894

*CONN
*I *1089:I I *C 138.1 177.6 *L 0.00104 *D DEL0
*I *1095:Z O *C 140.5 178.8 *L 0 *D DEL0
*I *1723:DB I *C 147.5 118 *L 0.0011 *D DFXQD1
*I *1715:DB I *C 147.5 89.2 *L 0.0011 *D DFXQD1
*I *1707:DB I *C 147.5 73.2 *L 0.0011 *D DFXQD1

*CAP
1 *1089:I 0.000336575
2 *1095:Z 0.000343278
3 *1723:DB 7.5295e-05
4 *361:5 0.00112087
5 *361:6 0.00365091
6 *361:7 0.00130903
7 *361:8 0.000301821
8 *361:9 0.0004062
9 *361:10 0.00195693
10 *361:11 0.000481989
11 *361:12 0.000619554
12 *361:13 0.00125438
13 *361:14 2.352e-06
14 *361:15 3.0615e-05
15 *361:16 0.000888955
16 *361:17 0.000361927
17 *361:18 0.000530416
18 *361:19 6.3282e-05
19 *361:20 0.000444692
20 *361:21 6.5787e-05
21 *361:22 0.00018146
22 *361:23 0.000242956
23 *361:24 0.000433112
24 *361:25 4.2968e-05
25 *361:26 0.000695726
26 *361:27 4.8e-08
27 *361:28 0.000321219
28 *361:19 *114:5 0.000390441016
29 *361:7 *362:8 0.000803858984
30 *1089:I *368:2 0.000562031992
31 *361:6 *779:3 0.000235057988
32 *361:6 *780:3 0.000572316992
33 *361:6 *882:5 0.000334316992
34 *361:5 *224:4 0.000511339023
35 *361:5 *343:2 0.0011561
36 *1095:Z *88:2 0.000402680977
37 *361:6 *1197:Z 0.000358871016

*RES
1 *1095:Z *361:23 8.02925
2 *361:10 *361:11 3.81686
3 *361:21 *361:23 3.77761
4 *361:19 *361:24 9.85249
5 *361:26 *361:27 7.9253
6 *361:24 *361:27 0.256643
7 *361:21 *361:28 6.5886
8 *361:15 *361:5 4.37889
9 *361:14 *361:16 1.4234
10 *361:25 *361:26 0.256643
11 *361:6 *361:22 28.2677994
12 *361:9 *361:11 2.94816
13 *361:18 *361:20 4.60706
14 *1089:I *361:21 5.44902
15 *361:6 *361:19 9.43928
16 *361:13 *361:20 4.70066
17 *361:5 *361:25 16.1301
18 *361:15 *361:16 5.31401
19 *361:8 *361:10 14.8896
20 *361:9 *361:12 4.02864
21 *361:12 *361:13 8.14097
22 *361:7 *361:14 12.0057
23 *361:7 *361:8 2.4711
24 *1723:DB *361:16 3.42003
25 *361:9 *361:17 4.78003
26 *1707:DB *361:18 2.99992
27 *1715:DB *361:17 2.99992
28 *361:22 *361:28 1.50017
*END

*D_NET *362 0.0146502

*CONN
*I *978:I I *C 151.3 136 *L 0.00182 *D DEL005
*I *991:I I *C 150.5 127.2 *L 0.000643 *D CKBD0
*I *994:I I *C 151.3 82 *L 0.000643 *D CKBD0
*I *1002:Z O *C 151.7 109.6 *L 0 *D CKBD1

*CAP
1 *991:I 0.000110677
2 *1002:Z 0.000213194
3 *362:4 0.000359084
4 *362:5 0.000201113
5 *362:6 0.000615821
6 *362:7 0.000651549
7 *362:8 0.00038525
8 *362:9 0.000518228
9 *362:10 0.00018886
10 *362:11 0.00187615
11 *362:12 3.37813e-06
12 *362:13 0.000877884
13 *362:14 0.00069704
14 *362:15 0.000234809
15 *362:16 0.000285194
16 *362:17 3.9192e-05
17 *362:18 2.6338e-06
18 *362:19 0.000443308
19 *362:20 0.000897552
20 *362:21 0.00115798
21 *362:10 *1666:A1 0.000241190996
22 *362:6 *789:4 0.000887891016
23 *362:4 *503:6 0.000503165
24 *991:I *392:3 0.000214095996
25 *362:5 *488:77 0.000859048984
26 *362:6 *96:7 0.00108237008
27 *362:7 *293:9 0.000299703008
28 *362:8 *361:7 0.000803858984

*RES
1 *362:4 *362:21 8.64382
2 *362:10 *362:11 10.6704
3 *362:18 *362:7 7.29552
4 *994:I *362:20 7.18987
5 *362:5 *362:20 5.99449
6 *362:8 *362:12 3.05724
7 *362:14 *362:15 2.10055
8 *362:8 *362:19 3.098
9 *362:13 *362:16 6.81684
10 *362:10 *362:17 5.09584
11 *1002:Z *362:19 7.15661
12 *362:4 *362:19 3.12115
13 *362:9 *362:11 4.9853
14 *362:9 *362:18 4.23729
15 *362:7 *362:21 21.3694
16 *362:15 *362:6 5.70168
17 *991:I *362:11 7.48236
18 *362:6 *362:16 2.0461
19 *362:12 *362:14 5.78874
20 *362:5 *362:13 1.50743
21 *978:I *362:17 1.49993
*END

*D_NET *363 0.00445502

*CONN
*I *1091:I I *C 142.9 40.8 *L 0.000968 *D CKBD1
*I *1337:Z O *C 146.5 12.4 *L 0 *D BUFFD2

*CAP
1 *363:2 0.000825119
2 *363:3 0.000409002
3 *363:4 0.000187052
4 *363:6 0.00153904
5 *363:7 0.00149482

*RES
1 *363:5 *363:7 11.429
2 *363:4 *363:6 13.5285997
3 *1337:Z *363:3 3.38855
4 *363:5 *363:6 0.256386
5 *363:3 *363:7 5.04701
6 *363:2 *363:4 5.5057
7 *1091:I *363:2 4.27228
*END

*D_NET *364 0.0236956

*CONN
*I *1088:I I *C 149.3 182.8 *L 0.00104 *D DEL0
*I *1093:Z O *C 138.7 106 *L 0 *D CKBD1
*I *1720:DB I *C 147.5 109.2 *L 0.0011 *D DFXQD1
*I *1712:DB I *C 147.1 78.4 *L 0.0011 *D DFXQD1
*I *1704:DB I *C 147.3 60.4 *L 0.0011 *D DFXQD1

*CAP
1 *1088:I 0.000186547
2 *1093:Z 0.000741069
3 *1720:DB 7.50707e-05
4 *364:5 0.00071287
5 *364:6 0.000623493
6 *364:7 0.00213119
7 *364:8 0.00144219
8 *364:9 0.000309695
9 *364:10 8.21862e-05
10 *364:11 0.00077243
11 *364:12 0.00246727984
12 *364:13 0.000350656
13 *364:15 0.000682563
14 *364:16 0.000997491
15 *364:17 0.000582758
16 *364:18 3.08716e-06
17 *364:19 0.000188656
18 *364:21 0.00153033
19 *364:22 0.000135044
20 *364:23 0.000487432
21 *364:24 0.000328293
22 *364:25 0.000365602
23 *364:26 0.000437548
24 *364:27 0.000178829
25 *364:28 0.00112572
26 *364:29 0.000220958
27 *364:30 0.000340453
28 *364:31 0.000366694
29 *364:32 8.44827e-05
30 *364:16 *36:11 0.000829533984
31 *364:22 *1491:CPN 0.000449
32 *364:7 *1271:I 0.00112569
33 *364:5 *432:5 0.000583001953
34 *364:6 *57:2 0.000319546016
35 *364:7 *1462:Z 0.000954482031
36 *364:8 *347:3 0.000349425
37 *364:9 *341:2 0.00113432

*RES
1 *364:14 *364:15 0.256328
2 *364:27 *364:29 1.48111
3 *364:25 *364:26 3.68525
4 *364:7 *364:20 31.0512009
5 *364:31 *364:5 19.6396
6 *364:10 *364:11 5.02753
7 *364:14 *364:16 6.75218
8 *364:10 *364:29 2.66562
9 *1720:DB *364:29 4.50019
10 *1093:Z *364:28 9.01554
11 *364:23 *364:24 2.33348
12 *364:11 *364:6 4.42485
13 *364:15 *364:25 4.53241
14 *1088:I *364:30 7.02272
15 *364:19 *364:8 9.23917
16 *364:17 *364:18 4.25191
17 *364:8 *364:31 6.54086
18 *364:24 *364:26 3.02382
19 *364:9 *364:32 10.5094
20 *364:7 *364:19 1.6929
21 *364:5 *364:32 3.95531
22 *364:17 *364:22 3.5829
23 *364:27 *364:28 6.28406
24 *364:27 *364:9 3.38912
25 *364:6 *364:12 18.4248
26 *364:21 *364:30 12.1261
27 *364:13 *364:23 3.25693
28 *364:16 *364:18 0.256328
29 *364:12 *364:13 2.35528
30 *364:20 *364:21 0.452483
31 *1712:DB *364:26 3.00013
32 *1704:DB *364:22 3.00013
*END

*D_NET *365 0.00482377

*CONN
*I *1086:I I *C 151.1 51.6 *L 0.000968 *D CKBD1
*I *1339:Z O *C 145.9 19.6 *L 0 *D BUFFD2

*CAP
1 *365:2 8.06955e-05
2 *365:3 0.000268231
3 *365:4 0.000632094
4 *365:5 0.000434463
5 *365:6 0.00208697016
6 *365:7 0.000478664
7 *365:8 0.000842654

*RES
1 *365:4 *365:6 20.5198994
2 *365:2 *365:4 4.36098
3 *365:7 *365:8 7.70623
4 *365:6 *365:7 2.24374
5 *365:3 *365:5 3.75825
6 *365:5 *365:8 4.25421
7 *1339:Z *365:3 1.5001
8 *1086:I *365:2 2.9999
*END

*D_NET *366 0.0186511

*CONN
*I *1059:I I *C 149.3 192 *L 0.00104 *D DEL0
*I *1070:I I *C 137.5 145.2 *L 0.00103 *D DEL015
*I *1078:I I *C 149.7 145.2 *L 0.00103 *D DEL015
*I *1094:Z O *C 138.7 99.6 *L 0 *D CKBD1

*CAP
1 *1059:I 6.38986e-06
2 *1070:I 1.63545e-05
3 *1094:Z 3.7088e-06
4 *366:4 0.00150899
5 *366:5 0.00188215
6 *366:6 0.000639031
7 *366:8 0.000718793
8 *366:9 0.00292839
9 *366:10 1.96611e-06
10 *366:11 0.0021898
11 *366:12 0.00020309
12 *366:13 0.000222886
13 *366:14 0.00167285
14 *366:15 3.97691e-06
15 *366:16 0.000208765
16 *366:17 0.000354883
17 *366:18 0.000371014
18 *366:19 0.00188184
19 *366:20 0.000200543
20 *366:21 0.00080481
21 *366:4 *1210:I 0.00058977
22 *366:4 *479:11 0.000727151953
23 *366:5 *231:3 0.000887043984
24 *366:5 *113:6 0.000626986992

*RES
1 *366:16 *366:17 2.59782
2 *366:4 *366:17 3.63011
3 *366:9 *366:10 0.256366
4 *366:18 *366:21 7.59138
5 *366:15 *366:4 18.2613
6 *366:12 *366:19 14.6521
7 *366:16 *366:18 3.66967
8 *366:11 *366:13 2.47844
9 *366:6 *366:21 8.48021
10 *366:7 *366:8 0.256366
11 *1070:I *366:5 3.76351
12 *366:10 *366:11 14.2551
13 *366:19 *366:20 2.4202
14 *366:5 *366:20 16.3521
15 *1094:Z *366:6 0.518485
16 *366:5 *366:14 16.8831
17 *366:7 *366:9 23.5641003
18 *366:12 *366:13 2.65031
19 *366:14 *366:15 0.256366
20 *1059:I *366:8 7.90959
21 *1078:I *366:19 3.00017
*END

*D_NET *367 0.00833002

*CONN
*I *1092:I I *C 147.3 12 *L 0.00103 *D DEL01
*I *1105:Z O *C 148.9 19.6 *L 0 *D DEL0
*I *1702:DB I *C 144.1 53.2 *L 0.0011 *D DFXQD1

*CAP
1 *1092:I 0.00115043
2 *1105:Z 0.000282528
3 *367:3 0.00148495
4 *367:4 0.000950197
5 *367:5 4.11755e-05
6 *367:6 0.000179323
7 *367:7 0.000570638
8 *367:8 0.00193575
9 *367:5 *467:10 0.00119345
10 *367:3 *1474:CP 0.000541585977

*RES
1 *367:4 *367:5 6.90512
2 *1702:DB *367:7 7.53925
3 *1105:Z *367:6 5.22839
4 *367:5 *367:8 30.4901009
5 *1092:I *367:6 10.4735
6 *367:3 *367:7 11.7083
7 *367:4 *367:3 2.17221
8 *367:6 *367:8 1.49994
*END

*D_NET *368 0.0111512

*CONN
*I *1264:I I *C 146.9 188.4 *L 0.00105 *D DEL1
*I *1465:Q[27] O *C 134.265 121.735 *L 0 *D sram00

*CAP
1 *368:2 0.000524872
2 *368:3 0.000677866
3 *368:4 0.000746099
4 *368:5 0.00247874
5 *368:6 0.00017376
6 *368:8 4.19837e-06
7 *368:9 0.000452365
8 *368:10 0.000472865
9 *368:11 0.000100988
10 *368:12 0.000226561
11 *368:14 6.76656e-05
12 *368:15 0.000256706
13 *368:16 1.28599e-06
14 *368:18 0.000134197
15 *368:19 0.000130452
16 *368:20 1.9895e-05
17 *368:21 2.68544e-06
18 *368:22 7.09562e-05
19 *368:23 0.00013083
20 *368:2 *77:4 0.000362783008
21 *368:3 *291:4 0.000354441992
22 *368:2 *1089:I 0.000562031992
23 *368:4 *371:5 0.00136913
24 *368:5 *485:6 0.000701397031
25 *368:5 *781:5 0.000200927012
26 *368:6 *472:10 0.000296593984
27 *368:4 *106:2 0.000630913008

*RES
1 *368:13 *368:15 2.46525
2 *1264:I *368:6 3.94098
3 *368:22 *368:23 0.256435
4 *368:19 *368:21 0.256435
5 *368:14 *368:20 0.691069
6 *368:13 *368:14 0.256435
7 *368:5 *368:23 33.5756
8 *368:8 *368:9 2.67864
9 *368:6 *368:8 0.256432
10 *368:11 *368:12 1.77933
11 *368:5 *368:10 3.43094
12 *368:3 *368:7 4.65282
13 *368:10 *368:11 0.329726
14 *368:3 *368:4 10.5454
15 *368:20 *368:2 0.256435
16 *368:17 *368:18 0.256435
17 *368:4 *368:18 2.63542
18 *368:7 *368:9 0.256432
19 *368:21 *368:2 17.1625
20 *368:17 *368:19 1.51699
21 *368:16 *368:22 4.67675
22 *368:15 *368:16 0.256435
23 *1264:I *1465:Q[27] 0.0001
*END

*D_NET *369 0.00715142

*CONN
*I *1222:I I *C 137.9 98.4 *L 0.00104 *D DEL0
*I *1465:Q[11] O *C 134.265 54.535 *L 0 *D sram00

*CAP
1 *1222:I 3.26435e-05
2 *369:2 6.64869e-05
3 *369:3 0.000371038
4 *369:4 4.93761e-05
5 *369:6 0.000854691953
6 *369:7 8.22935e-06
7 *369:8 0.000693039
8 *369:9 0.000643807
9 *369:10 0.000214993
10 *369:11 0.000141764
11 *369:12 1.3433e-05
12 *369:13 4.27379e-05
13 *369:14 0.000129126
14 *369:15 2.26275e-05
15 *369:16 0.000313654
16 *369:17 0.000218671
17 *369:19 1.94322e-05
18 *369:20 0.000201769
19 *369:21 0.000355871
20 *369:22 2.79094e-06
21 *369:10 *397:5 0.000232695996
22 *369:4 *479:4 0.00165835
23 *369:2 *511:2 0.000293245996
24 *369:3 *806:4 0.000570972031

*RES
1 *369:21 *369:22 0.256504
2 *369:2 *369:8 8.08769
3 *369:18 *369:20 0.256504
4 *369:12 *369:13 0.132179
5 *369:10 *369:16 4.87399
6 *369:2 *369:7 1.28792
7 *369:15 *369:17 4.60709
8 *369:5 *369:3 3.17121
9 *369:11 *369:22 2.2581
10 *369:8 *369:9 10.2003
11 *369:4 *369:6 11.7675
12 *369:9 *369:10 2.93484
13 *369:13 *369:14 1.5125
14 *369:17 *369:19 0.451048
15 *369:19 *369:20 2.86052
16 *369:3 *369:7 0.256468
17 *1222:I *369:4 0.521325
18 *369:18 *369:21 3.82891
19 *369:15 *369:16 0.451048
20 *369:11 *369:12 0.419596
21 *369:5 *369:6 0.256468
22 *1222:I *1465:Q[11] 0.0001
*END

*D_NET *370 0.00276083

*CONN
*I *1184:I I *C 145.3 94.8 *L 0.00072 *D BUFFD1
*I *1465:Q[18] O *C 134.265 85.545 *L 0 *D sram00

*CAP
1 *370:2 6.82978e-05
2 *370:3 4.05055e-05
3 *370:4 0.000294155
4 *370:5 2.5138e-05
5 *370:6 0.00126046
6 *370:7 8.07802e-05
7 *370:8 0.000174678
8 *370:9 0.00079807
9 *370:10 1.87333e-05

*RES
1 *370:9 *370:10 0.420067
2 *370:2 *370:3 0.45338
3 *370:8 *370:9 10.2235
4 *370:7 *370:8 1.19669
5 *370:6 *370:7 0.132179
6 *370:4 *370:5 0.132179
7 *370:3 *370:4 3.04162
8 *370:5 *370:6 8.93884
9 *1184:I *370:3 1.5
10 *1184:I *1465:Q[18] 0.0001
*END

*D_NET *371 0.0127462

*CONN
*I *1266:I I *C 141.9 179.2 *L 0.00105 *D DEL1
*I *1465:Q[22] O *C 134.265 102.345 *L 0 *D sram00

*CAP
1 *1266:I 7.5347e-05
2 *371:2 0.000938676
3 *371:3 0.000612224
4 *371:4 0.00097058
5 *371:5 0.000443487
6 *371:6 0.000104283
7 *371:7 0.000673658
8 *371:9 6.91004e-05
9 *371:10 0.000189774
10 *371:11 0.000167266
11 *371:13 0.00017168
12 *371:15 0.00169163
13 *371:16 6.1434e-06
14 *371:17 5.08509e-05
15 *371:18 4.64627e-06
16 *371:19 1.10994e-06
17 *371:5 *106:2 0.000391103008
18 *371:5 *368:4 0.00136913
19 *371:2 *87:2 0.000432929023
20 *371:3 *241:4 0.000440781016
21 *371:2 *89:5 0.000450899023
22 *371:4 *71:4 0.000546989023
23 *371:5 *88:2 0.00294388

*RES
1 *371:6 *371:5 5.04955
2 *371:8 *371:10 2.25789
3 *371:10 *371:12 0.256435
4 *371:14 *371:3 8.84769
5 *371:19 *371:4 16.0391
6 *371:14 *371:15 0.256503
7 *371:5 *371:17 2.25762
8 *371:2 *371:7 5.31648
9 *371:8 *371:9 0.256435
10 *371:2 *371:16 14.4975
11 *371:11 *371:12 4.27807
12 *371:18 *371:4 0.256435
13 *371:13 *371:15 40.4641
14 *1266:I *371:6 1.6944
15 *371:9 *371:18 0.5655
16 *371:11 *371:13 1.88981
17 *371:17 *371:19 0.256435
18 *371:3 *371:16 0.256503
19 *1266:I *1465:Q[22] 0.0001
*END

*D_NET *372 0.0109733

*CONN
*I *1265:I I *C 144.7 182.8 *L 0.00105 *D DEL1
*I *1465:Q[24] O *C 134.265 110.745 *L 0 *D sram00

*CAP
1 *372:2 0.00368234
2 *372:3 0.000585151
3 *372:4 0.000224924
4 *372:5 7.32141e-05
5 *372:6 0.000748549
6 *372:7 0.000285271
7 *372:8 0.000376353
8 *372:9 3.93322e-07
9 *372:10 0.00069781
10 *372:7 *556:3 0.00028881002
11 *372:8 *781:4 0.000507653008
12 *372:7 *788:8 0.000756942969
13 *372:2 *487:3 0.000555522031
14 *372:3 *489:41 0.000382688984
15 *372:2 *995:Z 0.00180769

*RES
1 *372:8 *372:2 54.1803
2 *372:8 *372:10 0.256435
3 *372:7 *372:9 0.256435
4 *372:5 *372:2 1.7565
5 *372:4 *372:3 5.96564
6 *372:9 *372:10 14.3349
7 *372:5 *372:6 6.05868
8 *372:3 *372:7 13.3356
9 *1265:I *372:4 3.98844
10 *1265:I *1465:Q[24] 0.0001
*END

*D_NET *373 0.00683623

*CONN
*I *1271:I I *C 147.1 168.4 *L 0.00105 *D DEL1
*I *1465:Q[30] O *C 134.265 135.945 *L 0 *D sram00

*CAP
1 *373:2 0.00125835
2 *373:3 0.0012442
3 *373:5 0.000263307
4 *373:6 1.20342e-05
5 *373:7 0.00169241
6 *373:8 7.55109e-05
7 *373:9 9.49568e-05
8 *373:6 *106:3 0.000353013008
9 *373:6 *783:4 0.000256875
10 *1271:I *476:20 0.000250171992
11 *373:2 *99:3 0.000209721992
12 *1271:I *364:7 0.00112569

*RES
1 *373:3 *373:4 17.0429
2 *1271:I *373:5 5.88497
3 *373:7 *373:8 0.327215
4 *373:4 *373:5 0.256432
5 *373:3 *373:7 13.0536
6 *373:2 *373:9 2.47127
7 *373:6 *373:8 2.30771
8 *373:6 *373:2 15.7918
9 *1271:I *1465:Q[30] 0.0001
*END

*D_NET *374 0.00171269

*CONN
*I *1277:I I *C 137.5 69.6 *L 0.00104 *D DEL0
*I *1465:Q[16] O *C 134.265 77.145 *L 0 *D sram00

*CAP
1 *374:2 0.000118941
2 *374:4 8.48815e-05
3 *374:5 0.000377354
4 *374:6 6.70801e-05
5 *374:7 0.00106443

*RES
1 *374:2 *374:3 0.292698
2 *374:4 *374:5 3.10838
3 *374:4 *374:7 10.1076
4 *1277:I *374:3 3
5 *374:3 *374:6 1.5
6 *374:6 *374:7 1.5
7 *1277:I *1465:Q[16] 0.0001
*END

*D_NET *375 0.00580272

*CONN
*I *1269:I I *C 138.9 168.4 *L 0.00105 *D DEL1
*I *1465:Q[28] O *C 134.265 127.545 *L 0 *D sram00

*CAP
1 *1269:I 0.000132597
2 *375:2 5.4556e-05
3 *375:3 3.25586e-05
4 *375:4 0.000152523
5 *375:5 3.38422e-06
6 *375:6 6.10327e-05
7 *375:7 0.00022543
8 *375:8 0.000508859
9 *375:9 0.00191194
10 *375:11 1.37119e-06
11 *375:12 0.000894689
12 *375:2 *108:3 0.00159748
13 *375:4 *784:4 0.000226270996

*RES
1 *375:11 *375:12 13.9718
2 *375:4 *375:10 2.24719
3 *375:2 *375:3 0.223559
4 *375:10 *375:12 0.256503
5 *375:9 *375:11 0.256503
6 *375:8 *375:9 29.605
7 *375:6 *375:7 2.7506
8 *375:4 *375:5 0.41956
9 *1269:I *375:3 3.23919
10 *375:5 *375:6 0.132148
11 *375:3 *375:8 1.5
12 *1269:I *1465:Q[28] 0.0001
*END

*D_NET *376 0.00367738

*CONN
*I *1223:I I *C 142.5 12 *L 0.00104 *D DEL0
*I *1465:Q[6] O *C 134.265 35.145 *L 0 *D sram00

*CAP
1 *1223:I 8.79345e-05
2 *376:2 5.90426e-05
3 *376:3 0.000540434
4 *376:4 4.90323e-05
5 *376:5 0.00196414
6 *376:6 7.16303e-05
7 *376:7 6.22495e-05
8 *376:8 9.7705e-06
9 *376:9 0.000238958
10 *376:10 0.000413208
11 *376:12 0.000157347
12 *376:13 2.3647e-05

*RES
1 *376:6 *376:9 3.17753
2 *376:2 *376:3 5.73602
3 *376:8 *376:10 3.82813
4 *376:10 *376:13 0.45099
5 *376:12 *376:13 1.06397
6 *376:4 *376:5 4.03768
7 *376:6 *376:7 0.582765
8 *376:8 *376:9 0.45099
9 *1223:I *376:2 3.19442
10 *376:5 *376:11 17.5706
11 *376:11 *376:12 0.256485
12 *376:3 *376:4 0.133324
13 *1223:I *1465:Q[6] 0.0001
*END

*D_NET *377 0.006968

*CONN
*I *1267:I I *C 139.1 174 *L 0.00105 *D DEL1
*I *1465:Q[25] O *C 134.265 113.335 *L 0 *D sram00

*CAP
1 *1267:I 7.86907e-05
2 *377:2 0.00314451
3 *377:3 0.000282183
4 *377:4 9.06863e-05
5 *377:5 2.03924e-05
6 *377:6 9.10701e-05
7 *377:7 0.000191641
8 *377:8 3.62745e-05
9 *377:9 0.000184251
10 *377:9 *207:2 0.000399595
11 *377:3 *385:2 0.00109388992
12 *377:2 *783:3 0.000282106016
13 *377:2 *132:6 0.000207975996
14 *377:3 *70:5 0.000368564023
15 *377:2 *386:2 0.00049612

*RES
1 *377:7 *377:9 0.256435
2 *377:6 *377:8 0.256435
3 *377:4 *377:3 3.8299
4 *377:8 *377:9 7.14117
5 *377:2 *377:5 1.55403
6 *377:3 *377:6 5.56015
7 *1267:I *377:4 2.50585
8 *377:2 *377:7 49.5056
9 *1267:I *1465:Q[25] 0.0001
*END

*D_NET *378 0.00245101

*CONN
*I *1465:Q[31] O *C 134.265 138.535 *L 0 *D sram00
*I *1352:I I *C 149.1 141.6 *L 0.00287 *D BUFFD8

*CAP
1 *378:2 0.000112947
2 *378:3 4.71315e-05
3 *378:4 0.00178232
4 *378:5 0.000104652
5 *378:6 7.80538e-06
6 *378:8 0.000396144

*RES
1 *378:7 *378:8 2.51845
2 *378:4 *378:5 1.91445
3 *378:5 *378:6 0.420066
4 *378:4 *378:8 16.092
5 *1352:I *378:2 1.5
6 *378:2 *378:3 1.5
7 *378:3 *378:7 1.5
8 *1352:I *1465:Q[31] 0.0001
*END

*D_NET *379 0.00141878

*CONN
*I *1183:I I *C 140.1 62.4 *L 0.000968 *D CKBD1
*I *1465:Q[12] O *C 134.265 60.345 *L 0 *D sram00

*CAP
1 *379:2 7.92105e-05
2 *379:3 4.21249e-06
3 *379:4 0.000475342
4 *379:5 0.000860017031

*RES
1 *379:2 *379:3 0.256468
2 *379:4 *379:5 8.47018
3 *379:3 *379:4 3.05518
4 *1183:I *379:2 3.2607
5 *1183:I *1465:Q[12] 0.0001
*END

*D_NET *380 0.00247726

*CONN
*I *1187:I I *C 145.5 82 *L 0.000968 *D CKBD1
*I *1465:Q[17] O *C 134.265 79.735 *L 0 *D sram00

*CAP
1 *380:2 0.000331105
2 *380:3 0.00066067
3 *380:4 0.000155713
4 *380:5 0.00129353
5 *380:6 3.62587e-05

*RES
1 *380:4 *380:6 3.52886
2 *380:2 *380:3 4.34502
3 *380:3 *380:5 10.8252
4 *380:2 *380:6 3.73553
5 *1187:I *380:4 3
6 *1187:I *1465:Q[17] 0.0001
*END

*D_NET *381 0.00292173

*CONN
*I *1185:I I *C 141.5 96.4 *L 0.00072 *D BUFFD1
*I *1465:Q[19] O *C 134.265 88.135 *L 0 *D sram00

*CAP
1 *381:2 0.000264895
2 *381:3 8.26857e-05
3 *381:4 0.000475012
4 *381:5 0.00131206
5 *381:6 0.000188055
6 *381:7 1.97805e-05
7 *381:8 8.76909e-06
8 *381:9 0.000570471

*RES
1 *381:7 *381:9 0.256504
2 *381:6 *381:8 0.256504
3 *381:2 *381:3 2.26279
4 *381:8 *381:9 4.23086
5 *381:4 *381:5 8.52435
6 *381:3 *381:6 3.01173
7 *1185:I *381:2 3.31841
8 *381:4 *381:7 4.74082
9 *1185:I *1465:Q[19] 0.0001
*END

*D_NET *382 0.00410263

*CONN
*I *1225:I I *C 143.1 15.6 *L 0.00104 *D DEL0
*I *1465:Q[9] O *C 134.265 46.135 *L 0 *D sram00

*CAP
1 *382:2 7.52808e-05
2 *382:3 7.80581e-05
3 *382:4 1.23763e-05
4 *382:5 6.92388e-05
5 *382:6 3.41078e-05
6 *382:7 0.000319151
7 *382:8 5.81294e-05
8 *382:9 5.06744e-05
9 *382:10 1.45689e-05
10 *382:11 6.9921e-05
11 *382:12 0.000127807
12 *382:13 0.00319322

*RES
1 *382:11 *382:12 1.55404
2 *382:10 *382:13 4.05637
3 *382:9 *382:10 0.13215
4 *382:2 *382:3 2.11382
5 *382:8 *382:9 0.64487
6 *382:7 *382:8 0.13215
7 *382:6 *382:7 2.97593
8 *382:4 *382:5 0.64487
9 *382:3 *382:4 0.13215
10 *382:11 *382:13 31.2593
11 *382:5 *382:6 0.13215
12 *1225:I *382:2 3
13 *1225:I *1465:Q[9] 0.0001
*END

*D_NET *383 0.0024371

*CONN
*I *1121:I I *C 148.3 6.4 *L 0.000968 *D CKBD1
*I *1465:Q[0] O *C 134.265 9.945 *L 0 *D sram00

*CAP
1 *1121:I 0.000159557
2 *383:3 0.000154427
3 *383:4 3.50233e-05
4 *383:5 0.000250939
5 *383:6 2.45212e-06
6 *383:7 0.000119984
7 *383:8 6.36502e-05
8 *383:9 0.000291399
9 *383:10 8.8002e-06
10 *383:11 0.000528617031
11 *383:12 5.58018e-05
12 *383:13 0.000236266
13 *383:14 1.5721e-05
14 *383:15 0.000419546
15 *383:16 3.53057e-05
16 *383:17 5.96171e-05

*RES
1 *383:7 *383:8 0.132167
2 *383:2 *383:3 0.256461
3 *383:12 *383:13 2.00465
4 *383:4 *383:7 2.98244
5 *383:5 *383:6 0.256461
6 *383:10 *383:11 4.41024017
7 *383:8 *383:9 2.58742
8 *383:9 *383:10 0.132167
9 *383:13 *383:14 0.132167
10 *383:2 *383:5 1.51716
11 *383:16 *383:17 1.00236
12 *383:15 *383:16 0.68762
13 *1121:I *383:6 3.55223
14 *383:11 *383:12 0.132167
15 *383:14 *383:15 3.75297
16 *383:3 *383:4 0.552289
17 *1121:I *1465:Q[0] 6.72949e-05
*END

*D_NET *384 0.00654984

*CONN
*I *1197:I I *C 137.5 152.4 *L 0.00104 *D DEL0
*I *1465:Q[23] O *C 134.265 104.935 *L 0 *D sram00

*CAP
1 *1197:I 5.63002e-05
2 *384:2 0.00162754
3 *384:3 0.00050998
4 *384:4 0.000325682
5 *384:5 7.19709e-05
6 *384:6 9.96615e-05
7 *384:7 0.000579914
8 *384:8 0.000242883
9 *384:9 0.000338049
10 *384:10 0.00030564
11 *384:2 *154:8 0.00035098
12 *384:2 *479:11 0.000527099023
13 *384:3 *223:4 0.000898100938
14 *384:4 *231:3 0.000616051016

*RES
1 *384:5 *384:3 6.59453
2 *384:8 *384:9 3.27458
3 *384:4 *384:8 2.59038
4 *384:7 *384:4 3.65227
5 *384:3 *384:6 1.8433
6 *384:2 *384:9 23.061
7 *1197:I *384:5 0.76679
8 *384:6 *384:7 8.48269
9 *384:2 *384:10 4.02529
10 *1197:I *1465:Q[23] 0.0001
*END

*D_NET *385 0.00685594

*CONN
*I *1268:I I *C 143.1 175.6 *L 0.00105 *D DEL1
*I *1465:Q[26] O *C 134.265 119.145 *L 0 *D sram00

*CAP
1 *1268:I 0.000120175
2 *385:2 0.000266896
3 *385:3 5.26531e-05
4 *385:4 0.000155448
5 *385:5 0.000519015
6 *385:6 4.70798e-05
7 *385:7 0.000215746
8 *385:8 7.97497e-06
9 *385:9 0.000266932
10 *385:11 4.55398e-05
11 *385:12 0.000156566
12 *385:14 0.00100354
13 *385:15 0.00120147
14 *385:17 5.57331e-06
15 *385:18 0.000569688
16 *385:19 0.000563161
17 *385:20 1.46666e-06
18 *385:21 0.000487463
19 *385:22 1.67933e-05
20 *385:23 2.27516e-05
21 *385:24 3.60799e-05
22 *385:2 *377:3 0.00109388992

*RES
1 *385:21 *385:22 0.256503
2 *385:8 *385:9 1.35811
3 *385:3 *385:4 1.75443
4 *385:9 *385:11 2.14117
5 *385:12 *385:14 0.256435
6 *385:22 *385:23 0.137778
7 *385:23 *385:24 0.614608
8 *385:6 *385:7 2.00374
9 *385:5 *385:6 0.132006
10 *385:7 *385:8 0.132006
11 *385:15 *385:17 0.256503
12 *385:10 *385:11 0.256435
13 *385:13 *385:14 17.6297
14 *385:16 *385:19 6.37011
15 *385:2 *385:13 0.256435
16 *385:19 *385:20 0.256503
17 *385:17 *385:18 4.8016
18 *1268:I *385:3 1.7508
19 *385:10 *385:2 4.22775
20 *385:20 *385:21 6.94908
21 *385:16 *385:18 0.256503
22 *385:12 *385:15 13.5617
23 *385:4 *385:5 5.31762
24 *1268:I *1465:Q[26] 0.0001
*END

*D_NET *386 0.00535724

*CONN
*I *1270:I I *C 138.9 166.8 *L 0.00105 *D DEL1
*I *1465:Q[29] O *C 134.265 130.135 *L 0 *D sram00

*CAP
1 *1270:I 0.000199711
2 *386:2 0.00296782
3 *386:3 3.75874e-05
4 *386:4 2.69452e-05
5 *386:5 0.000118876
6 *386:6 1.79786e-05
7 *386:7 7.92053e-05
8 *386:8 0.000334347
9 *1270:I *108:3 0.000303540996
10 *386:6 *207:3 0.000213025996
11 *386:2 *377:2 0.00049612
12 *386:2 *391:2 0.000211642988
13 *386:3 *70:5 0.000350398008

*RES
1 *386:3 *386:4 0.292589
2 *386:7 *386:8 2.24369
3 *386:6 *386:7 3.66948
4 *386:2 *386:5 2.13679
5 *1270:I *386:4 4.46035
6 *386:2 *386:8 37.0599
7 *386:4 *386:6 1.5
8 *1270:I *1465:Q[29] 0.0001
*END

*D_NET *387 0.000607346

*CONN
*I *1263:I I *C 138.7 188.4 *L 0.00105 *D DEL1
*I *1465:Q[33] O *C 134.195 187.515 *L 0 *D sram00

*CAP
1 *1263:I 0.000182413
2 *387:3 0.00012089
3 *387:4 0.000304045

*RES
1 *387:2 *387:3 0.906243
2 *387:3 *387:4 3.45561004
3 *1263:I *387:2 2.02045
4 *1263:I *1465:Q[33] 0.000105457
*END

*D_NET *388 0.00346489

*CONN
*I *1221:I I *C 137.5 6.4 *L 0.00104 *D DEL0
*I *1465:Q[7] O *C 134.265 37.735 *L 0 *D sram00

*CAP
1 *1221:I 0.000150672
2 *388:2 3.57787e-05
3 *388:3 2.79342e-05
4 *388:4 3.18564e-05
5 *388:5 8.40416e-05
6 *388:6 0.0031347

*RES
1 *388:2 *388:3 0.524816
2 *388:4 *388:5 1.01325
3 *388:3 *388:4 0.171464
4 *388:2 *388:6 32.4015
5 *1221:I *388:6 3.97629
6 *1221:I *1465:Q[7] 0.0001
*END

*D_NET *389 0.00225205

*CONN
*I *1189:I I *C 150.9 42.4 *L 0.000968 *D CKBD1
*I *1465:Q[8] O *C 134.265 43.545 *L 0 *D sram00

*CAP
1 *389:2 5.45101e-05
2 *389:3 5.2709e-05
3 *389:5 1.86998e-05
4 *389:6 0.000390311
5 *389:7 0.00173582

*RES
1 *389:6 *389:7 17.471
2 *389:4 *389:5 0.42
3 *389:4 *389:7 2.71766
4 *1189:I *389:2 3
5 *389:2 *389:3 1.5
6 *389:3 *389:6 1.5
7 *1189:I *1465:Q[8] 0.0001
*END

*D_NET *390 0.00108899

*CONN
*I *1278:I I *C 139.9 71.2 *L 0.00104 *D DEL0
*I *1465:Q[15] O *C 134.265 71.335 *L 0 *D sram00

*CAP
1 *1278:I 0.000105728
2 *390:2 5.23171e-05
3 *390:3 0.000930926953

*RES
1 *390:2 *390:3 8.06387
2 *1278:I *390:2 3.19447
3 *1278:I *1465:Q[15] 0.0001
*END

*D_NET *391 0.00767517

*CONN
*I *1198:I I *C 149.5 132.4 *L 0.00104 *D DEL0
*I *1465:Q[21] O *C 134.265 96.535 *L 0 *D sram00

*CAP
1 *391:2 0.00256227
2 *391:3 4.76601e-05
3 *391:4 8.84e-05
4 *391:5 0.000149783
5 *391:6 0.00171741
6 *391:6 *70:2 0.000242154004
7 *391:2 *386:2 0.000211642988
8 *391:6 *69:3 0.000453886992
9 *391:2 *108:2 0.00029023998
10 *391:2 *511:3 0.00191173

*RES
1 *391:4 *391:6 1.7565
2 *391:3 *391:2 16.1843
3 *391:4 *391:5 2.13701
4 *391:2 *391:6 43.6845
5 *1198:I *391:3 3
6 *1198:I *1465:Q[21] 0.0001
*END

*D_NET *392 0.00683561

*CONN
*I *1199:I I *C 149.5 128.8 *L 0.00104 *D DEL0
*I *1465:Q[20] O *C 134.265 93.945 *L 0 *D sram00

*CAP
1 *392:2 0.00217727
2 *392:3 0.000222196
3 *392:4 0.000336117
4 *392:5 0.000304688
5 *392:6 0.000412032
6 *392:7 0.000266415
7 *392:8 0.000494126
8 *392:9 0.000169005
9 *392:10 0.00016266
10 *392:11 6.22931e-05
11 *392:8 *108:2 0.000232725996
12 *392:3 *991:I 0.000214095996
13 *392:3 *781:3 0.000315382012
14 *392:2 *511:3 0.000922258047
15 *392:2 *242:5 0.000544356992

*RES
1 *392:2 *392:11 1.0436
2 *392:8 *392:2 34.0408
3 *392:3 *392:4 3.86209
4 *392:9 *392:11 2.24788
5 *392:9 *392:10 1.94274
6 *392:7 *392:8 2.16784
7 *392:5 *392:6 3.58557
8 *392:4 *392:5 2.09571
9 *1199:I *392:3 5.29089
10 *392:6 *392:7 2.10119
11 *1199:I *1465:Q[20] 0.0001
*END

*D_NET *393 0.000662726

*CONN
*I *1276:I I *C 140.1 226 *L 0.00104 *D DEL0
*I *1465:Q[42] O *C 134.195 226.925 *L 0 *D sram00

*CAP
1 *1276:I 0.000355201992
2 *393:2 7.97233e-05
3 *393:4 0.000227804

*RES
1 *393:2 *393:3 0.904158
2 *393:3 *393:4 2.96703
3 *1276:I *393:2 4.21382999
4 *1276:I *1465:Q[42] 0.000128596
*END

*D_NET *394 0.00077568

*CONN
*I *1255:I I *C 140.7 236.8 *L 0.00105 *D DEL1
*I *1465:Q[45] O *C 134.195 237.915 *L 0 *D sram00

*CAP
1 *1255:I 0.000166968
2 *394:2 5.4164e-05
3 *394:3 0.000554543984

*RES
1 *394:2 *394:3 7.90723
2 *1255:I *394:2 3.9862
3 *1255:I *1465:Q[45] 0.0001
*END

*D_NET *395 0.00102867

*CONN
*I *1259:I I *C 139.3 197.2 *L 0.00105 *D DEL1
*I *1465:Q[36] O *C 134.195 201.725 *L 0 *D sram00

*CAP
1 *1259:I 0.000458341016
2 *395:2 9.83403e-05
3 *395:3 4.79148e-05
4 *395:4 0.000374884
5 *395:5 8.57444e-06
6 *395:6 4.06132e-05

*RES
1 *395:2 *395:3 0.292589
2 *395:4 *395:5 5.86649
3 *1259:I *395:3 6.65714
4 *395:5 *395:6 0.808129
5 *395:3 *395:4 1.5
6 *1259:I *1465:Q[36] 0.0001
*END

*D_NET *396 0.0033674

*CONN
*I *1188:I I *C 150.9 35.2 *L 0.000968 *D CKBD1
*I *1465:Q[5] O *C 134.265 29.335 *L 0 *D sram00

*CAP
1 *396:2 0.00027271
2 *396:3 0.000878018047
3 *396:4 4.95447e-05
4 *396:5 0.000106713
5 *396:6 6.69885e-07
6 *396:7 0.000341279
7 *396:8 5.15945e-05
8 *396:9 8.10695e-05
9 *396:10 5.481e-05
10 *396:11 7.4719e-05
11 *396:12 5.30147e-05
12 *396:13 2.93008e-05
13 *396:14 0.000167404
14 *396:15 0.000628901
15 *396:17 0.000106565
16 *396:18 0.000287595
17 *396:19 1.47375e-06
18 *396:20 0.000154998
19 *396:21 2.70366e-05

*RES
1 *396:7 *396:8 0.13215
2 *396:2 *396:3 7.81853
3 *396:18 *396:19 0.256485
4 *396:12 *396:13 0.540587
5 *396:5 *396:6 0.13215
6 *396:4 *396:5 0.64487
7 *396:6 *396:7 2.39316
8 *396:15 *396:17 2.33005
9 *396:10 *396:11 0.64487
10 *396:8 *396:9 0.64487
11 *396:9 *396:10 0.13215
12 *396:13 *396:14 0.1331
13 *396:19 *396:20 1.07357
14 *1188:I *396:2 4.11372
15 *396:16 *396:17 0.256485
16 *396:11 *396:12 0.133346
17 *396:20 *396:21 0.42
18 *396:16 *396:18 2.6802
19 *396:14 *396:15 5.27594
20 *396:3 *396:4 0.13215
21 *1188:I *1465:Q[5] 0.0001
*END

*D_NET *397 0.00574633

*CONN
*I *1220:I I *C 140.1 103.6 *L 0.00104 *D DEL0
*I *1465:Q[13] O *C 134.265 62.935 *L 0 *D sram00

*CAP
1 *397:2 0.0015167
2 *397:3 0.000427226
3 *397:4 7.34339e-05
4 *397:5 0.000339629
5 *397:6 5.23503e-05
6 *397:7 4.33475e-05
7 *397:9 0.000129626
8 *397:10 0.000128469
9 *397:11 0.000286538
10 *397:13 2.68463e-06
11 *397:14 0.000201764
12 *397:2 *69:3 0.00107095
13 *397:2 *496:8 0.000543325
14 *397:3 *498:8 0.000230114004
15 *397:4 *112:2 0.000222624004
16 *397:3 *237:7 0.000244841992
17 *397:5 *369:10 0.000232695996

*RES
1 *397:4 *397:3 6.36985
2 *397:2 *397:9 0.256504
3 *397:8 *397:10 0.256504
4 *397:13 *397:5 5.00591
5 *397:3 *397:2 29.1128
6 *397:6 *397:7 1.35992
7 *397:9 *397:10 2.48699
8 *397:12 *397:5 0.256504
9 *397:6 *397:14 1.7565
10 *397:12 *397:14 3.92019
11 *397:11 *397:13 0.256504
12 *397:8 *397:11 3.82891
13 *1220:I *397:4 1.5
14 *1220:I *1465:Q[13] 0.0001
*END

*D_NET *398 0.00282637

*CONN
*I *1234:I I *C 142.5 307.2 *L 0.00105 *D DEL1
*I *1465:Q[56] O *C 134.195 285.725 *L 0 *D sram00

*CAP
1 *398:2 0.000201203
2 *398:3 0.000846092
3 *398:4 0.000131462
4 *398:5 0.00164761

*RES
1 *398:2 *398:3 8.72956
2 *398:4 *398:5 3.05327
3 *398:3 *398:5 21.5102
4 *1234:I *398:2 3.77678
5 *1234:I *1465:Q[56] 0.0001
*END

*D_NET *399 0.00176296

*CONN
*I *1240:I I *C 138.5 287.2 *L 0.00105 *D DEL1
*I *1465:Q[59] O *C 134.195 296.715 *L 0 *D sram00

*CAP
1 *1240:I 3.45011e-05
2 *399:2 0.000285068
3 *399:3 4.06227e-05
4 *399:4 2.31857e-05
5 *399:6 0.000342191
6 *399:7 0.000596105977
7 *399:9 0.000423864
8 *399:10 1.7437e-05

*RES
1 *399:9 *399:10 3.0471
2 *399:7 *399:10 0.256348
3 *399:3 *399:7 5.93640995
4 *399:8 *399:9 0.256348
5 *399:4 *399:5 0.171382
6 *399:3 *399:4 0.524653
7 *399:2 *399:8 2.88333
8 *1240:I *399:2 0.519128
9 *399:5 *399:6 4.1869
10 *1240:I *1465:Q[59] 9.05824e-05
*END

*D_NET *400 0.00376629

*CONN
*I *1245:I I *C 141.5 213.6 *L 0.00105 *D DEL1
*I *1465:Q[47] O *C 134.195 246.315 *L 0 *D sram00

*CAP
1 *1245:I 7.47787e-05
2 *400:2 0.000692433
3 *400:3 9.63041e-05
4 *400:4 0.00153001
5 *400:5 3.23115e-05
6 *400:6 5.88331e-05
7 *400:8 5.54011e-05
8 *400:9 0.000486493
9 *400:11 1.67628e-05
10 *400:12 6.16813e-05
11 *400:13 4.47552e-05
12 *400:14 4.46384e-05
13 *400:16 0.000213293
14 *400:17 0.000238647
15 *400:18 1.72764e-06
16 *400:19 0.000117129
17 *400:20 1.12063e-06

*RES
1 *400:7 *400:8 0.256367
2 *400:2 *400:3 6.70391
3 *400:7 *400:9 5.37746
4 *400:10 *400:13 0.529351
5 *400:18 *400:19 0.256367
6 *400:5 *400:6 0.582475
7 *400:15 *400:17 1.88297
8 *400:12 *400:18 0.548367
9 *400:9 *400:10 0.256367
10 *400:13 *400:14 0.256367
11 *400:17 *400:20 0.256367
12 *400:4 *400:14 17.0215
13 *400:19 *400:20 0.746242
14 *400:5 *400:16 3.26374
15 *1245:I *400:2 1.02323
16 *400:15 *400:16 0.256367
17 *400:11 *400:12 0.256367
18 *400:8 *400:11 0.548367
19 *400:3 *400:4 6.93644
20 *1245:I *1465:Q[47] 0.0001
*END

*D_NET *401 0.00230609

*CONN
*I *1251:I I *C 145.5 211.6 *L 0.00105 *D DEL1
*I *1465:Q[40] O *C 134.195 218.525 *L 0 *D sram00

*CAP
1 *401:2 3.48565e-05
2 *401:3 5.18166e-05
3 *401:4 0.000155099
4 *401:5 0.000767066016
5 *401:7 5.20741e-05
6 *401:8 3.77125e-05
7 *401:9 0.000643629
8 *401:10 2.55513e-05
9 *401:11 0.000223091
10 *401:12 1.99565e-05
11 *401:13 4.45129e-05
12 *401:14 0.000250726

*RES
1 *401:11 *401:12 0.132006
2 *401:10 *401:11 2.1979
3 *401:9 *401:10 0.132006
4 *401:5 *401:12 5.18801
5 *401:4 *401:6 0.48886
6 *401:2 *401:5 6.94058
7 *401:2 *401:3 0.976885
8 *401:8 *401:14 4.23355
9 *401:8 *401:9 4.96513
10 *401:7 *401:13 0.546337
11 *1251:I *401:6 3
12 *401:6 *401:13 1.5
13 *401:13 *401:14 1.5
14 *1251:I *1465:Q[40] 0.0001
*END

*D_NET *402 0.00173345

*CONN
*I *1257:I I *C 145.5 206.4 *L 0.00105 *D DEL1
*I *1465:Q[38] O *C 134.195 210.125 *L 0 *D sram00

*CAP
1 *1257:I 5.46563e-05
2 *402:2 0.00016291
3 *402:3 9.04914e-05
4 *402:4 7.17433e-06
5 *402:6 3.37905e-05
6 *402:7 0.000164115
7 *402:8 1.53344e-06
8 *402:10 2.24357e-05
9 *402:11 0.00119636

*RES
1 *402:9 *402:10 0.419652
2 *402:2 *402:3 1.01938
3 *1257:I *402:4 3.16327
4 *402:8 *402:11 2.05188
5 *402:7 *402:8 0.256385
6 *402:3 *402:4 0.256385
7 *402:6 *402:9 0.459885
8 *402:5 *402:7 1.49804
9 *402:5 *402:6 0.256385
10 *402:2 *402:11 12.5331
11 *1257:I *1465:Q[38] 0.0001
*END

*D_NET *403 0.00144312

*CONN
*I *1261:I I *C 141.9 195.6 *L 0.00105 *D DEL1
*I *1465:Q[34] O *C 134.195 193.325 *L 0 *D sram00

*CAP
1 *1261:I 5.23123e-05
2 *403:2 6.74331e-05
3 *403:3 0.000463536
4 *403:4 0.000519358984
5 *403:5 8.00812e-05
6 *403:6 0.000260397

*RES
1 *403:2 *403:3 4.61741
2 *403:4 *403:5 0.326207
3 *403:3 *403:4 5.99671984
4 *1261:I *403:2 0.777773
5 *403:5 *403:6 2.36095
6 *1261:I *1465:Q[34] 9.15027e-05
*END

*D_NET *404 0.00231525

*CONN
*I *1142:I I *C 151.3 12 *L 0.00182 *D DEL005
*I *1465:Q[1] O *C 134.265 12.535 *L 0 *D sram00

*CAP
1 *404:2 0.00017185
2 *404:3 0.00114036
3 *404:4 0.000367261
4 *404:5 0.000613099
5 *404:7 2.26906e-05

*RES
1 *404:2 *404:3 11.7477
2 *404:6 *404:7 0.419562
3 *404:4 *404:5 5.13753
4 *404:3 *404:4 2.31098
5 *404:5 *404:6 0.654259
6 *1142:I *404:2 1.5
7 *1142:I *1465:Q[1] 0.0001
*END

*D_NET *405 0.000553432

*CONN
*I *1186:I I *C 137.5 20.8 *L 0.000968 *D CKBD1
*I *1465:Q[2] O *C 134.265 18.345 *L 0 *D sram00

*CAP
1 *1186:I 0.000288320996
2 *405:2 2.73297e-05
3 *405:3 0.000214313
4 *405:4 2.34669e-05

*RES
1 *405:2 *405:3 3.80207992
2 *405:3 *405:4 0.419856
3 *1186:I *405:2 3.45474
4 *1186:I *1465:Q[2] 0.00011603
*END

*D_NET *406 0.00369152

*CONN
*I *1229:I I *C 140.3 49.6 *L 0.00104 *D DEL0
*I *1465:Q[14] O *C 134.265 68.745 *L 0 *D sram00

*CAP
1 *406:2 5.19286e-05
2 *406:3 0.000709486
3 *406:4 0.000107231
4 *406:5 0.000477626
5 *406:6 0.00192268
6 *406:7 2.00087e-05
7 *406:8 0.000310633
8 *406:9 9.1946e-05

*RES
1 *406:4 *406:6 17.1405
2 *406:3 *406:7 2.90859
3 *406:2 *406:3 4.32912
4 *406:8 *406:9 3.05191
5 *406:7 *406:8 0.256504
6 *406:4 *406:5 3.49693
7 *406:6 *406:9 0.256504
8 *1229:I *406:2 3
9 *1229:I *1465:Q[14] 0.0001
*END

*D_NET *407 0.0018527

*CONN
*I *1233:I I *C 142.3 308.8 *L 0.00105 *D DEL1
*I *1465:Q[60] O *C 134.195 302.525 *L 0 *D sram00

*CAP
1 *1233:I 0.000154773
2 *407:2 3.04333e-05
3 *407:3 0.00106769
4 *407:4 0.000599803

*RES
1 *407:2 *407:3 9.50269
2 *407:3 *407:4 7.76091
3 *1233:I *407:2 2.2403
4 *1233:I *1465:Q[60] 0.0001
*END

*D_NET *408 0.00388736

*CONN
*I *1232:I I *C 141.9 310.8 *L 0.00105 *D DEL1
*I *1465:Q[52] O *C 134.195 268.925 *L 0 *D sram00

*CAP
1 *1232:I 0.000620359
2 *408:2 5.88384e-05
3 *408:4 0.000305942
4 *408:5 0.00286264
5 *408:6 3.95751e-05

*RES
1 *408:2 *408:3 0.223324
2 *408:4 *408:5 42.0719
3 *1232:I *408:3 9.84316
4 *408:5 *408:6 0.808112
5 *408:3 *408:4 1.5
6 *1232:I *1465:Q[52] 0.0001
*END

*D_NET *409 0.00154269

*CONN
*I *1258:I I *C 141.7 200.8 *L 0.00105 *D DEL1
*I *1465:Q[37] O *C 134.195 204.315 *L 0 *D sram00

*CAP
1 *1258:I 3.66864e-05
2 *409:2 0.000270006
3 *409:3 1.54255e-05
4 *409:4 0.000390684
5 *409:5 4.62287e-05
6 *409:6 0.000783651016

*RES
1 *409:2 *409:3 3.21772
2 *409:4 *409:5 2.10575
3 *409:3 *409:4 0.4932
4 *1258:I *409:2 0.778363
5 *409:5 *409:6 8.53294
6 *1258:I *1465:Q[37] 0.0001
*END

*D_NET *410 0.00179709

*CONN
*I *1260:I I *C 137.5 193.6 *L 0.00105 *D DEL1
*I *1465:Q[32] O *C 134.195 184.925 *L 0 *D sram00

*CAP
1 *1260:I 0.000198219
2 *410:2 3.04747e-05
3 *410:3 0.000106349
4 *410:4 0.00146205

*RES
1 *410:2 *410:4 12.4403
2 *410:3 *410:4 2.96539
3 *1260:I *410:2 2.47641
4 *1260:I *1465:Q[32] 0.0001
*END

*D_NET *411 0.00170287

*CONN
*I *1262:I I *C 141.5 192 *L 0.00105 *D DEL1
*I *1465:Q[35] O *C 134.195 195.915 *L 0 *D sram00

*CAP
1 *1262:I 0.000641598
2 *411:2 0.000136372
3 *411:3 0.000924885

*RES
1 *411:2 *411:3 9.52214
2 *1262:I *411:2 7.30165
3 *1262:I *1465:Q[35] 0.0001
*END

*D_NET *412 0.00416937

*CONN
*I *1227:I I *C 141.5 19.2 *L 0.00104 *D DEL0
*I *1465:Q[10] O *C 134.265 51.945 *L 0 *D sram00

*CAP
1 *412:2 6.52445e-05
2 *412:3 0.000731529
3 *412:4 0.000152102
4 *412:5 0.000225648
5 *412:6 0.000731418
6 *412:8 0.000638126
7 *412:9 5.18468e-05
8 *412:10 0.00080478
9 *412:12 0.000767362
10 *412:13 1.32626e-06

*RES
1 *412:11 *412:12 0.256485
2 *412:10 *412:13 0.256485
3 *412:7 *412:10 9.27458
4 *412:4 *412:6 9.44752
5 *412:2 *412:3 6.16212
6 *412:12 *412:13 6.55538
7 *412:8 *412:9 6.55856
8 *412:7 *412:8 0.256485
9 *412:4 *412:5 2.33129
10 *412:6 *412:9 0.256485
11 *412:3 *412:11 2.83055
12 *1227:I *412:2 3
13 *1227:I *1465:Q[10] 0.0001
*END

*D_NET *413 0.00282511

*CONN
*I *1244:I I *C 148.7 298 *L 0.00105 *D DEL1
*I *1465:Q[62] O *C 134.195 310.925 *L 0 *D sram00

*CAP
1 *1244:I 3.03659e-05
2 *413:2 2.98028e-05
3 *413:3 0.000121914
4 *413:4 0.000140043
5 *413:5 1.39255e-05
6 *413:6 2.91647e-05
7 *413:8 0.00245986016

*RES
1 *413:7 *413:8 12.6765
2 *413:4 *413:5 0.132454
3 *413:3 *413:4 2.31865
4 *1244:I *413:2 2.25552
5 *413:5 *413:6 0.419393
6 *413:3 *413:8 14.323
7 *413:2 *413:7 1.5
8 *1244:I *1465:Q[62] 0.0001
*END

*D_NET *414 0.00069541

*CONN
*I *1238:I I *C 140.1 294.4 *L 0.00105 *D DEL1
*I *1465:Q[58] O *C 134.195 294.125 *L 0 *D sram00

*CAP
1 *414:2 0.000139341
2 *414:3 0.000556065977

*RES
1 *414:2 *414:3 7.28305
2 *1238:I *414:2 3.25421
3 *1238:I *1465:Q[58] 0.0001
*END

*D_NET *415 0.00386198

*CONN
*I *1235:I I *C 138.3 307.2 *L 0.00105 *D DEL1
*I *1465:Q[55] O *C 134.195 279.915 *L 0 *D sram00

*CAP
1 *1235:I 5.59799e-05
2 *415:3 7.99287e-05
3 *415:4 0.000332905
4 *415:5 8.57192e-07
5 *415:6 3.13137e-06
6 *415:7 0.00114645008
7 *415:8 0.000312787
8 *415:9 0.000346375
9 *415:10 1.80185e-06
10 *415:11 0.000712221
11 *415:12 0.000534643
12 *415:13 0.000334882

*RES
1 *415:2 *415:3 0.256351
2 *415:8 *415:10 0.256351
3 *415:12 *415:13 5.38317
4 *415:3 *415:6 0.532115
5 *415:4 *415:5 0.256351
6 *415:6 *415:7 0.256351
7 *1235:I *415:7 11.3736
8 *415:2 *415:4 2.48283
9 *415:9 *415:10 2.45533
10 *415:5 *415:8 2.26874
11 *415:9 *415:11 5.05817
12 *415:11 *415:12 3.91581
13 *1235:I *1465:Q[55] 0.0001
*END

*D_NET *416 0.00190874

*CONN
*I *1249:I I *C 141.7 224.4 *L 0.00105 *D DEL1
*I *1465:Q[44] O *C 134.195 235.325 *L 0 *D sram00

*CAP
1 *1249:I 0.000116892
2 *416:2 9.77982e-06
3 *416:3 0.000117305
4 *416:4 0.000872001016
5 *416:5 0.000619934
6 *416:6 2.07572e-05
7 *416:8 2.13426e-05
8 *416:9 6.57843e-05
9 *416:10 6.4946e-05

*RES
1 *416:4 *416:6 0.450692
2 *416:3 *416:7 0.447976
3 *416:2 *416:4 9.26463
4 *416:2 *416:3 0.450692
5 *416:7 *416:8 0.419652
6 *416:5 *416:10 7.13059
7 *1249:I *416:9 3.01103
8 *416:5 *416:6 0.746187
9 *416:9 *416:10 1.5
10 *1249:I *1465:Q[44] 0.0001
*END

*D_NET *417 0.00215951

*CONN
*I *1252:I I *C 141.5 233.2 *L 0.00105 *D DEL1
*I *1465:Q[46] O *C 134.195 243.725 *L 0 *D sram00

*CAP
1 *1252:I 0.000150265
2 *417:3 9.23318e-05
3 *417:4 0.000269106
4 *417:5 5.98954e-07
5 *417:6 2.28222e-06
6 *417:7 0.000676766016
7 *417:8 3.5297e-05
8 *417:9 0.00022374
9 *417:11 4.7813e-05
10 *417:12 7.11516e-06
11 *417:13 0.000654202

*RES
1 *417:7 *417:8 5.0236
2 *417:2 *417:3 0.256385
3 *417:12 *417:13 6.82847
4 *417:3 *417:6 0.521171
5 *417:4 *417:5 0.256385
6 *417:6 *417:7 0.256385
7 *417:2 *417:4 2.07529
8 *417:9 *417:10 0.256385
9 *417:5 *417:9 1.70966
10 *1252:I *417:10 2.06676
11 *417:8 *417:11 1.91939
12 *417:11 *417:12 0.059196
13 *1252:I *1465:Q[46] 0.0001
*END

*D_NET *418 0.00174811

*CONN
*I *1254:I I *C 142.3 208 *L 0.00105 *D DEL1
*I *1465:Q[39] O *C 134.195 212.715 *L 0 *D sram00

*CAP
1 *1254:I 0.000135449
2 *418:2 0.000860057031
3 *418:3 4.5644e-05
4 *418:4 6.94109e-05
5 *418:5 7.27049e-06
6 *418:6 0.000102653
7 *418:7 7.46472e-05
8 *418:8 0.000338445
9 *418:10 0.000114517

*RES
1 *418:9 *418:10 1.32106
2 *418:2 *418:3 6.88197
3 *418:8 *418:9 0.326164
4 *418:7 *418:8 3.557
5 *418:6 *418:7 0.326164
6 *418:4 *418:5 0.132006
7 *418:3 *418:4 2.30771
8 *1254:I *418:2 1.75702
9 *418:5 *418:6 1.03294
10 *1254:I *1465:Q[39] 0.0001
*END

*D_NET *419 0.00224505

*CONN
*I *1256:I I *C 145.5 215.2 *L 0.00105 *D DEL1
*I *1465:Q[41] O *C 134.195 221.115 *L 0 *D sram00

*CAP
1 *1256:I 0.000869701016
2 *419:2 7.21135e-05
3 *419:3 0.000173834
4 *419:4 6.0037e-05
5 *419:5 0.000257122
6 *419:6 4.85578e-05
7 *419:7 0.000147943
8 *419:8 2.2693e-06
9 *419:9 0.000613469

*RES
1 *419:2 *419:3 3.04075
2 *419:8 *419:9 7.02078
3 *419:7 *419:8 0.522538
4 *419:6 *419:7 0.713573
5 *419:4 *419:5 2.39205
6 *419:3 *419:4 0.132006
7 *1256:I *419:2 8.55994
8 *419:5 *419:6 0.132006
9 *1256:I *1465:Q[41] 0.0001
*END

*D_NET *420 0.00339125

*CONN
*I *1117:I I *C 148.5 31.6 *L 0.00182 *D DEL005
*I *1465:Q[3] O *C 134.265 20.935 *L 0 *D sram00

*CAP
1 *420:2 8.61334e-05
2 *420:3 8.54492e-05
3 *420:4 0.00166071
4 *420:5 2.61264e-05
5 *420:6 0.000244666
6 *420:7 0.000962317
7 *420:8 3.57812e-05
8 *420:9 0.000290076

*RES
1 *420:8 *420:9 2.91022
2 *420:7 *420:8 0.45099
3 *420:4 *420:9 15.3284
4 *420:3 *420:6 2.87077
5 *420:5 *420:7 7.71824
6 *420:5 *420:6 0.45099
7 *1117:I *420:2 1.5
8 *420:2 *420:3 1.5
9 *1117:I *1465:Q[3] 0.0001
*END

*D_NET *421 0.0024025

*CONN
*I *1250:I I *C 148.7 301.6 *L 0.00105 *D DEL1
*I *1465:Q[63] O *C 134.195 313.515 *L 0 *D sram00

*CAP
1 *421:2 0.00140416
2 *421:3 0.000100317
3 *421:4 1.68623e-05
4 *421:6 1.80194e-05
5 *421:7 0.000863151

*RES
1 *421:2 *421:3 11.7923
2 *421:3 *421:4 1.88859
3 *421:5 *421:7 2.24613
4 *421:5 *421:6 0.419628
5 *421:4 *421:7 15.1274
6 *1250:I *421:2 1.5
7 *1250:I *1465:Q[63] 0.0001
*END

*D_NET *422 0.00364816

*CONN
*I *1247:I I *C 145.5 222.4 *L 0.00105 *D DEL1
*I *1465:Q[49] O *C 134.195 254.715 *L 0 *D sram00

*CAP
1 *1247:I 3.4506e-05
2 *422:2 0.000107578
3 *422:3 0.000128793
4 *422:4 9.52057e-06
5 *422:6 7.58746e-05
6 *422:7 0.000124734
7 *422:8 0.00316716

*RES
1 *422:7 *422:8 9.65465
2 *422:4 *422:5 0.132914
3 *422:3 *422:4 0.419393
4 *422:2 *422:7 2.3812
5 *1247:I *422:2 2.02187
6 *422:5 *422:6 1.97266
7 *422:3 *422:8 32.0003
8 *1247:I *1465:Q[49] 0.0001
*END

*D_NET *423 0.00289261

*CONN
*I *1224:I I *C 143.1 13.6 *L 0.00104 *D DEL0
*I *1465:Q[4] O *C 134.265 26.745 *L 0 *D sram00

*CAP
1 *1224:I 1.91855e-05
2 *423:2 0.000123763
3 *423:3 0.0014207
4 *423:4 7.31866e-05
5 *423:5 0.000292269
6 *423:7 0.000639017
7 *423:8 0.000323205
8 *423:9 1.25735e-06

*RES
1 *423:7 *423:10 5.58606
2 *423:6 *423:8 2.07758
3 *423:4 *423:10 1.75648
4 *423:2 *423:3 8.84069
5 *423:8 *423:9 0.256485
6 *423:6 *423:7 0.256485
7 *423:4 *423:5 2.52531
8 *423:3 *423:9 6.52861
9 *1224:I *423:2 2.02961
10 *1224:I *1465:Q[4] 0.0001
*END

*D_NET *424 0.00450966

*CONN
*I *1237:I I *C 143.3 305.2 *L 0.00105 *D DEL1
*I *1465:Q[54] O *C 134.195 277.325 *L 0 *D sram00

*CAP
1 *1237:I 0.000105272
2 *424:2 5.89982e-05
3 *424:3 0.00043556
4 *424:4 0.000291362
5 *424:5 1.50483e-06
6 *424:6 4.76234e-05
7 *424:7 0.00145028
8 *424:9 9.53575e-05
9 *424:10 0.00108883
10 *424:11 2.07578e-05
11 *424:12 0.000171595
12 *424:13 2.34798e-05
13 *424:14 0.000719065

*RES
1 *424:8 *424:10 11.3979
2 *424:9 *424:14 2.05166
3 *424:12 *424:13 0.419532
4 *424:6 *424:7 10.2318
5 *424:3 *424:5 2.4238
6 *424:10 *424:11 0.450588
7 *424:8 *424:9 0.450588
8 *424:2 *424:4 3.31298
9 *424:3 *424:14 8.68386
10 *424:5 *424:7 0.450588
11 *1237:I *424:2 1.50488
12 *424:11 *424:12 1.31878
13 *424:4 *424:6 0.450525
14 *1237:I *1465:Q[54] 0.0001
*END

*D_NET *425 0.00278417

*CONN
*I *1248:I I *C 148.7 294.4 *L 0.00105 *D DEL1
*I *1465:Q[61] O *C 134.195 305.115 *L 0 *D sram00

*CAP
1 *1248:I 0.000208563
2 *425:2 6.01935e-05
3 *425:3 0.00124245
4 *425:5 0.000424445
5 *425:6 2.09303e-05
6 *425:7 4.0742e-05
7 *425:8 6.00039e-05
8 *425:9 0.000504469
9 *425:10 0.000107514
10 *425:11 0.00011487

*RES
1 *425:9 *425:10 0.132006
2 *425:8 *425:9 3.75116
3 *425:7 *425:8 0.132006
4 *425:4 *425:5 0.256336
5 *425:3 *425:4 4.82486
6 *425:2 *425:7 2.11355
7 *1248:I *425:2 3.97119
8 *425:6 *425:11 3.44158
9 *425:5 *425:6 4.43677
10 *425:3 *425:10 9.10325
11 *1248:I *1465:Q[61] 0.0001
*END

*D_NET *426 0.00138614

*CONN
*I *1239:I I *C 140.7 292.8 *L 0.00105 *D DEL1
*I *1465:Q[57] O *C 134.195 288.315 *L 0 *D sram00

*CAP
1 *1239:I 5.01912e-05
2 *426:2 0.000716618984
3 *426:3 0.000619331

*RES
1 *426:2 *426:3 7.71307
2 *1239:I *426:2 6.30117
3 *1239:I *1465:Q[57] 0.0001
*END

*D_NET *427 0.00042722

*CONN
*I *1243:I I *C 138.7 271.2 *L 0.00105 *D DEL1
*I *1465:Q[53] O *C 134.195 271.515 *L 0 *D sram00

*CAP
1 *1243:I 0.000198246
2 *427:2 2.63599e-05
3 *427:4 0.000202615

*RES
1 *427:2 *427:3 0.171353
2 *427:3 *427:4 2.96614003
3 *1243:I *427:2 2.50807
4 *1243:I *1465:Q[53] 9.05194e-05
*END

*D_NET *428 0.00199552

*CONN
*I *1242:I I *C 138.9 285.6 *L 0.00105 *D DEL1
*I *1465:Q[51] O *C 134.195 263.115 *L 0 *D sram00

*CAP
1 *1242:I 0.000222313
2 *428:2 4.79534e-05
3 *428:3 2.52858e-05
4 *428:4 0.000156308
5 *428:5 3.85603e-05
6 *428:6 0.00150509

*RES
1 *428:4 *428:6 3.8299
2 *428:2 *428:3 0.223373
3 *1242:I *428:3 4.21517
4 *428:5 *428:6 23.452
5 *428:3 *428:5 1.5
6 *1242:I *1465:Q[51] 0.0001
*END

*D_NET *429 0.00426664

*CONN
*I *1241:I I *C 140.5 289.2 *L 0.00105 *D DEL1
*I *1465:Q[50] O *C 134.195 260.525 *L 0 *D sram00

*CAP
1 *429:2 0.00375886
2 *429:3 6.49276e-05
3 *429:4 0.00044285

*RES
1 *429:2 *429:3 0.256351
2 *429:3 *429:4 7.32475
3 *1241:I *429:2 31.4098
4 *1241:I *1465:Q[50] 0.0001
*END

*D_NET *430 0.00456579

*CONN
*I *1246:I I *C 141.7 220.8 *L 0.00105 *D DEL1
*I *1465:Q[48] O *C 134.195 252.125 *L 0 *D sram00

*CAP
1 *1246:I 9.12234e-05
2 *430:2 0.000674309
3 *430:3 6.94581e-05
4 *430:4 0.000906218984
5 *430:5 3.09748e-06
6 *430:6 0.000541408
7 *430:7 3.1113e-05
8 *430:8 0.000603593
9 *430:9 5.44824e-06
10 *430:10 0.000122295
11 *430:11 0.000401773
12 *430:13 0.000632798
13 *430:14 1.49757e-05
14 *430:15 0.000424714
15 *430:16 5.66949e-07
16 *430:17 6.49917e-07
17 *430:18 4.21201e-05

*RES
1 *430:12 *430:13 0.256367
2 *430:4 *430:7 0.450692
3 *430:5 *430:6 0.450692
4 *430:6 *430:7 3.62975
5 *430:10 *430:17 0.447848
6 *430:9 *430:10 0.45063
7 *430:13 *430:14 6.25297
8 *430:11 *430:14 0.450637
9 *430:17 *430:18 0.419581
10 *1246:I *430:2 1.33861
11 *430:8 *430:16 2.25233
12 *430:2 *430:5 5.91368
13 *430:15 *430:16 0.256367
14 *430:9 *430:11 4.60036
15 *430:12 *430:15 4.79465
16 *430:3 *430:8 7.32475
17 *430:3 *430:4 6.22639
18 *1246:I *1465:Q[48] 0.0001
*END

*D_NET *431 0.000883219

*CONN
*I *1253:I I *C 141.7 229.6 *L 0.00105 *D DEL1
*I *1465:Q[43] O *C 134.195 229.515 *L 0 *D sram00

*CAP
1 *1253:I 0.000160215
2 *431:2 5.50625e-05
3 *431:3 4.88919e-05
4 *431:4 0.000228057
5 *431:5 2.23535e-05
6 *431:6 0.00036863

*RES
1 *431:2 *431:3 1.72533
2 *431:4 *431:5 0.132023
3 *431:3 *431:4 3.2058
4 *1253:I *431:2 1.99947
5 *431:5 *431:6 4.10839987
6 *1253:I *1465:Q[43] 0.000125378
*END

*D_NET *432 0.00816827

*CONN
*I *1406:Z O *C 151.5 121.2 *L 0 *D DEL2
*I *1701:DA I *C 146.3 49.6 *L 0.000721 *D DFXQD1

*CAP
1 *432:2 0.000184013
2 *432:3 5.90127e-05
3 *432:4 7.72449e-05
4 *432:5 0.00071499
5 *432:6 0.00226296
6 *432:7 8.14231e-05
7 *432:8 7.64852e-05
8 *432:9 8.80529e-05
9 *432:10 0.00019527
10 *432:11 0.000287225
11 *432:6 *83:8 0.000327347012
12 *432:6 *196:2 0.000603565977
13 *432:6 *216:2 0.0014108
14 *432:5 *341:2 0.000408616992
15 *432:5 *364:5 0.000583001953
16 *432:6 *434:3 0.000367301992
17 *432:2 *195:2 0.000440985

*RES
1 *432:4 *432:5 6.56093
2 *432:10 *432:11 4.02723
3 *432:7 *432:8 0.256237
4 *432:6 *432:7 58.7159996
5 *432:9 *432:11 1.44425
6 *1406:Z *432:3 2.99959
7 *432:2 *432:6 2.99959
8 *432:8 *432:9 4.81923
9 *1701:DA *432:2 2.99959
10 *432:5 *432:10 4.72516
11 *432:3 *432:4 1.4998
*END

*D_NET *433 0.00881372

*CONN
*I *1407:Z O *C 145.5 110.4 *L 0 *D DEL2
*I *1702:DA I *C 143.1 53.2 *L 0.000721 *D DFXQD1

*CAP
1 *433:2 0.000128503
2 *433:3 0.000207199
3 *433:4 0.000361023
4 *433:5 0.000511848
5 *433:6 0.000321087
6 *433:7 0.00027686
7 *433:8 0.00130944
8 *433:9 0.000353355
9 *433:10 0.00248787
10 *433:11 0.000575929
11 *433:6 *789:3 0.00026651
12 *433:2 *503:6 0.000910988984
13 *433:3 *218:2 0.00110306

*RES
1 *433:7 *433:10 28.4612007
2 *433:2 *433:4 5.09197
3 *1702:DA *433:5 3.58284
4 *433:10 *433:11 2.52927
5 *433:3 *433:9 2.5905
6 *433:3 *433:7 1.94559
7 *433:6 *433:9 3.71616
8 *433:4 *433:8 12.7284
9 *433:6 *433:8 5.82982
10 *433:5 *433:11 4.53696
11 *1407:Z *433:2 1.50002
*END

*D_NET *434 0.00714047

*CONN
*I *1408:Z O *C 145.3 106 *L 0 *D DEL2
*I *1704:DA I *C 146.3 60.4 *L 0.000721 *D DFXQD1

*CAP
1 *434:2 0.000929724
2 *434:3 0.00189216
3 *434:4 0.000677349
4 *434:5 3.47625e-05
5 *434:6 0.000216024
6 *434:7 0.000356345
7 *434:3 *305:6 0.00132756
8 *434:2 *195:3 0.00133926
9 *434:3 *432:6 0.000367301992

*RES
1 *434:2 *434:5 11.6348
2 *434:3 *434:6 16.4668999
3 *434:2 *434:3 9.92924
4 *1704:DA *434:7 7.05125
5 *434:6 *434:7 3.30866
6 *434:4 *434:5 4.00994
7 *1408:Z *434:4 4.27125
*END

*D_NET *435 0.00476532

*CONN
*I *1409:Z O *C 151.9 23.2 *L 0 *D DEL2
*I *1703:DA I *C 144.1 56.8 *L 0.000721 *D DFXQD1

*CAP
1 *1703:DA 0.000285346
2 *435:2 0.000112055
3 *435:3 0.000310224
4 *435:4 0.000847594
5 *435:5 0.00199065
6 *435:6 0.00121948

*RES
1 *435:2 *435:4 9.19939
2 *435:5 *435:7 27.0028
3 *435:3 *435:6 9.90191
4 *1409:Z *435:2 2.99999
5 *1703:DA *435:3 5.51791
6 *435:4 *435:5 1.5002
7 *435:6 *435:7 1.5002
*END

*D_NET *436 0.00635107

*CONN
*I *1410:Z O *C 149.1 34 *L 0 *D DEL2
*I *1706:DA I *C 145.9 69.6 *L 0.000721 *D DFXQD1

*CAP
1 *1706:DA 0.000205285
2 *436:2 0.000542101
3 *436:3 0.000724433
4 *436:4 0.00138895
5 *436:5 9.15582e-05
6 *436:7 0.000655425
7 *436:2 *1073:Z 0.000191288984
8 *436:3 *484:2 0.000279606016
9 *436:4 *800:7 0.000794693984
10 *436:4 *118:2 0.00147774

*RES
1 *436:6 *436:7 7.92565
2 *1706:DA *436:3 2.08328
3 *436:7 *436:2 4.04316
4 *436:3 *436:6 7.6362
5 *436:5 *436:2 3.71023
6 *436:4 *436:5 27.1376991
7 *1410:Z *436:4 3.00007
*END

*D_NET *437 0.0051407

*CONN
*I *1411:Z O *C 145.7 98.8 *L 0 *D DEL2
*I *1707:DA I *C 146.5 73.2 *L 0.000721 *D DFXQD1

*CAP
1 *437:2 0.00201608984
2 *437:3 0.0008332
3 *437:4 0.000208023
4 *437:5 7.6109e-05
5 *437:6 0.00013136
6 *437:7 0.000563065
7 *437:4 *36:8 0.000154955996
8 *437:2 *471:21 0.000176358008
9 *437:2 *795:3 0.00039789
10 *437:2 *192:3 0.000414366992
11 *437:2 *1712:SA 0.000169314004

*RES
1 *437:6 *437:7 2.51065
2 *437:4 *437:7 8.419
3 *437:2 *437:6 17.4946995
4 *437:2 *437:5 4.48206
5 *437:3 *437:5 7.71293
6 *1411:Z *437:4 3.22526
7 *1707:DA *437:3 1.49998
*END

*D_NET *438 0.0063394

*CONN
*I *1412:Z O *C 143.7 38.4 *L 0 *D DEL2
*I *1708:DA I *C 146.1 66 *L 0.000721 *D DFXQD1

*CAP
1 *1708:DA 0.000170457
2 *1412:Z 0.000111578
3 *438:2 0.00052278
4 *438:3 0.00215447
5 *438:4 0.000331907
6 *438:5 0.000281148
7 *438:2 *487:2 0.000220309004
8 *438:2 *301:50 0.00019586
9 *438:3 *76:3 0.0016919
10 *438:3 *201:2 0.000659012031

*RES
1 *438:6 *438:3 5.43391
2 *438:4 *438:5 2.10769
3 *438:2 *438:3 34.3179016
4 *438:5 *438:2 3.11414
5 *1708:DA *438:4 7.19233
6 *1412:Z *438:6 2.99999
*END

*D_NET *439 0.00392713

*CONN
*I *1413:Z O *C 145.9 42 *L 0 *D DEL2
*I *1705:DA I *C 146.3 64 *L 0.000721 *D DFXQD1

*CAP
1 *1413:Z 0.000152096
2 *439:2 0.000602842
3 *439:3 0.000649987
4 *439:4 0.00252217

*RES
1 *439:2 *439:3 2.25401
2 *439:3 *439:4 18.8272991
3 *1705:DA *439:2 7.08264
4 *1413:Z *439:4 2.33962
*END

*D_NET *440 0.00398352

*CONN
*I *1414:Z O *C 151.5 99.6 *L 0 *D DEL2
*I *1711:DA I *C 146.3 76.8 *L 0.000721 *D DFXQD1

*CAP
1 *1711:DA 0.00023216
2 *1414:Z 0.000441399
3 *440:2 0.000608969
4 *440:3 0.00208619
5 *440:4 0.000611834
6 *440:5 2.96049e-06

*RES
1 *440:3 *440:5 18.4069996
2 *440:2 *440:3 5.23314
3 *1711:DA *440:2 2.4899
4 *1414:Z *440:4 9.41836
5 *440:4 *440:5 2.92272
*END

*D_NET *441 0.00217038

*CONN
*I *1415:Z O *C 145.5 78 *L 0 *D DEL2
*I *1709:DA I *C 146.1 67.6 *L 0.000721 *D DFXQD1

*CAP
1 *1709:DA 0.000127061
2 *1415:Z 0.000377598
3 *441:2 0.000638619
4 *441:3 0.000278598
5 *441:4 0.000748491016

*RES
1 *441:3 *441:4 2.74351
2 *1709:DA *441:4 6.8510499
3 *441:2 *441:3 5.75737
4 *1415:Z *441:2 5.77754
*END

*D_NET *442 0.000222719

*CONN
*I *1416:Z O *C 145.9 88.8 *L 0 *D DEL2
*I *1715:DA I *C 146.5 89.2 *L 0.000721 *D DFXQD1

*CAP
1 *1715:DA 0.000114057998
2 *1416:Z 0.000108661

*RES
1 *1715:DA *1416:Z 5.64231
*END

*D_NET *443 0.00240142

*CONN
*I *1417:Z O *C 151.9 91.6 *L 0 *D DEL2
*I *1713:DA I *C 146.7 82 *L 0.000721 *D DFXQD1

*CAP
1 *1713:DA 0.000415186
2 *1417:Z 5.82467e-06
3 *443:2 3.28975e-05
4 *443:3 0.00194755

*RES
1 *443:2 *443:3 10.5018
2 *1417:Z *443:2 0.506604
3 *1713:DA *443:3 12.6865997
*END

*D_NET *444 0.000499086

*CONN
*I *1418:Z O *C 145.3 70 *L 0 *D DEL2
*I *1710:DA I *C 146.1 71.2 *L 0.000721 *D DFXQD1

*CAP
1 *1710:DA 0.000269720996
2 *1418:Z 0.000229367

*RES
1 *1710:DA *1418:Z 5.03472
*END

*D_NET *445 0.00155772

*CONN
*I *1419:Z O *C 151.3 74.4 *L 0 *D DEL2
*I *1712:DA I *C 146.1 78.4 *L 0.000721 *D DFXQD1

*CAP
1 *1712:DA 0.000447771
2 *1419:Z 5.02968e-05
3 *445:2 0.000981887969
4 *445:3 7.77749e-05

*RES
1 *445:2 *445:3 6.47968006
2 *1712:DA *445:2 5.71135
3 *1419:Z *445:3 2.99998
*END

*D_NET *446 0.00113134

*CONN
*I *1420:Z O *C 149.1 85.2 *L 0 *D DEL2
*I *1714:DA I *C 146.1 84 *L 0.000721 *D DFXQD1

*CAP
1 *1714:DA 0.000997513984
2 *1420:Z 0.000133824

*RES
1 *1420:Z *1714:DA 12.9403
*END

*D_NET *447 0.0017495

*CONN
*I *1421:Z O *C 144.9 279.6 *L 0 *D DEL2
*I *1754:DB I *C 143.5 271.2 *L 0.0011 *D DFXQD1

*CAP
1 *1754:DB 0.000112288
2 *1421:Z 0.000166544
3 *447:2 0.000531886
4 *447:3 0.000719475
5 *447:4 0.000219306

*RES
1 *1421:Z *447:4 6.36753988
2 *1754:DB *447:3 3.49449
3 *447:2 *447:4 5.43878
4 *447:2 *447:3 4.80432
*END

*D_NET *448 0.000608716

*CONN
*I *1422:Z O *C 145.3 268 *L 0 *D DEL2
*I *1753:DB I *C 146.9 267.6 *L 0.0011 *D DFXQD1

*CAP
1 *1753:DB 0.000186354
2 *448:2 0.000422365

*RES
1 *1753:DB *448:2 8.05041027
2 *1422:Z *448:2 1.49999
*END

*D_NET *449 0.000730844

*CONN
*I *1423:Z O *C 145.3 254.4 *L 0 *D DEL2
*I *1750:DB I *C 146.3 253.2 *L 0.0011 *D DFXQD1

*CAP
1 *1423:Z 0.00025083
2 *449:2 0.000480015977

*RES
1 *1423:Z *449:2 5.80926
2 *1750:DB *449:2 5.82490015
*END

*D_NET *450 0.00101557

*CONN
*I *1424:Z O *C 151.9 272.4 *L 0 *D DEL2
*I *1755:DB I *C 147.5 274.8 *L 0.0011 *D DFXQD1

*CAP
1 *1424:Z 0.000101561
2 *450:2 0.000893877031
3 *450:3 2.01322e-05

*RES
1 *450:2 *450:3 6.12280989
2 *1755:DB *450:2 4.16543
3 *1424:Z *450:3 3.00002
*END

*D_NET *451 0.001265

*CONN
*I *1425:Z O *C 151.9 258 *L 0 *D DEL2
*I *1751:DB I *C 147.1 262 *L 0.0011 *D DFXQD1

*CAP
1 *1425:Z 0.000324475
2 *451:2 0.000914089063
3 *451:3 2.64456e-05

*RES
1 *451:2 *451:3 6.93672991
2 *1751:DB *451:2 2.59937
3 *1425:Z *451:3 6.02497
*END

*D_NET *452 0.00111699

*CONN
*I *1426:Z O *C 151.9 268.8 *L 0 *D DEL2
*I *1752:DB I *C 147.1 265.6 *L 0.0011 *D DFXQD1

*CAP
1 *1426:Z 3.51548e-05
2 *452:2 0.000338654
3 *452:3 0.000743183984

*RES
1 *1426:Z *452:2 4.94328
2 *452:2 *452:3 6.54840994
3 *1752:DB *452:3 4.50003
*END

*D_NET *453 0.00053332

*CONN
*I *1427:Z O *C 145.1 250 *L 0 *D DEL2
*I *1749:DB I *C 146.7 249.6 *L 0.0011 *D DFXQD1

*CAP
1 *1749:DB 9.54508e-05
2 *453:2 0.000437866992

*RES
1 *1749:DB *453:2 8.1112299
2 *1427:Z *453:2 1.49994
*END

*D_NET *454 0.00128764

*CONN
*I *1428:Z O *C 151.5 246.4 *L 0 *D DEL2
*I *1748:DB I *C 146.3 242.4 *L 0.0011 *D DFXQD1

*CAP
1 *1748:DB 0.000479918984
2 *454:2 0.000344017
3 *454:3 0.000463713

*RES
1 *454:2 *454:3 8.32520008
2 *1748:DB *454:2 5.90256
3 *1428:Z *454:3 1.5
*END

*D_NET *455 0.0257175

*CONN
*I *1429:Z O *C 143.3 246.4 *L 0 *D DEL1
*I *1777:CDN I *C 143.5 166.8 *L 0.00167 *D DFCND1
*I *1464:I I *C 147.3 28 *L 0.000968 *D CKBD1
*I *1473:CDN I *C 141.5 44.4 *L 0.00163 *D DFCNQD1
*I *1474:CDN I *C 139.5 48 *L 0.00163 *D DFCNQD1

*CAP
1 *1474:CDN 0.000640735
2 *1473:CDN 0.000322429
3 *1464:I 0.000589492
4 *1777:CDN 9.7921e-05
5 *455:5 0.00104853
6 *455:6 0.000145233
7 *455:7 0.00415625
8 *455:8 0.000194003
9 *455:9 0.00022343
10 *455:10 0.000355978
11 *455:11 0.000259643
12 *455:12 0.00309897
13 *455:13 0.000294904
14 *455:14 0.000321921
15 *455:15 0.00135263
16 *455:16 0.000169649
17 *455:17 0.000320019
18 *455:19 8.24464e-07
19 *455:21 0.00013591
20 *455:22 0.000183475
21 *455:23 0.000548332
22 *455:25 0.0001042
23 *455:26 7.38847e-05
24 *455:27 0.000174216
25 *455:5 *805:5 0.000479771992
26 *455:6 *267:3 0.000212341992
27 *455:7 *4:2 0.00218993
28 *455:8 *193:6 0.000726755
29 *455:9 *482:2 0.00254384
30 *455:10 *291:6 0.000766463984
31 *455:7 *785:8 0.000366266992
32 *455:11 *232:7 0.000600987969
33 *455:12 *320:4 0.0010977
34 *455:13 *354:15 0.001921

*RES
1 *455:11 *455:27 9.83615
2 *455:18 *455:12 0.256549
3 *1777:CDN *455:10 3.0002
4 *455:14 *455:5 4.63658
5 *455:24 *455:25 6.94107
6 *455:21 *455:6 3.83754
7 *1464:I *455:9 5.30913
8 *455:16 *455:17 2.75701
9 *455:26 *455:7 52.1257
10 *455:23 *455:25 0.256549
11 *455:12 *455:23 45.8064
12 *455:13 *455:21 4.42547
13 *455:20 *455:22 4.79426
14 *455:8 *455:19 0.256549
15 *455:14 *455:15 0.256549
16 *455:17 *455:26 4.74972
17 *1473:CDN *455:16 3.46341
18 *455:22 *455:24 0.256549
19 *455:7 *455:27 58.3791008
20 *455:20 *455:6 0.256549
21 *455:10 *455:11 2.26262
22 *1474:CDN *455:17 6.60346
23 *455:18 *455:8 8.88924
24 *455:10 *455:19 6.40481
25 *455:9 *455:5 9.0478
26 *455:15 *455:16 9.32127
27 *1429:Z *455:13 1.5001
*END

*D_NET *456 0.000931891

*CONN
*I *1430:Z O *C 141.3 13.2 *L 0 *D DEL1
*I *1466:D I *C 139.1 12 *L 0.000971 *D DFCNQD1

*CAP
1 *1466:D 8.59548e-05
2 *1430:Z 0.000423601016
3 *456:2 0.000422334

*RES
1 *1466:D *456:2 3.00005
2 *1430:Z *456:2 7.30353022
*END

*D_NET *457 0.00122285

*CONN
*I *1431:Z O *C 142.9 16.8 *L 0 *D DEL1
*I *1467:D I *C 139.7 15.6 *L 0.000971 *D DFCNQD1

*CAP
1 *1431:Z 0.000114281
2 *457:2 0.00110856

*RES
1 *1431:Z *457:2 2.78131
2 *1467:D *457:2 9.75990963
*END

*D_NET *458 0.00130376

*CONN
*I *1432:Z O *C 146.5 20.4 *L 0 *D DEL1
*I *1468:D I *C 139.9 20.8 *L 0.000971 *D DFCNQD1

*CAP
1 *458:2 0.000531621992
2 *458:3 0.000126037
3 *458:4 0.000362024
4 *458:5 0.000284067

*RES
1 *458:2 *458:5 4.16450977
2 *458:4 *458:5 2.04953
3 *458:3 *458:4 3.66784
4 *1432:Z *458:3 1.49999
5 *1468:D *458:2 1.49999
*END

*D_NET *459 0.000932209

*CONN
*I *1433:Z O *C 142.3 24 *L 0 *D DEL1
*I *1469:D I *C 139.1 26.4 *L 0.000971 *D DFCNQD1

*CAP
1 *1469:D 0.000825118984
2 *459:2 0.000107095

*RES
1 *1469:D *459:2 9.30891991
2 *1433:Z *459:2 1.49997
*END

*D_NET *460 0.00117008

*CONN
*I *1434:Z O *C 143.9 31.2 *L 0 *D DEL1
*I *1470:D I *C 139.5 30 *L 0.000971 *D DFCNQD1

*CAP
1 *1470:D 0.000382257
2 *1434:Z 8.45071e-05
3 *460:2 0.000670481016
4 *460:3 3.28309e-05

*RES
1 *460:2 *460:3 5.77361012
2 *1470:D *460:2 3.92496
3 *1434:Z *460:3 3.00001
*END

*D_NET *461 0.0133419

*CONN
*I *1191:I I *C 137.7 17.2 *L 0.00103 *D DEL01
*I *1435:Z O *C 151.9 6 *L 0 *D DEL0
*I *1556:B1 I *C 151.9 26.4 *L 0.000689 *D MOAI22D0
*I *1556:A1 I *C 150.9 26.4 *L 0.000721 *D MOAI22D0
*I *1552:A1 I *C 151.3 37.2 *L 0.000721 *D MOAI22D0
*I *1549:A1 I *C 149.9 46 *L 0.000721 *D MOAI22D0
*I *1549:B1 I *C 150.9 46 *L 0.000689 *D MOAI22D0
*I *1552:B1 I *C 150.3 37.2 *L 0.000689 *D MOAI22D0
*I *1548:A1 I *C 150.3 33.6 *L 0.000721 *D MOAI22D0
*I *1548:B1 I *C 149.3 33.6 *L 0.000689 *D MOAI22D0
*I *1550:A1 I *C 143.9 49.6 *L 0.000721 *D MOAI22D0
*I *1550:B1 I *C 142.9 49.6 *L 0.000689 *D MOAI22D0
*I *1555:B1 I *C 149.3 31.6 *L 0.000689 *D MOAI22D0
*I *1555:A1 I *C 150.3 31.6 *L 0.000721 *D MOAI22D0
*I *1551:B1 I *C 150.7 19.2 *L 0.000689 *D MOAI22D0
*I *1551:A1 I *C 149.7 19.2 *L 0.000721 *D MOAI22D0

*CAP
1 *1191:I 0.000130473
2 *1551:A1 4.35094e-06
3 *1555:A1 0.000347271
4 *1550:B1 0.000437366
5 *1548:A1 0.000277462
6 *1549:B1 0.000177806
7 *1549:A1 3.35327e-06
8 *1552:A1 0.000168966
9 *1556:A1 0.000109854
10 *1435:Z 1.13346e-05
11 *461:16 0.000319087
12 *461:17 0.000300381
13 *461:19 0.000549631
14 *461:20 0.000593224
15 *461:21 0.000420849
16 *461:22 0.00181617
17 *461:23 0.000464968
18 *461:24 0.000230239
19 *461:25 0.000261998
20 *461:26 0.00066331
21 *461:27 0.000265629
22 *461:28 0.00054808
23 *461:29 0.000911092
24 *461:30 0.00039818
25 *461:31 0.000661065
26 *461:32 0.0012028
27 *461:33 0.000151257
28 *461:34 0.000505984
29 *461:35 0.000900118
30 *461:19 *168:3 0.000509605

*RES
1 *461:28 *461:35 6.96825
2 *461:23 *461:34 7.50998
3 *461:18 *461:35 5.03589
4 *1549:A1 *461:31 4.70262
5 *461:21 *461:32 12.6613998
6 *1548:A1 *461:20 9.08763
7 *461:18 *461:19 2.03804
8 *461:33 *461:35 6.40952
9 *1550:B1 *461:25 7.44989
10 *461:16 *461:33 3.81082
11 *1551:A1 *461:19 3.19182
12 *1555:A1 *461:24 7.50457
13 *1435:Z *461:26 1.98936
14 *461:22 *461:25 3.78667
15 *461:26 *461:28 8.56831
16 *461:16 *461:17 1.79152
17 *1549:B1 *461:31 4.5272
18 *461:19 *461:21 6.85755
19 *1556:A1 *461:17 3.62671
20 *461:31 *461:34 6.92459
21 *1191:I *461:32 3.58324
22 *461:22 *461:31 10.5917
23 *461:20 *461:27 2.26853
24 *461:20 *461:30 4.34424
25 *461:24 *461:29 6.1178
26 *461:23 *461:30 1.9882
27 *1552:A1 *461:30 6.22888
28 *461:17 *461:29 4.33265
29 *461:24 *461:27 1.64063
30 *1548:B1 *461:27 1.49999
31 *1551:B1 *461:18 1.49999
32 *1556:B1 *461:16 1.49999
33 *1550:A1 *461:25 2.99997
34 *1555:B1 *461:24 2.99997
35 *1552:B1 *461:23 2.99997
*END

*D_NET *462 0.0129387

*CONN
*I *1436:Z O *C 144.1 8.8 *L 0 *D DEL1
*I *1699:A1 I *C 140.9 96.2 *L 0.000617 *D CKND2D0
*I *1775:A1 I *C 140.7 94.8 *L 0.00069 *D INR2D0

*CAP
1 *1699:A1 0.000275949
2 *462:3 0.000166818
3 *462:4 0.000239709
4 *462:5 0.000750653
5 *462:6 0.00010695
6 *462:7 0.000109484
7 *462:8 0.00386169
8 *462:10 0.000418077
9 *462:11 0.000406292
10 *462:12 0.00148333
11 *462:14 9.87593e-05
12 *462:15 0.000725433
13 *462:16 2.88736e-06
14 *462:8 *482:2 0.00041012
15 *462:8 *1221:Z 0.000628862969
16 *462:5 *802:4 0.000591803008
17 *462:3 *112:5 0.0026619

*RES
1 *462:11 *462:14 4.58633
2 *462:14 *462:15 7.7325
3 *462:3 *462:9 6.60537
4 *462:15 *462:16 0.256433
5 *1699:A1 *462:7 3.14499
6 *462:8 *462:16 38.6335983
7 *462:10 *462:13 0.256433
8 *462:4 *462:7 1.96245
9 *462:4 *462:5 2.69167
10 *462:12 *462:13 28.997
11 *462:5 *462:3 3.58005
12 *462:6 *462:8 4.18075
13 *462:9 *462:10 6.80993
14 *462:11 *462:12 0.256433
15 *1775:A1 *462:7 1.50028
16 *1436:Z *462:6 1.50028
*END

*D_NET *463 0.0126605

*CONN
*I *1437:Z O *C 140.7 8.8 *L 0 *D DEL1
*I *1699:A2 I *C 141.3 96.4 *L 0.000606 *D CKND2D0
*I *1775:B1 I *C 141.3 94.8 *L 0.000651 *D INR2D0

*CAP
1 *1699:A2 5.46311e-05
2 *1437:Z 0.000702493
3 *463:3 0.00265992
4 *463:4 0.000708581
5 *463:5 0.000245475
6 *463:6 0.000536733
7 *463:7 0.000372921
8 *463:8 0.00117948
9 *463:9 0.000545053
10 *463:10 2.92232e-06
11 *463:11 0.00106064
12 *463:12 0.000194415
13 *463:8 *131:2 0.00153489
14 *463:3 *201:2 0.000469078984
15 *463:5 *802:4 0.00170892
16 *463:3 *515:5 0.000365455
17 *463:4 *248:4 0.000318861016

*RES
1 *463:4 *463:3 44.5173988
2 *463:10 *463:11 16.2763
3 *463:8 *463:12 11.3752
4 *463:5 *463:7 2.23144
5 *1699:A2 *463:7 4.90917
6 *463:11 *463:12 3.17428
7 *463:3 *463:10 0.256768
8 *463:9 *463:4 5.52867
9 *463:6 *463:8 5.12518
10 *463:5 *463:9 4.53828
11 *1437:Z *463:6 6.32615
12 *1775:B1 *463:7 1.49985
*END

*D_NET *464 0.0161285

*CONN
*I *1279:I I *C 140.1 53.2 *L 0.00104 *D DEL0
*I *1438:Z O *C 146.9 55.6 *L 0 *D DEL0
*I *1695:B1 I *C 145.7 163.2 *L 0.000972 *D IND2D1
*I *1773:A2 I *C 144.3 161.2 *L 0.000883 *D NR2XD0
*I *1765:A2 I *C 144.3 159.6 *L 0.000996 *D NR2D1

*CAP
1 *1765:A2 6.55121e-05
2 *1773:A2 7.86146e-06
3 *1438:Z 0.0002106
4 *464:5 0.00572445
5 *464:6 0.000506802
6 *464:7 0.000884152
7 *464:8 0.000876902
8 *464:9 0.000107003
9 *464:10 0.000117136
10 *464:11 0.000112331
11 *464:12 0.000238464
12 *464:13 0.000178892
13 *464:14 7.36356e-05
14 *464:15 0.00200738
15 *464:16 0.000229904
16 *464:17 0.000194178
17 *464:7 *21:3 0.00126811
18 *464:6 *249:2 0.000380281016
19 *464:6 *485:3 0.000610817031
20 *464:17 *784:5 0.000331951992
21 *464:5 *111:2 0.000456736992
22 *464:6 *1061:Z 0.000716982031
23 *464:7 *242:2 0.000262957988
24 *464:5 *89:5 0.000565443984

*RES
1 *1695:B1 *464:8 7.46048
2 *464:11 *464:13 2.79172
3 *464:11 *464:12 2.31053
4 *464:14 *464:5 4.78327
5 *1765:A2 *464:9 1.69439
6 *1438:Z *464:10 4.07034
7 *464:6 *464:15 5.48937
8 *1773:A2 *464:8 2.25873
9 *464:9 *464:16 3.77727
10 *464:7 *464:5 89.3348999
11 *464:16 *464:17 6.78163
12 *1279:I *464:6 5.47165
13 *464:13 *464:14 7.61724
14 *464:17 *464:7 0.358506
15 *464:12 *464:15 6.92885
16 *464:8 *464:9 0.808343
17 *464:10 *464:15 10.4948
*END

*D_NET *465 0.000446383

*CONN
*I *1449:I I *C 141.9 312.2 *L 0.00267 *D CKND3
*I *1450:ZN O *C 139.9 312.2 *L 0 *D CKND1

*CAP
1 *1450:ZN 4.06366e-05
2 *1449:I 6.35344e-05
3 *465:2 0.000342215

*RES
1 *1450:ZN *465:2 2.99998
2 *1449:I *465:2 4.96556997
*END

*D_NET *466 0.00433575

*CONN
*I *1448:I I *C 146.7 276.2 *L 0.0054 *D CKND6
*I *1449:ZN O *C 142.3 312 *L 0 *D CKND3

*CAP
1 *1449:ZN 0.000115271
2 *1448:I 6.216e-05
3 *466:2 0.000449845
4 *466:3 2.52349e-05
5 *466:4 0.00368323

*RES
1 *466:2 *466:4 36.2751007
2 *466:3 *466:4 6.20213
3 *1449:ZN *466:2 3.00005
4 *1448:I *466:3 3.00005
*END

*D_NET *467 0.0344433

*CONN
*I *1447:I I *C 146.7 150.4 *L 0.00178 *D CKND2
*I *1448:ZN O *C 147.7 276 *L 0 *D CKND6
*I *1446:I I *C 145.3 276.4 *L 0.00178 *D CKND2
*I *1445:I I *C 145.5 262 *L 0.00178 *D CKND2
*I *1444:I I *C 145.5 231.6 *L 0.00178 *D CKND2
*I *1443:I I *C 145.7 192.2 *L 0.00267 *D CKND3
*I *1442:I I *C 146.3 114.4 *L 0.00178 *D CKND2
*I *1441:I I *C 146.3 80.4 *L 0.00178 *D CKND2
*I *1440:I I *C 146.1 51.6 *L 0.00178 *D CKND2
*I *1439:I I *C 146.1 28 *L 0.00178 *D CKND2

*CAP
1 *1446:I 0.000515957
2 *467:10 0.00225567
3 *467:11 9.0964e-05
4 *467:12 0.00277167
5 *467:13 0.00313754
6 *467:14 0.00291147
7 *467:15 0.000345663
8 *467:16 0.000409769
9 *467:17 0.0019417
10 *467:18 0.000345903
11 *467:19 0.000324119
12 *467:20 0.00259693
13 *467:21 0.000398183
14 *467:22 0.000488333
15 *467:23 0.000491062
16 *467:24 0.00107606
17 *467:25 0.00270819
18 *467:10 *480:5 0.000808237031
19 *1446:I *310:5 0.000438627969
20 *467:11 *312:2 0.000279325996
21 *467:12 *104:6 3.924e-06
22 *467:13 *104:8 7.329e-05
23 *467:14 *104:8 0.000109256
24 *467:14 *104:9 7.131e-06
25 *467:13 *104:10 9.4026e-05
26 *467:14 *104:10 4.4051e-05
27 *467:12 *104:11 2.62e-06
28 *467:13 *104:11 8.1866e-05
29 *467:15 *104:12 2.504e-05
30 *467:13 *104:12 0.000279095
31 *467:14 *104:12 3.6981e-05
32 *467:13 *104:13 2.6006e-05
33 *467:14 *104:13 5.8168e-05
34 *467:16 *104:3 1.3567e-05
35 *467:12 *104:3 0.00234952
36 *467:17 *104:3 0.000478734
37 *467:13 *104:3 0.000442119892
38 *467:12 *236:3 0.000967122969
39 *467:18 *294:2 0.000801327969
40 *467:19 *472:20 0.00021979
41 *467:12 *290:6 0.000691243984
42 *467:13 *109:9 0.000167781992
43 *467:10 *367:5 0.00119345
44 *467:20 *36:12 0.000932793984
45 *467:20 *91:11 0.00100897

*RES
1 *467:13 *467:14 28.5618
2 *467:24 *467:20 29.5286
3 *467:12 *467:13 36.459
4 *467:23 *467:20 3.99015
5 *467:20 *467:25 38.2771
6 *467:12 *467:17 45.031601
7 *467:11 *467:24 15.0989
8 *467:10 *467:14 29.0229
9 *467:18 *467:17 4.20866
10 *1439:I *467:10 6.16766
11 *467:22 *467:24 3.77783
12 *467:15 *467:13 4.3612
13 *467:25 *467:17 40.7522
14 *467:21 *467:14 4.55428
15 *467:19 *467:25 4.94182
16 *1446:I *467:11 7.51649
17 *1448:ZN *467:11 3.2563
18 *467:16 *467:12 6.68644
19 *1444:I *467:23 6
20 *1445:I *467:22 4.5
21 *1443:I *467:19 1.5
22 *1440:I *467:21 3
23 *1441:I *467:15 3
24 *1442:I *467:16 3
25 *1447:I *467:18 1.5
*END

*D_NET *468 0.0108075

*CONN
*I *1487:CPN I *C 138.7 28 *L 0.000701 *D DFNCND1
*I *1439:ZN O *C 146.37 28.295 *L 0 *D CKND2
*I *1486:CPN I *C 146.5 22.8 *L 0.000701 *D DFNCND1
*I *1485:CPN I *C 150.3 15.6 *L 0.000701 *D DFNCND1
*I *1484:CPN I *C 150.5 8.4 *L 0.000701 *D DFNCND1
*I *1479:CPN I *C 146.1 30 *L 0.000701 *D DFNCND1
*I *1478:CPN I *C 144.5 26.4 *L 0.000701 *D DFNCND1
*I *1477:CPN I *C 143.5 17.2 *L 0.000701 *D DFNCND1
*I *1476:CPN I *C 146.1 10 *L 0.000701 *D DFNCND1
*I *1475:CPN I *C 138.9 10 *L 0.000701 *D DFNCND1
*I *1470:CP I *C 138.5 30 *L 0.000642 *D DFCNQD1
*I *1469:CP I *C 138.1 26.4 *L 0.000642 *D DFCNQD1
*I *1468:CP I *C 138.9 20.8 *L 0.000642 *D DFCNQD1
*I *1467:CP I *C 138.7 15.6 *L 0.000642 *D DFCNQD1
*I *1466:CP I *C 138.1 12 *L 0.000642 *D DFCNQD1

*CAP
1 *1468:CP 6.04109e-05
2 *1469:CP 0.000304692
3 *1470:CP 0.000144941
4 *1475:CPN 0.000371774
5 *1476:CPN 4.18504e-05
6 *1477:CPN 6.74016e-05
7 *1478:CPN 0.000289542
8 *1479:CPN 0.00024251
9 *1486:CPN 0.000115338
10 *1439:ZN 9.28586e-05
11 *468:15 5.76032e-05
12 *468:16 7.36764e-05
13 *468:17 0.000615188
14 *468:18 0.000846072
15 *468:19 0.000199774
16 *468:20 0.000797702
17 *468:21 0.00123488
18 *468:22 0.000493632
19 *468:23 0.000122122
20 *468:24 0.000160581
21 *468:25 0.000101884
22 *468:26 0.000863088
23 *468:27 0.000264802
24 *468:28 0.000527983
25 *468:29 0.000713926
26 *468:30 0.000372226
27 *468:31 0.000295139
28 *468:32 0.00077168
29 *1470:CP *76:2 0.000241952012
30 *1476:CPN *490:17 0.000322329023

*RES
1 *468:16 *468:17 4.63736
2 *1476:CPN *468:20 1.75649
3 *1477:CPN *468:31 4.49997
4 *468:15 *468:30 3.40705
5 *1478:CPN *468:30 4.90189
6 *1469:CP *468:32 5.5545
7 *468:22 *468:26 3.4997
8 *468:18 *468:31 4.21956
9 *1486:CPN *468:17 1.97845
10 *468:21 *468:24 9.45800018
11 *1468:CP *468:21 3.46449
12 *468:25 *468:28 5.50687
13 *468:18 *468:19 1.55546
14 *468:17 *468:18 6.11185
15 *468:30 *468:32 6.02223
16 *468:23 *468:29 5.63113
17 *1439:ZN *468:16 1.96445
18 *468:20 *468:29 3.34167
19 *468:21 *468:26 5.83014
20 *468:15 *468:16 1.04861
21 *468:22 *468:27 3.76265
22 *468:19 *468:20 5.87705
23 *1475:CPN *468:22 3.78112
24 *1470:CP *468:24 3.42033
25 *1479:CPN *468:15 4.74906
26 *1466:CP *468:27 1.50004
27 *1467:CP *468:26 1.50004
28 *1485:CPN *468:25 1.50004
29 *1487:CPN *468:24 2.99993
30 *1484:CPN *468:23 1.50004
31 *468:19 *468:28 1.50004
32 *468:24 *468:32 1.50004
*END

*D_NET *469 0.0111748

*CONN
*I *1701:CP I *C 147.5 49.6 *L 0.000659 *D DFXQD1
*I *1440:ZN O *C 145.83 51.305 *L 0 *D CKND2
*I *1700:CP I *C 147.5 48 *L 0.000659 *D DFXQD1
*I *1490:CPN I *C 150.9 51.6 *L 0.000701 *D DFNCND1
*I *1489:CPN I *C 150.7 42.4 *L 0.000701 *D DFNCND1
*I *1488:CPN I *C 148.5 37.2 *L 0.000701 *D DFNCND1
*I *1483:CPN I *C 139.3 51.6 *L 0.000701 *D DFNCND1
*I *1482:CPN I *C 144.5 44.4 *L 0.000701 *D DFNCND1
*I *1481:CPN I *C 146.3 38.8 *L 0.000701 *D DFNCND1
*I *1480:CPN I *C 146.1 35.2 *L 0.000701 *D DFNCND1
*I *1474:CP I *C 142.9 48 *L 0.000642 *D DFCNQD1
*I *1473:CP I *C 138.1 44.4 *L 0.000642 *D DFCNQD1
*I *1472:CP I *C 138.1 37.2 *L 0.000642 *D DFCNQD1
*I *1471:CP I *C 138.1 33.6 *L 0.000642 *D DFCNQD1

*CAP
1 *1471:CP 0.000598664
2 *1474:CP 5.79172e-05
3 *1480:CPN 0.000196335
4 *1481:CPN 0.000301252
5 *1483:CPN 1.48538e-05
6 *1488:CPN 3.71983e-05
7 *1490:CPN 0.000144506
8 *1700:CP 0.000291339
9 *469:14 0.000563458
10 *469:15 0.000448834
11 *469:16 0.00050707
12 *469:17 0.000358038
13 *469:18 0.000110973
14 *469:19 0.000280533
15 *469:20 0.000233326
16 *469:21 0.0003432
17 *469:22 0.00104446992
18 *469:23 0.000134163
19 *469:24 0.000136298
20 *469:25 0.000585101
21 *469:26 0.000314002
22 *469:27 0.000270827
23 *469:28 0.000422027
24 *469:29 0.000528299
25 *469:30 0.000309189
26 *469:31 0.00104171
27 *469:32 0.000760845
28 *469:33 0.000419892
29 *1474:CP *367:3 0.000541585977
30 *1474:CP *801:5 0.000178885

*RES
1 *469:15 *469:16 0.972086
2 *469:14 *469:18 3.65295
3 *469:20 *469:29 2.93388
4 *469:16 *469:21 4.35975
5 *469:22 *469:27 3.44337
6 *469:29 *469:30 1.74849
7 *1483:CPN *469:31 4.69453
8 *469:14 *469:16 3.30527
9 *1480:CPN *469:17 2.69762
10 *469:19 *469:31 2.78721
11 *469:23 *469:32 4.16568
12 *469:25 *469:33 7.97994
13 *1440:ZN *469:18 1.75457
14 *1488:CPN *469:26 4.16555
15 *1490:CPN *469:29 8.13206959
16 *469:19 *469:22 7.34996
17 *469:17 *469:26 3.83325
18 *469:27 *469:32 7.33519
19 *469:30 *469:31 6.45989
20 *1481:CPN *469:17 4.23752
21 *1700:CP *469:20 4.8644
22 *1471:CP *469:23 5.69615
23 *469:14 *469:28 4.41385
24 *469:15 *469:25 3.66784
25 *1474:CP *469:28 3.00002
26 *469:24 *469:25 4.92458
27 *1489:CPN *469:24 1.49995
28 *1472:CP *469:23 1.49995
29 *1473:CP *469:22 1.49995
30 *1482:CPN *469:21 1.49995
31 *1701:CP *469:20 3.00002
32 *469:18 *469:30 1.49995
33 *469:26 *469:33 1.49995
*END

*D_NET *470 0.0127387

*CONN
*I *1713:CP I *C 147.9 82 *L 0.000659 *D DFXQD1
*I *1441:ZN O *C 146.03 80.105 *L 0 *D CKND2
*I *1712:CP I *C 147.3 78.4 *L 0.000659 *D DFXQD1
*I *1711:CP I *C 147.5 76.8 *L 0.000659 *D DFXQD1
*I *1710:CP I *C 147.3 71.2 *L 0.000659 *D DFXQD1
*I *1709:CP I *C 147.3 67.6 *L 0.000659 *D DFXQD1
*I *1708:CP I *C 147.3 66 *L 0.000659 *D DFXQD1
*I *1707:CP I *C 147.7 73.2 *L 0.000659 *D DFXQD1
*I *1706:CP I *C 147.1 69.6 *L 0.000659 *D DFXQD1
*I *1705:CP I *C 147.5 64 *L 0.000659 *D DFXQD1
*I *1704:CP I *C 147.5 60.4 *L 0.000659 *D DFXQD1
*I *1703:CP I *C 145.3 56.8 *L 0.000659 *D DFXQD1
*I *1702:CP I *C 144.3 53.2 *L 0.000659 *D DFXQD1
*I *1498:CPN I *C 145.5 84 *L 0.000701 *D DFNCND1
*I *1497:CPN I *C 145.5 80.4 *L 0.000701 *D DFNCND1
*I *1496:CPN I *C 143.7 76.8 *L 0.000701 *D DFNCND1
*I *1495:CPN I *C 143.7 73.2 *L 0.000701 *D DFNCND1
*I *1494:CPN I *C 143.3 67.6 *L 0.000701 *D DFNCND1
*I *1493:CPN I *C 143.5 64 *L 0.000701 *D DFNCND1
*I *1492:CPN I *C 143.7 60.4 *L 0.000701 *D DFNCND1
*I *1491:CPN I *C 147.3 58.8 *L 0.000701 *D DFNCND1

*CAP
1 *1491:CPN 0.000302051
2 *1492:CPN 9.5444e-05
3 *1494:CPN 4.63623e-05
4 *1495:CPN 5.27164e-05
5 *1496:CPN 0.000184255
6 *1497:CPN 5.51837e-06
7 *1708:CP 0.00028352
8 *1710:CP 2.26572e-05
9 *1441:ZN 1.74439e-05
10 *470:21 0.000550126
11 *470:22 0.000357753
12 *470:23 0.000869342969
13 *470:24 0.000576339
14 *470:25 0.000763738
15 *470:26 2.48194e-05
16 *470:27 0.000753059
17 *470:28 0.000583396
18 *470:29 8.80022e-05
19 *470:30 0.000298059
20 *470:31 4.43327e-05
21 *470:32 0.000129072
22 *470:33 0.000229132
23 *470:34 0.000235937
24 *470:35 0.000180209
25 *470:36 0.000440276
26 *470:37 0.000262972
27 *470:38 0.000831484
28 *470:39 0.000141355
29 *470:40 0.000151132
30 *470:41 0.00021848
31 *470:42 0.000301587
32 *470:43 0.000367264
33 *470:44 0.000276847
34 *470:45 0.000258753
35 *470:46 0.000373061
36 *470:21 *1704:SA 0.000629064023
37 *1494:CPN *192:4 0.000445123984
38 *1441:ZN *887:13 0.000303255
39 *1495:CPN *488:177 0.000595808047
40 *1491:CPN *364:22 0.000449

*RES
1 *470:44 *470:46 1.88858
2 *470:23 *470:24 3.50053
3 *470:21 *470:41 7.33363008
4 *1707:CP *470:38 4.81381
5 *470:40 *470:46 6.3377
6 *470:28 *470:29 5.03057
7 *470:22 *470:39 1.7403
8 *470:32 *470:43 3.28165
9 *1494:CPN *470:29 1.75642
10 *470:41 *470:45 2.52552
11 *470:25 *470:38 5.82418
12 *1492:CPN *470:42 2.99999
13 *1495:CPN *470:26 1.75642
14 *1708:CP *470:33 4.92572
15 *1491:CPN *470:36 3.51899
16 *1706:CP *470:39 2.99999
17 *470:25 *470:26 0.212279
18 *470:27 *470:37 4.38903
19 *470:24 *470:34 3.77715
20 *1713:CP *470:43 7.02758
21 *470:30 *470:38 5.90945
22 *470:22 *470:33 1.92573
23 *470:21 *470:42 3.83131
24 *470:21 *470:24 3.69054
25 *470:23 *470:35 5.03762
26 *1496:CPN *470:25 5.6683
27 *1441:ZN *1497:CPN 0.566114
28 *470:43 *470:44 1.35995
29 *1498:CPN *470:40 4.50004
30 *1710:CP *470:22 4.64495
31 *470:30 *470:32 2.22216
32 *470:37 *470:39 1.19668
33 *470:31 *470:36 3.51217
34 *1441:ZN *470:44 3.25457
35 *470:31 *470:41 2.85989
36 *470:27 *470:29 1.18124
37 *470:26 *470:27 4.43749
38 *1493:CPN *470:28 1.50005
39 *1704:CP *470:36 1.50005
40 *1702:CP *470:35 2.99999
41 *1703:CP *470:34 2.99999
42 *1709:CP *470:33 2.99999
43 *1712:CP *470:32 2.99999
44 *1705:CP *470:31 2.99999
45 *1711:CP *470:30 2.99999
46 *470:28 *470:45 1.50005
*END

*D_NET *471 0.0142598

*CONN
*I *1724:CP I *C 146.5 120 *L 0.000659 *D DFXQD1
*I *1442:ZN O *C 146.57 114.695 *L 0 *D CKND2
*I *1723:CP I *C 147.7 118 *L 0.000659 *D DFXQD1
*I *1722:CP I *C 147.5 116.4 *L 0.000659 *D DFXQD1
*I *1721:CP I *C 147.3 110.8 *L 0.000659 *D DFXQD1
*I *1720:CP I *C 147.7 109.2 *L 0.000659 *D DFXQD1
*I *1719:CP I *C 147.7 103.6 *L 0.000659 *D DFXQD1
*I *1718:CP I *C 147.5 98.4 *L 0.000659 *D DFXQD1
*I *1717:CP I *C 147.5 96.4 *L 0.000659 *D DFXQD1
*I *1716:CP I *C 147.7 94.8 *L 0.000659 *D DFXQD1
*I *1715:CP I *C 147.7 89.2 *L 0.000659 *D DFXQD1
*I *1714:CP I *C 147.3 84 *L 0.000659 *D DFXQD1
*I *1507:CPN I *C 143.5 116.4 *L 0.000701 *D DFNCND1
*I *1506:CPN I *C 143.7 114.4 *L 0.000701 *D DFNCND1
*I *1505:CPN I *C 145.1 112.8 *L 0.000701 *D DFNCND1
*I *1504:CPN I *C 150.1 105.6 *L 0.000701 *D DFNCND1
*I *1503:CPN I *C 143.9 100 *L 0.000701 *D DFNCND1
*I *1502:CPN I *C 143.3 92.8 *L 0.000701 *D DFNCND1
*I *1501:CPN I *C 145.1 91.2 *L 0.000701 *D DFNCND1
*I *1500:CPN I *C 150.9 87.6 *L 0.000701 *D DFNCND1
*I *1499:CPN I *C 143.7 85.6 *L 0.000701 *D DFNCND1

*CAP
1 *1502:CPN 8.41303e-05
2 *1505:CPN 0.000309526
3 *1507:CPN 0.000237961
4 *1714:CP 0.000299151
5 *1715:CP 6.72179e-06
6 *1716:CP 0.00023941
7 *1719:CP 0.000230776
8 *1720:CP 0.000223052
9 *1724:CP 0.000249354
10 *471:21 0.000310066
11 *471:22 8.78458e-05
12 *471:23 0.000613348
13 *471:24 0.000813105
14 *471:25 0.000789703
15 *471:26 0.00101035
16 *471:27 0.000327271
17 *471:28 0.000565956
18 *471:30 0.000321829
19 *471:31 0.000210673
20 *471:32 0.000199357
21 *471:33 7.47106e-05
22 *471:34 5.25564e-05
23 *471:35 0.000592443
24 *471:36 0.000413606
25 *471:37 0.000574821
26 *471:38 0.000527491
27 *471:39 0.000684605
28 *471:40 0.000563752
29 *471:41 0.000429886
30 *471:42 0.000366754
31 *471:43 0.000108751
32 *471:44 0.000403816
33 *471:45 0.000239179
34 *1719:CP *96:2 0.000514183984
35 *471:23 *1345:I 0.000273579004
36 *1720:CP *488:74 0.000445151016
37 *1719:CP *50:2 0.000189637012
38 *1716:CP *57:2 0.000498963008
39 *471:21 *437:2 0.000176358008

*RES
1 *471:42 *471:45 1.89741
2 *471:24 *471:25 5.84107
3 *471:26 *471:27 1.86214
4 *1714:CP *471:44 6.66228
5 *1715:CP *471:39 6.52414
6 *471:29 *471:35 4.32564
7 *471:22 *471:23 0.649501
8 *1719:CP *471:41 6.25037
9 *471:30 *471:42 4.45935
10 *1720:CP *471:22 4.94306
11 *471:23 *471:35 4.63208
12 *471:38 *471:44 4.41406
13 *471:37 *471:43 4.34135
14 *1505:CPN *471:45 4.69204
15 *471:27 *471:28 3.53152
16 *1723:CP *471:30 5.30138
17 *471:36 *471:45 2.85972
18 *471:25 *471:26 7.45720005
19 *471:31 *471:43 4.26374
20 *471:28 *471:39 2.7713
21 *471:23 *471:24 5.37989
22 *1724:CP *471:29 4.42475
23 *471:31 *471:32 1.90231
24 *471:27 *471:21 4.82142
25 *471:24 *471:41 2.47124
26 *471:28 *471:44 3.4447
27 *471:33 *471:39 4.72948
28 *1502:CPN *471:40 3.00002
29 *1716:CP *471:32 5.50494
30 *471:34 *471:41 4.49633
31 *1507:CPN *471:36 3.25888
32 *1721:CP *471:22 3.16353
33 *471:26 *471:40 4.92417
34 *1499:CPN *471:38 1.49995
35 *1503:CPN *471:37 1.49995
36 *1501:CPN *471:21 1.49995
37 *1506:CPN *471:36 1.49995
38 *1442:ZN *471:35 1.49995
39 *1504:CPN *471:34 1.49995
40 *1500:CPN *471:33 1.49995
41 *1717:CP *471:32 3.00002
42 *1718:CP *471:31 3.00002
43 *1722:CP *471:30 3.00002
44 *471:25 *471:43 1.49995
45 *471:35 *471:42 1.49995
*END

*D_NET *472 0.00600751

*CONN
*I *1735:CP I *C 145.3 190 *L 0.000659 *D DFXQD1
*I *1443:ZN O *C 145.3 192.4 *L 0 *D CKND3
*I *1734:CP I *C 144.9 184.8 *L 0.000659 *D DFXQD1
*I *1733:CP I *C 145.5 181.2 *L 0.000659 *D DFXQD1
*I *1519:CPN I *C 145.5 193.6 *L 0.000701 *D DFNCND1
*I *1518:CPN I *C 146.7 188.4 *L 0.000701 *D DFNCND1
*I *1517:CPN I *C 144.5 182.8 *L 0.000701 *D DFNCND1
*I *1516:CPN I *C 148.5 177.6 *L 0.000701 *D DFNCND1
*I *1465:CLK I *C 134.195 180.925 *L 0.031 *D sram00

*CAP
1 *472:9 5.74483e-05
2 *472:10 2.39027e-05
3 *472:11 4.95408e-05
4 *472:12 6.92032e-05
5 *472:13 1.9466e-05
6 *472:14 0.000345492
7 *472:15 0.000536043
8 *472:16 4.79364e-05
9 *472:18 0.000182954
10 *472:19 6.89576e-05
11 *472:20 0.000215092
12 *472:21 5.86271e-05
13 *472:22 0.000299389
14 *472:23 4.90333e-05
15 *472:24 2.51797e-05
16 *472:25 7.99594e-05
17 *472:26 4.21572e-05
18 *472:27 9.17798e-05
19 *472:28 0.000279662
20 *472:29 0.00107292
21 *472:30 5.48616e-05
22 *472:32 3.9816e-05
23 *472:33 3.44461e-05
24 *472:34 0.000372129
25 *472:35 0.000158298
26 *472:29 *1733:DA 0.000183191992
27 *472:15 *1734:DA 0.000249195
28 *472:14 *97:7 0.00041439
29 *472:20 *467:19 0.00021979
30 *472:11 *107:9 0.000370111992
31 *472:10 *368:6 0.000296593984

*RES
1 *472:28 *472:29 10.8405
2 *472:14 *472:15 4.21481
3 *472:31 *472:34 2.66495
4 *472:25 *472:34 4.8049
5 *472:32 *472:35 3.78991
6 *472:25 *472:27 1.70581
7 *472:13 *472:20 1.1345
8 *472:16 *472:23 0.517811
9 *472:9 *472:19 0.547014
10 *472:12 *472:13 0.256432
11 *472:17 *472:18 0.674227
12 *1519:CPN *472:12 1.6729
13 *472:33 *472:35 2.00822
14 *472:28 *472:35 4.04434
15 *472:11 *472:21 0.524324
16 *472:26 *472:27 0.194158
17 *472:14 *472:30 2.85911
18 *472:15 *472:32 2.08243
19 *472:20 *472:22 2.43384
20 *472:14 *472:22 2.0162
21 *472:27 *472:28 0.868441
22 *472:10 *472:24 0.417958
23 *1517:CPN *472:18 1.5
24 *1518:CPN *472:24 1.5
25 *1734:CP *472:23 3
26 *1735:CP *472:22 3
27 *1733:CP *472:21 3
28 *1443:ZN *472:20 1.5
29 *1516:CPN *472:19 1.5
30 *472:18 *472:33 1.5
31 *472:19 *472:31 1.5
32 *472:21 *472:26 1.5
33 *472:23 *472:32 1.5
34 *472:24 *472:30 1.5
35 *1443:ZN *1465:CLK 0.0001
*END

*D_NET *473 0.012869

*CONN
*I *1745:CP I *C 146.5 233.2 *L 0.000659 *D DFXQD1
*I *1444:ZN O *C 145.23 231.305 *L 0 *D CKND2
*I *1744:CP I *C 146.7 229.6 *L 0.000659 *D DFXQD1
*I *1743:CP I *C 144.3 226 *L 0.000659 *D DFXQD1
*I *1742:CP I *C 146.7 224.4 *L 0.000659 *D DFXQD1
*I *1741:CP I *C 146.7 220.8 *L 0.000659 *D DFXQD1
*I *1740:CP I *C 146.5 213.6 *L 0.000659 *D DFXQD1
*I *1739:CP I *C 146.7 210 *L 0.000659 *D DFXQD1
*I *1738:CP I *C 146.7 204.4 *L 0.000659 *D DFXQD1
*I *1737:CP I *C 146.7 200.8 *L 0.000659 *D DFXQD1
*I *1736:CP I *C 146.9 195.6 *L 0.000659 *D DFXQD1
*I *1529:CPN I *C 144.5 235.2 *L 0.000701 *D DFNCND1
*I *1528:CPN I *C 144.7 231.6 *L 0.000701 *D DFNCND1
*I *1527:CPN I *C 144.5 228 *L 0.000701 *D DFNCND1
*I *1526:CPN I *C 144.7 222.4 *L 0.000701 *D DFNCND1
*I *1525:CPN I *C 145.3 218.8 *L 0.000701 *D DFNCND1
*I *1524:CPN I *C 144.9 215.2 *L 0.000701 *D DFNCND1
*I *1523:CPN I *C 144.7 211.6 *L 0.000701 *D DFNCND1
*I *1522:CPN I *C 144.7 206.4 *L 0.000701 *D DFNCND1
*I *1521:CPN I *C 144.7 202.8 *L 0.000701 *D DFNCND1
*I *1520:CPN I *C 146.9 199.2 *L 0.000701 *D DFNCND1

*CAP
1 *1521:CPN 2.77517e-05
2 *1524:CPN 3.55442e-05
3 *1527:CPN 0.000282299
4 *1528:CPN 1.48636e-05
5 *1529:CPN 2.23895e-05
6 *1736:CP 0.000520086
7 *1737:CP 0.000525825
8 *1740:CP 2.95705e-05
9 *1741:CP 0.00024895
10 *1742:CP 1.12575e-05
11 *1744:CP 0.000275056
12 *1444:ZN 1.23393e-05
13 *1745:CP 3.79431e-06
14 *473:21 0.000333005
15 *473:22 0.000329948
16 *473:23 0.00036833
17 *473:24 0.000756023
18 *473:25 0.000543213
19 *473:26 0.00102751992
20 *473:27 0.000550519
21 *473:28 0.000283773
22 *473:29 4.60491e-05
23 *473:30 0.000131844
24 *473:31 0.000176733
25 *473:32 0.000129336
26 *473:33 4.18942e-05
27 *473:34 0.000741379
28 *473:35 0.000110584
29 *473:36 7.79087e-05
30 *473:37 0.000432143
31 *473:38 0.000417672
32 *473:39 0.000409095
33 *473:40 0.000517405
34 *473:41 0.000366448
35 *473:42 0.000729651
36 *473:43 0.000142992
37 *473:24 *1743:SA 0.00127681992
38 *1521:CPN *355:10 0.00091892

*RES
1 *473:36 *473:42 3.05331
2 *1740:CP *473:26 8.79181957
3 *1524:CPN *473:43 3.00005
4 *473:25 *473:37 4.18811
5 *1744:CP *473:22 5.1261
6 *1736:CP *473:36 6.50224
7 *473:24 *473:25 4.82641
8 *473:23 *473:40 4.69923
9 *473:22 *473:23 0.339272
10 *473:28 *473:39 4.95117
11 *1741:CP *473:21 4.56467
12 *473:26 *473:43 1.88833
13 *473:24 *473:35 3.97078
14 *473:29 *473:40 0.618175
15 *473:28 *473:32 3.76231
16 *473:33 *473:34 5.40608
17 *473:30 *473:40 5.08331
18 *473:39 *473:42 6.96158
19 *1742:CP *473:21 4.74873
20 *1526:CPN *473:41 3.58254
21 *473:26 *473:37 3.7713
22 *473:21 *473:41 2.85906
23 *1527:CPN *473:35 5.03957
24 *473:31 *473:43 3.80014
25 *473:27 *473:38 2.90118
26 *1521:CPN *473:39 2.24062
27 *473:31 *473:38 2.38349
28 *1745:CP *473:22 4.81634
29 *1444:ZN *1528:CPN 0.569612
30 *473:27 *473:28 4.95224
31 *1529:CPN *473:30 3.23831
32 *1737:CP *473:34 6.6113
33 *473:27 *473:33 4.35915
34 *473:24 *473:29 6.55322
35 *1444:ZN *473:40 1.49996
36 *1523:CPN *473:38 1.49996
37 *1525:CPN *473:37 1.49996
38 *1520:CPN *473:36 1.49996
39 *1743:CP *473:35 3.00005
40 *1738:CP *473:34 3.00005
41 *1739:CP *473:33 3.00005
42 *1522:CPN *473:32 1.49996
43 *473:25 *473:41 1.49996
*END

*D_NET *474 0.0119926

*CONN
*I *1760:CP I *C 141.7 269.2 *L 0.000659 *D DFXQD1
*I *1445:ZN O *C 145.23 262.295 *L 0 *D CKND2
*I *1759:CP I *C 147.5 264 *L 0.000659 *D DFXQD1
*I *1758:CP I *C 147.1 260.4 *L 0.000659 *D DFXQD1
*I *1757:CP I *C 147.1 254.8 *L 0.000659 *D DFXQD1
*I *1756:CP I *C 147.3 247.6 *L 0.000659 *D DFXQD1
*I *1753:CP I *C 147.1 267.6 *L 0.000659 *D DFXQD1
*I *1752:CP I *C 147.3 265.6 *L 0.000659 *D DFXQD1
*I *1751:CP I *C 147.3 262 *L 0.000659 *D DFXQD1
*I *1750:CP I *C 146.5 253.2 *L 0.000659 *D DFXQD1
*I *1749:CP I *C 146.9 249.6 *L 0.000659 *D DFXQD1
*I *1748:CP I *C 146.5 242.4 *L 0.000659 *D DFXQD1
*I *1747:CP I *C 146.5 238.8 *L 0.000659 *D DFXQD1
*I *1746:CP I *C 146.3 235.2 *L 0.000659 *D DFXQD1
*I *1536:CPN I *C 143.3 265.6 *L 0.000701 *D DFNCND1
*I *1535:CPN I *C 143.3 262 *L 0.000701 *D DFNCND1
*I *1534:CPN I *C 144.9 258.4 *L 0.000701 *D DFNCND1
*I *1533:CPN I *C 144.9 251.2 *L 0.000701 *D DFNCND1
*I *1532:CPN I *C 143.5 247.6 *L 0.000701 *D DFNCND1
*I *1531:CPN I *C 144.7 244 *L 0.000701 *D DFNCND1
*I *1530:CPN I *C 144.7 240.4 *L 0.000701 *D DFNCND1

*CAP
1 *1530:CPN 3.32106e-05
2 *1531:CPN 4.34448e-05
3 *1532:CPN 4.6776e-05
4 *1533:CPN 0.000193944
5 *1534:CPN 1.6428e-05
6 *1535:CPN 6.442e-05
7 *1746:CP 0.000166319
8 *1747:CP 9.4312e-05
9 *1748:CP 1.67193e-06
10 *1753:CP 0.00022723
11 *1757:CP 1.38061e-06
12 *1758:CP 0.000255045
13 *1759:CP 0.000125863
14 *1445:ZN 6.32927e-05
15 *474:21 0.000427647
16 *474:22 3.47052e-05
17 *474:23 0.000168384
18 *474:24 0.000177199
19 *474:25 0.0007986
20 *474:26 9.14621e-05
21 *474:27 0.00049042
22 *474:28 4.7802e-05
23 *474:29 0.000670811
24 *474:30 0.000573826
25 *474:31 0.000668594
26 *474:32 0.000349408
27 *474:33 0.000132234
28 *474:34 3.84164e-05
29 *474:35 0.000105952
30 *474:36 6.70038e-05
31 *474:37 0.000830075
32 *474:38 0.000427077
33 *474:39 0.000671102
34 *474:40 0.000291511
35 *474:41 0.000470673
36 *474:42 3.46925e-05
37 *474:43 0.000445734
38 *474:44 0.000331194
39 *474:45 0.000347153
40 *474:46 0.000248244
41 *474:47 0.000272398
42 *474:48 0.000251752
43 *474:21 *760:3 0.000314664004
44 *1757:CP *1757:DB 0.000416415977
45 *474:22 *1758:SA 0.000464131016

*RES
1 *474:24 *474:29 7.49725008
2 *1532:CPN *474:45 4.74744
3 *1758:CP *474:36 4.9489
4 *474:25 *474:34 5.02772
5 *474:44 *474:46 1.95233
6 *474:43 *474:48 4.21926
7 *474:38 *474:45 4.99752
8 *474:22 *474:44 1.66748
9 *474:30 *474:32 4.55331
10 *474:26 *474:28 0.647269
11 *1531:CPN *474:38 2.24062
12 *1445:ZN *474:22 1.75637
13 *474:22 *474:37 4.80247
14 *1746:CP *474:39 4.86402
15 *474:31 *474:46 3.05331
16 *1757:CP *474:24 3.5919
17 *474:21 *474:28 4.25781
18 *1753:CP *474:33 5.07394
19 *1748:CP *474:28 3.16325
20 *1759:CP *474:23 3.08431
21 *474:34 *474:40 3.05331
22 *1533:CPN *474:48 5.63884
23 *474:23 *474:36 0.198825
24 *1530:CPN *474:21 0.740619
25 *474:26 *474:27 3.61913
26 *474:27 *474:39 5.80735
27 *474:29 *474:37 2.4947
28 *474:42 *474:44 2.14338
29 *474:33 *474:41 2.66538
30 *1750:CP *474:43 4.5
31 *1534:CPN *474:37 1.99775
32 *474:30 *474:31 3.10776
33 *474:40 *474:47 3.44272
34 *474:35 *474:47 4.42907
35 *474:47 *474:48 1.35986
36 *474:25 *474:26 0.673352
37 *1747:CP *474:27 3.80823
38 *474:40 *474:45 0.38827
39 *474:24 *474:43 3.50484
40 *474:41 *474:42 4.94261
41 *1535:CPN *474:46 3.19425
42 *1760:CP *474:30 6.87458
43 *1751:CP *474:36 1.5
44 *1749:CP *474:35 3
45 *1756:CP *474:34 3
46 *1752:CP *474:33 3
47 *1536:CPN *474:32 1.5
48 *474:23 *474:42 1.5
*END

*D_NET *475 0.00946591

*CONN
*I *1763:CP I *C 142.1 276.4 *L 0.000659 *D DFXQD1
*I *1446:ZN O *C 145.57 276.695 *L 0 *D CKND2
*I *1762:CP I *C 147.7 278.4 *L 0.000659 *D DFXQD1
*I *1761:CP I *C 148.7 271.2 *L 0.000659 *D DFXQD1
*I *1755:CP I *C 147.7 274.8 *L 0.000659 *D DFXQD1
*I *1754:CP I *C 143.7 271.2 *L 0.000659 *D DFXQD1
*I *1547:CPN I *C 143.9 303.6 *L 0.000701 *D DFNCND1
*I *1546:CPN I *C 147.7 301.6 *L 0.000701 *D DFNCND1
*I *1545:CPN I *C 147.7 298 *L 0.000701 *D DFNCND1
*I *1544:CPN I *C 144.3 300 *L 0.000701 *D DFNCND1
*I *1543:CPN I *C 148.1 294.4 *L 0.000701 *D DFNCND1
*I *1542:CPN I *C 148.7 292.8 *L 0.000701 *D DFNCND1
*I *1541:CPN I *C 148.7 290.8 *L 0.000701 *D DFNCND1
*I *1540:CPN I *C 147.1 283.6 *L 0.000701 *D DFNCND1
*I *1539:CPN I *C 149.9 282 *L 0.000701 *D DFNCND1
*I *1538:CPN I *C 144.9 278.4 *L 0.000701 *D DFNCND1
*I *1537:CPN I *C 143.7 274.8 *L 0.000701 *D DFNCND1

*CAP
1 *1547:CPN 0.000154693
2 *1755:CP 0.000341332
3 *1446:ZN 3.66466e-05
4 *475:17 0.000444491
5 *475:18 0.00014933
6 *475:19 0.00100994
7 *475:20 0.000243397
8 *475:21 0.000251718
9 *475:22 0.000116613
10 *475:23 0.000206919
11 *475:24 0.000161751
12 *475:25 0.000445123
13 *475:26 0.000106765
14 *475:27 0.000571197
15 *475:28 0.000508769
16 *475:29 0.000114933
17 *475:30 0.000234428
18 *475:31 0.000481476
19 *475:32 5.57867e-06
20 *475:33 0.000264925
21 *475:34 0.000224719
22 *475:35 0.000913284
23 *475:36 0.000162691
24 *475:37 7.07043e-05
25 *475:38 0.000352042
26 *475:39 0.000357883
27 *475:40 0.000186855
28 *475:41 0.000677038
29 *475:42 0.00018066
30 *475:35 *258:2 0.00027092498
31 *1755:CP *312:2 0.000219119004

*RES
1 *475:36 *475:39 0.776602
2 *475:21 *475:39 3.44157
3 *475:20 *475:25 3.49627
4 *475:17 *475:28 3.80391
5 *475:19 *475:20 1.69381
6 *475:18 *475:19 7.07175016
7 *475:28 *475:32 3.30992
8 *1543:CPN *475:34 3.29125
9 *1755:CP *475:21 5.57757
10 *475:21 *475:25 1.93994
11 *475:22 *475:38 3.63569
12 *475:30 *475:31 1.74819
13 *475:23 *475:42 4.16497
14 *475:30 *475:34 4.20759
15 *475:29 *475:41 4.5543
16 *475:37 *475:41 4.80065
17 *475:40 *475:42 1.74841
18 *1754:CP *475:35 5.66498
19 *1446:ZN *475:39 4.50002
20 *475:27 *475:36 4.21817
21 *475:18 *475:31 4.51361
22 *475:26 *475:40 4.55408
23 *475:24 *475:35 5.189
24 *475:19 *475:33 3.73572
25 *475:35 *475:42 4.99682
26 *1547:CPN *475:41 6.637
27 *1540:CPN *475:33 1.50001
28 *1546:CPN *475:32 1.50001
29 *1541:CPN *475:31 1.50001
30 *1542:CPN *475:30 1.50001
31 *1544:CPN *475:29 1.50001
32 *1545:CPN *475:28 1.50001
33 *1763:CP *475:27 3.00001
34 *1538:CPN *475:26 3.00001
35 *1762:CP *475:25 3.00001
36 *1761:CP *475:24 3.00001
37 *1537:CPN *475:23 1.50001
38 *1539:CPN *475:22 1.50001
39 *475:17 *475:34 1.50001
40 *475:20 *475:38 1.50001
41 *475:32 *475:37 1.50001
42 *475:36 *475:40 1.50001
*END

*D_NET *476 0.0125305

*CONN
*I *1777:CP I *C 146.9 166.8 *L 0.000688 *D DFCND1
*I *1447:ZN O *C 146.97 150.695 *L 0 *D CKND2
*I *1764:CPN I *C 146.9 168.4 *L 0.000674 *D DFNSND1
*I *1732:CP I *C 145.5 170.4 *L 0.000659 *D DFXQD1
*I *1731:CP I *C 146.7 148.8 *L 0.000659 *D DFXQD1
*I *1730:CP I *C 146.7 146.8 *L 0.000659 *D DFXQD1
*I *1729:CP I *C 146.7 143.2 *L 0.000659 *D DFXQD1
*I *1728:CP I *C 146.7 139.6 *L 0.000659 *D DFXQD1
*I *1727:CP I *C 147.5 136 *L 0.000659 *D DFXQD1
*I *1726:CP I *C 147.1 130.8 *L 0.000659 *D DFXQD1
*I *1725:CP I *C 147.1 127.2 *L 0.000659 *D DFXQD1
*I *1515:CPN I *C 145.1 150.4 *L 0.000701 *D DFNCND1
*I *1514:CPN I *C 144.5 145.2 *L 0.000701 *D DFNCND1
*I *1513:CPN I *C 144.3 138 *L 0.000701 *D DFNCND1
*I *1512:CPN I *C 143.5 136 *L 0.000701 *D DFNCND1
*I *1511:CPN I *C 144.5 132.4 *L 0.000701 *D DFNCND1
*I *1510:CPN I *C 144.5 128.8 *L 0.000701 *D DFNCND1
*I *1509:CPN I *C 144.5 125.2 *L 0.000701 *D DFNCND1
*I *1508:CPN I *C 144.7 120 *L 0.000701 *D DFNCND1

*CAP
1 *1508:CPN 2.91098e-05
2 *1509:CPN 0.000610765
3 *1513:CPN 0.000223133
4 *1514:CPN 7.06634e-05
5 *1726:CP 8.20914e-05
6 *1728:CP 2.66972e-05
7 *1729:CP 3.90458e-05
8 *1730:CP 3.73316e-05
9 *1731:CP 5.18389e-05
10 *1732:CP 6.13305e-05
11 *476:19 0.000385728
12 *476:20 0.00208038
13 *476:21 0.000240465
14 *476:22 1.39359e-05
15 *476:23 0.000636574
16 *476:24 0.000503723
17 *476:25 0.000781265
18 *476:26 0.000286114
19 *476:27 0.000248973
20 *476:28 0.000297129
21 *476:29 0.000277003
22 *476:30 0.000512135
23 *476:31 8.60278e-05
24 *476:32 0.000264273
25 *476:33 0.00027694
26 *476:34 0.000151485
27 *476:35 0.000537562
28 *476:36 0.000456519
29 *476:37 0.000488327
30 *476:38 0.000411537
31 *476:39 0.000235418
32 *476:40 0.000329699
33 *476:41 0.000362682
34 *476:42 0.000568355
35 *1509:CPN *1725:SA 0.000336573008
36 *1726:CP *344:2 0.000279554004
37 *476:20 *1271:I 0.000250171992

*RES
1 *476:29 *476:30 3.51321
2 *476:39 *476:42 2.72603
3 *1732:CP *476:40 4.50011
4 *476:36 *476:37 3.50085
5 *476:27 *476:28 2.21035
6 *1728:CP *476:30 3.25644
7 *476:33 *476:40 4.60876
8 *1729:CP *476:29 3.25644
9 *1512:CPN *476:42 4.12328
10 *1730:CP *476:28 3.25644
11 *1508:CPN *476:38 4.50011
12 *476:33 *476:34 1.74959
13 *476:21 *476:29 1.94431
14 *476:25 *476:38 3.87982
15 *476:20 *476:27 1.90294
16 *1514:CPN *476:41 2.99991
17 *476:19 *476:22 2.95617
18 *476:26 *476:32 2.18444
19 *476:25 *476:26 5.03861
20 *1509:CPN *476:37 5.45705
21 *476:20 *476:35 4.90381
22 *476:24 *476:30 3.70199
23 *476:20 *476:34 15.5811005
24 *1727:CP *476:39 5.08283
25 *476:22 *476:23 0.256531
26 *1731:CP *476:27 3.46471
27 *476:31 *476:36 3.30637
28 *476:23 *476:24 4.84056
29 *1726:CP *476:22 1.75435
30 *476:19 *476:32 1.52658
31 *476:21 *476:41 3.83108
32 *476:21 *476:28 1.60718
33 *1513:CPN *476:31 4.94565
34 *1447:ZN *476:20 1.49996
35 *1510:CPN *476:37 1.49996
36 *1511:CPN *476:36 1.49996
37 *1515:CPN *476:35 1.49996
38 *1777:CP *476:34 1.49996
39 *1764:CPN *476:33 1.49996
40 *1725:CP *476:32 1.49996
41 *476:24 *476:39 1.49996
42 *476:31 *476:42 1.49996
*END

*D_NET *477 0.0016843

*CONN
*I *1451:ZN O *C 137.9 175.2 *L 0 *D TIEL
*I *1465:EMA[0] I *C 134.195 170.78 *L 0.00755 *D sram00
*I *1465:EMA[2] I *C 134.195 179.915 *L 0.00755 *D sram00

*CAP
1 *477:4 0.000216284
2 *477:6 6.26251e-05
3 *477:7 0.000253544
4 *477:8 1.32242e-05
5 *477:9 1.87613e-05
6 *477:10 0.000117708
7 *477:11 0.000316278
8 *477:12 1.33687e-06
9 *477:13 2.55721e-05
10 *477:14 5.22102e-06
11 *477:15 4.3096e-05
12 *477:16 1.8671e-05
13 *477:17 0.000591970977

*RES
1 *477:3 *477:4 2.27756
2 *477:7 *477:9 0.453272
3 *477:8 *477:10 0.256678
4 *477:13 *477:14 0.614262
5 *477:4 *477:17 5.02889013
6 *477:11 *477:17 3.09356
7 *477:5 *477:6 0.256448
8 *477:8 *477:17 0.646184
9 *477:11 *477:12 0.256448
10 *477:9 *477:10 0.86764
11 *477:12 *477:15 0.326813
12 *477:6 *477:14 0.536069
13 *477:5 *477:7 3.25801
14 *477:15 *477:16 0.419816
15 *1451:ZN *477:3 1.50001
16 *1451:ZN *1465:EMA[2] 7.67348e-05
17 *1465:EMA[2] *1465:EMA[0] 7.67348e-05
*END

*D_NET *478 0.00186146

*CONN
*I *1452:Z O *C 137.9 173.8 *L 0 *D TIEH
*I *1465:RETN I *C 134.195 178.555 *L 0.00453 *D sram00
*I *1465:EMA[1] I *C 134.195 169.62 *L 0.00755 *D sram00

*CAP
1 *1452:Z 3.4789e-06
2 *478:4 5.89882e-05
3 *478:5 0.000716948984
4 *478:6 2.64637e-05
5 *478:8 0.000510272
6 *478:9 6.18544e-05
7 *478:10 0.00028585
8 *478:11 1.82697e-06
9 *478:12 1.62239e-05
10 *478:13 7.286e-06
11 *478:14 5.05863e-05
12 *478:15 2.34881e-05
13 *478:16 6.02572e-05
14 *478:17 3.79397e-05

*RES
1 *478:7 *478:10 2.48503
2 *478:8 *478:9 0.746604
3 *478:3 *478:4 0.450815
4 *478:7 *478:9 0.256404
5 *478:11 *478:14 0.307296
6 *478:4 *478:13 0.282985
7 *478:5 *478:6 0.450815
8 *478:8 *478:17 4.99486
9 *478:3 *478:5 5.31091022
10 *478:10 *478:11 0.256404
11 *478:14 *478:15 0.419777
12 *478:6 *478:8 0.552193
13 *478:12 *478:13 0.419777
14 *1452:Z *478:16 2.01793
15 *478:16 *478:17 1.50001
16 *1452:Z *1465:EMA[1] 8.10381e-05
17 *1465:EMA[1] *1465:RETN 8.10381e-05
*END

*D_NET *479 0.0183682

*CONN
*I *1206:I I *C 140.1 121.6 *L 0.00104 *D DEL0
*I *1453:Z O *C 140.1 6 *L 0 *D CKBD1

*CAP
1 *1453:Z 0.000538626
2 *479:2 0.000175757
3 *479:3 0.000400291
4 *479:4 0.000294453
5 *479:5 5.45662e-05
6 *479:6 0.00209612984
7 *479:7 0.000432884
8 *479:9 0.00115018
9 *479:10 0.0017364
10 *479:11 0.000757978
11 *479:12 0.000151384
12 *479:13 0.000344509
13 *479:14 0.000337345
14 *479:15 0.000277949
15 *479:16 0.000167217
16 *479:17 0.000222519
17 *479:18 0.000349403
18 *479:20 0.000612703
19 *479:21 0.000242605
20 *479:22 0.000492375
21 *479:23 8.53997e-06
22 *479:24 0.000330212
23 *479:25 3.51834e-07
24 *479:26 0.000397444
25 *479:27 0.000392071
26 *479:28 0.000626936
27 *479:9 *1137:I 0.00055693
28 *479:11 *366:4 0.000727151953
29 *479:11 *384:2 0.000527099023
30 *479:2 *1098:I 0.000660848047
31 *479:3 *1131:I 0.000749998984
32 *479:2 *239:3 0.000896996016
33 *479:4 *369:4 0.00165835

*RES
1 *479:22 *479:25 0.256319
2 *479:6 *479:7 2.97901
3 *479:19 *479:22 4.74063
4 *479:19 *479:20 0.256319
5 *479:16 *479:18 2.5316
6 *479:13 *479:14 3.91205
7 *479:11 *479:28 8.84684
8 *479:2 *479:14 2.94742
9 *479:2 *479:4 5.43978
10 *479:16 *479:17 2.5102
11 *479:7 *479:17 3.23074
12 *479:24 *479:25 3.9625
13 *479:20 *479:21 6.49053
14 *479:18 *479:26 3.71688
15 *479:10 *479:23 12.2172
16 *479:9 *479:21 2.14381
17 *1206:I *479:28 8.40758
18 *479:23 *479:24 0.256319
19 *479:8 *479:9 8.32502
20 *1453:Z *479:5 4.49247
21 *479:12 *479:13 4.9251
22 *479:26 *479:27 7.13159
23 *479:11 *479:12 3.33317
24 *479:8 *479:3 0.256319
25 *479:4 *479:15 4.58419
26 *479:5 *479:10 6.45231
27 *479:6 *479:15 33.3959007
28 *479:3 *479:27 4.53578
*END

*D_NET *480 0.01094

*CONN
*I *1205:I I *C 149.5 125.2 *L 0.00104 *D DEL0
*I *1454:Z O *C 147.3 20.4 *L 0 *D CKBD1

*CAP
1 *1454:Z 0.000414363
2 *480:2 0.0023172
3 *480:3 0.000460435
4 *480:4 2.4185e-05
5 *480:5 0.00176501
6 *480:7 5.70681e-05
7 *480:8 0.000332968
8 *480:9 0.000485504
9 *480:10 0.000316986
10 *480:2 *83:8 0.00148996
11 *480:3 *145:2 0.000433605
12 *480:5 *196:2 0.0004852
13 *480:5 *467:10 0.000808237031
14 *480:5 *484:2 0.000492628984
15 *480:2 *28:4 0.00105669

*RES
1 *480:5 *480:10 30.2817
2 *480:9 *480:10 0.256591
3 *480:3 *480:4 4.70496
4 *1454:Z *480:5 9.49387
5 *480:7 *480:8 8.72568
6 *480:6 *480:9 8.70747
7 *480:6 *480:8 0.256591
8 *480:2 *480:7 3.17967
9 *480:4 *480:2 51.9011002
10 *1205:I *480:3 4.49985
*END

*D_NET *481 0.0133029

*CONN
*I *1280:I I *C 148.7 159.6 *L 0.00105 *D DEL1
*I *1455:Z O *C 150.1 20.4 *L 0 *D CKBD1

*CAP
1 *481:2 0.00042824
2 *481:3 8.91639e-05
3 *481:4 0.000438506
4 *481:5 0.000305323
5 *481:6 0.00921665
6 *481:6 *290:2 0.000211809004
7 *481:4 *484:2 0.00228536016
8 *481:4 *787:6 0.000327955

*RES
1 *481:5 *481:6 78.4076004
2 *481:4 *481:6 59.5211
3 *1280:I *481:3 4.49968
4 *481:2 *481:5 5.43646
5 *481:3 *481:4 3.58323
6 *1455:Z *481:2 1.50029
*END

*D_NET *482 0.0120646

*CONN
*I *1281:I I *C 141.7 146.8 *L 0.00105 *D DEL1
*I *1456:Z O *C 151.5 31.2 *L 0 *D CKBD1

*CAP
1 *1281:I 0.000106736
2 *482:2 0.00108522
3 *482:3 0.00591286
4 *482:4 1.08269e-05
5 *482:5 0.000117923
6 *482:6 0.000236839
7 *482:7 9.0044e-05
8 *482:2 *455:9 0.00254384
9 *482:2 *462:8 0.00041012
10 *482:3 *123:4 0.00155015

*RES
1 *482:7 *482:3 47.0643
2 *482:6 *482:2 10.932
3 *482:5 *482:7 2.99952
4 *482:2 *482:3 67.5056992
5 *482:4 *482:6 2.99952
6 *1281:I *482:5 4.50031
7 *1456:Z *482:4 1.49976
*END

*D_NET *483 0.0106978

*CONN
*I *1327:I I *C 144.9 132.4 *L 0.00105 *D DEL1
*I *1457:Z O *C 147.9 31.2 *L 0 *D CKBD1

*CAP
1 *1457:Z 0.000268989
2 *483:2 0.0049727
3 *483:3 0.000421354
4 *483:4 0.000438881
5 *483:6 0.000710906
6 *483:7 0.00015024
7 *483:8 5.94888e-05
8 *483:9 0.000726461
9 *483:10 0.000185827
10 *483:11 0.000231885
11 *483:11 *91:8 0.000613686992
12 *483:10 *336:3 0.000501012031
13 *483:2 *804:3 0.000449496016
14 *483:2 *893:9 0.000380895
15 *483:2 *216:2 0.000355542969
16 *483:2 *32:4 0.000230398008

*RES
1 *483:9 *483:11 0.256801
2 *483:3 *483:4 3.11125
3 *483:10 *483:11 15.7176
4 *483:8 *483:10 4.57304
5 *483:7 *483:2 4.42159
6 *483:5 *483:6 4.96482
7 *483:3 *483:7 5.28198
8 *483:2 *483:9 71.9218979
9 *483:6 *483:8 3.0004
10 *1457:Z *483:4 3.02345
11 *1327:I *483:5 3.0004
*END

*D_NET *484 0.010916

*CONN
*I *1283:I I *C 145.1 138 *L 0.00105 *D DEL1
*I *1458:Z O *C 148.7 41.2 *L 0 *D CKBD1

*CAP
1 *1458:Z 0.000572479
2 *484:2 0.00372603
3 *484:3 0.000244593
4 *484:4 0.000663618
5 *484:6 0.000139751
6 *484:7 0.000418628
7 *484:2 *436:3 0.000279606016
8 *484:2 *28:5 0.000179057012
9 *484:2 *480:5 0.000492628984
10 *484:3 *145:7 0.00155191
11 *484:4 *889:10 0.000362386992
12 *484:2 *481:4 0.00228536016

*RES
1 *484:2 *484:3 88.7324982
2 *484:6 *484:2 3.00035
3 *484:5 *484:4 6.59103
4 *1458:Z *484:6 6.52063
5 *484:7 *484:3 2.25568
6 *484:4 *484:7 6.34732
7 *1283:I *484:5 3.00035
*END

*D_NET *485 0.0148902

*CONN
*I *1282:I I *C 140.7 143.2 *L 0.00105 *D DEL1
*I *1459:Z O *C 139.5 41.2 *L 0 *D CKBD1

*CAP
1 *1459:Z 0.000109199
2 *485:2 0.00185747
3 *485:3 0.00254947
4 *485:4 0.000376575
5 *485:5 0.000922921
6 *485:6 0.00036541
7 *485:7 0.000191945
8 *485:8 9.14207e-06
9 *485:9 0.00163328
10 *485:3 *76:3 0.00155979
11 *485:3 *249:2 0.00022574
12 *485:6 *368:5 0.000701397031
13 *485:6 *781:4 0.000456510977
14 *485:2 *515:2 0.000492083984
15 *485:3 *111:4 0.000436818008
16 *485:4 *487:3 0.00200818984
17 *485:3 *464:6 0.000610817031
18 *485:5 *77:3 0.000383468008

*RES
1 *485:8 *485:9 17.6418
2 *485:2 *485:8 0.256348
3 *485:6 *485:5 17.0221
4 *1282:I *485:6 5.84601
5 *1459:Z *485:3 2.99991
6 *485:7 *485:9 0.256348
7 *485:4 *485:2 34.6409
8 *485:5 *485:4 2.51028
9 *485:3 *485:7 42
*END

*D_NET *486 0.00353329

*CONN
*I *1097:I I *C 138.5 78.4 *L 0.00072 *D BUFFD1
*I *1460:Z O *C 141.3 55.6 *L 0 *D CKBD1

*CAP
1 *1097:I 0.00011064
2 *486:2 0.000253986
3 *486:3 0.000451642
4 *486:4 0.000436855
5 *486:5 0.00228012984

*RES
1 *486:5 *486:6 22.6933002
2 *486:4 *486:6 4.40701
3 *1460:Z *486:2 3.0001
4 *1097:I *486:3 3.0001
5 *486:3 *486:4 4.603
6 *486:2 *486:5 4.16704
*END

*D_NET *487 0.00950135

*CONN
*I *1332:I I *C 140.9 127.2 *L 0.00105 *D DEL1
*I *1461:Z O *C 139.3 62.8 *L 0 *D CKBD1

*CAP
1 *487:2 0.000426921
2 *487:3 0.000288985
3 *487:4 0.00110388
4 *487:5 0.000340873
5 *487:6 0.000388534
6 *487:7 0.00141333
7 *487:8 0.000237787
8 *487:9 0.000486918
9 *487:10 0.000256808
10 *487:4 *1507:CDN 0.000896001016
11 *487:3 *372:2 0.000555522031
12 *487:2 *438:2 0.000220309004
13 *487:3 *485:4 0.00200818984
14 *487:2 *248:4 0.000877311016

*RES
1 *487:6 *487:10 5.83634
2 *487:5 *487:7 20.4092999
3 *487:4 *487:5 4.15124
4 *487:2 *487:10 7.03002
5 *487:7 *487:8 0.256611
6 *487:6 *487:9 5.55108
7 *1461:Z *487:2 3.38857
8 *487:8 *487:9 9.88046
9 *487:3 *487:4 18.8562
10 *1332:I *487:3 5.49908
*END

*D_NET *488 0.0687839

*CONN
*I *1652:A2 I *C 148.5 174 *L 0.000585 *D CKAN2D0
*I *1693:A2 I *C 148.7 182.8 *L 0.000585 *D CKAN2D0
*I *1642:A2 I *C 148.7 150.4 *L 0.000585 *D CKAN2D0
*I *1658:A2 I *C 148.7 186.4 *L 0.000585 *D CKAN2D0
*I *1624:A2 I *C 149.1 145.2 *L 0.000585 *D CKAN2D0
*I *1662:A2 I *C 145.3 141.6 *L 0.000585 *D CKAN2D0
*I *1656:A2 I *C 148.7 192 *L 0.000585 *D CKAN2D0
*I *1645:A2 I *C 149.1 138 *L 0.000585 *D CKAN2D0
*I *1666:A2 I *C 148.9 132.4 *L 0.000585 *D CKAN2D0
*I *1654:A2 I *C 148.7 197.2 *L 0.000585 *D CKAN2D0
*I *1664:A2 I *C 148.9 128.8 *L 0.000585 *D CKAN2D0
*I *1655:A2 I *C 149.5 202.8 *L 0.000585 *D CKAN2D0
*I *1660:A2 I *C 148.9 125.2 *L 0.000585 *D CKAN2D0
*I *1653:A2 I *C 149.5 206.4 *L 0.000585 *D CKAN2D0
*I *1670:A2 I *C 150.5 120 *L 0.000585 *D CKAN2D0
*I *1644:A2 I *C 149.5 211.6 *L 0.000585 *D CKAN2D0
*I *1669:A2 I *C 144.1 118 *L 0.000585 *D CKAN2D0
*I *1661:A2 I *C 149.5 215.2 *L 0.000585 *D CKAN2D0
*I *1672:A2 I *C 147.7 114.4 *L 0.000585 *D CKAN2D0
*I *1651:A2 I *C 147.5 217.2 *L 0.000585 *D CKAN2D0
*I *1673:A2 I *C 149.9 112.8 *L 0.000585 *D CKAN2D0
*I *1650:A2 I *C 149.5 222.4 *L 0.000585 *D CKAN2D0
*I *1671:A2 I *C 150.1 107.2 *L 0.000585 *D CKAN2D0
*I *1667:A2 I *C 150.1 102 *L 0.000585 *D CKAN2D0
*I *1621:A2 I *C 149.5 228 *L 0.000585 *D CKAN2D0
*I *1648:A2 I *C 149.5 231.6 *L 0.000585 *D CKAN2D0
*I *1649:A2 I *C 145.1 92.8 *L 0.000585 *D CKAN2D0
*I *1646:A2 I *C 149.7 92.8 *L 0.000585 *D CKAN2D0
*I *1663:A2 I *C 144.7 94.8 *L 0.000585 *D CKAN2D0
*I *1626:A2 I *C 150.3 235.2 *L 0.000585 *D CKAN2D0
*I *1675:A2 I *C 144.1 87.6 *L 0.000585 *D CKAN2D0
*I *1634:A2 I *C 149.5 240.4 *L 0.000585 *D CKAN2D0
*I *1676:A2 I *C 149.9 85.6 *L 0.000585 *D CKAN2D0
*I *1635:A2 I *C 149.5 244 *L 0.000585 *D CKAN2D0
*I *1674:A2 I *C 143.7 82 *L 0.000585 *D CKAN2D0
*I *1665:A2 I *C 146.5 244 *L 0.000585 *D CKAN2D0
*I *1643:A2 I *C 149.7 80.4 *L 0.000585 *D CKAN2D0
*I *1637:A2 I *C 149.5 251.2 *L 0.000585 *D CKAN2D0
*I *1659:A2 I *C 143.9 74.8 *L 0.000585 *D CKAN2D0
*I *1668:A2 I *C 148.5 256.8 *L 0.000585 *D CKAN2D0
*I *1639:A2 I *C 143.1 71.2 *L 0.000585 *D CKAN2D0
*I *1630:A2 I *C 143.9 256.8 *L 0.000585 *D CKAN2D0
*I *1677:A2 I *C 143.1 66 *L 0.000585 *D CKAN2D0
*I *1633:A2 I *C 143.5 260.4 *L 0.000585 *D CKAN2D0
*I *1632:A2 I *C 144.5 264 *L 0.000585 *D CKAN2D0
*I *1682:A2 I *C 149.3 62.4 *L 0.000585 *D CKAN2D0
*I *1681:A2 I *C 150.5 56.8 *L 0.000585 *D CKAN2D0
*I *1622:A2 I *C 144.5 272.8 *L 0.000585 *D CKAN2D0
*I *1640:A2 I *C 144.7 62.4 *L 0.000585 *D CKAN2D0
*I *1680:A2 I *C 150.1 58.8 *L 0.000585 *D CKAN2D0
*I *1628:A2 I *C 145.7 280 *L 0.000585 *D CKAN2D0
*I *1687:A1 I *C 139.5 46 *L 0.000556 *D CKAN2D0
*I *1629:A2 I *C 149.1 280 *L 0.000585 *D CKAN2D0
*I *1685:A1 I *C 144.7 46 *L 0.000556 *D CKAN2D0
*I *1638:A2 I *C 146.3 40.8 *L 0.000585 *D CKAN2D0
*I *1678:A2 I *C 149.9 289.2 *L 0.000585 *D CKAN2D0
*I *1647:A2 I *C 142.7 285.6 *L 0.000585 *D CKAN2D0
*I *1684:A2 I *C 144.1 40.8 *L 0.000585 *D CKAN2D0
*I *1689:A2 I *C 149.9 287.2 *L 0.000585 *D CKAN2D0
*I *1625:A2 I *C 142.3 287.2 *L 0.000585 *D CKAN2D0
*I *1679:A1 I *C 144.1 38.8 *L 0.000556 *D CKAN2D0
*I *1641:A2 I *C 145.9 285.6 *L 0.000585 *D CKAN2D0
*I *1683:A2 I *C 144.5 31.6 *L 0.000585 *D CKAN2D0
*I *1627:A2 I *C 147.9 287.2 *L 0.000585 *D CKAN2D0
*I *1623:A2 I *C 145.7 287.2 *L 0.000585 *D CKAN2D0
*I *1690:A1 I *C 144.3 35.2 *L 0.000556 *D CKAN2D0
*I *1688:A1 I *C 145.1 30 *L 0.000556 *D CKAN2D0
*I *1686:A2 I *C 149.5 24.4 *L 0.000585 *D CKAN2D0
*I *1657:A1 I *C 144.9 19.2 *L 0.000556 *D CKAN2D0
*I *1692:A1 I *C 144.9 24.4 *L 0.000556 *D CKAN2D0
*I *1636:A2 I *C 149.9 13.6 *L 0.000585 *D CKAN2D0
*I *1691:A1 I *C 142.3 13.6 *L 0.000556 *D CKAN2D0
*I *1631:A1 I *C 145.9 13.6 *L 0.000556 *D CKAN2D0
*I *1462:Z O *C 148.7 167.2 *L 0 *D BUFFD2

*CAP
1 *1462:Z 9.24768e-05
2 *1631:A1 0.00014528
3 *1691:A1 0.000449254
4 *1636:A2 0.00011558
5 *1686:A2 0.000151769
6 *1688:A1 1.19325e-05
7 *1690:A1 0.000116516
8 *1623:A2 7.79314e-05
9 *1625:A2 0.000240457
10 *1647:A2 6.98748e-05
11 *1678:A2 0.000415765
12 *1638:A2 0.000209167
13 *1687:A1 9.10397e-05
14 *1680:A2 0.000248122
15 *1640:A2 8.31573e-05
16 *1630:A2 8.2025e-05
17 *1643:A2 0.000127926
18 *1665:A2 0.000477409
19 *1674:A2 2.95917e-05
20 *1675:A2 0.000290343
21 *1663:A2 0.000187305
22 *1673:A2 0.000207621
23 *1662:A2 0.000103996
24 *1624:A2 0.000111443
25 *488:74 0.000735677
26 *488:75 0.00034012
27 *488:76 4.56832e-05
28 *488:77 0.000294153
29 *488:78 0.000190746
30 *488:79 0.000216832
31 *488:80 0.000370277
32 *488:81 0.000534328
33 *488:82 0.000307806
34 *488:83 0.000227066
35 *488:84 0.000494001
36 *488:85 0.000175503
37 *488:86 0.000582341
38 *488:87 0.00021607
39 *488:88 7.59934e-05
40 *488:89 6.46924e-05
41 *488:90 0.000552879
42 *488:91 0.000538356
43 *488:92 0.000551747
44 *488:93 0.000402743
45 *488:94 0.000222319
46 *488:95 0.000187196
47 *488:96 0.00023301
48 *488:97 0.000907044
49 *488:98 0.000358084
50 *488:99 4.8209e-05
51 *488:100 0.000726118
52 *488:101 0.000643135
53 *488:102 0.000651105
54 *488:103 0.000202286
55 *488:104 0.000240348
56 *488:105 0.000238345
57 *488:106 0.000588437
58 *488:107 1.45019e-05
59 *488:108 2.83288e-05
60 *488:109 0.000534698
61 *488:110 3.50136e-05
62 *488:111 0.00122589
63 *488:112 0.000292825
64 *488:113 0.000412978
65 *488:114 0.000283658
66 *488:115 0.001427
67 *488:116 0.000388525
68 *488:117 9.83777e-05
69 *488:118 0.000205661
70 *488:119 0.000104279
71 *488:120 0.00103244
72 *488:121 0.000554643
73 *488:122 0.000215656
74 *488:123 0.000205117
75 *488:124 0.000349788
76 *488:125 8.16766e-05
77 *488:126 0.000885421
78 *488:127 0.00070454
79 *488:128 0.000449864
80 *488:129 8.10016e-05
81 *488:130 0.000730212
82 *488:131 0.000348024
83 *488:132 0.000327338
84 *488:133 0.000114404
85 *488:134 0.00118887
86 *488:135 5.87262e-05
87 *488:136 0.000147784
88 *488:137 0.000116864
89 *488:138 0.000157931
90 *488:139 0.000517888
91 *488:140 0.000166206
92 *488:141 0.000341796
93 *488:142 0.000477213
94 *488:143 0.00046356
95 *488:144 0.00031693
96 *488:145 0.000772193
97 *488:146 0.000180947
98 *488:147 0.0007816
99 *488:148 0.000225498
100 *488:149 0.000569929
101 *488:150 0.000756995
102 *488:151 0.000131911
103 *488:152 0.000749091
104 *488:153 0.000865128
105 *488:154 0.000962221
106 *488:155 0.000408819
107 *488:156 0.000755144
108 *488:157 0.000732542
109 *488:158 0.000490125
110 *488:159 5.40011e-05
111 *488:160 0.000857724
112 *488:161 0.000548699
113 *488:162 0.000921742
114 *488:163 0.000236276
115 *488:164 0.000149091
116 *488:165 0.000216832
117 *488:166 0.000494894
118 *488:167 0.000328557
119 *488:168 0.000716625
120 *488:169 0.000183669
121 *488:170 0.00123166
122 *488:171 0.000436603
123 *488:172 0.000518715
124 *488:173 0.000743908
125 *488:174 0.000180207
126 *488:175 0.000859074
127 *488:176 0.00116266
128 *488:177 0.000957278
129 *488:178 0.000608165
130 *488:180 0.000583037
131 *488:181 0.000229701
132 *488:182 0.000630397
133 *488:183 0.000382166
134 *488:184 0.000294676
135 *488:185 0.000496004
136 *488:186 0.000411061
137 *488:187 0.000178443
138 *488:188 0.000475667
139 *488:189 0.000411911
140 *488:190 0.000561437
141 *488:191 0.00041509
142 *488:192 0.000486598
143 *488:193 0.000517365
144 *488:194 0.000314818
145 *488:195 0.000390049
146 *488:196 0.000436233
147 *488:197 0.000449167
148 *488:198 0.000931954
149 *488:199 0.0008827
150 *488:200 0.000548568
151 *488:201 0.000700794
152 *488:177 *1495:CPN 0.000595808047
153 *1647:A2 *746:4 0.000249815
154 *488:87 *750:4 0.00048762
155 *1665:A2 *760:3 0.000600648984
156 *1630:A2 *761:3 0.000296079004
157 *1691:A1 *199:3 0.000380793008
158 *488:92 *1358:I 0.000388844023
159 *488:98 *1360:I 0.000211175996
160 *488:77 *362:5 0.000859048984
161 *1462:Z *364:7 0.000954482031
162 *1665:A2 *759:3 0.00032314
163 *1673:A2 *787:4 0.000416671992
164 *1680:A2 *801:4 0.000297394004
165 *488:74 *1720:CP 0.000445151016
166 *1675:A2 *795:3 0.000376696992

*RES
1 *488:101 *488:153 3.75357
2 *488:85 *488:86 3.34918
3 *488:161 *488:192 5.31997
4 *488:90 *488:91 4.65612
5 *1690:A1 *488:125 3.69079
6 *488:88 *488:171 0.194367
7 *488:151 *488:152 5.2882
8 *488:129 *488:178 2.91472
9 *1680:A2 *488:186 8.08047
10 *488:89 *488:143 3.14784
11 *488:83 *488:141 0.926884
12 *488:125 *488:160 3.75806
13 *488:118 *488:156 0.254815
14 *488:75 *488:182 5.48365
15 *488:108 *488:154 6.02025
16 *1689:A2 *488:78 3.1979
17 *488:80 *488:139 1.96428
18 *488:83 *488:198 8.02855
19 *488:172 *488:173 5.24635
20 *488:162 *488:194 3.2475
21 *488:136 *488:201 4.52824
22 *488:92 *488:95 4.86242
23 *1462:Z *488:109 1.9525
24 *488:164 *488:192 4.21934
25 *488:107 *488:109 4.36674
26 *488:167 *488:168 5.79302
27 *488:95 *488:150 1.67692
28 *488:130 *488:131 3.13497
29 *488:124 *488:158 2.60938
30 *488:138 *488:185 5.49047
31 *488:93 *488:188 3.30253
32 *1647:A2 *488:133 3.63066
33 *488:81 *488:139 2.49902
34 *488:77 *488:140 0.521101
35 *488:144 *488:172 3.93461
36 *1691:A1 *488:199 8.59134
37 *488:79 *488:80 3.26548
38 *1662:A2 *488:197 2.99997
39 *488:77 *488:84 4.87606
40 *488:145 *488:187 3.71265
41 *1678:A2 *488:78 5.65244
42 *488:99 *488:164 0.777001
43 *488:102 *488:103 3.12846
44 *488:89 *488:91 0.256365
45 *488:186 *488:201 5.32834
46 *488:126 *488:188 6.22825
47 *1630:A2 *488:129 3.77697
48 *488:88 *488:142 3.87602
49 *488:116 *488:193 3.44156
50 *488:114 *488:115 6.91939
51 *488:165 *488:188 5.05012
52 *488:146 *488:186 3.4211
53 *1669:A2 *488:126 2.60473
54 *1625:A2 *488:133 5.0154
55 *1685:A1 *488:121 3.38886
56 *488:76 *488:190 5.80697
57 *488:134 *488:191 9.17522
58 *488:101 *488:102 3.92252
59 *488:75 *488:136 2.2177
60 *488:87 *488:171 5.55402
61 *488:96 *488:97 4.43385
62 *488:122 *488:174 1.59151
63 *1638:A2 *488:183 5.99095
64 *488:79 *488:138 1.14465
65 *488:118 *488:157 4.87466
66 *488:117 *488:184 5.28401
67 *488:108 *488:111 3.37491
68 *488:100 *488:187 6.42479
69 *488:132 *488:178 2.55621
70 *1623:A2 *488:116 4.06248
71 *488:83 *488:85 1.54315
72 *488:104 *488:197 4.53537
73 *488:94 *488:142 3.33833
74 *488:113 *488:166 3.59904
75 *488:152 *488:153 6.31025
76 *488:96 *488:154 0.808931
77 *488:149 *488:150 3.9267
78 *488:169 *488:198 2.47236
79 *488:119 *488:120 3.41397
80 *1663:A2 *488:169 5.09212
81 *1686:A2 *488:180 6.25228
82 *488:163 *488:196 5.06485
83 *488:145 *488:173 3.30315
84 *488:132 *488:176 1.91127
85 *488:112 *488:165 2.19709
86 *1687:A1 *488:134 3.66305
87 *488:86 *488:140 2.444
88 *488:98 *488:147 6.87025
89 *488:118 *488:180 5.35407
90 *488:106 *488:155 1.77937
91 *1631:A1 *488:190 5.15815
92 *488:117 *488:167 0.194212
93 *488:84 *488:181 3.92438
94 *1688:A1 *488:174 1.91639
95 *488:92 *488:93 3.56354
96 *488:74 *488:185 5.50938
97 *488:110 *488:111 9.63618
98 *1640:A2 *488:120 3.50898
99 *1648:A2 *488:89 1.70295
100 *488:98 *488:148 3.6677
101 *1675:A2 *488:127 4.67441
102 *488:105 *488:147 3.70459
103 *488:123 *488:175 6.30358
104 *488:119 *488:170 5.25906
105 *488:115 *488:191 6.14518
106 *1624:A2 *488:97 3.68955
107 *488:128 *488:159 0.194367
108 *488:109 *488:110 0.454142
109 *1673:A2 *488:195 7.52078
110 *488:123 *488:168 2.97347
111 *488:116 *488:117 0.777001
112 *488:148 *488:149 4.18152
113 *488:103 *488:155 3.14133
114 *488:81 *488:82 3.89152
115 *1627:A2 *488:193 3.7717
116 *1665:A2 *488:88 10.1578999
117 *1643:A2 *488:84 3.7779
118 *1674:A2 *488:130 4.13347
119 *488:82 *488:141 4.49167
120 *488:175 *488:176 9.21908
121 *488:131 *488:177 5.22108
122 *1636:A2 *488:76 3.42823
123 *488:144 *488:189 5.58564
124 *488:112 *488:74 0.941453
125 *488:158 *488:174 1.78216
126 *488:130 *488:181 5.02796
127 *488:120 *488:146 8.23733
128 *488:190 *488:199 1.11924
129 *488:143 *488:162 5.74187
130 *488:87 *488:161 2.80623
131 *488:106 *488:107 2.5511
132 *488:170 *488:179 7.1866
133 *488:122 *488:156 5.34369
134 *488:114 *488:182 3.04306
135 *488:100 *488:151 0.718877
136 *488:92 *488:135 4.16602
137 *488:177 *488:179 7.96903
138 *488:90 *488:94 3.9904
139 *488:78 *488:193 3.86114
140 *488:99 *488:200 5.96569
141 *488:127 *488:198 8.60204
142 *488:121 *488:128 5.99452
143 *488:159 *488:160 2.39967
144 *488:157 *488:199 7.32533
145 *488:124 *488:125 2.98478
146 *488:90 *488:137 4.45679
147 *488:104 *488:105 1.45217
148 *488:97 *488:104 4.52421
149 *488:113 *488:194 4.19562
150 *1639:A2 *488:179 1.50006
151 *1633:A2 *488:178 1.50006
152 *1659:A2 *488:177 1.50006
153 *1632:A2 *488:176 1.50006
154 *1622:A2 *488:175 1.50006
155 *1653:A2 *488:173 1.50006
156 *1644:A2 *488:172 1.50006
157 *1635:A2 *488:171 1.50006
158 *1677:A2 *488:170 1.50006
159 *1649:A2 *488:169 1.50006
160 *1628:A2 *488:168 1.50006
161 *1641:A2 *488:167 1.50006
162 *1651:A2 *488:166 1.50006
163 *1672:A2 *488:165 1.50006
164 *1668:A2 *488:164 1.50006
165 *1629:A2 *488:163 1.50006
166 *1650:A2 *488:162 1.50006
167 *1637:A2 *488:161 1.50006
168 *1679:A1 *488:160 2.99997
169 *1684:A2 *488:159 2.99997
170 *1683:A2 *488:158 2.99997
171 *1657:A1 *488:157 2.99997
172 *1692:A1 *488:156 2.99997
173 *1652:A2 *488:155 2.99997
174 *1642:A2 *488:154 2.99997
175 *1693:A2 *488:101 2.99997
176 *1658:A2 *488:153 2.99997
177 *1656:A2 *488:152 2.99997
178 *1654:A2 *488:151 2.99997
179 *1660:A2 *488:150 2.99997
180 *1664:A2 *488:149 2.99997
181 *1666:A2 *488:148 2.99997
182 *1645:A2 *488:147 2.99997
183 *1682:A2 *488:146 2.99997
184 *1655:A2 *488:145 2.99997
185 *1661:A2 *488:144 2.99997
186 *1621:A2 *488:143 2.99997
187 *1634:A2 *488:142 2.99997
188 *1646:A2 *488:141 2.99997
189 *1676:A2 *488:140 2.99997
190 *1667:A2 *488:139 2.99997
191 *1671:A2 *488:138 2.99997
192 *1626:A2 *488:137 2.99997
193 *1681:A2 *488:136 2.99997
194 *1670:A2 *488:135 2.99997
195 *488:112 *488:195 1.50006
196 *488:121 *488:191 1.50006
197 *488:128 *488:183 1.50006
198 *488:129 *488:200 1.50006
199 *488:133 *488:184 1.50006
200 *488:166 *488:189 1.50006
201 *488:168 *488:196 1.50006
*END

*D_NET *489 0.0260364

*CONN
*I *1611:A1 I *C 140.3 143.2 *L 0.000647 *D NR2D0
*I *1610:A1 I *C 140.3 146.8 *L 0.000647 *D NR2D0
*I *1697:A2 I *C 140.9 175.6 *L 0.00069 *D OR2D0
*I *1698:B1 I *C 140.9 177.6 *L 0.000651 *D INR2D0
*I *1608:A1 I *C 140.9 179.2 *L 0.000647 *D NR2D0
*I *1607:A1 I *C 140.7 186.4 *L 0.000647 *D NR2D0
*I *1589:A1 I *C 140.7 192 *L 0.000647 *D NR2D0
*I *1604:A1 I *C 140.5 195.6 *L 0.000647 *D NR2D0
*I *1602:A1 I *C 140.3 200.8 *L 0.000647 *D NR2D0
*I *1601:A1 I *C 140.5 204.4 *L 0.000647 *D NR2D0
*I *1599:A1 I *C 140.5 208 *L 0.000647 *D NR2D0
*I *1598:A1 I *C 139.7 213.6 *L 0.000647 *D NR2D0
*I *1596:A1 I *C 139.7 217.2 *L 0.000647 *D NR2D0
*I *1595:A1 I *C 139.7 220.8 *L 0.000647 *D NR2D0
*I *1594:A1 I *C 139.7 224.4 *L 0.000647 *D NR2D0
*I *1593:A1 I *C 139.7 229.6 *L 0.000647 *D NR2D0
*I *1590:A1 I *C 139.7 233.2 *L 0.000647 *D NR2D0
*I *1587:A1 I *C 140.3 236.8 *L 0.000647 *D NR2D0
*I *1584:A1 I *C 140.3 242.4 *L 0.000647 *D NR2D0
*I *1581:A1 I *C 139.5 246 *L 0.000647 *D NR2D0
*I *1578:A1 I *C 139.5 249.6 *L 0.000647 *D NR2D0
*I *1575:A1 I *C 139.7 253.2 *L 0.000647 *D NR2D0
*I *1572:A1 I *C 139.7 256.8 *L 0.000647 *D NR2D0
*I *1569:A1 I *C 139.1 264 *L 0.000647 *D NR2D0
*I *1566:A1 I *C 139.1 267.6 *L 0.000647 *D NR2D0
*I *1563:A1 I *C 138.9 272.8 *L 0.000647 *D NR2D0
*I *1560:A1 I *C 139.1 278.4 *L 0.000647 *D NR2D0
*I *1573:A1 I *C 139.1 282 *L 0.000647 *D NR2D0
*I *1618:A1 I *C 139.1 283.6 *L 0.000647 *D NR2D0
*I *1615:A1 I *C 139.7 289.2 *L 0.000647 *D NR2D0
*I *1612:A1 I *C 139.7 292.8 *L 0.000647 *D NR2D0
*I *1609:A1 I *C 139.3 294.4 *L 0.000647 *D NR2D0
*I *1606:A1 I *C 139.3 301.6 *L 0.000647 *D NR2D0
*I *1597:A1 I *C 139.7 305.2 *L 0.000647 *D NR2D0
*I *1600:A1 I *C 141.9 307.2 *L 0.000647 *D NR2D0
*I *1603:A1 I *C 141.1 305.2 *L 0.000647 *D NR2D0
*I *1463:Z O *C 140.1 139.2 *L 0 *D CKBD1

*CAP
1 *1603:A1 9.65126e-05
2 *1612:A1 0.000129552
3 *1615:A1 0.000283495
4 *1604:A1 0.000119816
5 *489:37 0.000369975
6 *489:38 0.000356565
7 *489:39 0.000175231
8 *489:40 0.000659295
9 *489:41 0.000657636
10 *489:42 0.000353939
11 *489:43 4.44941e-05
12 *489:44 0.000676793
13 *489:45 0.000433862
14 *489:46 8.5315e-06
15 *489:47 0.000218402
16 *489:48 0.00129424
17 *489:49 0.000114148
18 *489:50 0.000379533
19 *489:51 0.000388795
20 *489:52 0.000418991
21 *489:53 0.000468067
22 *489:54 2.54957e-05
23 *489:55 0.00058267
24 *489:56 0.00017695
25 *489:57 0.000477152
26 *489:58 0.000529545
27 *489:59 3.21906e-06
28 *489:60 0.000217909
29 *489:62 0.000209101
30 *489:63 0.000108994
31 *489:64 4.12751e-05
32 *489:65 0.000490838
33 *489:66 0.000481279
34 *489:67 0.000645886
35 *489:68 8.41695e-05
36 *489:69 0.000174757
37 *489:70 0.00060627
38 *489:71 0.000642232
39 *489:72 0.000736691
40 *489:73 0.00027202
41 *489:74 0.000757486
42 *489:75 0.000548465
43 *489:76 0.000519078
44 *489:77 0.00070926
45 *489:78 0.000722136
46 *489:79 0.000454361
47 *489:80 0.000571749
48 *489:81 0.000513963
49 *489:82 0.000147228
50 *489:83 2.33629e-05
51 *489:84 0.000506084
52 *489:85 0.000366479
53 *489:86 0.000265681
54 *489:87 0.000858126
55 *489:88 6.0234e-05
56 *489:89 0.000508493
57 *489:90 0.000190063
58 *489:91 0.000355756
59 *489:92 0.000437891
60 *489:50 *556:2 0.000301294004
61 *489:39 *286:2 0.000503498984
62 *489:41 *372:3 0.000382688984
63 *489:55 *759:5 0.00110893
64 *489:37 *1532:CDN 0.00106982008

*RES
1 *489:80 *489:81 3.49627
2 *489:74 *489:84 3.30324
3 *489:57 *489:58 2.78142
4 *489:43 *489:44 0.256456
5 *489:55 *489:85 2.88359
6 *1612:A1 *489:56 2.69656
7 *489:43 *489:48 11.2347002
8 *489:48 *489:49 0.647655
9 *489:41 *489:68 0.434056
10 *489:54 *489:76 3.83107
11 *489:51 *489:82 1.77976
12 *489:38 *489:39 1.96696
13 *489:55 *489:64 1.57971
14 *1604:A1 *489:47 3.74656
15 *489:52 *489:73 4.2977
16 *489:37 *489:85 3.49747
17 *489:65 *489:77 4.3349
18 *489:59 *489:67 3.01165
19 *489:57 *489:88 4.84027
20 *489:72 *489:82 3.7361
21 *489:66 *489:67 3.6437
22 *489:60 *489:90 1.60817
23 *489:53 *489:73 2.88359
24 *489:47 *489:50 4.15576
25 *489:88 *489:89 1.74822
26 *489:50 *489:65 1.43228
27 *489:40 *489:63 1.1448
28 *489:76 *489:77 3.6869
29 *489:56 *489:87 0.940111
30 *489:44 *489:45 6.56038
31 *1603:A1 *489:92 2.99999
32 *489:39 *489:42 2.91685
33 *489:53 *489:83 1.32154
34 *489:63 *489:75 6.04472
35 *489:51 *489:78 2.30056
36 *1615:A1 *489:58 4.05616
37 *489:62 *489:69 1.55519
38 *489:46 *489:47 0.647483
39 *1610:A1 *489:49 3.42376
40 *489:56 *489:58 2.52873
41 *489:49 *489:70 2.94839
42 *489:64 *489:78 5.88443
43 *489:42 *489:45 3.89604
44 *489:40 *489:46 5.03758
45 *489:54 *489:74 2.7557
46 *489:61 *489:66 4.64913
47 *489:59 *489:80 4.63061
48 *489:60 *489:91 4.62478
49 *489:83 *489:84 3.49747
50 *1600:A1 *489:92 5.69964
51 *489:41 *489:75 6.8434
52 *489:79 *489:92 2.85907
53 *489:62 *489:68 2.33862
54 *489:89 *489:90 3.9053
55 *489:79 *489:86 3.88541
56 *489:61 *489:91 1.01434
57 *489:70 *489:71 10.6863
58 *489:38 *489:69 3.53022
59 *489:86 *489:87 6.99237
60 *489:37 *489:81 4.30404
61 *489:52 *489:72 2.02045
62 *1563:A1 *489:91 1.49999
63 *1560:A1 *489:90 1.49999
64 *1573:A1 *489:89 1.49999
65 *1618:A1 *489:88 1.49999
66 *1609:A1 *489:87 1.49999
67 *1606:A1 *489:86 1.49999
68 *1581:A1 *489:85 1.49999
69 *1596:A1 *489:84 1.49999
70 *1595:A1 *489:83 1.49999
71 *1590:A1 *489:82 1.49999
72 *1575:A1 *489:81 1.49999
73 *1572:A1 *489:80 1.49999
74 *1597:A1 *489:79 1.49999
75 *1587:A1 *489:78 1.49999
76 *1601:A1 *489:77 1.49999
77 *1599:A1 *489:76 1.49999
78 *1607:A1 *489:75 1.49999
79 *1598:A1 *489:74 1.49999
80 *1594:A1 *489:73 1.49999
81 *1593:A1 *489:72 1.49999
82 *1463:Z *489:71 1.49999
83 *1611:A1 *489:70 1.49999
84 *1697:A2 *489:69 1.49999
85 *1608:A1 *489:68 1.49999
86 *1569:A1 *489:67 2.99999
87 *1566:A1 *489:66 2.99999
88 *1578:A1 *489:37 2.99999
89 *1602:A1 *489:65 2.99999
90 *1584:A1 *489:64 2.99999
91 *1589:A1 *489:63 2.99999
92 *1698:B1 *489:62 2.99999
*END

*D_NET *490 0.0103366

*CONN
*I *1472:CDN I *C 141.5 37.2 *L 0.00163 *D DFCNQD1
*I *1471:CDN I *C 141.5 33.6 *L 0.00163 *D DFCNQD1
*I *1470:CDN I *C 141.9 30 *L 0.00163 *D DFCNQD1
*I *1487:CDN I *C 142.1 28 *L 0.00168 *D DFNCND1
*I *1479:CDN I *C 149.5 30 *L 0.00168 *D DFNCND1
*I *1469:CDN I *C 141.5 26.4 *L 0.00163 *D DFCNQD1
*I *1478:CDN I *C 147.9 26.4 *L 0.00168 *D DFNCND1
*I *1468:CDN I *C 142.3 20.8 *L 0.00163 *D DFCNQD1
*I *1486:CDN I *C 143.1 22.8 *L 0.00168 *D DFNCND1
*I *1477:CDN I *C 146.9 17.2 *L 0.00168 *D DFNCND1
*I *1485:CDN I *C 146.9 15.6 *L 0.00168 *D DFNCND1
*I *1467:CDN I *C 142.1 15.6 *L 0.00163 *D DFCNQD1
*I *1466:CDN I *C 141.5 12 *L 0.00163 *D DFCNQD1
*I *1475:CDN I *C 142.3 10 *L 0.00168 *D DFNCND1
*I *1484:CDN I *C 147.1 8.4 *L 0.00168 *D DFNCND1
*I *1476:CDN I *C 149.5 10 *L 0.00168 *D DFNCND1
*I *1464:Z O *C 147.9 27.6 *L 0 *D CKBD1

*CAP
1 *1484:CDN 0.000179542
2 *1466:CDN 0.000160184
3 *1485:CDN 0.000203702
4 *1478:CDN 0.000101103
5 *1469:CDN 0.000277578
6 *1470:CDN 6.17581e-05
7 *1472:CDN 3.36005e-05
8 *490:17 0.000251847
9 *490:18 0.000298646
10 *490:19 3.55992e-05
11 *490:20 0.000823796953
12 *490:21 9.7131e-05
13 *490:22 8.42087e-05
14 *490:23 0.000421232
15 *490:24 0.000435889
16 *490:25 0.000637291
17 *490:26 0.000503618
18 *490:27 0.000421609
19 *490:28 0.000511449
20 *490:29 0.000101832
21 *490:30 0.000153987
22 *490:31 0.000457937
23 *490:32 0.000772284
24 *490:33 0.000775879
25 *490:34 6.64468e-05
26 *490:35 0.000112442
27 *490:36 0.000261249
28 *490:37 0.000565363
29 *490:38 0.000677667
30 *490:39 0.000233243
31 *490:17 *1476:CPN 0.000322329023
32 *1484:CDN *1331:Z 0.000296120996

*RES
1 *490:25 *490:36 1.5696
2 *490:27 *490:34 3.777
3 *1470:CDN *490:26 2.11432
4 *490:26 *490:27 2.10216
5 *490:23 *490:28 2.36405
6 *490:20 *490:21 0.839722
7 *490:19 *490:20 6.21252
8 *1484:CDN *490:39 4.1666
9 *490:19 *490:31 0.170685
10 *490:26 *490:37 3.6631
11 *1478:CDN *490:19 2.72855
12 *1469:CDN *490:27 3.28117
13 *490:18 *490:31 2.87665
14 *1466:CDN *490:28 2.18931
15 *1472:CDN *490:37 4.99964
16 *490:33 *490:35 2.72197
17 *490:24 *490:34 1.32996
18 *490:24 *490:33 4.23523
19 *1485:CDN *490:32 3.36404
20 *490:18 *490:29 4.74827
21 *490:28 *490:36 4.21626
22 *490:25 *490:35 3.88848
23 *490:21 *490:32 5.17208
24 *490:22 *490:32 0.270443
25 *490:17 *490:39 1.3908
26 *490:30 *490:39 4.57769
27 *490:23 *490:17 4.79113
28 *490:22 *490:38 7.18434
29 *1471:CDN *490:37 1.49999
30 *1467:CDN *490:36 1.49999
31 *1468:CDN *490:35 1.49999
32 *1487:CDN *490:34 1.49999
33 *1486:CDN *490:33 1.49999
34 *1477:CDN *490:32 1.49999
35 *1464:Z *490:31 1.49999
36 *1476:CDN *490:30 1.49999
37 *1479:CDN *490:29 1.49999
38 *1475:CDN *490:23 1.49999
39 *490:25 *490:38 1.49999
*END

*D_NET *491 0.00969272

*CONN
*I *1450:I I *C 139.5 312.2 *L 0.000942 *D CKND1
*P *491 I *C 10 324 *L 0.5

*CAP
1 *1450:I 0.000990536
2 *491 4.5108e-05
3 *491:2 2.30143e-05
4 *491:3 0.00861853
5 *491:4 1.55182e-05

*RES
1 *491:2 *491:3 39.8462
2 *491:3 *491:4 87.080101
3 *1450:I *491:2 12.1805
4 *491 *491:4 2.01835
*END

*D_NET *492 0.0701835

*CONN
*I *1429:I I *C 140.1 246 *L 0.00105 *D DEL1
*P *492 I *C 15 324 *L 0.5
*I *1764:SDN I *C 143.7 168.4 *L 0.00167 *D DFNSND1
*I *1547:CDN I *C 140.5 303.6 *L 0.00168 *D DFNCND1
*I *1546:CDN I *C 144.3 301.6 *L 0.00168 *D DFNCND1
*I *1545:CDN I *C 144.3 298 *L 0.00168 *D DFNCND1
*I *1544:CDN I *C 140.9 300 *L 0.00168 *D DFNCND1
*I *1543:CDN I *C 144.7 294.4 *L 0.00168 *D DFNCND1
*I *1542:CDN I *C 145.3 292.8 *L 0.00168 *D DFNCND1
*I *1541:CDN I *C 145.3 290.8 *L 0.00168 *D DFNCND1
*I *1540:CDN I *C 143.7 283.6 *L 0.00168 *D DFNCND1
*I *1539:CDN I *C 146.5 282 *L 0.00168 *D DFNCND1
*I *1538:CDN I *C 141.5 278.4 *L 0.00168 *D DFNCND1
*I *1537:CDN I *C 140.3 274.8 *L 0.00168 *D DFNCND1
*I *1536:CDN I *C 139.9 265.6 *L 0.00168 *D DFNCND1
*I *1535:CDN I *C 139.9 262 *L 0.00168 *D DFNCND1
*I *1534:CDN I *C 141.5 258.4 *L 0.00168 *D DFNCND1
*I *1533:CDN I *C 141.5 251.2 *L 0.00168 *D DFNCND1
*I *1532:CDN I *C 140.1 247.6 *L 0.00168 *D DFNCND1
*I *1531:CDN I *C 141.3 244 *L 0.00168 *D DFNCND1
*I *1530:CDN I *C 141.3 240.4 *L 0.00168 *D DFNCND1
*I *1529:CDN I *C 141.1 235.2 *L 0.00168 *D DFNCND1
*I *1528:CDN I *C 141.3 231.6 *L 0.00168 *D DFNCND1
*I *1527:CDN I *C 141.1 228 *L 0.00168 *D DFNCND1
*I *1526:CDN I *C 141.3 222.4 *L 0.00168 *D DFNCND1
*I *1525:CDN I *C 141.9 218.8 *L 0.00168 *D DFNCND1
*I *1524:CDN I *C 141.5 215.2 *L 0.00168 *D DFNCND1
*I *1523:CDN I *C 141.3 211.6 *L 0.00168 *D DFNCND1
*I *1522:CDN I *C 141.3 206.4 *L 0.00168 *D DFNCND1
*I *1521:CDN I *C 141.3 202.8 *L 0.00168 *D DFNCND1
*I *1520:CDN I *C 143.5 199.2 *L 0.00168 *D DFNCND1
*I *1519:CDN I *C 142.1 193.6 *L 0.00168 *D DFNCND1
*I *1518:CDN I *C 143.3 188.4 *L 0.00168 *D DFNCND1
*I *1517:CDN I *C 141.1 182.8 *L 0.00168 *D DFNCND1
*I *1516:CDN I *C 145.1 177.6 *L 0.00168 *D DFNCND1
*I *1515:CDN I *C 141.7 150.4 *L 0.00168 *D DFNCND1
*I *1514:CDN I *C 141.1 145.2 *L 0.00168 *D DFNCND1
*I *1513:CDN I *C 140.9 138 *L 0.00168 *D DFNCND1
*I *1512:CDN I *C 140.1 136 *L 0.00168 *D DFNCND1
*I *1511:CDN I *C 141.1 132.4 *L 0.00168 *D DFNCND1
*I *1510:CDN I *C 141.1 128.8 *L 0.00168 *D DFNCND1
*I *1509:CDN I *C 141.1 125.2 *L 0.00168 *D DFNCND1
*I *1508:CDN I *C 141.3 120 *L 0.00168 *D DFNCND1
*I *1507:CDN I *C 140.1 116.4 *L 0.00168 *D DFNCND1
*I *1506:CDN I *C 140.3 114.4 *L 0.00168 *D DFNCND1
*I *1505:CDN I *C 141.7 112.8 *L 0.00168 *D DFNCND1
*I *1504:CDN I *C 146.7 105.6 *L 0.00168 *D DFNCND1
*I *1503:CDN I *C 140.5 100 *L 0.00168 *D DFNCND1
*I *1502:CDN I *C 139.9 92.8 *L 0.00168 *D DFNCND1
*I *1501:CDN I *C 141.7 91.2 *L 0.00168 *D DFNCND1
*I *1500:CDN I *C 147.5 87.6 *L 0.00168 *D DFNCND1
*I *1499:CDN I *C 140.3 85.6 *L 0.00168 *D DFNCND1
*I *1498:CDN I *C 142.1 84 *L 0.00168 *D DFNCND1
*I *1497:CDN I *C 142.1 80.4 *L 0.00168 *D DFNCND1
*I *1496:CDN I *C 140.3 76.8 *L 0.00168 *D DFNCND1
*I *1495:CDN I *C 140.3 73.2 *L 0.00168 *D DFNCND1
*I *1494:CDN I *C 139.9 67.6 *L 0.00168 *D DFNCND1
*I *1493:CDN I *C 140.1 64 *L 0.00168 *D DFNCND1
*I *1492:CDN I *C 140.3 60.4 *L 0.00168 *D DFNCND1
*I *1491:CDN I *C 143.9 58.8 *L 0.00168 *D DFNCND1
*I *1490:CDN I *C 147.5 51.6 *L 0.00168 *D DFNCND1
*I *1489:CDN I *C 147.3 42.4 *L 0.00168 *D DFNCND1
*I *1488:CDN I *C 145.1 37.2 *L 0.00168 *D DFNCND1
*I *1483:CDN I *C 142.7 51.6 *L 0.00168 *D DFNCND1
*I *1482:CDN I *C 147.9 44.4 *L 0.00168 *D DFNCND1
*I *1481:CDN I *C 149.7 38.8 *L 0.00168 *D DFNCND1
*I *1480:CDN I *C 149.5 35.2 *L 0.00168 *D DFNCND1

*CAP
1 *1546:CDN 1.438e-06
2 *1544:CDN 6.366e-05
3 *1541:CDN 0.000258778
4 *1540:CDN 9.0001e-05
5 *1539:CDN 0.000306018
6 *1532:CDN 9.6229e-05
7 *1529:CDN 0.000101867
8 *1525:CDN 0.000106483
9 *1524:CDN 0.000122296
10 *1514:CDN 9.0643e-05
11 *1512:CDN 0.000222578
12 *1510:CDN 6.0774e-05
13 *1507:CDN 0.000219642
14 *1504:CDN 9.6761e-05
15 *1500:CDN 8.0987e-05
16 *1498:CDN 0.000149484
17 *1488:CDN 0.000597691
18 *1483:CDN 0.000173729
19 *1481:CDN 0.000201544
20 *1480:CDN 0.000112238
21 *492 0.00039911
22 *492:67 0.000656558
23 *492:68 0.000625818
24 *492:69 7.6214e-05
25 *492:70 5.5784e-05
26 *492:71 0.000114047
27 *492:72 0.00100078
28 *492:73 0.000503267
29 *492:74 0.000141683
30 *492:75 0.00030603
31 *492:76 0.000940211
32 *492:77 3.3197e-05
33 *492:78 0.000225466
34 *492:79 7.8832e-05
35 *492:80 0.000467306
36 *492:81 0.000273951
37 *492:82 1.7216e-05
38 *492:83 0.00115497
39 *492:84 0.000718467
40 *492:85 0.000582239
41 *492:86 0.000557252
42 *492:87 0.000397902
43 *492:88 0.000152285
44 *492:89 0.000927143
45 *492:90 0.000536293
46 *492:91 7.4294e-05
47 *492:92 0.000533569
48 *492:93 0.00041003
49 *492:94 0.000370506
50 *492:95 0.000167711
51 *492:96 0.000389722
52 *492:97 0.000302435
53 *492:98 0.000430438
54 *492:99 0.00061346
55 *492:100 0.000514398
56 *492:101 0.000315585
57 *492:102 0.000563955
58 *492:103 0.000213812
59 *492:104 0.000358076
60 *492:105 0.000383822
61 *492:106 0.000303515
62 *492:107 0.000532936
63 *492:108 0.00055812
64 *492:109 0.0002752
65 *492:110 0.000361568
66 *492:111 0.000646682
67 *492:112 0.00096935
68 *492:113 0.000398336
69 *492:114 0.000419511
70 *492:115 0.000268322
71 *492:116 0.000646698
72 *492:117 0.000263418
73 *492:118 0.000271224
74 *492:119 0.000128189
75 *492:120 0.00040989
76 *492:121 0.00060651
77 *492:122 0.000776334
78 *492:123 0.000546669
79 *492:124 0.000382401
80 *492:125 0.000136954
81 *492:126 0.000139769
82 *492:127 0.000571207
83 *492:128 0.000856636
84 *492:129 0.000467845
85 *492:130 0.000338838
86 *492:131 0.000566416
87 *492:132 0.000517783
88 *492:133 0.000995014
89 *492:134 0.000160857
90 *492:135 0.000879902
91 *492:136 0.000129556
92 *492:137 0.000450527
93 *492:138 0.00041524
94 *492:139 0.00052977
95 *492:140 0.000213846
96 *492:141 4.2948e-05
97 *492:142 0.000199283
98 *492:143 0.000628285
99 *492:144 0.000850687
100 *492:145 0.000447257
101 *492:146 0.000522421
102 *492:147 0.000122639
103 *492:148 4.2134e-05
104 *492:149 0.000445054
105 *492:150 0.000340736
106 *492:151 0.000539253
107 *492:152 0.000322108
108 *492:153 0.000242432
109 *492:154 0.000425496
110 *492:155 0.000449165
111 *492:156 0.000400649
112 *492:157 0.000202191
113 *492:158 0.000420937
114 *492:159 0.00016771
115 *492:160 0.000451904
116 *492:161 0.00038879
117 *492:162 0.0009547
118 *492:163 0.000345166
119 *492:164 0.000320805
120 *492:165 0.000247314
121 *492:166 0.00941357
122 *492:167 0.000413582
123 *492:168 0.000385911
124 *492:169 0.00149221
125 *492:170 3.8519e-05
126 *492:171 0.000418901
127 *492:172 0.000553937
128 *492:173 0.000952962
129 *492:174 0.000410791
130 *492:175 0.000677003
131 *492:176 3.7616e-05
132 *492:177 0.00147555
133 *492:178 0.000184322
134 *492:179 0.000363097
135 *492:180 9.7e-08
136 *492:181 0.000600238
137 *492:182 0.00017271
138 *492:94 *532:2 0.000632609023
139 *492:88 *1389:I 0.000181106992
140 *1546:CDN *746:3 0.000822686953
141 *492:83 *255:3 0.000174862988
142 *492:89 *295:2 0.000814542031
143 *1524:CDN *321:2 0.000233100996
144 *492:75 *355:9 0.000304812988
145 *1532:CDN *489:37 0.00106982008
146 *492:75 *1295:I 0.000396584023
147 *492:68 *801:3 0.000314380996
148 *492:67 *248:8 0.000590336016
149 *1507:CDN *487:4 0.000896001016
150 *1500:CDN *57:3 0.000476298984
151 *1510:CDN *888:6 0.000293538008

*RES
1 *492:113 *492:162 3.72888
2 *492:100 *492:138 4.18433
3 *1524:CDN *492:99 3.18812
4 *492:70 *492:147 0.599733
5 *492:82 *492:83 0.644901
6 *492:116 *492:119 1.03385
7 *492:136 *492:137 3.49802
8 *492:110 *492:111 3.85937
9 *492:166 *492:170 82.2260971
10 *492:83 *492:174 8.93953
11 *1532:CDN *492:125 3.24834
12 *492:81 *492:150 2.20571
13 *492:85 *492:164 4.74893
14 *492:167 *492:182 11.0486
15 *492:114 *492:128 2.02002
16 *492:100 *492:157 1.57838
17 *1546:CDN *492:79 2.26217
18 *492:86 *492:67 2.55827
19 *492:128 *492:174 5.06636
20 *492:97 *492:104 3.01121
21 *1504:CDN *492:74 1.75403
22 *492:143 *492:165 4.45032
23 *492:117 *492:153 5.55819
24 *492:95 *492:135 1.58465
25 *492:104 *492:155 3.45536
26 *492:88 *492:145 4.5532
27 *492:112 *492:115 11.553
28 *492:121 *492:165 1.64738
29 *492:118 *492:161 1.93219
30 *492:129 *492:146 2.96228
31 *492:108 *492:109 2.41775
32 *492:103 *492:106 3.22576
33 *1539:CDN *492:177 7.80154
34 *492:96 *492:125 4.74767
35 *492:133 *492:150 9.08883
36 *492 *492:180 4.70878
37 *1541:CDN *492:148 3.44282
38 *492:99 *492:138 2.89578
39 *492:117 *492:163 2.49805
40 *492:85 *492:151 3.85184
41 *1502:CDN *492:168 4.69372
42 *492:112 *492:166 40.6225
43 *492:72 *492:73 3.12664
44 *492:169 *492:181 7.61585
45 *492:105 *492:160 3.20317
46 *492:122 *492:169 6.57573
47 *492:79 *492:131 3.00494
48 *492:69 *492:175 9.29962
49 *492:67 *492:87 1.98112
50 *492:144 *492:145 3.57581
51 *492:105 *492:156 2.88323
52 *1488:CDN *492:172 6.57949
53 *492:107 *492:140 4.23702
54 *1505:CDN *492:171 4.35998
55 *1507:CDN *492:119 2.71009
56 *492:142 *492:171 2.8619
57 *492:103 *492:134 2.20948
58 *492:71 *492:73 3.45913
59 *492:79 *492:113 6.46406
60 *492:135 *492:154 8.37116
61 *492:89 *492:179 10.8002
62 *492:141 *492:167 3.3186
63 *492:111 *492:140 1.19947
64 *492:67 *492:126 4.28721
65 *492:98 *492:156 3.07771
66 *492:89 *492:91 1.25593
67 *1483:CDN *492:82 2.82928
68 *492:74 *492:169 7.64345
69 *492:122 *492:123 4.24831
70 *1510:CDN *492:110 1.72517
71 *492:123 *492:171 4.94466
72 *492:68 *492:147 5.99858
73 *1540:CDN *492:178 2.99992
74 *1480:CDN *492:176 2.99992
75 *492:101 *492:124 3.08022
76 *492:157 *492:158 3.42525
77 *492:72 *492:176 4.73638
78 *492:120 *492:163 3.16177
79 *492:78 *492:130 1.81676
80 *1514:CDN *492:106 2.22579
81 *492:80 *492:84 4.49925
82 *492:75 *492:149 2.93217
83 *492:92 *492:93 4.05133
84 *492:82 *492:173 1.71639
85 *492:130 *492:131 3.88446
86 *492:115 *492:162 4.56575
87 *492:93 *492:178 4.46161
88 *492:92 *492:153 0.552055
89 *492:90 *492:134 1.42907
90 *492:84 *492:158 5.29596
91 *492:86 *492:152 3.61847
92 *492:170 *492:180 1.85315
93 *492:110 *492:139 3.36879
94 *492:120 *492:144 6.93582
95 *492:84 *492:133 4.66612
96 *492:78 *492:177 13.6621
97 *1500:CDN *492:69 1.73395
98 *492:76 *492:132 6.57698
99 *492:106 *492:108 4.40013
100 *492:96 *492:136 0.971115
101 *492:90 *492:91 5.58579
102 *492:94 *492:95 3.51433
103 *1525:CDN *492:98 2.30859
104 *1520:CDN *492:80 2.51812
105 *492:114 *492:143 3.38134
106 *492:127 *492:164 4.54191
107 *492:132 *492:179 4.96348
108 *492:116 *492:159 4.78908
109 *492:102 *492:124 3.12288
110 *492:109 *492:161 2.27597
111 *492:94 *492:96 1.52442
112 *492:68 *492:146 3.7615
113 *492:87 *492:151 3.8418
114 *492:141 *492:181 2.99992
115 *1544:CDN *492:113 1.91965
116 *492:76 *492:77 6.57824
117 *492:152 *492:168 4.22448
118 *492:118 *492:139 3.9221
119 *1529:CDN *492:104 2.07899
120 *1498:CDN *492:87 4.8882
121 *492:71 *492:129 1.00374
122 *492:77 *492:149 0.761585
123 *492:78 *492:148 3.58208
124 *492:177 *492:178 0.971115
125 *492:88 *492:154 4.51681
126 *1491:CDN *492:174 4.62221
127 *492:98 *492:99 5.28342
128 *492:70 *492:173 7.76641
129 *492:97 *492:137 2.78286
130 *492:121 *492:127 4.9823
131 *492:119 *492:142 0.941003
132 *1481:CDN *492:172 7.18174
133 *492:155 *492:160 3.65611
134 *492:81 *492:101 5.76019
135 *1512:CDN *492:118 2.74396
136 *492:107 *492:159 1.78163
137 *492:75 *492:102 6.88312
138 *1494:CDN *492:165 1.50059
139 *1496:CDN *492:164 1.50059
140 *1537:CDN *492:163 1.50059
141 *1547:CDN *492:162 1.50059
142 *1513:CDN *492:161 1.50059
143 *1527:CDN *492:160 1.50059
144 *1508:CDN *492:159 1.50059
145 *1521:CDN *492:158 1.50059
146 *1522:CDN *492:157 1.50059
147 *1526:CDN *492:156 1.50059
148 *1528:CDN *492:155 1.50059
149 *1534:CDN *492:154 1.50059
150 *1538:CDN *492:153 1.50059
151 *1501:CDN *492:152 1.50059
152 *1497:CDN *492:151 1.50059
153 *1518:CDN *492:150 1.50059
154 *1516:CDN *492:149 1.50059
155 *1542:CDN *492:148 1.50059
156 *1490:CDN *492:147 1.50059
157 *1482:CDN *492:146 1.50059
158 *1535:CDN *492:145 1.50059
159 *1536:CDN *492:144 1.50059
160 *1493:CDN *492:143 1.50059
161 *1506:CDN *492:142 1.50059
162 *1503:CDN *492:141 1.50059
163 *1509:CDN *492:140 1.50059
164 *1511:CDN *492:139 1.50059
165 *1523:CDN *492:138 1.50059
166 *1530:CDN *492:137 1.50059
167 *1531:CDN *492:136 1.50059
168 *1533:CDN *492:135 1.50059
169 *1515:CDN *492:134 1.50059
170 *1519:CDN *492:133 1.50059
171 *1764:SDN *492:132 1.50059
172 *1545:CDN *492:131 1.50059
173 *1543:CDN *492:130 1.50059
174 *1489:CDN *492:129 1.50059
175 *1492:CDN *492:128 2.99992
176 *1495:CDN *492:127 2.99992
177 *1499:CDN *492:126 2.99992
178 *1429:I *492:125 2.99992
179 *1517:CDN *492:124 2.99992
180 *492:73 *492:172 1.50059
181 *492:86 *492:175 1.50059
182 *492:168 *492:182 1.50059
*END

*D_NET *493 0.0111798

*CONN
*I *1436:I I *C 140.9 8.4 *L 0.00105 *D DEL1
*P *493 I *C 0 5 *L 0.5

*CAP
1 *493 7.17826e-05
2 *493:2 0.000583896
3 *493:3 0.0105241

*RES
1 *493:2 *493:3 41.2253
2 *1436:I *493:2 6.48794
3 *493 *493:3 98.288002
*END

*D_NET *494 0.0151267

*CONN
*I *1098:I I *C 137.5 92.8 *L 0.00072 *D BUFFD1
*P *494 I *C 0 48.2 *L 0.5

*CAP
1 *1098:I 0.000112619
2 *494 0.0005274
3 *494:2 0.000338779
4 *494:3 4.40013e-05
5 *494:4 0.000282162
6 *494:5 4.10268e-06
7 *494:6 0.00189062
8 *494:7 5.06681e-05
9 *494:8 0.00672173
10 *494 *498:2 0.000538416992
11 *494 *499:2 0.00351377
12 *1098:I *239:2 0.000441689023
13 *1098:I *479:2 0.000660848047

*RES
1 *494:7 *494:8 37.621
2 *494:5 *494:6 33.3958
3 *494:3 *494:4 12.0119
4 *494:2 *494:3 3.05902
5 *1098:I *494:2 3.89703
6 *494:5 *494:8 96.0133972
7 *494 *494:6 6.13709
8 *494:4 *494:7 1.50021
*END

*D_NET *495 0.00906809

*CONN
*I *1178:I I *C 137.5 38.8 *L 0.000643 *D CKBD0
*P *495 I *C 0 44.6 *L 0.5

*CAP
1 *1178:I 0.000317894
2 *495 4.24097e-05
3 *495:2 0.000426128
4 *495:3 4.04983e-05
5 *495:4 1.66055e-05
6 *495:5 0.00782907
7 *495:6 2.12646e-05
8 *1178:I *504:3 0.000374449023

*RES
1 *495:2 *495:3 7.84496
2 *495:4 *495:5 35.2919
3 *1178:I *495:2 5.10086
4 *495:5 *495:6 97.2621002
5 *495 *495:6 1.50043
6 *495:3 *495:4 1.50043
*END

*D_NET *496 0.0161802

*CONN
*I *1099:I I *C 151.3 87.6 *L 0.000968 *D CKBD1
*P *496 I *C 0 41 *L 0.5

*CAP
1 *1099:I 0.000105127
2 *496 1.60817e-05
3 *496:2 0.000306347
4 *496:3 0.00084578
5 *496:4 3.47445e-06
6 *496:5 0.000725366
7 *496:6 0.000116642
8 *496:7 0.000649226
9 *496:8 0.000515708
10 *496:9 0.000163895
11 *496:10 0.000766762
12 *496:11 0.000309822
13 *496:12 0.00204893
14 *496:13 0.000274382
15 *496:14 0.000297611
16 *496:15 0.00650566
17 *496 *513:2 0.00170877
18 *496:8 *240:2 0.000277177988
19 *496:8 *397:2 0.000543325

*RES
1 *496:5 *496:6 0.326502
2 *496:10 *496:11 3.17449
3 *496:15 *496:16 97.2621002
4 *496:9 *496:10 9.28157
5 *496:11 *496:12 27.2229
6 *496:3 *496:4 0.326502
7 *496:2 *496:3 6.85803
8 *496:4 *496:5 4.91831
9 *1099:I *496:2 5.41104
10 *496:8 *496:9 3.19379
11 *496:6 *496:7 4.1822
12 *496:14 *496:15 35.6808
13 *496:13 *496:14 2.02135
14 *496:12 *496:13 2.98008
15 *496:7 *496:8 5.32496
16 *496 *496:16 1.50043
*END

*D_NET *497 0.0106485

*CONN
*I *1107:I I *C 151.1 38.8 *L 0.00072 *D BUFFD1
*P *497 I *C 0 37.4 *L 0.5

*CAP
1 *1107:I 1.11311e-05
2 *497 6.15995e-05
3 *497:2 2.21542e-05
4 *497:3 0.00028325
5 *497:4 0.00708232
6 *497:5 0.00146326
7 *497:6 1.2536e-05
8 *497 *513:3 0.0017123

*RES
1 *497:4 *497:6 39.2143
2 *1107:I *497:2 3.00052
3 *497:5 *497:6 0.194018
4 *497:2 *497:3 2.66813
5 *497 *497:4 98.5673981
6 *497:3 *497:5 12.536
*END

*D_NET *498 0.0180444

*CONN
*I *1096:I I *C 143.7 107.2 *L 0.000968 *D CKBD1
*P *498 I *C 0 33.8 *L 0.5

*CAP
1 *1096:I 0.000221727
2 *498 0.00015654
3 *498:2 0.00432262
4 *498:3 3.2777e-05
5 *498:4 0.00145532
6 *498:5 0.000274427
7 *498:6 0.000231642
8 *498:7 0.000319323
9 *498:8 0.000320333
10 *498:9 0.000111919
11 *498:10 0.000183349
12 *498:11 5.79336e-05
13 *498:13 8.57527e-05
14 *498:14 0.00601692
15 *498 *503:5 0.00348538
16 *498:8 *397:3 0.000230114004
17 *498:2 *494 0.000538416992

*RES
1 *498:6 *498:7 2.91796
2 *498 *498:13 0.778897
3 *498:3 *498:4 11.3914
4 *498:7 *498:8 2.92232
5 *498:4 *498:6 3.21586
6 *498:2 *498:5 3.30014
7 *498:9 *498:10 3.5806
8 *498:2 *498:12 53.9226
9 *498:5 *498:13 4.19093
10 *498:10 *498:11 0.746927
11 *1096:I *498:3 4.27812
12 *498:12 *498:14 95.2347031
13 *498:11 *498:14 35.6738
14 *498:8 *498:9 6.17741
*END

*D_NET *499 0.0172728

*CONN
*I *1100:I I *C 139.7 94.8 *L 0.000968 *D CKBD1
*P *499 I *C 0 30.2 *L 0.5

*CAP
1 *1100:I 5.7589e-05
2 *499 0.000276584
3 *499:2 0.00295584
4 *499:3 0.000193824
5 *499:4 0.000545822
6 *499:5 8.85382e-05
7 *499:6 0.000409783
8 *499:8 9.50023e-05
9 *499:9 0.00026346
10 *499:11 0.00017071
11 *499:12 0.00641853
12 *499:2 *500:2 0.00044779
13 *499 *503:5 0.00102491
14 *499:4 *511:2 0.000810643047
15 *499:2 *494 0.00351377

*RES
1 *499 *499:11 3.73535
2 *499:6 *499:7 7.88442
3 *499:5 *499:11 6.87162
4 *499:2 *499:5 0.97128
5 *499:2 *499:10 43.632
6 *499:8 *499:9 4.80153
7 *499:3 *499:4 5.2286
8 *499:4 *499:8 2.78186
9 *1100:I *499:3 3.84805
10 *499:7 *499:9 0.256537
11 *499:6 *499:12 37.2319
12 *499:10 *499:12 97.1813965
*END

*D_NET *500 0.0135675

*CONN
*I *1175:I I *C 147.7 58.8 *L 0.00103 *D DEL01
*P *500 I *C 0 26.6 *L 0.5

*CAP
1 *500 0.000495348
2 *500:2 0.000129661
3 *500:3 0.001545
4 *500:4 0.000441195
5 *500:5 0.00669609
6 *500:6 0.00039307
7 *500:2 *512:2 0.00171053
8 *500:2 *499:2 0.00044779
9 *500:2 *511:5 0.00170889

*RES
1 *500 *500:3 6.66377
2 *500:5 *500:6 44.5254
3 *500:2 *500:3 27.9595
4 *1175:I *500:4 6.25106
5 *500:4 *500:6 3.84261
6 *500:2 *500:5 96.5973969
*END

*D_NET *501 0.011018

*CONN
*I *1176:I I *C 142.7 24.4 *L 0.00103 *D DEL01
*P *501 I *C 0 23 *L 0.5

*CAP
1 *501 0.00010209
2 *501:2 0.00012242
3 *501:3 1.20234e-06
4 *501:4 4.18633e-05
5 *501:5 0.00716321
6 *501:6 0.00013805
7 *501 *502 0.00344914

*RES
1 *501:5 *501:7 37.6567
2 *501:3 *501:5 98.7621002
3 *501:6 *501:7 0.194402
4 *1176:I *501:2 3.00042
5 *501:4 *501:6 5.42667
6 *501 *501:3 1.13326
7 *501:2 *501:4 1.49946
*END

*D_NET *502 0.0111381

*CONN
*I *1145:I I *C 141.1 22.8 *L 0.000968 *D CKBD1
*P *502 I *C 0 19.4 *L 0.5

*CAP
1 *1145:I 0.000107289
2 *502 0.000581041
3 *502:2 0.000264309
4 *502:3 3.6687e-06
5 *502:4 7.17435e-06
6 *502:5 0.00534285
7 *502:3 *504:2 0.00138264
8 *502 *501 0.00344914

*RES
1 *1145:I *502:2 4.50022
2 *502:3 *502:5 41.5237
3 *502:2 *502:3 3.63883
4 *502 *502:4 5.88595
5 *502:4 *502:5 98.1780014
*END

*D_NET *503 0.0232418

*CONN
*I *1001:I I *C 150.7 110.8 *L 0.000968 *D CKBD1
*I *1102:I I *C 143.1 102 *L 0.000643 *D CKBD0
*P *503 I *C 0 15.8 *L 0.5
*I *1771:B1 I *C 142.7 102 *L 0.000651 *D INR2D0
*I *1696:B1 I *C 143.5 109.2 *L 0.000658 *D IND2D0

*CAP
1 *1102:I 0.000125732
2 *503 7.35119e-05
3 *503:5 0.000406445
4 *503:6 0.000522092
5 *503:7 0.000500352
6 *503:8 0.000486792
7 *503:9 4.21349e-05
8 *503:10 0.000289117
9 *503:11 3.48509e-05
10 *503:12 0.000757756
11 *503:13 0.000206304
12 *503:14 0.000279704
13 *503:15 0.000241043
14 *503:17 3.00323e-05
15 *503:18 0.00243699
16 *503:19 0.000550443
17 *503:20 2.58861e-05
18 *503:21 1.79297e-05
19 *503:22 0.000620033
20 *503:23 0.000353104
21 *503:24 0.000674831
22 *503:25 0.000273092
23 *503:26 0.00734391
24 *503:18 *513 0.000383626992
25 *503:6 *362:4 0.000503165
26 *503:6 *433:2 0.000910988984
27 *503:7 *799:3 0.000285537988
28 *503:6 *890:3 0.000356016016
29 *503:5 *498 0.00348538
30 *503:5 *499 0.00102491

*RES
1 *503:5 *503:21 0.449921
2 *503:20 *503:5 4.59786
3 *503:6 *503:8 2.57845
4 *503:19 *503:20 1.43646
5 *503:16 *503:19 9.86088
6 *503:7 *503:13 7.40351
7 *503:6 *503:11 8.95357
8 *503:10 *503:11 0.133033
9 *503 *503:24 0.400594
10 *503:8 *503:12 11.973
11 *503:9 *503:25 2.99997
12 *503:23 *503:24 6.34522
13 *503:21 *503:22 7.50964
14 *503:22 *503:23 3.38113
15 *503:17 *503:18 40.1595
16 *503:14 *503:15 3.52612
17 *1102:I *503:7 3.80863
18 *503:17 *503:26 97.9600983
19 *503:16 *503:18 0.255603
20 *503:13 *503:14 4.50219
21 *503:7 *503:9 0.162928
22 *503:15 *503:26 43.0743
23 *503:12 *503:25 4.3004
24 *1001:I *503:10 7.43191
25 *1771:B1 *503:9 1.50073
26 *1696:B1 *503:8 1.50073
*END

*D_NET *504 0.0147004

*CONN
*I *1438:I I *C 144.5 55.2 *L 0.00104 *D DEL0
*P *504 I *C 0 12.2 *L 0.5

*CAP
1 *504 0.000120713
2 *504:2 0.00646315
3 *504:3 0.000258881
4 *504:4 0.000461055
5 *504:5 0.00107162
6 *504:7 0.000344189
7 *504:8 0.00127517
8 *504:9 0.0014305
9 *504:10 4.44782e-05
10 *504:11 6.70625e-06
11 *504:12 0.000331565
12 *504:13 0.000882168
13 *504:14 5.40445e-05
14 *504:4 *184:2 0.000198929004
15 *504:2 *502:3 0.00138264
16 *504:3 *1178:I 0.000374449023

*RES
1 *504:10 *504:12 3.89828
2 *504 *504:13 0.982373
3 *504:3 *504:5 3.56686
4 *504:6 *504:8 7.67767
5 *504:12 *504:13 9.45218
6 *504:10 *504:11 1.77897
7 *504:3 *504:7 3.12695
8 *504:14 *504:2 35.4873
9 *504:11 *504:2 97.3991013
10 *504:5 *504:9 13.2553
11 *504:8 *504:14 4.7677
12 *1438:I *504:4 6.90336
13 *504:4 *504:9 11.6711
14 *504:6 *504:7 0.257111
*END

*D_NET *505 0.00821083

*CONN
*I *1437:I I *C 137.5 8.4 *L 0.00105 *D DEL1
*P *505 I *C 0 8.6 *L 0.5

*CAP
1 *1437:I 0.000148301
2 *505 0.000882507
3 *505:2 0.000238107
4 *505:3 0.00693217
5 *505:4 9.73159e-06

*RES
1 *1437:I *505:2 7.18096
2 *505:4 *505:5 0.13271
3 *505:2 *505:3 36.2658
4 *505:3 *505:4 86.9730988
5 *505 *505:5 11.656
*END

*D_NET *506 0.00933332

*CONN
*I *1216:I I *C 137.5 76.8 *L 0.000968 *D CKBD1
*P *506 I *C 0 77 *L 0.5

*CAP
1 *1216:I 0.000301686
2 *506 5.11637e-05
3 *506:2 0.000100844
4 *506:3 4.6291e-05
5 *506:4 1.59953e-05
6 *506:5 0.00694206
7 *506:3 *507 0.00167699
8 *506:2 *240:10 0.000198282012

*RES
1 *506:3 *506:5 98.5440979
2 *506:2 *506:4 5.29139
3 *1216:I *506:2 4.71098
4 *506:4 *506:5 35.4789
5 *506 *506:3 1.91116
*END

*D_NET *507 0.0086728

*CONN
*I *1211:I I *C 137.5 73.2 *L 0.000968 *D CKBD1
*P *507 I *C 0 73.4 *L 0.5

*CAP
1 *1211:I 0.000299026
2 *507 0.000866113
3 *507:2 8.67583e-05
4 *507:3 7.51675e-05
5 *507:4 0.0056687
6 *507 *506:3 0.00167699

*RES
1 *507:2 *507:3 2.99986
2 *507:5 *507:6 0.132679
3 *507:3 *507:4 35.4796
4 *1211:I *507:2 4.71141
5 *507:4 *507:5 86.9522018
6 *507 *507:6 11.6532
*END

*D_NET *508 0.00881647

*CONN
*I *1215:I I *C 137.5 67.6 *L 0.000968 *D CKBD1
*P *508 I *C 0 69.8 *L 0.5

*CAP
1 *1215:I 0.000304435
2 *508 6.79033e-05
3 *508:2 0.000244024
4 *508:3 4.40004e-05
5 *508:4 0.000119752
6 *508:5 0.00779342
7 *508:2 *240:10 0.000242908008

*RES
1 *508:2 *508:3 4.29897
2 *1215:I *508:2 4.71098
3 *508 *508:5 98.5440979
4 *508:4 *508:5 35.4789
5 *508:3 *508:4 1.50066
*END

*D_NET *509 0.00843834

*CONN
*I *1214:I I *C 137.5 66 *L 0.000968 *D CKBD1
*P *509 I *C 0 66.2 *L 0.5

*CAP
1 *1214:I 0.000305728
2 *509 5.55329e-05
3 *509:2 6.49271e-05
4 *509:3 0.000219159
5 *509:4 0.00779304

*RES
1 *509:2 *509:3 3.25393
2 *509 *509:4 98.5440979
3 *509:3 *509:4 35.4789
4 *1214:I *509:2 4.71098
*END

*D_NET *510 0.00832905

*CONN
*I *1213:I I *C 137.5 62.4 *L 0.000968 *D CKBD1
*P *510 I *C 0 62.6 *L 0.5

*CAP
1 *1213:I 0.000297058
2 *510 0.000955336
3 *510:2 7.38689e-05
4 *510:3 7.72457e-05
5 *510:4 0.00691571
6 *510:5 9.81401e-06

*RES
1 *510:2 *510:3 2.99986
2 *510:5 *510:6 0.132679
3 *510:3 *510:4 35.2845
4 *1213:I *510:2 4.95554
5 *510:4 *510:5 86.9522018
6 *510 *510:6 11.6532
*END

*D_NET *511 0.0170111

*CONN
*I *1044:I I *C 137.7 118 *L 0.000968 *D CKBD1
*P *511 I *C 0 59 *L 0.5

*CAP
1 *1044:I 6.41009e-05
2 *511 1.02645e-05
3 *511:2 0.00325815
4 *511:3 0.000365962
5 *511:4 0.000507885
6 *511:5 0.00686414
7 *511:6 7.49939e-05
8 *511:5 *500:2 0.00170889
9 *511:4 *239:3 0.000218770996
10 *511:2 *369:2 0.000293245996
11 *511:3 *391:2 0.00191173
12 *511:3 *392:2 0.000922258047
13 *511:2 *499:4 0.000810643047

*RES
1 *511:3 *511:4 30.3184
2 *1044:I *511:3 5.0087
3 *511 *511:5 98.5440979
4 *511:2 *511:6 39.6742
5 *511:2 *511:5 37.4262
6 *511:4 *511:6 2.5051
*END

*D_NET *512 0.0121946

*CONN
*I *1208:I I *C 145.3 35.2 *L 0.00072 *D BUFFD1
*P *512 I *C 0 55.4 *L 0.5

*CAP
1 *1208:I 1.04724e-05
2 *512 9.94353e-06
3 *512:2 0.00693244
4 *512:3 9.0338e-05
5 *512:4 0.000448411
6 *512:5 0.000767768
7 *512:6 0.000196543
8 *512:7 0.00033057
9 *512:8 0.000555568
10 *512:9 0.00058963
11 *512:10 0.000140902
12 *512:11 1.68194e-05
13 *512:12 0.000387904
14 *512:13 6.77006e-06
15 *512:2 *500:2 0.00171053

*RES
1 *512:3 *512:4 5.61017
2 *512:5 *512:7 5.76655
3 *512:11 *512:12 0.257126
4 *512:7 *512:8 0.257126
5 *512:9 *512:13 1.42848
6 *512:12 *512:13 4.03583
7 *512 *512:2 98.5440979
8 *1208:I *512:3 3.19378
9 *512:6 *512:10 0.836037
10 *512:4 *512:5 3.97569
11 *512:9 *512:10 5.39966
12 *512:6 *512:2 38.0111
13 *512:8 *512:11 4.17417
*END

*D_NET *513 0.0127054

*CONN
*I *1209:I I *C 145.9 31.6 *L 0.00072 *D BUFFD1
*P *513 I *C 0 51.8 *L 0.5

*CAP
1 *513 0.000426783
2 *513:2 9.18644e-06
3 *513:3 0.00562648
4 *513:4 5.82094e-05
5 *513:5 0.000515127
6 *513:6 0.000502593
7 *513:7 4.27556e-05
8 *513:9 0.00016982
9 *513:10 0.000145781
10 *513:11 0.00116359
11 *513:4 *247:3 0.000240330996
12 *513:2 *496 0.00170877
13 *513 *503:18 0.000383626992
14 *513:3 *497 0.0017123

*RES
1 *513:2 *513:10 2.84485
2 *513:8 *513:3 35.2917
3 *513:7 *513:11 5.32117
4 *513:6 *513:8 2.86133
5 *513 *513:9 6.99902
6 *513:9 *513:10 3.97889
7 *513:2 *513:3 98.1780014
8 *513:4 *513:5 3.6598
9 *1209:I *513:7 3.00065
10 *513:5 *513:6 3.91597
11 *513:4 *513:11 7.33459
*END

*D_NET *514 0.000759856

*CONN
*I *1435:I I *C 149.5 6.4 *L 0.00104 *D DEL0
*P *514 I *C 155 5 *L 0.5

*CAP
1 *514 6.95708e-05
2 *514:2 0.000690282969

*RES
1 *1435:I *514:2 4.36095
2 *514 *514:2 6.55518007
*END

*D_NET *515 0.0104198

*CONN
*I *1217:I I *C 137.9 112.8 *L 0.00104 *D DEL0
*P *515 I *C 155 37.4 *L 0.5

*CAP
1 *515 0.000433334
2 *515:2 0.000429597
3 *515:3 0.00187857
4 *515:4 0.00141217
5 *515:5 0.000591366
6 *515:6 0.00288164
7 *515:3 *111:2 0.000433598008
8 *515:3 *123:2 0.000311796016
9 *515:3 *248:2 0.000366505
10 *515:2 *87:2 0.000823686016
11 *515:5 *463:3 0.000365455
12 *515:2 *485:2 0.000492083984

*RES
1 *515:4 *515:6 13.2042
2 *515:3 *515:5 3.28409
3 *515:5 *515:6 55.5709
4 *515:2 *515:3 24.9482
5 *1217:I *515:2 5.47094
6 *515 *515:4 4.97574
*END

*D_NET *516 0.00439671

*CONN
*I *1177:I I *C 148.1 55.2 *L 0.000643 *D CKBD0
*P *516 I *C 155 33.8 *L 0.5

*CAP
1 *1177:I 0.000448529
2 *516 6.93625e-05
3 *516:2 0.00302038
4 *516:3 0.000137757
5 *516:4 0.000720679

*RES
1 *516:3 *516:4 6.97486
2 *1177:I *516:3 6.6674
3 *516:2 *516:4 21.8542995
4 *516 *516:2 6.67941
*END

*D_NET *517 0.00124183

*CONN
*P *517 I *C 155 30.2 *L 0.5
*I *1552:B2 I *C 150.7 37.4 *L 0.000739 *D MOAI22D0

*CAP
1 *517 6.95725e-05
2 *517:2 0.000254851
3 *517:3 0.000275233
4 *517:4 0.000642174023

*RES
1 *1552:B2 *517:3 4.55564
2 *517:3 *517:4 8.3312397
3 *517 *517:2 3.83344
4 *517:2 *517:4 1.49994
*END

*D_NET *518 0.00211756

*CONN
*P *518 I *C 155 26.6 *L 0.5
*I *1548:B2 I *C 149.7 33.8 *L 0.000739 *D MOAI22D0

*CAP
1 *518 0.0002703
2 *518:2 0.000673005
3 *518:3 0.000228154
4 *518:4 0.000259722
5 *518:5 0.00068638

*RES
1 *518:4 *518:5 5.33477
2 *518:2 *518:5 4.4789
3 *1548:B2 *518:3 2.99999
4 *518 *518:2 5.49690008
5 *518:3 *518:4 3.44068
*END

*D_NET *519 0.00216726

*CONN
*P *519 I *C 155 23 *L 0.5
*I *1555:B2 I *C 149.7 31.4 *L 0.000739 *D MOAI22D0

*CAP
1 *519 0.000296537
2 *519:2 0.00112442992
3 *519:3 0.000694372
4 *519:4 5.19192e-05

*RES
1 *519:2 *519:4 6.82450008
2 *519:2 *519:3 3.94864
3 *1555:B2 *519:3 5.51585
4 *519 *519:4 4.20325
*END

*D_NET *520 0.00130826

*CONN
*P *520 I *C 155 19.4 *L 0.5
*I *1556:B2 I *C 151.5 26.6 *L 0.000739 *D MOAI22D0

*CAP
1 *520 6.35131e-05
2 *520:2 3.92809e-05
3 *520:3 0.000624975039
4 *520:4 0.000580497

*RES
1 *520:2 *520:4 5.6353
2 *520:2 *520:3 8.32765961
3 *1556:B2 *520:4 3
4 *520 *520:3 1.50006
*END

*D_NET *521 0.00100695

*CONN
*P *521 I *C 155 15.8 *L 0.5
*I *1551:B2 I *C 150.3 19.4 *L 0.000739 *D MOAI22D0

*CAP
1 *521 0.000290239
2 *521:2 0.00067126
3 *521:3 4.54472e-05

*RES
1 *521:2 *521:3 6.78112984
2 *521 *521:3 4.5926
3 *1551:B2 *521:2 1.7108
*END

*D_NET *522 0.00077982

*CONN
*P *522 I *C 155 12.2 *L 0.5
*I *1554:B2 I *C 149.7 12.2 *L 0.000739 *D MOAI22D0

*CAP
1 *522 5.87543e-05
2 *522:2 0.000699957031
3 *522:3 2.1105e-05

*RES
1 *522:2 *522:3 6.58014011
2 *522 *522:3 1.49995
3 *1554:B2 *522:2 1.49995
*END

*D_NET *523 0.00123143

*CONN
*P *523 I *C 155 8.6 *L 0.5
*I *1553:B2 I *C 144.3 6.2 *L 0.000739 *D MOAI22D0

*CAP
1 *1553:B2 0.000147886
2 *523 4.30665e-05
3 *523:2 0.000875966016
4 *523:3 0.000164513

*RES
1 *523:2 *523:3 11.6057997
2 *523 *523:3 3.41607
3 *1553:B2 *523:2 1.6944
*END

*D_NET *524 0.00311642

*CONN
*I *1395:Z O *C 150.7 290.4 *L 0 *D BUFFD8
*P *524 O *C 155 267.8 *L 0.5

*CAP
1 *524 5.85134e-05
2 *524:2 2.61543e-05
3 *524:3 0.000113925
4 *524:4 0.000344208
5 *524:6 0.00257361

*RES
1 *524:5 *524:6 7.91937
2 *524:3 *524:4 4.02848
3 *1395:Z *524:2 3.00013
4 *524:4 *524:6 23.4822006
5 *524 *524:5 1.49989
6 *524:2 *524:3 1.49989
*END

*D_NET *525 0.00317952

*CONN
*I *1387:Z O *C 150.1 286 *L 0 *D CKBD12
*P *525 O *C 155 264.2 *L 0.5

*CAP
1 *525 5.86042e-05
2 *525:2 0.000167332
3 *525:3 0.000340358
4 *525:4 4.1007e-06
5 *525:5 0.00260911984

*RES
1 *525:4 *525:5 7.14123
2 *525:2 *525:3 4.78093
3 *1387:Z *525:2 2.99994
4 *525:3 *525:5 21.7313995
5 *525 *525:4 1.50014
*END

*D_NET *526 0.00310884

*CONN
*I *1399:Z O *C 150.1 283.2 *L 0 *D CKBD12
*P *526 O *C 155 260.6 *L 0.5

*CAP
1 *526 5.17816e-05
2 *526:2 0.000108592
3 *526:3 0.000224913
4 *526:5 0.00272352

*RES
1 *526:4 *526:5 6.55779
2 *526:2 *526:3 4.16714
3 *1399:Z *526:2 3.00013
4 *526:3 *526:5 23.4822006
5 *526 *526:4 1.49989
*END

*D_NET *527 0.00501446

*CONN
*I *1381:Z O *C 143.3 282.4 *L 0 *D CKBD12
*P *527 O *C 155 257 *L 0.5

*CAP
1 *527 7.05762e-05
2 *527:2 0.000279462
3 *527:3 8.38533e-05
4 *527:4 0.000301796
5 *527:5 7.28624e-05
6 *527:6 0.0003491
7 *527:7 0.00192077
8 *527:4 *97:8 0.000565641992
9 *527:2 *316:2 0.00137038

*RES
1 *527:6 *527:7 17.0445004
2 *527:5 *527:6 3.62887
3 *527 *527:7 12.9756
4 *527:4 *527:5 1.21327
5 *527:3 *527:4 4.0567
6 *527:2 *527:3 2.72848
7 *1381:Z *527:2 4.1649
*END

*D_NET *528 0.00446456

*CONN
*I *1373:Z O *C 141.9 272.4 *L 0 *D CKBD12
*P *528 O *C 155 253.4 *L 0.5

*CAP
1 *528 0.000221893
2 *528:2 0.00374594
3 *528:3 0.000466992
4 *528:4 2.978e-05

*RES
1 *528:2 *528:3 16.1121998
2 *528:2 *528:4 13.5772
3 *1373:Z *528:3 4.54778
4 *528 *528:4 3.42153
*END

*D_NET *529 0.00261918

*CONN
*I *975:Z O *C 142.1 257.2 *L 0 *D BUFFD8
*P *529 O *C 155 249.8 *L 0.5

*CAP
1 *529 0.000279964
2 *529:2 0.00172617
3 *529:3 2.3416e-05
4 *529:4 0.00054157
5 *529:5 4.80436e-05

*RES
1 *529:2 *529:5 8.3266201
2 *529 *529:3 3.42169
3 *529:4 *529:5 0.132009
4 *529:3 *529:4 5.77372
5 *975:Z *529:2 6.32209
*END

*D_NET *530 0.00409175

*CONN
*I *1400:Z O *C 145.3 268.8 *L 0 *D BUFFD8
*P *530 O *C 155 246.2 *L 0.5

*CAP
1 *530 0.000311279
2 *530:2 0.000583672
3 *530:3 0.000562446
4 *530:4 0.00091998
5 *530:5 4.33634e-05
6 *530:6 0.000748295
7 *530:7 0.000153716
8 *530:8 0.000767485
9 *530:9 1.50207e-06

*RES
1 *530:8 *530:9 6.74924
2 *530:7 *530:8 0.256378
3 *530 *530:3 4.58856
4 *530:6 *530:9 0.256378
5 *530:5 *530:6 7.50691
6 *530:3 *530:4 6.40921
7 *530:2 *530:5 4.41239
8 *530:4 *530:7 8.07400036
9 *1400:Z *530:2 1.49995
*END

*D_NET *531 0.00536427

*CONN
*I *1372:Z O *C 141.9 264.4 *L 0 *D CKBD12
*P *531 O *C 155 242.6 *L 0.5

*CAP
1 *531 6.95671e-05
2 *531:2 0.000701986
3 *531:3 0.000285606
4 *531:4 0.000745255
5 *531:6 0.000295292
6 *531:7 0.000626448
7 *531:8 0.000867432
8 *531:9 0.000869555
9 *531:10 0.00032086
10 *531:2 *1389:Z 0.000336376016
11 *531:9 *36:12 0.000245895

*RES
1 *531:5 *531:6 0.256403
2 *531:3 *531:7 4.44091
3 *531:9 *531:10 0.131939
4 *531:8 *531:10 8.01805
5 *531:7 *531:8 3.69185
6 *531:4 *531:6 2.13734
7 *531:2 *531:3 2.19876
8 *1372:Z *531:4 5.56418
9 *531:2 *531:5 4.86841
10 *531 *531:9 10.6486998
*END

*D_NET *532 0.00507925

*CONN
*I *1389:Z O *C 140.9 260.8 *L 0 *D CKBD12
*P *532 O *C 155 239 *L 0.5

*CAP
1 *532 6.43736e-05
2 *532:2 0.000184992
3 *532:3 0.00119443
4 *532:4 0.000186268
5 *532:5 0.000431478
6 *532:6 0.000838334
7 *532:7 0.000864852
8 *532:8 0.000345544
9 *532:2 *492:94 0.000632609023
10 *1389:Z *531:2 0.000336376016

*RES
1 *532:7 *532:8 0.133252
2 *532:4 *532:5 3.70645
3 *532:3 *532:8 6.70082
4 *532:2 *532:5 3.02061
5 *1389:Z *532:4 3.77403
6 *532:2 *532:6 7.51828
7 *532:3 *532:6 6.9298
8 *532 *532:7 8.91104031
*END

*D_NET *533 0.00186104

*CONN
*I *976:Z O *C 147.5 232 *L 0 *D BUFFD8
*P *533 O *C 155 235.4 *L 0.5

*CAP
1 *976:Z 9.25146e-05
2 *533 6.95698e-05
3 *533:2 0.000806541
4 *533:3 0.000892396953

*RES
1 *533:2 *533:3 6.95128
2 *976:Z *533:2 1.75644
3 *533 *533:3 9.15972996
*END

*D_NET *534 0.0037417

*CONN
*I *1401:Z O *C 147.5 250.8 *L 0 *D BUFFD8
*P *534 O *C 155 231.8 *L 0.5

*CAP
1 *534 6.95477e-05
2 *534:2 8.29124e-05
3 *534:3 0.00336867
4 *534:4 0.000220569

*RES
1 *534:2 *534:4 2.27659
2 *534:2 *534:3 20.2248001
3 *534 *534:3 7.83643
4 *1401:Z *534:4 2.99996
*END

*D_NET *535 0.00419136

*CONN
*I *1382:Z O *C 142.9 253.6 *L 0 *D CKBD12
*P *535 O *C 155 228.2 *L 0.5

*CAP
1 *1382:Z 0.000337102
2 *535 6.93471e-05
3 *535:2 0.00173925
4 *535:3 0.000384474
5 *535:4 0.000343922
6 *535:5 0.00131728

*RES
1 *535:3 *535:5 12.9444
2 *535:3 *535:4 2.29892
3 *1382:Z *535:4 6.72014
4 *535:2 *535:5 14.1666002
5 *535 *535:2 6.55002
*END

*D_NET *536 0.00362969

*CONN
*I *1402:Z O *C 143.5 242.8 *L 0 *D BUFFD8
*P *536 O *C 155 224.6 *L 0.5

*CAP
1 *536 6.95764e-05
2 *536:2 0.000592587
3 *536:3 0.000876859
4 *536:4 0.000145416
5 *536:5 0.00194526

*RES
1 *536:2 *536:4 4.95255
2 *536:4 *536:5 18.2465992
3 *536:3 *536:5 1.75628
4 *536 *536:3 9.16868
5 *1402:Z *536:2 1.50013
*END

*D_NET *537 0.00340588

*CONN
*I *1403:Z O *C 147.5 240 *L 0 *D BUFFD8
*P *537 O *C 155 221 *L 0.5

*CAP
1 *537 0.000340526
2 *537:2 0.000241827
3 *537:3 0.000387497
4 *537:4 0.00152768
5 *537:5 0.000193061
6 *537:6 0.000715272

*RES
1 *537:5 *537:6 5.04227
2 *537:3 *537:5 2.72853
3 *1403:Z *537:3 4.35914
4 *537:4 *537:6 12.4637003
5 *537:2 *537:4 5.09305
6 *537 *537:2 3.99399
*END

*D_NET *538 0.00390585

*CONN
*I *1396:Z O *C 146.9 236.4 *L 0 *D CKBD12
*P *538 O *C 155 217.4 *L 0.5

*CAP
1 *538 0.00030731
2 *538:2 0.000877661
3 *538:3 0.00147564
4 *538:4 0.000468192
5 *538:5 0.000530226
6 *538:6 0.0002208
7 *538:7 2.60294e-05

*RES
1 *538 *538:6 4.58864
2 *538:3 *538:4 3.32075
3 *538:2 *538:5 1.76759
4 *1396:Z *538:3 11.1085997
5 *538:6 *538:7 2.68833
6 *538:4 *538:5 3.52551
7 *538:2 *538:7 6.50759
*END

*D_NET *539 0.00321169

*CONN
*I *1404:Z O *C 150.7 236.4 *L 0 *D BUFFD8
*P *539 O *C 155 213.8 *L 0.5

*CAP
1 *539 0.000277779
2 *539:2 0.000168565
3 *539:3 3.79113e-05
4 *539:4 0.000345908
5 *539:5 0.000400105
6 *539:6 0.00024883
7 *539:7 0.00173258

*RES
1 *539:3 *539:7 6.47091
2 *539:6 *539:7 12.4659004
3 *539:5 *539:6 2.58996
4 *539:4 *539:5 3.64508
5 *539:2 *539:4 4.46776
6 *1404:Z *539:2 3.7769
7 *539 *539:3 2.69838
*END

*D_NET *540 0.00347075

*CONN
*I *1374:Z O *C 147.5 228.4 *L 0 *D BUFFD8
*P *540 O *C 155 210.2 *L 0.5

*CAP
1 *1374:Z 1.53193e-05
2 *540 0.000725898
3 *540:3 0.000702392
4 *540:4 0.00109721008
5 *540:5 0.000927041
6 *540:6 2.87968e-06

*RES
1 *540:4 *540:6 0.256441
2 *540:2 *540:4 7.34835
3 *540:2 *540:3 0.256441
4 *1374:Z *540:3 5.77433
5 *540:5 *540:6 5.79111
6 *540 *540:5 9.99172974
*END

*D_NET *541 0.00311859

*CONN
*I *1391:Z O *C 150.7 225.6 *L 0 *D BUFFD8
*P *541 O *C 155 206.6 *L 0.5

*CAP
1 *541 5.17719e-05
2 *541:2 8.02082e-05
3 *541:3 0.000200967
4 *541:4 0.00278561

*RES
1 *541 *541:4 6.74786
2 *541:3 *541:4 20.4573994
3 *541:2 *541:3 2.85934
4 *1391:Z *541:2 3.00012
*END

*D_NET *542 0.00343552

*CONN
*I *1368:Z O *C 147.5 218.4 *L 0 *D BUFFD8
*P *542 O *C 155 203 *L 0.5

*CAP
1 *542 6.93452e-05
2 *542:2 0.000399357
3 *542:3 0.00019826
4 *542:4 0.00048845
5 *542:5 0.000850101
6 *542:6 0.00143

*RES
1 *542:2 *542:3 1.78532
2 *1368:Z *542:4 4.31777
3 *542 *542:6 8.29749012
4 *542:4 *542:5 5.3785
5 *542:3 *542:6 5.54943
6 *542:2 *542:5 3.14714
*END

*D_NET *543 0.00326242

*CONN
*I *1390:Z O *C 150.7 218.4 *L 0 *D BUFFD8
*P *543 O *C 155 199.4 *L 0.5

*CAP
1 *543 5.736e-05
2 *543:2 0.000332337
3 *543:3 0.00133823
4 *543:4 0.00104902
5 *543:5 0.000485487

*RES
1 *543:3 *543:5 7.55401
2 *543:2 *543:4 11.4387999
3 *1390:Z *543:2 4.74772
4 *543 *543:3 7.13476
5 *543:4 *543:5 2.641
*END

*D_NET *544 0.00334318

*CONN
*I *1405:Z O *C 150.7 217.6 *L 0 *D BUFFD8
*P *544 O *C 155 195.8 *L 0.5

*CAP
1 *544 6.9347e-05
2 *544:2 0.000650554
3 *544:3 0.000441118
4 *544:4 0.000373531
5 *544:5 0.000392744
6 *544:6 0.000351689
7 *544:7 0.000824053984
8 *544:8 0.000240156

*RES
1 *544:7 *544:8 3.66512
2 *544:6 *544:7 4.55766
3 *544:4 *544:5 3.91323
4 *1405:Z *544:3 6.48340988
5 *544 *544:2 6.35817
6 *544:5 *544:6 3.55996
7 *544:3 *544:4 3.88949
8 *544:2 *544:8 2.89189
*END

*D_NET *545 0.00335743

*CONN
*I *1367:Z O *C 147.5 207.6 *L 0 *D BUFFD8
*P *545 O *C 155 192.2 *L 0.5

*CAP
1 *1367:Z 8.00297e-06
2 *545 7.35635e-05
3 *545:2 0.000758397
4 *545:4 0.000579113
5 *545:5 3.80721e-05
6 *545:6 0.00190027

*RES
1 *545:2 *545:5 0.256404
2 *545 *545:6 7.7173
3 *545:4 *545:5 4.03253
4 *545:3 *545:4 0.256404
5 *1367:Z *545:2 6.25178
6 *545:3 *545:6 10.2524004
*END

*D_NET *546 0.00373169

*CONN
*I *1393:Z O *C 150.7 207.6 *L 0 *D BUFFD8
*P *546 O *C 155 188.6 *L 0.5

*CAP
1 *546 6.93511e-05
2 *546:2 0.00154013
3 *546:3 0.000194282
4 *546:4 0.000444848
5 *546:5 0.000903679
6 *546:6 3.05511e-06
7 *546:7 5.82822e-06
8 *546:8 0.000570554

*RES
1 *546:7 *546:8 4.40938
2 *546:6 *546:8 0.649233
3 *546:5 *546:7 0.256434
4 *1393:Z *546:3 4.55354
5 *546:3 *546:4 3.65429
6 *546:4 *546:5 6.88429
7 *546:2 *546:6 9.12854004
8 *546 *546:2 6.35819
*END

*D_NET *547 0.00360488

*CONN
*I *1375:Z O *C 147.5 203.2 *L 0 *D BUFFD8
*P *547 O *C 155 185 *L 0.5

*CAP
1 *1375:Z 2.60387e-06
2 *547 6.69731e-05
3 *547:2 0.000569156
4 *547:3 0.000836742
5 *547:4 0.000246276
6 *547:5 0.000289144
7 *547:6 0.00033925
8 *547:7 0.00125474

*RES
1 *547:5 *547:6 2.24259
2 *547:3 *547:4 2.01409
3 *547:3 *547:6 6.02634
4 *547:2 *547:5 1.97223
5 *547:4 *547:7 3.74331
6 *1375:Z *547:2 4.88035
7 *547 *547:7 8.49392986
*END

*D_NET *548 0.00211192

*CONN
*I *1392:Z O *C 150.7 199.6 *L 0 *D BUFFD8
*P *548 O *C 155 181.4 *L 0.5

*CAP
1 *548 6.93491e-05
2 *548:2 0.000224356
3 *548:3 0.000269195
4 *548:4 0.00154901

*RES
1 *1392:Z *548:3 4.42822
2 *548:3 *548:4 18.2738991
3 *548 *548:2 3.83206
4 *548:2 *548:4 1.49987
*END

*D_NET *549 0.00324268

*CONN
*I *1376:Z O *C 150.7 193.2 *L 0 *D BUFFD8
*P *549 O *C 155 177.8 *L 0.5

*CAP
1 *549 0.000915745
2 *549:2 0.000296248
3 *549:3 0.000261229
4 *549:4 0.00176947

*RES
1 *549:2 *549:3 3.27316
2 *549 *549:4 10.2911
3 *549:3 *549:4 13.1925001
4 *1376:Z *549:2 4.35979
*END

*D_NET *550 0.0030658

*CONN
*I *1383:Z O *C 150.7 189.6 *L 0 *D BUFFD8
*P *550 O *C 155 174.2 *L 0.5

*CAP
1 *550 0.000280028
2 *550:2 8.40226e-05
3 *550:3 0.000335878
4 *550:4 4.64354e-05
5 *550:5 0.00231947

*RES
1 *550:2 *550:3 3.83043
2 *550:4 *550:5 8.6363
3 *550:3 *550:5 13.7475996
4 *550 *550:4 4.20047
5 *1383:Z *550:2 1.50008
*END

*D_NET *551 0.00291751

*CONN
*I *1369:Z O *C 150.7 185.2 *L 0 *D BUFFD8
*P *551 O *C 155 170.6 *L 0.5

*CAP
1 *1369:Z 7.28022e-05
2 *551 7.04644e-05
3 *551:2 0.00028087
4 *551:3 0.000335496
5 *551:4 0.00215789016

*RES
1 *551 *551:4 6.16413
2 *551:3 *551:4 14.1184998
3 *551:2 *551:3 2.52981
4 *1369:Z *551:2 3.87496
*END

*D_NET *552 0.00218019

*CONN
*I *1385:Z O *C 150.7 181.6 *L 0 *D BUFFD8
*P *552 O *C 155 167 *L 0.5

*CAP
1 *552 5.82484e-05
2 *552:2 0.000633998984
3 *552:3 0.000273993
4 *552:4 0.000528773
5 *552:5 0.000250272
6 *552:6 0.000434914

*RES
1 *1385:Z *552:3 4.42836
2 *552:5 *552:6 3.9278
3 *552:3 *552:4 6.42854977
4 *552:4 *552:5 2.52989
5 *552:2 *552:6 5.03143
6 *552 *552:2 3.83206
*END

*D_NET *553 0.00227134

*CONN
*I *1377:Z O *C 150.7 178 *L 0 *D BUFFD8
*P *553 O *C 155 163.4 *L 0.5

*CAP
1 *553 8.15618e-05
2 *553:2 0.00100890008
3 *553:3 0.000383393
4 *553:4 0.000378112
5 *553:5 0.000419371

*RES
1 *1377:Z *553:3 5.03477
2 *553:4 *553:5 3.67357
3 *553:3 *553:4 5.02479
4 *553:2 *553:5 9.34012032
5 *553 *553:2 3.63765
*END

*D_NET *554 0.00165708

*CONN
*I *1361:Z O *C 150.7 171.6 *L 0 *D BUFFD8
*P *554 O *C 155 159.8 *L 0.5

*CAP
1 *554 0.000308461
2 *554:2 2.03156e-05
3 *554:3 0.000836296953
4 *554:4 0.000492003

*RES
1 *554:2 *554:4 5.50483
2 *554:2 *554:3 9.89155006
3 *1361:Z *554:4 2.99995
4 *554 *554:3 4.58972
*END

*D_NET *555 0.00216157

*CONN
*I *1384:Z O *C 150.7 170.8 *L 0 *D BUFFD8
*P *555 O *C 155 156.2 *L 0.5

*CAP
1 *555 4.85082e-05
2 *555:2 4.04015e-05
3 *555:3 0.000424854
4 *555:4 0.000204144
5 *555:5 0.00144368

*RES
1 *555:3 *555:5 1.78659
2 *555 *555:2 1.8583
3 *555:2 *555:3 4.46981
4 *555:4 *555:5 15.5616999
5 *1384:Z *555:4 3.80779
*END

*D_NET *556 0.00708464

*CONN
*I *1182:Z O *C 140.3 199.6 *L 0 *D CKBD12
*P *556 O *C 155 152.6 *L 0.5

*CAP
1 *556 0.000610094
2 *556:2 8.85661e-05
3 *556:3 0.00120822
4 *556:4 0.00074574
5 *556:5 8.1987e-05
6 *556:7 0.00137312
7 *556:3 *286:2 0.000296537988
8 *556:2 *352:9 0.00105823008
9 *556:2 *489:50 0.000301294004
10 *556:3 *372:7 0.00028881002
11 *556:3 *788:7 0.000770167031
12 *556:3 *1310:I 0.000261871992

*RES
1 *556:3 *556:6 18.5469
2 *556:5 *556:3 5.08862
3 *1182:Z *556:2 3.38831
4 *556:6 *556:7 0.256344
5 *556:4 *556:5 3.43272
6 *556:2 *556:7 28.816
7 *556 *556:4 8.52485
*END

*D_NET *557 0.00129757

*CONN
*I *1347:Z O *C 147.1 145.6 *L 0 *D BUFFD8
*P *557 O *C 155 149 *L 0.5

*CAP
1 *1347:Z 0.00021459
2 *557 4.30578e-05
3 *557:2 0.000832386953
4 *557:3 0.000207528

*RES
1 *557:2 *557:3 8.81015015
2 *557 *557:3 4.00097
3 *1347:Z *557:2 2.27795
*END

*D_NET *558 0.00155741

*CONN
*I *1360:Z O *C 150.7 134.8 *L 0 *D BUFFD8
*P *558 O *C 155 145.4 *L 0.5

*CAP
1 *558 0.000151925
2 *558:2 0.000181629
3 *558:3 0.000312501
4 *558:4 0.000911343984

*RES
1 *558:2 *558:4 10.6723003
2 *558:3 *558:4 3.28152
3 *1360:Z *558:3 2.99996
4 *558 *558:2 4.97105
*END

*D_NET *559 0.00188522

*CONN
*I *1349:Z O *C 147.5 134.8 *L 0 *D BUFFD8
*P *559 O *C 155 141.8 *L 0.5

*CAP
1 *1349:Z 0.000173963
2 *559 4.30556e-05
3 *559:2 0.00099214
4 *559:3 0.000516076
5 *559:4 0.00015999

*RES
1 *559 *559:4 3.41661
2 *559:2 *559:3 3.31689
3 *1349:Z *559:3 4.083
4 *559:2 *559:4 8.23081017
*END

*D_NET *560 0.00234066

*CONN
*I *1342:Z O *C 146.9 128.4 *L 0 *D BUFFD8
*P *560 O *C 155 138.2 *L 0.5

*CAP
1 *1342:Z 4.81005e-05
2 *560 2.64395e-05
3 *560:2 0.000179981
4 *560:3 0.00103693
5 *560:4 2.29901e-05
6 *560:5 0.0010262

*RES
1 *560:3 *560:5 8.16719
2 *560:2 *560:3 9.39801025
3 *560:2 *560:4 3.63898
4 *1342:Z *560:5 2.99998
5 *560 *560:4 1.49999
*END

*D_NET *561 0.00259401

*CONN
*I *1359:Z O *C 150.7 124 *L 0 *D BUFFD8
*P *561 O *C 155 134.6 *L 0.5

*CAP
1 *1359:Z 0.000287166
2 *561 9.41911e-05
3 *561:2 0.00150483
4 *561:3 0.000707834

*RES
1 *561:2 *561:3 10.4124002
2 *1359:Z *561:2 4.08943
3 *561 *561:3 7.75671
*END

*D_NET *562 0.00223144

*CONN
*I *1351:Z O *C 147.5 124 *L 0 *D BUFFD8
*P *562 O *C 155 131 *L 0.5

*CAP
1 *562 6.95818e-05
2 *562:2 0.00118937
3 *562:3 0.000972494

*RES
1 *562:2 *562:3 8.6816
2 *562 *562:3 8.93183041
3 *1351:Z *562:2 1.5
*END

*D_NET *563 0.00217382

*CONN
*I *1346:Z O *C 144.9 121.2 *L 0 *D BUFFD8
*P *563 O *C 155 127.4 *L 0.5

*CAP
1 *1346:Z 0.000398428
2 *563 0.000405416
3 *563:2 0.000212619
4 *563:3 0.000597792969
5 *563:4 0.000559564

*RES
1 *563 *563:2 7.29846
2 *563:3 *563:4 0.326347
3 *563:2 *563:3 4.8089
4 *1346:Z *563:4 8.23227978
*END

*D_NET *564 0.00140916

*CONN
*I *1358:Z O *C 150.7 114 *L 0 *D BUFFD8
*P *564 O *C 155 123.8 *L 0.5

*CAP
1 *564 0.00013847
2 *564:2 0.00106848
3 *564:3 0.000202218

*RES
1 *1358:Z *564:2 4.42919
2 *564 *564:3 5.69204
3 *564:2 *564:3 9.70481968
*END

*D_NET *565 0.00223157

*CONN
*I *1345:Z O *C 147.9 113.2 *L 0 *D BUFFD8
*P *565 O *C 155 120.2 *L 0.5

*CAP
1 *1345:Z 0.000410983
2 *565 4.30569e-05
3 *565:2 8.03334e-05
4 *565:3 0.000640445
5 *565:4 0.000294536
6 *565:5 0.000762218984

*RES
1 *565:3 *565:4 3.17669
2 *565 *565:2 2.24813
3 *565:4 *565:5 3.14041
4 *565:2 *565:3 5.55535
5 *1345:Z *565:5 7.84813976
*END

*D_NET *566 0.00250707

*CONN
*I *1365:Z O *C 148.1 106.8 *L 0 *D BUFFD8
*P *566 O *C 155 116.6 *L 0.5

*CAP
1 *1365:Z 0.000355543
2 *566 6.95768e-05
3 *566:2 0.000445347
4 *566:3 0.000735479
5 *566:4 0.00090113

*RES
1 *566:2 *566:4 4.30385
2 *566:2 *566:3 4.31939
3 *1365:Z *566:3 3.51476
4 *566 *566:4 9.00940037
*END

*D_NET *567 0.0028263

*CONN
*I *1366:Z O *C 148.1 102.4 *L 0 *D BUFFD8
*P *567 O *C 155 113 *L 0.5

*CAP
1 *1366:Z 0.000718132
2 *567 5.73559e-05
3 *567:2 0.00121096
4 *567:3 5.02603e-05
5 *567:4 0.000789586

*RES
1 *567:2 *567:3 3.5571
2 *567 *567:4 7.9232502
3 *567:2 *567:4 5.52993
4 *1366:Z *567:3 6.0099
*END

*D_NET *568 0.00355076

*CONN
*I *1355:Z O *C 144.5 96 *L 0 *D BUFFD8
*P *568 O *C 155 109.4 *L 0.5

*CAP
1 *568 4.30574e-05
2 *568:2 0.000132547
3 *568:3 0.00152528
4 *568:4 0.000617606
5 *568:5 0.000211307
6 *568:6 0.000576783
7 *568:7 0.000444166

*RES
1 *568 *568:2 3.02705
2 *568:5 *568:6 3.75798
3 *568:3 *568:7 6.51882
4 *568:2 *568:3 9.46113014
5 *568:5 *568:7 1.26565
6 *568:4 *568:6 3.692
7 *1355:Z *568:4 4.16566
*END

*D_NET *569 0.00396213

*CONN
*I *1344:Z O *C 139.3 96 *L 0 *D BUFFD8
*P *569 O *C 155 105.8 *L 0.5

*CAP
1 *1344:Z 0.00149453
2 *569 4.64539e-05
3 *569:2 0.000423558
4 *569:3 1.7788e-05
5 *569:4 0.000551951
6 *569:5 0.000564608
7 *569:6 0.00086324

*RES
1 *569 *569:3 2.0533
2 *569:4 *569:5 0.161508
3 *569:3 *569:4 5.65145
4 *569:2 *569:6 9.56257
5 *1344:Z *569:2 12.6458998
6 *569:5 *569:6 3.03528
*END

*D_NET *570 0.00461535

*CONN
*I *1354:Z O *C 142.1 88 *L 0 *D BUFFD8
*P *570 O *C 155 102.2 *L 0.5

*CAP
1 *1354:Z 0.000421758
2 *570 6.48279e-05
3 *570:2 0.00112394
4 *570:3 0.000422136
5 *570:4 0.000981662
6 *570:5 2.56739e-05
7 *570:6 0.00108681
8 *570:7 0.000488541

*RES
1 *570:2 *570:4 2.82292
2 *570:2 *570:3 8.08047
3 *1354:Z *570:4 7.45775
4 *570:6 *570:7 0.132763
5 *570:5 *570:6 8.63167
6 *570:3 *570:7 6.78972
7 *570 *570:5 1.50003
*END

*D_NET *571 0.00390582

*CONN
*I *1348:Z O *C 139.3 88.8 *L 0 *D BUFFD8
*P *571 O *C 155 98.6 *L 0.5

*CAP
1 *1348:Z 0.000263634
2 *571 0.000630359
3 *571:2 0.00148226
4 *571:3 0.00095255
5 *571:4 0.000565582
6 *571:5 1.1422e-05

*RES
1 *571:2 *571:3 7.3237
2 *1348:Z *571:4 6.36748
3 *571:3 *571:4 0.495884
4 *571:2 *571:5 10.5892
5 *571 *571:5 6.77143
*END

*D_NET *572 0.00104366

*CONN
*I *1364:Z O *C 147.9 92.4 *L 0 *D BUFFD8
*P *572 O *C 155 95 *L 0.5

*CAP
1 *572 4.30673e-05
2 *572:2 0.000863652969
3 *572:3 0.000136938

*RES
1 *572:2 *572:3 8.02727985
2 *572 *572:3 3.02701
3 *1364:Z *572:2 1.49997
*END

*D_NET *573 0.00342051

*CONN
*I *1380:Z O *C 141.9 81.6 *L 0 *D BUFFD8
*P *573 O *C 155 91.4 *L 0.5

*CAP
1 *1380:Z 0.000646708
2 *573 4.30596e-05
3 *573:2 0.000620538
4 *573:3 0.000720610938
5 *573:4 0.000200531
6 *573:5 0.000567582
7 *573:6 0.000600152
8 *573:7 2.13209e-05

*RES
1 *573:2 *573:3 1.79762
2 *573:6 *573:7 3.49695
3 *573:5 *573:6 0.132217
4 *573:4 *573:5 5.3706
5 *1380:Z *573:2 7.56106997
6 *573:3 *573:7 6.06572
7 *573 *573:4 3.80603
*END

*D_NET *574 0.00380662

*CONN
*I *1371:Z O *C 141.9 74.4 *L 0 *D BUFFD8
*P *574 O *C 155 87.8 *L 0.5

*CAP
1 *1371:Z 0.000260318
2 *574 4.30619e-05
3 *574:2 0.000522667
4 *574:3 0.0011093
5 *574:4 0.000157504
6 *574:5 0.000818294
7 *574:6 8.59883e-06
8 *574:7 0.000886881

*RES
1 *574:2 *574:3 6.93149
2 *1371:Z *574:3 2.9121
3 *574 *574:4 3.22186
4 *574:6 *574:7 5.37157
5 *574:5 *574:6 0.132161
6 *574:2 *574:7 5.59268
7 *574:4 *574:5 6.95686007
*END

*D_NET *575 0.00277156

*CONN
*I *1353:Z O *C 139.5 80.8 *L 0 *D BUFFD8
*P *575 O *C 155 84.2 *L 0.5

*CAP
1 *1353:Z 0.000269498
2 *575 4.30588e-05
3 *575:2 0.00115935
4 *575:3 0.000197338
5 *575:4 0.000641176
6 *575:5 0.000316908
7 *575:6 0.000144231

*RES
1 *575 *575:3 4.00085
2 *575:4 *575:5 0.132173
3 *575:3 *575:4 5.31722
4 *575:2 *575:6 9.02301979
5 *1353:Z *575:2 2.88606
6 *575:5 *575:6 2.79037
*END

*D_NET *576 0.00493851

*CONN
*I *1343:Z O *C 140.7 59.2 *L 0 *D CKBD12
*P *576 O *C 155 80.6 *L 0.5

*CAP
1 *576 0.000409342
2 *576:2 0.00308489
3 *576:3 9.66867e-05
4 *576:4 0.00134759

*RES
1 *576:3 *576:4 11.8596
2 *576:2 *576:3 22.3162003
3 *1343:Z *576:2 4.01709
4 *576 *576:4 4.19587
*END

*D_NET *577 0.00364284

*CONN
*I *1386:Z O *C 147.3 62.8 *L 0 *D BUFFD8
*P *577 O *C 155 77 *L 0.5

*CAP
1 *577 8.15505e-05
2 *577:2 0.00168381
3 *577:3 0.000766765
4 *577:4 0.000688632
5 *577:5 0.000422089

*RES
1 *577:2 *577:3 0.256432
2 *577:3 *577:4 6.34079
3 *577:2 *577:5 14.3392
4 *577 *577:4 7.52712
5 *1386:Z *577:5 2.99995
*END

*D_NET *578 0.00321426

*CONN
*I *1356:Z O *C 142.7 62.8 *L 0 *D BUFFD8
*P *578 O *C 155 73.4 *L 0.5

*CAP
1 *1356:Z 0.000334494
2 *578 4.30696e-05
3 *578:2 0.000551602
4 *578:3 0.000683667
5 *578:4 0.000361827
6 *578:5 0.00123959992

*RES
1 *578:2 *578:5 13.4520998
2 *578:2 *578:3 5.64883
3 *1356:Z *578:4 3.6701
4 *578 *578:5 4.00078
5 *578:3 *578:4 2.27985
*END

*D_NET *579 0.00186769

*CONN
*I *1363:Z O *C 150.7 55.6 *L 0 *D BUFFD8
*P *579 O *C 155 69.8 *L 0.5

*CAP
1 *579 0.000184838
2 *579:2 0.000183215
3 *579:3 0.000247744
4 *579:4 0.00125189992

*RES
1 *579:2 *579:4 13.9452
2 *579:3 *579:4 3.05498
3 *1363:Z *579:3 3.00008
4 *579 *579:2 5.36074
*END

*D_NET *580 0.00478423

*CONN
*I *1362:Z O *C 143.1 45.6 *L 0 *D BUFFD8
*P *580 O *C 155 66.2 *L 0.5

*CAP
1 *580 5.17991e-05
2 *580:2 0.000427422
3 *580:3 0.000710715
4 *580:4 0.00230772
5 *580:5 0.000100676
6 *580:6 0.00118589

*RES
1 *580:3 *580:5 6.03989
2 *580:2 *580:3 3.78868
3 *580:4 *580:6 11.1557999
4 *580:4 *580:5 7.18635
5 *580 *580:6 10.2637
6 *1362:Z *580:2 1.50001
*END

*D_NET *581 0.00258893

*CONN
*I *1350:Z O *C 142.3 56.4 *L 0 *D BUFFD8
*P *581 O *C 155 62.6 *L 0.5

*CAP
1 *1350:Z 0.000521936
2 *581 4.30572e-05
3 *581:2 0.000937458984
4 *581:3 0.00061875
5 *581:4 0.000381092
6 *581:5 8.6615e-05

*RES
1 *581 *581:3 4.00079
2 *581:3 *581:4 3.78215
3 *581:2 *581:5 7.76623011
4 *1350:Z *581:2 4.52588
5 *581:4 *581:5 3.47108
*END

*D_NET *582 0.00180087

*CONN
*I *1370:Z O *C 150.7 52.8 *L 0 *D BUFFD8
*P *582 O *C 155 59 *L 0.5

*CAP
1 *582 0.00100581
2 *582:2 0.000320459
3 *582:3 0.000474596

*RES
1 *1370:Z *582:3 6.72929
2 *582:2 *582:3 2.5337
3 *582 *582:2 10.6237001
*END

*D_NET *583 0.002302

*CONN
*I *1397:Z O *C 148.1 45.6 *L 0 *D BUFFD8
*P *583 O *C 155 55.4 *L 0.5

*CAP
1 *1397:Z 0.000418092
2 *583 4.30506e-05
3 *583:2 0.00162706
4 *583:3 0.000213788

*RES
1 *583:2 *583:3 8.68068981
2 *583 *583:3 4.00086
3 *1397:Z *583:2 8.30809
*END

*D_NET *584 0.00395528

*CONN
*I *1394:Z O *C 150.7 27.6 *L 0 *D BUFFD8
*P *584 O *C 155 51.8 *L 0.5

*CAP
1 *584 5.85889e-05
2 *584:2 0.000189891
3 *584:3 0.000793318
4 *584:4 0.000116964
5 *584:5 0.00279652

*RES
1 *584 *584:3 7.53767
2 *584:4 *584:5 3.67329
3 *584:2 *584:4 3.00007
4 *1394:Z *584:2 3.00007
5 *584:3 *584:5 24.0828991
*END

*D_NET *585 0.00325983

*CONN
*I *1379:Z O *C 142.7 34.8 *L 0 *D BUFFD8
*P *585 O *C 155 48.2 *L 0.5

*CAP
1 *1379:Z 0.00114547
2 *585 0.000407748
3 *585:2 0.00155341
4 *585:3 0.000153196

*RES
1 *585:2 *585:3 13.1350002
2 *585 *585:3 6.518
3 *1379:Z *585:2 9.39869
*END

*D_NET *586 0.0039731

*CONN
*I *1378:Z O *C 147.7 24 *L 0 *D BUFFD8
*P *586 O *C 155 44.6 *L 0.5

*CAP
1 *1378:Z 0.00024931
2 *586 7.73023e-05
3 *586:2 0.000770612031
4 *586:3 0.000118352
5 *586:4 0.00067466
6 *586:5 0.000101678
7 *586:6 0.000756125
8 *586:7 0.00054489
9 *586:8 0.000680175

*RES
1 *586:5 *586:6 4.72593
2 *586:2 *586:4 0.25646
3 *1378:Z *586:6 3.0428
4 *586:7 *586:8 3.19823
5 *586:2 *586:5 5.87502
6 *586 *586:7 4.00022
7 *586:3 *586:8 7.24454021
8 *586:3 *586:4 4.99223
*END

*D_NET *587 0.00368718

*CONN
*I *1357:Z O *C 150.7 16.8 *L 0 *D BUFFD8
*P *587 O *C 155 41 *L 0.5

*CAP
1 *587 5.84908e-05
2 *587:2 0.000148384
3 *587:3 0.000784244
4 *587:4 5.42985e-05
5 *587:5 0.00264176

*RES
1 *587 *587:3 7.14918
2 *587:4 *587:5 3.28374
3 *587:2 *587:4 3.00005
4 *1357:Z *587:2 3.00005
5 *587:3 *587:5 24.0827007
*END

*D_NET *588 0.00317434

*CONN
*I *1461:I I *C 139.9 62.4 *L 0.000968 *D CKBD1
*I *1550:ZN O *C 143.7 50.2 *L 0 *D MOAI22D0

*CAP
1 *1550:ZN 0.000326149
2 *588:2 8.8298e-05
3 *588:3 0.000579088
4 *588:4 0.00101488
5 *588:5 0.00116594992

*RES
1 *588:2 *588:3 3.47546
2 *1461:I *588:4 9.8044796
3 *1550:ZN *588:3 3.2512
4 *588:4 *588:5 4.69623
5 *588:2 *588:5 5.83428
*END

*D_NET *589 0.00291055

*CONN
*I *1460:I I *C 141.9 55.2 *L 0.000968 *D CKBD1
*I *1549:ZN O *C 150.1 46.6 *L 0 *D MOAI22D0

*CAP
1 *1460:I 0.000285523
2 *1549:ZN 0.000513075
3 *589:2 0.000211482
4 *589:3 0.000702382
5 *589:4 0.00119808992

*RES
1 *589:3 *589:4 5.64949
2 *589:2 *589:4 8.21488953
3 *1549:ZN *589:2 6.08546
4 *1460:I *589:3 6.48143
*END

*D_NET *590 0.00274302

*CONN
*I *1459:I I *C 140.1 40.8 *L 0.000968 *D CKBD1
*I *1552:ZN O *C 151.1 36.6 *L 0 *D MOAI22D0

*CAP
1 *1459:I 0.000671445
2 *1552:ZN 0.000465642
3 *590:2 0.000296051
4 *590:3 4.20954e-05
5 *590:4 0.000761866953
6 *590:5 0.000505923

*RES
1 *1552:ZN *590:2 5.93258
2 *590:4 *590:5 0.132108
3 *590:3 *590:4 6.28159
4 *1459:I *590:5 11.4825001
5 *590:2 *590:3 2.17417
*END

*D_NET *591 0.00181405

*CONN
*I *1458:I I *C 149.3 40.8 *L 0.000968 *D CKBD1
*I *1548:ZN O *C 150.1 33 *L 0 *D MOAI22D0

*CAP
1 *1458:I 1.94594e-05
2 *1548:ZN 7.39318e-05
3 *591:2 0.00114786008
4 *591:3 0.0005728

*RES
1 *591:2 *591:3 3.74372
2 *1548:ZN *591:3 2.14776
3 *1458:I *591:2 11.4259005
*END

*D_NET *592 0.000668571

*CONN
*I *1457:I I *C 147.3 31.6 *L 0.000968 *D CKBD1
*I *1555:ZN O *C 150.1 32.2 *L 0 *D MOAI22D0

*CAP
1 *1457:I 0.000583508008
2 *1555:ZN 8.50665e-05

*RES
1 *1457:I *592:2 6.49627018
2 *1555:ZN *592:2 3.00002
*END

*D_NET *593 0.00145088

*CONN
*I *1456:I I *C 150.9 31.6 *L 0.000968 *D CKBD1
*I *1556:ZN O *C 151.1 25.8 *L 0 *D MOAI22D0

*CAP
1 *1556:ZN 0.000112451
2 *593:2 0.000234899
3 *593:3 0.00025934
4 *593:4 0.000230724
5 *593:5 0.000613457031

*RES
1 *593:2 *593:4 4.45255
2 *593:2 *593:3 2.59409
3 *1556:ZN *593:5 2.99997
4 *593:3 *593:5 5.8014698
5 *1456:I *593:4 4.5
*END

*D_NET *594 0.000347167

*CONN
*I *1455:I I *C 149.5 20.8 *L 0.000968 *D CKBD1
*I *1551:ZN O *C 149.9 18.6 *L 0 *D MOAI22D0

*CAP
1 *1551:ZN 0.000347166992

*RES
1 *1551:ZN *1455:I 6.44484
*END

*D_NET *595 0.0018516

*CONN
*I *1454:I I *C 147.9 20.8 *L 0.000968 *D CKBD1
*I *1554:ZN O *C 150.1 11.4 *L 0 *D MOAI22D0

*CAP
1 *1554:ZN 0.000315994
2 *595:2 0.000944566016
3 *595:3 0.000591026

*RES
1 *1554:ZN *595:2 3.09039
2 *595:2 *595:3 9.63656998
3 *1454:I *595:3 6.59162
*END

*D_NET *596 0.000720343

*CONN
*I *1453:I I *C 140.7 6.4 *L 0.000968 *D CKBD1
*I *1553:ZN O *C 143.9 7 *L 0 *D MOAI22D0

*CAP
1 *1453:I 0.000595561016
2 *1553:ZN 8.91229e-05
3 *596:2 3.56601e-05

*RES
1 *1453:I *596:2 8.50806046
2 *1553:ZN *596:2 2.99994
*END

*D_NET *597 0.00166629

*CONN
*I *1597:ZN O *C 139.7 305 *L 0 *D NR2D0
*I *1465:D[63] I *C 134.195 314.185 *L 0.00183 *D sram00

*CAP
1 *1597:ZN 0.000173592
2 *597:2 3.57611e-05
3 *597:3 0.000378366992
4 *597:5 0.000105211
5 *597:6 0.000278468
6 *597:7 7.67877e-07
7 *597:8 0.00025829
8 *597:9 1.64545e-05
9 *597:10 0.000118611
10 *597:11 9.12215e-07
11 *597:12 0.00029673
12 *597:13 3.12924e-06

*RES
1 *597:6 *597:9 0.256337
2 *597:2 *597:10 2.24572
3 *597:7 *597:8 0.256337
4 *597:2 *597:3 5.85750008
5 *597:10 *597:13 0.256337
6 *597:12 *597:13 1.69399
7 *597:4 *597:5 0.256337
8 *1597:ZN *597:4 2.25099
9 *597:6 *597:11 1.88669
10 *597:8 *597:9 2.46237
11 *597:5 *597:7 0.5234
12 *597:11 *597:12 0.838905
13 *597:13 *1465:D[63] 8.93784e-05
*END

*D_NET *598 0.00120725

*CONN
*I *1600:ZN O *C 141.9 307.4 *L 0 *D NR2D0
*I *1465:D[62] I *C 134.195 310.255 *L 0.00183 *D sram00

*CAP
1 *1600:ZN 0.000482965
2 *598:2 5.23903e-05
3 *598:3 0.000671897969

*RES
1 *598:2 *598:3 8.68386
2 *1600:ZN *598:2 5.13752
3 *598:3 *1465:D[62] 0.0001
*END

*D_NET *599 0.000843512

*CONN
*I *1603:ZN O *C 141.1 305 *L 0 *D NR2D0
*I *1465:D[61] I *C 134.195 305.785 *L 0.00183 *D sram00

*CAP
1 *1603:ZN 9.10211e-05
2 *599:2 4.65061e-05
3 *599:3 0.000236226
4 *599:4 3.3368e-05
5 *599:5 0.000436394023

*RES
1 *599:2 *599:3 3.66683
2 *599:4 *599:5 4.69087982
3 *599:3 *599:4 0.131988
4 *1603:ZN *599:2 1.88842
5 *599:5 *1465:D[61] 7.15771e-05
*END

*D_NET *600 0.000478445

*CONN
*I *1606:ZN O *C 139.3 301.4 *L 0 *D NR2D0
*I *1465:D[60] I *C 134.195 301.855 *L 0.00183 *D sram00

*CAP
1 *1606:ZN 0.00015932
2 *600:3 2.28905e-05
3 *600:4 0.000296234004

*RES
1 *600:2 *600:3 0.104105
2 *600:3 *600:4 3.94142008
3 *1606:ZN *600:2 1.98893
4 *600:4 *1465:D[60] 0.000120283
*END

*D_NET *601 0.000720343

*CONN
*I *1609:ZN O *C 139.3 294.2 *L 0 *D NR2D0
*I *1465:D[59] I *C 134.195 297.385 *L 0.00183 *D sram00

*CAP
1 *1609:ZN 0.000414878008
2 *601:2 0.000258151
3 *601:3 9.7745e-06
4 *601:4 3.75407e-05

*RES
1 *601:2 *601:3 3.97946
2 *601:3 *601:4 0.613736
3 *1609:ZN *601:2 5.12705994
4 *601:4 *1465:D[59] 7.82327e-05
*END

*D_NET *602 0.000571044

*CONN
*I *1612:ZN O *C 139.7 293 *L 0 *D NR2D0
*I *1465:D[58] I *C 134.195 293.455 *L 0.00183 *D sram00

*CAP
1 *1612:ZN 0.000271175
2 *602:2 5.67012e-05
3 *602:4 0.00024317

*RES
1 *602:2 *602:3 0.416572
2 *602:3 *602:4 3.45444012
3 *1612:ZN *602:2 3.00345
4 *602:4 *1465:D[58] 0.000105421
*END

*D_NET *603 0.000552849

*CONN
*I *1615:ZN O *C 139.7 289.4 *L 0 *D NR2D0
*I *1465:D[57] I *C 134.195 288.985 *L 0.00183 *D sram00

*CAP
1 *603:2 0.000552848984

*RES
1 *1615:ZN *603:2 6.34778976
2 *603:2 *1465:D[57] 9.68596e-05
*END

*D_NET *604 0.000583005

*CONN
*I *1618:ZN O *C 139.1 283.4 *L 0 *D NR2D0
*I *1465:D[56] I *C 134.195 285.055 *L 0.00183 *D sram00

*CAP
1 *1618:ZN 0.000434749023
2 *604:2 0.000120112
3 *604:4 2.81408e-05

*RES
1 *604:2 *604:3 1.14794
2 *604:3 *604:4 0.52465
3 *1618:ZN *604:2 5.16345978
4 *604:4 *1465:D[56] 7.87881e-05
*END

*D_NET *605 0.000568513

*CONN
*I *1573:ZN O *C 139.1 282.2 *L 0 *D NR2D0
*I *1465:D[55] I *C 134.195 280.585 *L 0.00183 *D sram00

*CAP
1 *1573:ZN 0.000435701992
2 *605:3 0.000109891
3 *605:4 2.29236e-05

*RES
1 *605:2 *605:3 1.14794
2 *605:3 *605:4 0.52465
3 *1573:ZN *605:2 5.16345978
4 *605:4 *1465:D[55] 7.87881e-05
*END

*D_NET *606 0.000606052

*CONN
*I *1560:ZN O *C 139.1 278.6 *L 0 *D NR2D0
*I *1465:D[54] I *C 134.195 276.655 *L 0.00183 *D sram00

*CAP
1 *1560:ZN 0.000373338984
2 *606:2 3.33148e-05
3 *606:3 0.000161857
4 *606:4 3.75361e-05

*RES
1 *606:2 *606:3 2.97009
2 *606:3 *606:4 0.613792
3 *1560:ZN *606:2 4.88291979
4 *606:4 *1465:D[54] 7.45074e-05
*END

*D_NET *607 0.000440005

*CONN
*I *1563:ZN O *C 138.9 272.6 *L 0 *D NR2D0
*I *1465:D[53] I *C 134.195 272.185 *L 0.00183 *D sram00

*CAP
1 *1563:ZN 0.000195847
2 *607:3 4.18203e-05
3 *607:4 0.00020234

*RES
1 *607:2 *607:3 0.415484
2 *607:3 *607:4 2.96614003
3 *1563:ZN *607:2 2.4992
4 *607:4 *1465:D[53] 9.05194e-05
*END

*D_NET *608 0.000590979

*CONN
*I *1566:ZN O *C 139.1 267.8 *L 0 *D NR2D0
*I *1465:D[52] I *C 134.195 268.255 *L 0.00183 *D sram00

*CAP
1 *1566:ZN 0.000168171
2 *608:2 4.729e-05
3 *608:3 0.000375518008

*RES
1 *608:2 *608:3 6.35396004
2 *1566:ZN *608:2 2.0084
3 *608:3 *1465:D[52] 9.69537e-05
*END

*D_NET *609 0.000621111

*CONN
*I *1569:ZN O *C 139.1 264.2 *L 0 *D NR2D0
*I *1465:D[51] I *C 134.195 263.785 *L 0.00183 *D sram00

*CAP
1 *1569:ZN 8.29283e-06
2 *609:2 0.00013567
3 *609:3 0.000477147031

*RES
1 *609:2 *609:3 6.35396004
2 *1569:ZN *609:2 1.75418
3 *609:3 *1465:D[51] 9.69537e-05
*END

*D_NET *610 0.000678973

*CONN
*I *1572:ZN O *C 139.7 257 *L 0 *D NR2D0
*I *1465:D[50] I *C 134.195 259.855 *L 0.00183 *D sram00

*CAP
1 *1572:ZN 2.6058e-05
2 *610:3 1.27041e-05
3 *610:4 0.000171403
4 *610:6 0.000262886992
5 *610:8 4.69294e-05
6 *610:9 0.00013502
7 *610:10 1.54038e-06
8 *610:12 2.24357e-05

*RES
1 *610:11 *610:12 0.419512
2 *610:9 *610:10 0.256351
3 *610:7 *610:9 1.49801
4 *610:2 *610:3 0.171353
5 *610:8 *610:11 0.326368
6 *610:7 *610:8 0.256351
7 *610:4 *610:5 0.171353
8 *610:3 *610:4 2.27009
9 *1572:ZN *610:2 0.806166
10 *610:6 *610:10 2.25832
11 *610:5 *610:6 2.96614003
12 *610:12 *1465:D[50] 9.05194e-05
*END

*D_NET *611 0.000629507

*CONN
*I *1575:ZN O *C 139.7 253.4 *L 0 *D NR2D0
*I *1465:D[49] I *C 134.195 255.385 *L 0.00183 *D sram00

*CAP
1 *1575:ZN 2.60601e-05
2 *611:3 2.98568e-05
3 *611:4 0.000184419
4 *611:6 0.000352933984
5 *611:8 3.62385e-05

*RES
1 *611:2 *611:3 0.171351
2 *611:7 *611:8 0.613774
3 *611:6 *611:7 3.39674997
4 *611:4 *611:5 0.171351
5 *611:3 *611:4 2.27011
6 *1575:ZN *611:2 0.806168
7 *611:5 *611:6 2.72202
8 *611:8 *1465:D[49] 0.000103661
*END

*D_NET *612 0.00086454

*CONN
*I *1578:ZN O *C 139.5 249.8 *L 0 *D NR2D0
*I *1465:D[48] I *C 134.195 251.455 *L 0.00183 *D sram00

*CAP
1 *612:2 5.07446e-05
2 *612:3 0.000468453008
3 *612:4 0.000345341

*RES
1 *612:2 *612:4 3.53398
2 *612:2 *612:3 6.59194
3 *1578:ZN *612:4 1.5
4 *612:4 *1465:D[48] 0.0001
*END

*D_NET *613 0.000557502

*CONN
*I *1581:ZN O *C 139.5 246.2 *L 0 *D NR2D0
*I *1465:D[47] I *C 134.195 246.985 *L 0.00183 *D sram00

*CAP
1 *1581:ZN 3.32109e-05
2 *613:3 4.90252e-05
3 *613:4 0.000157887
4 *613:6 0.000288849004
5 *613:8 2.85257e-05

*RES
1 *613:2 *613:3 0.17149
2 *613:7 *613:8 0.524827
3 *613:6 *613:7 0.885817
4 *613:4 *613:5 0.17149
5 *613:3 *613:4 2.02653
6 *1581:ZN *613:2 0.789028
7 *613:5 *613:6 3.0034101
8 *613:8 *1465:D[47] 9.16568e-05
*END

*D_NET *614 0.000687425

*CONN
*I *1584:ZN O *C 140.3 242.6 *L 0 *D NR2D0
*I *1465:D[46] I *C 134.195 243.055 *L 0.00183 *D sram00

*CAP
1 *1584:ZN 0.000132291
2 *614:2 3.59584e-05
3 *614:3 0.000519173984

*RES
1 *614:2 *614:3 7.51891
2 *1584:ZN *614:2 1.88861
3 *614:3 *1465:D[46] 0.0001
*END

*D_NET *615 0.000832864

*CONN
*I *1587:ZN O *C 140.3 236.6 *L 0 *D NR2D0
*I *1465:D[45] I *C 134.195 238.585 *L 0.00183 *D sram00

*CAP
1 *1587:ZN 0.000268826
2 *615:2 5.23301e-05
3 *615:3 0.000511705977

*RES
1 *615:2 *615:3 7.51891
2 *1587:ZN *615:2 3.28013
3 *615:3 *1465:D[45] 0.0001
*END

*D_NET *616 0.000567756

*CONN
*I *1590:ZN O *C 139.7 233 *L 0 *D NR2D0
*I *1465:D[44] I *C 134.195 234.655 *L 0.00183 *D sram00

*CAP
1 *1590:ZN 4.43453e-05
2 *616:3 2.08632e-05
3 *616:4 0.000150827
4 *616:6 0.000319605
5 *616:8 3.2119e-05

*RES
1 *616:2 *616:3 0.17149
2 *616:7 *616:8 0.524827
3 *616:6 *616:7 1.14837
4 *616:4 *616:5 0.17149
5 *616:3 *616:4 2.27075
6 *1590:ZN *616:2 0.769046
7 *616:5 *616:6 3.0034101
8 *616:8 *1465:D[44] 9.16568e-05
*END

*D_NET *617 0.000683351

*CONN
*I *1593:ZN O *C 139.7 229.4 *L 0 *D NR2D0
*I *1465:D[43] I *C 134.195 230.185 *L 0.00183 *D sram00

*CAP
1 *1593:ZN 5.13145e-05
2 *617:2 3.84066e-05
3 *617:3 0.000593626992

*RES
1 *617:2 *617:3 6.93644
2 *1593:ZN *617:2 1.79438
3 *617:3 *1465:D[43] 0.0001
*END

*D_NET *618 0.000737498

*CONN
*I *1594:ZN O *C 139.7 224.6 *L 0 *D NR2D0
*I *1465:D[42] I *C 134.195 226.255 *L 0.00183 *D sram00

*CAP
1 *1594:ZN 4.49894e-05
2 *618:3 3.98055e-05
3 *618:4 0.000197097
4 *618:6 2.22163e-05
5 *618:7 0.000129246
6 *618:8 0.000304145

*RES
1 *618:6 *618:8 3.05445
2 *618:2 *618:3 0.171469
3 *618:6 *618:7 1.70954
4 *618:4 *618:5 0.171469
5 *618:3 *618:4 2.27075
6 *1594:ZN *618:2 0.806381
7 *618:5 *618:8 3.24592996
8 *618:8 *1465:D[42] 9.90579e-05
*END

*D_NET *619 0.000611637

*CONN
*I *1595:ZN O *C 139.7 221 *L 0 *D NR2D0
*I *1465:D[41] I *C 134.195 221.785 *L 0.00183 *D sram00

*CAP
1 *1595:ZN 4.50943e-05
2 *619:3 3.9565e-05
3 *619:4 0.000195856
4 *619:6 0.000302978984
5 *619:8 2.81412e-05

*RES
1 *619:2 *619:3 0.17149
2 *619:7 *619:8 0.524827
3 *619:6 *619:7 0.885817
4 *619:4 *619:5 0.17149
5 *619:3 *619:4 2.27075
6 *1595:ZN *619:2 0.806351
7 *619:5 *619:6 3.0034101
8 *619:8 *1465:D[41] 9.16568e-05
*END

*D_NET *620 0.000571214

*CONN
*I *1596:ZN O *C 139.7 217.4 *L 0 *D NR2D0
*I *1465:D[40] I *C 134.195 217.855 *L 0.00183 *D sram00

*CAP
1 *1596:ZN 4.48892e-05
2 *620:3 3.97453e-05
3 *620:4 0.000238888
4 *620:6 0.00024769

*RES
1 *620:2 *620:3 0.17148
2 *620:4 *620:5 0.661919
3 *620:3 *620:4 2.27075
4 *1596:ZN *620:2 0.806392
5 *620:5 *620:6 3.45681
6 *620:6 *1465:D[40] 0.000105493
*END

*D_NET *621 0.000524176

*CONN
*I *1598:ZN O *C 139.7 213.8 *L 0 *D NR2D0
*I *1465:D[39] I *C 134.195 213.385 *L 0.00183 *D sram00

*CAP
1 *621:2 0.000524176016

*RES
1 *1598:ZN *621:2 6.34975004
2 *621:2 *1465:D[39] 9.68895e-05
*END

*D_NET *622 0.000830861

*CONN
*I *1599:ZN O *C 140.5 207.8 *L 0 *D NR2D0
*I *1465:D[38] I *C 134.195 209.455 *L 0.00183 *D sram00

*CAP
1 *1599:ZN 0.000252129
2 *622:2 0.000109545
3 *622:3 0.000469185

*RES
1 *622:2 *622:3 7.71307
2 *1599:ZN *622:2 3.23108
3 *622:3 *1465:D[38] 0.0001
*END

*D_NET *623 0.000755059

*CONN
*I *1601:ZN O *C 140.5 204.2 *L 0 *D NR2D0
*I *1465:D[37] I *C 134.195 204.985 *L 0.00183 *D sram00

*CAP
1 *1601:ZN 3.4848e-05
2 *623:2 5.86319e-05
3 *623:3 0.000661576953

*RES
1 *623:2 *623:3 7.71307
2 *1601:ZN *623:2 1.77034
3 *623:3 *1465:D[37] 0.0001
*END

*D_NET *624 0.000943365

*CONN
*I *1602:ZN O *C 140.3 200.6 *L 0 *D NR2D0
*I *1465:D[36] I *C 134.195 201.055 *L 0.00183 *D sram00

*CAP
1 *624:3 0.000178473
2 *624:4 0.000158932
3 *624:5 0.000181627
4 *624:6 0.000424331016

*RES
1 *624:4 *624:6 2.00859
2 *624:2 *624:4 2.01926
3 *624:2 *624:3 2.25024
4 *624:5 *624:6 5.38317013
5 *1602:ZN *624:5 1.49997
6 *624:6 *1465:D[36] 8.21407e-05
*END

*D_NET *625 0.00118003

*CONN
*I *1604:ZN O *C 140.5 195.8 *L 0 *D NR2D0
*I *1465:D[35] I *C 134.195 196.585 *L 0.00183 *D sram00

*CAP
1 *1604:ZN 0.000178876
2 *625:2 1.65085e-06
3 *625:3 0.000280755
4 *625:4 7.98884e-05
5 *625:5 0.000182373
6 *625:6 0.00045649

*RES
1 *625:4 *625:6 5.56577015
2 *625:2 *625:5 2.18483
3 *625:2 *625:3 3.45559
4 *1604:ZN *625:4 1.75442
5 *625:5 *625:6 1.49998
6 *625:6 *1465:D[35] 8.49269e-05
*END

*D_NET *626 0.00101093

*CONN
*I *1589:ZN O *C 140.7 192.2 *L 0 *D NR2D0
*I *1465:D[34] I *C 134.195 192.655 *L 0.00183 *D sram00

*CAP
1 *626:2 0.000287074
2 *626:3 7.30412e-05
3 *626:4 0.000457625
4 *626:5 8.43745e-05
5 *626:6 7.5171e-05
6 *626:7 3.36506e-05

*RES
1 *626:2 *626:4 4.91924
2 *626:6 *626:7 0.582478
3 *626:3 *626:5 0.588183
4 *626:4 *626:7 4.63761
5 *1589:ZN *626:5 1.50003
6 *626:5 *626:6 1.50003
7 *626:7 *1465:D[34] 7.50616e-05
*END

*D_NET *627 0.001008

*CONN
*I *1607:ZN O *C 140.7 186.2 *L 0 *D NR2D0
*I *1465:D[33] I *C 134.195 188.185 *L 0.00183 *D sram00

*CAP
1 *1607:ZN 0.000282321
2 *627:2 0.00011738
3 *627:3 0.000608295039

*RES
1 *627:2 *627:3 7.90723
2 *1607:ZN *627:2 3.28098
3 *627:3 *1465:D[33] 0.0001
*END

*D_NET *628 0.0013065

*CONN
*I *1608:ZN O *C 140.9 179 *L 0 *D NR2D0
*I *1465:D[32] I *C 134.195 184.255 *L 0.00183 *D sram00

*CAP
1 *1608:ZN 0.000132668
2 *628:3 6.363e-05
3 *628:4 6.19889e-05
4 *628:5 0.00024952
5 *628:6 7.68583e-05
6 *628:7 0.000721826953

*RES
1 *628:2 *628:3 0.256399
2 *628:6 *628:7 4.53381
3 *628:4 *628:5 3.10649
4 *1608:ZN *628:2 3.51478
5 *628:4 *628:7 5.97134018
6 *628:3 *628:6 1.50003
7 *628:7 *1465:D[32] 9.11154e-05
*END

*D_NET *629 0.00269343

*CONN
*I *1610:ZN O *C 140.3 146.6 *L 0 *D NR2D0
*I *1465:D[31] I *C 134.265 139.205 *L 0.00183 *D sram00

*CAP
1 *629:2 0.00015156
2 *629:4 5.95746e-05
3 *629:5 7.34617e-05
4 *629:6 0.000166261
5 *629:7 0.000691689
6 *629:8 6.86216e-05
7 *629:9 0.00148224

*RES
1 *629:2 *629:3 0.692166
2 *629:8 *629:9 12.7811
3 *629:6 *629:7 5.18709
4 *629:5 *629:9 2.11381
5 *629:5 *629:6 0.321545
6 *629:4 *629:8 0.546605
7 *1610:ZN *629:3 1.5
8 *629:3 *629:8 1.5
9 *629:9 *1465:D[31] 0.0001
*END

*D_NET *630 0.00237387

*CONN
*I *1611:ZN O *C 140.3 143 *L 0 *D NR2D0
*I *1465:D[30] I *C 134.265 135.275 *L 0.00183 *D sram00

*CAP
1 *630:2 0.000496311
2 *630:4 1.83313e-06
3 *630:5 0.000522886
4 *630:6 0.000169125
5 *630:7 0.000126275
6 *630:8 0.000329352
7 *630:9 0.000728085

*RES
1 *630:2 *630:4 0.256477
2 *630:8 *630:9 6.74484
3 *630:7 *630:8 1.74427
4 *630:6 *630:7 1.14333
5 *630:4 *630:5 3.31072
6 *630:3 *630:6 0.731671
7 *630:3 *630:5 0.256477
8 *1611:ZN *630:2 6.14703
9 *630:9 *1465:D[30] 0.0001
*END

*D_NET *631 0.00109818

*CONN
*I *1613:ZN O *C 137.9 134.6 *L 0 *D NR2D0
*I *1465:D[29] I *C 134.265 130.805 *L 0.00183 *D sram00

*CAP
1 *631:2 2.46774e-05
2 *631:3 0.000222728
3 *631:4 0.000334084
4 *631:5 0.000516688984

*RES
1 *631:2 *631:4 1.9885
2 *631:4 *631:5 4.02839
3 *631:3 *631:5 5.63101006
4 *1613:ZN *631:3 2.08345
5 *631:5 *1465:D[29] 8.59224e-05
*END

*D_NET *632 0.00192069

*CONN
*I *1614:ZN O *C 139.5 134.6 *L 0 *D NR2D0
*I *1465:D[28] I *C 134.265 126.875 *L 0.00183 *D sram00

*CAP
1 *632:2 0.000359463
2 *632:3 0.000152809
3 *632:4 4.03837e-06
4 *632:5 0.000625661016
5 *632:6 8.93024e-05
6 *632:7 9.40663e-05
7 *632:8 0.000546163
8 *632:9 1.88171e-05
9 *632:10 1.21915e-05
10 *632:11 1.81774e-05

*RES
1 *632:10 *632:11 0.420066
2 *632:9 *632:10 0.065575
3 *632:2 *632:3 2.11381
4 *632:8 *632:9 0.256503
5 *632:7 *632:8 7.11075
6 *632:6 *632:7 0.613813
7 *632:4 *632:5 4.37576
8 *632:3 *632:4 0.326402
9 *1614:ZN *632:2 3.02726
10 *632:5 *632:6 0.326402
11 *632:11 *1465:D[28] 0.0001
*END

*D_NET *633 0.00210913

*CONN
*I *1616:ZN O *C 139.5 131 *L 0 *D NR2D0
*I *1465:D[27] I *C 134.265 122.405 *L 0.00183 *D sram00

*CAP
1 *633:2 0.00017373
2 *633:3 7.33297e-05
3 *633:5 0.000336188
4 *633:6 0.000217456
5 *633:7 0.000113689
6 *633:8 0.000375129
7 *633:9 5.09625e-05
8 *633:10 0.00076866

*RES
1 *633:9 *633:10 5.13101006
2 *633:2 *633:3 0.793969
3 *633:8 *633:9 0.452299
4 *633:7 *633:8 2.35678
5 *633:6 *633:7 0.95032
6 *633:4 *633:5 3.45617
7 *633:3 *633:4 0.172558
8 *633:2 *633:10 1.95098
9 *1616:ZN *633:6 2.75372
10 *633:10 *1465:D[27] 7.8293e-05
*END

*D_NET *634 0.00183317

*CONN
*I *1617:ZN O *C 139.5 123.8 *L 0 *D NR2D0
*I *1465:D[26] I *C 134.265 118.475 *L 0.00183 *D sram00

*CAP
1 *634:2 2.45265e-05
2 *634:3 0.00013388
3 *634:4 0.00039077
4 *634:5 0.000440182
5 *634:6 0.000573642031
6 *634:7 0.000270168

*RES
1 *634:4 *634:6 5.57931995
2 *634:3 *634:7 3.68646
3 *634:2 *634:5 1.98855
4 *1617:ZN *634:3 2.19304
5 *634:5 *634:6 4.80903
6 *634:4 *634:7 3.58294
7 *634:7 *1465:D[26] 8.51337e-05
*END

*D_NET *635 0.0023192

*CONN
*I *1619:ZN O *C 139.5 121.4 *L 0 *D NR2D0
*I *1465:D[25] I *C 134.265 114.005 *L 0.00183 *D sram00

*CAP
1 *635:2 7.03211e-05
2 *635:3 0.000476595
3 *635:4 0.00119421992
4 *635:5 0.000578058

*RES
1 *635:2 *635:4 2.47709
2 *635:4 *635:5 11.4239
3 *635:3 *635:5 5.57932
4 *1619:ZN *635:3 3.8535
5 *635:5 *1465:D[25] 0.0001
*END

*D_NET *636 0.00209049

*CONN
*I *1620:ZN O *C 139.5 117.8 *L 0 *D NR2D0
*I *1465:D[24] I *C 134.265 110.075 *L 0.00183 *D sram00

*CAP
1 *636:2 0.000928816953
2 *636:3 0.000181455
3 *636:4 7.48042e-05
4 *636:6 0.000137434
5 *636:7 0.000151933
6 *636:8 6.38486e-05
7 *636:9 0.000544435
8 *636:10 7.75254e-06

*RES
1 *636:9 *636:10 0.132148
2 *636:2 *636:5 9.06476
3 *636:2 *636:3 2.19845
4 *636:8 *636:9 5.28651
5 *636:6 *636:7 0.9528
6 *636:6 *636:10 2.42959
7 *636:5 *636:7 0.257708
8 *636:4 *636:8 0.614336
9 *1620:ZN *636:8 1.5
10 *636:10 *1465:D[24] 0.0001
*END

*D_NET *637 0.00154401

*CONN
*I *1558:ZN O *C 139.3 109.4 *L 0 *D NR2D0
*I *1465:D[23] I *C 134.265 105.605 *L 0.00183 *D sram00

*CAP
1 *637:2 0.000649854023
2 *637:3 0.000250214
3 *637:4 0.000181356
4 *637:5 0.000462578

*RES
1 *637:2 *637:3 3.48297
2 *637:4 *637:5 3.52762
3 *637:3 *637:4 0.520188
4 *1558:ZN *637:2 5.39928007
5 *637:5 *1465:D[23] 8.23865e-05
*END

*D_NET *638 0.00203294

*CONN
*I *1559:ZN O *C 139.5 110.6 *L 0 *D NR2D0
*I *1465:D[22] I *C 134.265 101.675 *L 0.00183 *D sram00

*CAP
1 *638:2 0.000525291
2 *638:3 0.000754585
3 *638:5 0.0001774
4 *638:6 0.000495169
5 *638:7 1.25505e-06
6 *638:8 5.84693e-05
7 *638:9 2.07717e-05

*RES
1 *638:4 *638:6 4.60706
2 *638:2 *638:3 6.65012
3 *638:8 *638:9 0.420066
4 *638:7 *638:8 0.460217
5 *638:6 *638:7 0.256503
6 *638:4 *638:5 0.256503
7 *638:3 *638:5 3.22675
8 *1559:ZN *638:2 4.52568
9 *638:9 *1465:D[22] 0.0001
*END

*D_NET *639 0.00246572

*CONN
*I *1561:ZN O *C 139.3 105.8 *L 0 *D NR2D0
*I *1465:D[21] I *C 134.265 97.205 *L 0.00183 *D sram00

*CAP
1 *639:2 0.000320523
2 *639:3 0.00144437
3 *639:4 0.000404186
4 *639:5 0.000296632

*RES
1 *639:2 *639:5 2.27701
2 *639:3 *639:5 10.921
3 *639:3 *639:4 5.38548
4 *1561:ZN *639:2 3.23271
5 *639:5 *1465:D[21] 0.0001
*END

*D_NET *640 0.00238213

*CONN
*I *1562:ZN O *C 139.1 103.4 *L 0 *D NR2D0
*I *1465:D[20] I *C 134.265 93.275 *L 0.00183 *D sram00

*CAP
1 *640:2 0.000291218
2 *640:3 0.000214808
3 *640:4 0.000435422
4 *640:6 0.000811331953
5 *640:7 0.000629344

*RES
1 *640:2 *640:5 3.28093
2 *640:2 *640:3 2.44259
3 *1562:ZN *640:4 5.04521
4 *640:6 *640:7 8.66461
5 *640:5 *640:6 0.256468
6 *640:4 *640:7 5.05398
7 *640:7 *1465:D[20] 0.0001
*END

*D_NET *641 0.00188127

*CONN
*I *1564:ZN O *C 139.1 95 *L 0 *D NR2D0
*I *1465:D[19] I *C 134.265 88.805 *L 0.00183 *D sram00

*CAP
1 *641:2 0.000269091
2 *641:3 0.000310094
3 *641:4 0.00040845
4 *641:5 0.00089363

*RES
1 *641:2 *641:3 3.43077
2 *641:4 *641:5 4.21984
3 *641:3 *641:5 7.86537
4 *1564:ZN *641:2 2.53953
5 *641:5 *1465:D[19] 0.0001
*END

*D_NET *642 0.00207091

*CONN
*I *1565:ZN O *C 139.1 91.4 *L 0 *D NR2D0
*I *1465:D[18] I *C 134.265 84.875 *L 0.00183 *D sram00

*CAP
1 *642:2 0.000317473
2 *642:3 1.14307e-05
3 *642:4 0.000997488047
4 *642:5 0.00074452

*RES
1 *642:2 *642:5 6.7454
2 *642:2 *642:3 1.64941
3 *1565:ZN *642:4 8.38464
4 *642:3 *642:4 0.493003
5 *642:5 *1465:D[18] 0.0001
*END

*D_NET *643 0.0013562

*CONN
*I *1567:ZN O *C 139.5 84.2 *L 0 *D NR2D0
*I *1465:D[17] I *C 134.265 80.405 *L 0.00183 *D sram00

*CAP
1 *1567:ZN 0.00013392
2 *643:2 7.48871e-05
3 *643:3 9.15038e-05
4 *643:4 0.000389435
5 *643:5 0.000666447969

*RES
1 *643:2 *643:4 2.47708
2 *643:4 *643:5 4.80601
3 *643:3 *643:5 5.7316699
4 *1567:ZN *643:3 1.84651
5 *643:5 *1465:D[17] 8.74583e-05
*END

*D_NET *644 0.00255443

*CONN
*I *1568:ZN O *C 139.1 87.8 *L 0 *D NR2D0
*I *1465:D[16] I *C 134.265 76.475 *L 0.00183 *D sram00

*CAP
1 *644:2 0.000601715
2 *644:4 0.000276351
3 *644:5 0.000343262
4 *644:6 3.47453e-07
5 *644:7 4.8138e-05
6 *644:8 0.00069001
7 *644:9 0.000594597

*RES
1 *644:6 *644:8 0.25645
2 *644:4 *644:6 1.68888
3 *644:2 *644:3 3.73492
4 *644:7 *644:8 4.40155
5 *644:3 *644:4 0.25645
6 *644:5 *644:7 0.483303
7 *644:2 *644:9 5.96829987
8 *1568:ZN *644:5 3.4986
9 *644:9 *1465:D[16] 9.1069e-05
*END

*D_NET *645 0.00272701

*CONN
*I *1570:ZN O *C 139.5 81.8 *L 0 *D NR2D0
*I *1465:D[15] I *C 134.265 72.005 *L 0.00183 *D sram00

*CAP
1 *645:3 0.000113057
2 *645:4 0.000153317
3 *645:5 0.000507134
4 *645:6 0.00133861
5 *645:7 0.00061488

*RES
1 *645:3 *645:7 2.89097
2 *645:6 *645:7 5.28347
3 *645:4 *645:5 3.91653
4 *645:3 *645:4 0.321596
5 *645:2 *645:6 11.2731
6 *1570:ZN *645:2 1.5
7 *645:7 *1465:D[15] 0.0001
*END

*D_NET *646 0.00212551

*CONN
*I *1571:ZN O *C 139.5 78.2 *L 0 *D NR2D0
*I *1465:D[14] I *C 134.265 68.075 *L 0.00183 *D sram00

*CAP
1 *646:2 8.25038e-05
2 *646:3 0.000396896
3 *646:4 0.000301827
4 *646:5 0.000253578
5 *646:6 0.00108922008
6 *646:7 1.49584e-06

*RES
1 *646:2 *646:3 4.21984
2 *646:6 *646:7 0.256504
3 *646:4 *646:5 1.94274
4 *646:3 *646:6 10.1628
5 *646:4 *646:7 3.26634
6 *1571:ZN *646:2 3
7 *646:7 *1465:D[14] 0.0001
*END

*D_NET *647 0.00229751

*CONN
*I *1557:ZN O *C 139.5 74.6 *L 0 *D NR2D0
*I *1465:D[13] I *C 134.265 63.605 *L 0.00183 *D sram00

*CAP
1 *1557:ZN 0.00042262
2 *647:2 2.84951e-05
3 *647:3 0.000106014
4 *647:4 0.00174038

*RES
1 *647:2 *647:4 14.8295
2 *647:3 *647:4 2.96555
3 *1557:ZN *647:2 4.66091
4 *647:4 *1465:D[13] 0.0001
*END

*D_NET *648 0.00229471

*CONN
*I *1574:ZN O *C 139.1 71 *L 0 *D NR2D0
*I *1465:D[12] I *C 134.265 59.675 *L 0.00183 *D sram00

*CAP
1 *648:2 0.0014188
2 *648:3 0.000135937
3 *648:4 0.000193027
4 *648:5 0.000373324
5 *648:6 0.000158951
6 *648:7 1.46784e-05

*RES
1 *648:4 *648:6 2.62395
2 *648:2 *648:5 12.4671
3 *648:2 *648:3 1.95407
4 *1574:ZN *648:4 3.59703
5 *648:6 *648:7 0.132793
6 *648:5 *648:7 3.6503
7 *648:7 *1465:D[12] 0.0001
*END

*D_NET *649 0.00279715

*CONN
*I *1576:ZN O *C 139.1 66.2 *L 0 *D NR2D0
*I *1465:D[11] I *C 134.265 55.205 *L 0.00183 *D sram00

*CAP
1 *649:3 0.000456614
2 *649:4 0.000216349
3 *649:5 1.44935e-05
4 *649:6 0.000413072
5 *649:7 0.000429354
6 *649:8 0.000260161
7 *649:9 0.000802902969
8 *649:10 0.000195693
9 *649:11 8.50255e-06

*RES
1 *649:10 *649:11 0.256487
2 *649:9 *649:10 1.27306
3 *649:8 *649:9 5.16568995
4 *649:7 *649:8 2.93021
5 *649:4 *649:5 0.328688
6 *649:3 *649:4 1.0693
7 *649:2 *649:7 3.83241
8 *649:5 *649:6 3.66295
9 *649:3 *649:11 3.89248
10 *1576:ZN *649:2 1.49999
11 *649:11 *1465:D[11] 7.88222e-05
*END

*D_NET *650 0.00129486

*CONN
*I *1577:ZN O *C 139.3 55.4 *L 0 *D NR2D0
*I *1465:D[10] I *C 134.265 51.275 *L 0.00183 *D sram00

*CAP
1 *650:2 0.00024134
2 *650:3 0.000424412
3 *650:4 2.34732e-05
4 *650:5 0.000605636016

*RES
1 *650:2 *650:5 6.16258001
2 *650:3 *650:5 4.80963
3 *650:3 *650:4 0.419954
4 *1577:ZN *650:2 2.26357
5 *650:5 *1465:D[10] 9.40335e-05
*END

*D_NET *651 0.00173178

*CONN
*I *1579:ZN O *C 139.3 53 *L 0 *D NR2D0
*I *1465:D[9] I *C 134.265 46.805 *L 0.00183 *D sram00

*CAP
1 *651:2 0.000293483
2 *651:3 6.76025e-05
3 *651:4 0.000854286016
4 *651:5 0.000516404

*RES
1 *651:2 *651:3 0.649365
2 *651:4 *651:5 5.96786022
3 *651:3 *651:4 5.40601
4 *1579:ZN *651:2 2.73114
5 *651:5 *1465:D[9] 9.10623e-05
*END

*D_NET *652 0.0025402

*CONN
*I *1580:ZN O *C 139.3 56.6 *L 0 *D NR2D0
*I *1465:D[8] I *C 134.265 42.875 *L 0.00183 *D sram00

*CAP
1 *652:2 0.000273868
2 *652:3 8.37203e-05
3 *652:4 0.000124629
4 *652:5 6.1357e-05
5 *652:6 0.000415299
6 *652:7 0.000865668984
7 *652:8 1.38169e-05
8 *652:9 0.000164204
9 *652:10 0.000537643

*RES
1 *652:9 *652:10 6.0171
2 *652:2 *652:3 0.976877
3 *652:7 *652:8 0.450869
4 *652:4 *652:9 0.672324
5 *652:2 *652:8 3.26521
6 *652:6 *652:10 5.16396
7 *652:5 *652:7 8.49333
8 *652:5 *652:6 0.450939
9 *1580:ZN *652:9 1.5
10 *652:10 *1465:D[8] 0.0001
*END

*D_NET *653 0.0024538

*CONN
*I *1582:ZN O *C 139.7 49.4 *L 0 *D NR2D0
*I *1465:D[7] I *C 134.265 38.405 *L 0.00183 *D sram00

*CAP
1 *653:2 0.0015719
2 *653:3 0.000350598
3 *653:4 0.000439777
4 *653:5 9.15293e-05

*RES
1 *653:4 *653:6 4.25639
2 *653:2 *653:4 13.8907
3 *653:2 *653:3 3.56544
4 *1582:ZN *653:5 1.5
5 *653:5 *653:6 1.5
6 *653:6 *1465:D[7] 0.0001
*END

*D_NET *654 0.00181069

*CONN
*I *1583:ZN O *C 139.1 42.2 *L 0 *D NR2D0
*I *1465:D[6] I *C 134.265 34.475 *L 0.00183 *D sram00

*CAP
1 *654:2 8.64838e-05
2 *654:3 7.37694e-05
3 *654:4 0.000530386992
4 *654:5 1.09744e-05
5 *654:6 0.000368701
6 *654:7 0.000350937
7 *654:8 2.34379e-05
8 *654:9 0.000105041
9 *654:10 7.47001e-06
10 *654:11 0.000224173
11 *654:12 2.93378e-05

*RES
1 *654:11 *654:12 0.420038
2 *654:10 *654:11 1.66956
3 *654:9 *654:10 0.256526
4 *654:4 *654:6 4.22953
5 *654:2 *654:3 0.292657
6 *654:8 *654:9 0.914017
7 *654:7 *654:8 0.450959
8 *654:3 *654:4 5.50661993
9 *654:5 *654:7 3.2446
10 *654:5 *654:6 0.450959
11 *1583:ZN *654:3 1.5
12 *654:12 *1465:D[6] 8.40244e-05
*END

*D_NET *655 0.00138229

*CONN
*I *1585:ZN O *C 139.1 35 *L 0 *D NR2D0
*I *1465:D[5] I *C 134.265 30.005 *L 0.00183 *D sram00

*CAP
1 *1585:ZN 0.000119605
2 *655:2 0.000105875
3 *655:3 0.000576813984
4 *655:4 2.57711e-05
5 *655:5 0.00055422

*RES
1 *655:2 *655:5 5.73126
2 *655:3 *655:5 7.29687
3 *655:3 *655:4 0.419859
4 *1585:ZN *655:2 2.00892
5 *655:5 *1465:D[5] 0.0001
*END

*D_NET *656 0.00183033

*CONN
*I *1586:ZN O *C 140.1 31.4 *L 0 *D NR2D0
*I *1465:D[4] I *C 134.265 26.075 *L 0.00183 *D sram00

*CAP
1 *656:2 0.00064462
2 *656:3 0.000413489
3 *656:4 2.34673e-05
4 *656:5 0.000748748984

*RES
1 *656:2 *656:5 7.09748
2 *656:3 *656:5 5.15741
3 *656:3 *656:4 0.419859
4 *1586:ZN *656:2 5.0424
5 *656:5 *1465:D[4] 0.0001
*END

*D_NET *657 0.000908367

*CONN
*I *1588:ZN O *C 140.3 23 *L 0 *D NR2D0
*I *1465:D[3] I *C 134.265 21.605 *L 0.00183 *D sram00

*CAP
1 *657:2 0.000201822
2 *657:3 0.000658291016
3 *657:4 1.86634e-05
4 *657:5 2.95922e-05

*RES
1 *657:2 *657:3 6.89746
2 *657:4 *657:5 0.419562
3 *657:3 *657:4 0.13215
4 *1588:ZN *657:2 2.26338
5 *657:5 *1465:D[3] 0.0001
*END

*D_NET *658 0.000951101

*CONN
*I *1605:ZN O *C 140.3 19.4 *L 0 *D NR2D0
*I *1465:D[2] I *C 134.265 17.675 *L 0.00183 *D sram00

*CAP
1 *658:2 0.000296402012
2 *658:3 2.26728e-05
3 *658:4 5.97643e-05
4 *658:5 0.000219817
5 *658:6 6.50786e-05
6 *658:7 0.000253218
7 *658:8 3.41427e-05

*RES
1 *658:2 *658:3 2.11382
2 *658:7 *658:8 0.613839
3 *658:6 *658:7 2.39314
4 *658:4 *658:5 2.19889
5 *658:3 *658:4 0.132134
6 *1605:ZN *658:2 3.02675009
7 *658:5 *658:6 0.132134
8 *658:8 *1465:D[2] 9.23691e-05
*END

*D_NET *659 0.00171896

*CONN
*I *1591:ZN O *C 145.3 12.2 *L 0 *D NR2D0
*I *1465:D[1] I *C 134.265 13.205 *L 0.00183 *D sram00

*CAP
1 *1591:ZN 0.000228968
2 *659:2 6.03147e-05
3 *659:3 0.000133814
4 *659:4 4.49567e-05
5 *659:5 0.000232043
6 *659:6 2.37751e-05
7 *659:7 0.000443776992
8 *659:8 4.6934e-05
9 *659:9 0.000264946
10 *659:10 3.40408e-05
11 *659:11 0.000205383

*RES
1 *659:10 *659:11 2.36211
2 *659:9 *659:10 0.132179
3 *659:2 *659:3 3.04151
4 *659:8 *659:9 2.58744
5 *659:7 *659:8 0.132179
6 *659:6 *659:7 3.45829
7 *659:4 *659:5 1.8104
8 *659:3 *659:4 0.132179
9 *1591:ZN *659:2 4.37939978
10 *659:5 *659:6 0.132179
11 *659:11 *1465:D[1] 6.68243e-05
*END

*D_NET *660 0.00135697

*CONN
*I *1592:ZN O *C 144.5 8.6 *L 0 *D NR2D0
*I *1465:D[0] I *C 134.265 9.275 *L 0.00183 *D sram00

*CAP
1 *1592:ZN 0.000192708
2 *660:2 2.93042e-05
3 *660:3 0.000147826
4 *660:4 5.57617e-05
5 *660:5 0.000431853008
6 *660:6 3.87142e-05
7 *660:7 0.000385877
8 *660:8 2.89747e-05
9 *660:9 4.59563e-05

*RES
1 *660:2 *660:3 2.99648
2 *660:8 *660:9 0.80805
3 *660:7 *660:8 0.563333
4 *660:6 *660:7 3.55869
5 *660:4 *660:5 4.33571005
6 *660:3 *660:4 0.132183
7 *1592:ZN *660:2 2.30513
8 *660:5 *660:6 0.132183
9 *660:9 *1465:D[0] 0.000132315
*END

*D_NET *661 0.000484838

*CONN
*I *1687:A2 I *C 139.7 46 *L 0.000585 *D CKAN2D0
*I *1474:Q O *C 138.7 48.4 *L 0 *D DFCNQD1

*CAP
1 *1687:A2 9.35151e-05
2 *1474:Q 0.000391323008

*RES
1 *1474:Q *1687:A2 6.98392
*END

*D_NET *662 0.00102557

*CONN
*I *1685:A2 I *C 144.9 46 *L 0.000585 *D CKAN2D0
*I *1473:Q O *C 142.3 44.8 *L 0 *D DFCNQD1

*CAP
1 *1685:A2 0.000356197
2 *1473:Q 0.000166406
3 *662:2 0.000502970977

*RES
1 *1473:Q *662:2 3.58323
2 *1685:A2 *662:2 9.62380028
*END

*D_NET *663 0.000759495

*CONN
*I *1679:A2 I *C 144.3 38.8 *L 0.000585 *D CKAN2D0
*I *1472:Q O *C 142.3 37.6 *L 0 *D DFCNQD1

*CAP
1 *1679:A2 0.00035874
2 *1472:Q 0.00010468
3 *663:2 0.000296073

*RES
1 *1679:A2 *663:2 8.38360977
2 *1472:Q *663:2 2.99994
*END

*D_NET *664 0.000814442

*CONN
*I *1690:A2 I *C 144.5 35.2 *L 0.000585 *D CKAN2D0
*I *1471:Q O *C 142.3 34 *L 0 *D DFCNQD1

*CAP
1 *1690:A2 0.000348608
2 *1471:Q 0.000116647
3 *664:2 0.000349189023

*RES
1 *1690:A2 *664:2 9.08726978
2 *1471:Q *664:2 3.00006
*END

*D_NET *665 0.000623604

*CONN
*I *1688:A2 I *C 145.3 30 *L 0.000585 *D CKAN2D0
*I *1470:Q O *C 142.7 30.4 *L 0 *D DFCNQD1

*CAP
1 *1470:Q 8.27255e-05
2 *665:2 0.000181129
3 *665:3 0.000359748984

*RES
1 *1470:Q *665:3 3
2 *665:2 *665:3 4.02531004
3 *1688:A2 *665:2 1.49997
*END

*D_NET *666 0.000819175

*CONN
*I *1692:A2 I *C 145.1 24.4 *L 0.000585 *D CKAN2D0
*I *1469:Q O *C 142.3 26.8 *L 0 *D DFCNQD1

*CAP
1 *1692:A2 0.000285806
2 *666:2 0.000533368008

*RES
1 *1692:A2 *666:2 10.3421001
2 *1469:Q *666:2 1.49996
*END

*D_NET *667 0.000756553

*CONN
*I *1657:A2 I *C 144.7 19.2 *L 0.000585 *D CKAN2D0
*I *1468:Q O *C 143.1 20.4 *L 0 *D DFCNQD1

*CAP
1 *1657:A2 0.000582580977
2 *1468:Q 0.00017397

*RES
1 *1468:Q *1657:A2 10.9152
*END

*D_NET *668 0.00107495

*CONN
*I *1631:A2 I *C 146.1 13.6 *L 0.000585 *D CKAN2D0
*I *1467:Q O *C 142.9 16 *L 0 *D DFCNQD1

*CAP
1 *1631:A2 0.000280585
2 *668:2 0.000794372031

*RES
1 *1631:A2 *668:2 9.46024036
2 *1467:Q *668:2 3.58555
*END

*D_NET *669 0.000362193

*CONN
*I *1691:A2 I *C 142.1 13.6 *L 0.000585 *D CKAN2D0
*I *1466:Q O *C 142.3 12.4 *L 0 *D DFCNQD1

*CAP
1 *1466:Q 0.000362193008

*RES
1 *1466:Q *1691:A2 6.52733
*END

*D_NET *670 0.000408948

*CONN
*I *1550:A2 I *C 144.1 49.6 *L 0.000697 *D MOAI22D0
*I *1483:QN O *C 143.9 52 *L 0 *D DFNCND1

*CAP
1 *1550:A2 0.000331629023
2 *1483:QN 7.73169e-05

*RES
1 *1483:QN *1550:A2 6.67927
*END

*D_NET *671 0.000498031

*CONN
*I *1549:A2 I *C 149.7 46 *L 0.000697 *D MOAI22D0
*I *1482:QN O *C 149.1 44.8 *L 0 *D DFNCND1

*CAP
1 *1482:QN 0.000498030977

*RES
1 *1482:QN *1549:A2 6.86559
*END

*D_NET *672 0.000465645

*CONN
*I *1552:A2 I *C 151.5 37.2 *L 0.000697 *D MOAI22D0
*I *1481:QN O *C 150.9 38.4 *L 0 *D DFNCND1

*CAP
1 *1552:A2 0.000217705
2 *1481:QN 0.000247940996

*RES
1 *1481:QN *1552:A2 6.7372
*END

*D_NET *673 0.000411837

*CONN
*I *1548:A2 I *C 150.5 33.6 *L 0.000697 *D MOAI22D0
*I *1480:QN O *C 150.7 34.8 *L 0 *D DFNCND1

*CAP
1 *1548:A2 0.000265657012
2 *1480:QN 0.000146179

*RES
1 *1480:QN *1548:A2 6.47119
*END

*D_NET *674 0.000324083

*CONN
*I *1555:A2 I *C 150.5 31.6 *L 0.000697 *D MOAI22D0
*I *1479:QN O *C 150.7 30.4 *L 0 *D DFNCND1

*CAP
1 *1479:QN 0.000324083008

*RES
1 *1479:QN *1555:A2 6.18921
*END

*D_NET *675 0.000479182

*CONN
*I *1556:A2 I *C 150.7 26.4 *L 0.000697 *D MOAI22D0
*I *1478:QN O *C 149.1 26.8 *L 0 *D DFNCND1

*CAP
1 *1478:QN 0.000117714
2 *675:2 0.000361465977

*RES
1 *1556:A2 *675:2 6.05471992
2 *1478:QN *675:2 3.00001
*END

*D_NET *676 0.000530619

*CONN
*I *1551:A2 I *C 149.5 19.2 *L 0.000697 *D MOAI22D0
*I *1477:QN O *C 148.1 16.8 *L 0 *D DFNCND1

*CAP
1 *1477:QN 0.000530619023

*RES
1 *1477:QN *1551:A2 7.55643
*END

*D_NET *677 0.000834406

*CONN
*I *1554:A2 I *C 150.5 12 *L 0.000697 *D MOAI22D0
*I *1476:QN O *C 150.7 9.6 *L 0 *D DFNCND1

*CAP
1 *1554:A2 0.00043266
2 *1476:QN 9.76101e-05
3 *677:2 0.000304139

*RES
1 *1476:QN *677:2 3.00003
2 *1554:A2 *677:2 10.8900995
*END

*D_NET *678 0.00056371

*CONN
*I *1553:A2 I *C 143.5 6.4 *L 0.000697 *D MOAI22D0
*I *1475:QN O *C 143.5 9.6 *L 0 *D DFNCND1

*CAP
1 *1553:A2 0.000563709961

*RES
1 *1553:A2 *678:2 5.91636992
2 *1475:QN *678:2 1.50004
*END

*D_NET *679 0.000260234

*CONN
*I *1597:A2 I *C 139.3 305.2 *L 0.000664 *D NR2D0
*I *1547:QN O *C 139.3 304 *L 0 *D DFNCND1

*CAP
1 *1547:QN 0.000260234004

*RES
1 *1597:A2 *1547:QN 4.16517
*END

*D_NET *680 0.00100671

*CONN
*I *1600:A2 I *C 142.3 307.2 *L 0.000664 *D NR2D0
*I *1546:QN O *C 143.1 301.2 *L 0 *D DFNCND1

*CAP
1 *1600:A2 4.18349e-06
2 *1546:QN 3.03229e-05
3 *680:2 0.000972217031

*RES
1 *1546:QN *680:2 0.776323
2 *1600:A2 *680:2 9.04804039
*END

*D_NET *681 0.00163334

*CONN
*I *1603:A2 I *C 140.7 305.2 *L 0.000664 *D NR2D0
*I *1545:QN O *C 143.1 297.6 *L 0 *D DFNCND1

*CAP
1 *1545:QN 0.000426585
2 *681:2 0.000440097
3 *681:3 0.00076666

*RES
1 *681:2 *681:3 5.60821
2 *1545:QN *681:2 6.78142023
3 *1603:A2 *681:3 4.1019
*END

*D_NET *682 0.000260127

*CONN
*I *1606:A2 I *C 139.7 301.6 *L 0.000664 *D NR2D0
*I *1544:QN O *C 139.7 300.4 *L 0 *D DFNCND1

*CAP
1 *1544:QN 0.000260127012

*RES
1 *1606:A2 *1544:QN 4.16517
*END

*D_NET *683 0.000715877

*CONN
*I *1609:A2 I *C 139.7 294.4 *L 0.000664 *D NR2D0
*I *1543:QN O *C 143.5 294 *L 0 *D DFNCND1

*CAP
1 *1609:A2 0.000111713
2 *683:2 0.000166039
3 *683:3 0.000438128008

*RES
1 *1609:A2 *683:3 3
2 *683:2 *683:3 5.36901999
3 *1543:QN *683:2 1.49996
*END

*D_NET *684 0.000727699

*CONN
*I *1612:A2 I *C 140.1 292.8 *L 0.000664 *D NR2D0
*I *1542:QN O *C 144.1 293.2 *L 0 *D DFNCND1

*CAP
1 *1542:QN 0.000141037
2 *684:2 0.000586660039

*RES
1 *1542:QN *684:2 9.02569962
2 *1612:A2 *684:2 1.50006
*END

*D_NET *685 0.000901148

*CONN
*I *1615:A2 I *C 140.1 289.2 *L 0.000664 *D NR2D0
*I *1541:QN O *C 144.1 290.4 *L 0 *D DFNCND1

*CAP
1 *685:2 0.000901148047

*RES
1 *1541:QN *685:2 2.26268
2 *1615:A2 *685:2 8.96588039
*END

*D_NET *686 0.000319672

*CONN
*I *1618:A2 I *C 139.5 283.6 *L 0.000664 *D NR2D0
*I *1540:QN O *C 142.5 283.2 *L 0 *D DFNCND1

*CAP
1 *1618:A2 0.000319671992

*RES
1 *1618:A2 *1540:QN 3.66219
*END

*D_NET *687 0.000991999

*CONN
*I *1573:A2 I *C 139.5 282 *L 0.000664 *D NR2D0
*I *1539:QN O *C 145.3 282.4 *L 0 *D DFNCND1

*CAP
1 *1573:A2 0.000291174
2 *687:2 0.000700827031

*RES
1 *1573:A2 *687:2 10.7868004
2 *1539:QN *687:2 1.49994
*END

*D_NET *688 5.8255e-05

*CONN
*I *1560:A2 I *C 139.5 278.4 *L 0.000664 *D NR2D0
*I *1538:QN O *C 140.3 278.8 *L 0 *D DFNCND1

*CAP
1 *1560:A2 5.8255e-05

*RES
1 *1560:A2 *1538:QN 0.982868
*END

*D_NET *689 0.000338524

*CONN
*I *1563:A2 I *C 139.3 272.8 *L 0.000664 *D NR2D0
*I *1537:QN O *C 139.1 275.2 *L 0 *D DFNCND1

*CAP
1 *1563:A2 0.000213232988
2 *1537:QN 0.000125291

*RES
1 *1537:QN *1563:A2 4.47611
*END

*D_NET *690 0.000274296

*CONN
*I *1566:A2 I *C 138.7 267.6 *L 0.000664 *D NR2D0
*I *1536:QN O *C 138.7 265.2 *L 0 *D DFNCND1

*CAP
1 *1566:A2 4.83337e-05
2 *1536:QN 0.000225962988

*RES
1 *1536:QN *1566:A2 5.17979
*END

*D_NET *691 0.000301768

*CONN
*I *1569:A2 I *C 138.7 264 *L 0.000664 *D NR2D0
*I *1535:QN O *C 138.7 261.6 *L 0 *D DFNCND1

*CAP
1 *1569:A2 5.25542e-05
2 *1535:QN 0.000249213984

*RES
1 *1535:QN *1569:A2 5.17979
*END

*D_NET *692 0.00029007

*CONN
*I *1572:A2 I *C 140.1 256.8 *L 0.000664 *D NR2D0
*I *1534:QN O *C 140.3 258 *L 0 *D DFNCND1

*CAP
1 *1572:A2 5.55268e-05
2 *1534:QN 0.000234543984

*RES
1 *1572:A2 *1534:QN 4.80174
*END

*D_NET *693 0.000252702

*CONN
*I *1575:A2 I *C 140.1 253.2 *L 0.000664 *D NR2D0
*I *1533:QN O *C 140.3 250.8 *L 0 *D DFNCND1

*CAP
1 *1575:A2 0.000177957988
2 *1533:QN 7.47432e-05

*RES
1 *1575:A2 *1533:QN 4.36434
*END

*D_NET *694 0.000293592

*CONN
*I *1578:A2 I *C 139.1 249.6 *L 0.000664 *D NR2D0
*I *1532:QN O *C 138.9 247.2 *L 0 *D DFNCND1

*CAP
1 *1578:A2 0.000200004004
2 *1532:QN 9.35885e-05

*RES
1 *1578:A2 *1532:QN 4.37143
*END

*D_NET *695 0.000289387

*CONN
*I *1581:A2 I *C 139.9 246 *L 0.000664 *D NR2D0
*I *1531:QN O *C 140.1 243.6 *L 0 *D DFNCND1

*CAP
1 *1581:A2 0.00019724
2 *1531:QN 9.21477e-05

*RES
1 *1581:A2 *1531:QN 4.39653
*END

*D_NET *696 0.00031299

*CONN
*I *1584:A2 I *C 139.9 242.4 *L 0.000664 *D NR2D0
*I *1530:QN O *C 140.1 240 *L 0 *D DFNCND1

*CAP
1 *1584:A2 0.000191636992
2 *1530:QN 0.000121354

*RES
1 *1584:A2 *1530:QN 4.47663
*END

*D_NET *697 0.000253018

*CONN
*I *1587:A2 I *C 139.9 236.8 *L 0.000664 *D NR2D0
*I *1529:QN O *C 139.9 235.6 *L 0 *D DFNCND1

*CAP
1 *1529:QN 0.000253017988

*RES
1 *1587:A2 *1529:QN 4.16584
*END

*D_NET *698 0.000263355

*CONN
*I *1590:A2 I *C 140.1 233.2 *L 0.000664 *D NR2D0
*I *1528:QN O *C 140.1 232 *L 0 *D DFNCND1

*CAP
1 *1528:QN 0.00026335498

*RES
1 *1590:A2 *1528:QN 4.16584
*END

*D_NET *699 0.000448661

*CONN
*I *1593:A2 I *C 139.3 229.6 *L 0.000664 *D NR2D0
*I *1527:QN O *C 139.9 228.4 *L 0 *D DFNCND1

*CAP
1 *1527:QN 4.11745e-05
2 *699:2 0.000407485977

*RES
1 *1527:QN *699:2 0.776825
2 *1593:A2 *699:2 5.07729006
*END

*D_NET *700 0.000281647

*CONN
*I *1594:A2 I *C 140.1 224.4 *L 0.000664 *D NR2D0
*I *1526:QN O *C 140.1 222 *L 0 *D DFNCND1

*CAP
1 *1526:QN 0.000281646992

*RES
1 *1594:A2 *1526:QN 4.17277
*END

*D_NET *701 0.000294823

*CONN
*I *1595:A2 I *C 140.1 220.8 *L 0.000664 *D NR2D0
*I *1525:QN O *C 140.7 218.4 *L 0 *D DFNCND1

*CAP
1 *1595:A2 4.47977e-05
2 *701:2 0.000250026992

*RES
1 *1595:A2 *701:2 0.830766
2 *1525:QN *701:2 5.68497992
*END

*D_NET *702 0.000278184

*CONN
*I *1596:A2 I *C 140.1 217.2 *L 0.000664 *D NR2D0
*I *1524:QN O *C 140.3 214.8 *L 0 *D DFNCND1

*CAP
1 *1596:A2 0.000185325996
2 *1524:QN 9.28567e-05

*RES
1 *1596:A2 *1524:QN 4.36663
*END

*D_NET *703 0.000280681

*CONN
*I *1598:A2 I *C 140.1 213.6 *L 0.000664 *D NR2D0
*I *1523:QN O *C 140.1 211.2 *L 0 *D DFNCND1

*CAP
1 *1523:QN 0.000280681016

*RES
1 *1598:A2 *1523:QN 4.16584
*END

*D_NET *704 0.000276043

*CONN
*I *1599:A2 I *C 140.1 208 *L 0.000664 *D NR2D0
*I *1522:QN O *C 140.1 206.8 *L 0 *D DFNCND1

*CAP
1 *1522:QN 0.000276042988

*RES
1 *1599:A2 *1522:QN 4.16584
*END

*D_NET *705 0.000336765

*CONN
*I *1601:A2 I *C 140.1 204.4 *L 0.000664 *D NR2D0
*I *1521:QN O *C 140.1 203.2 *L 0 *D DFNCND1

*CAP
1 *1521:QN 0.000336765

*RES
1 *1601:A2 *1521:QN 4.32012
*END

*D_NET *706 0.000599611

*CONN
*I *1602:A2 I *C 140.7 200.8 *L 0.000664 *D NR2D0
*I *1520:QN O *C 142.3 199.6 *L 0 *D DFNCND1

*CAP
1 *1602:A2 0.00040173
2 *1520:QN 0.000197883

*RES
1 *1602:A2 *1520:QN 8.71948
*END

*D_NET *707 0.000416334

*CONN
*I *1604:A2 I *C 140.9 195.6 *L 0.000664 *D NR2D0
*I *1519:QN O *C 140.9 193.2 *L 0 *D DFNCND1

*CAP
1 *1519:QN 0.000416333984

*RES
1 *1604:A2 *1519:QN 5.0354
*END

*D_NET *708 0.000666398

*CONN
*I *1589:A2 I *C 141.1 192 *L 0.000664 *D NR2D0
*I *1518:QN O *C 142.1 188.8 *L 0 *D DFNCND1

*CAP
1 *1589:A2 0.000555653984
2 *1518:QN 0.000110741

*RES
1 *1589:A2 *1518:QN 6.89047
*END

*D_NET *709 0.000601871

*CONN
*I *1607:A2 I *C 140.3 186.4 *L 0.000664 *D NR2D0
*I *1517:QN O *C 139.9 182.4 *L 0 *D DFNCND1

*CAP
1 *1607:A2 0.000275222
2 *1517:QN 0.000326651016

*RES
1 *1607:A2 *1517:QN 6.76549
*END

*D_NET *710 0.000783274

*CONN
*I *1608:A2 I *C 141.3 179.2 *L 0.000664 *D NR2D0
*I *1516:QN O *C 143.9 178 *L 0 *D DFNCND1

*CAP
1 *1516:QN 0.000448835
2 *710:2 0.00033444

*RES
1 *1516:QN *710:2 7.54217005
2 *1608:A2 *710:2 3.00002
*END

*D_NET *711 0.000581386

*CONN
*I *1610:A2 I *C 140.7 146.8 *L 0.000664 *D NR2D0
*I *1515:QN O *C 140.5 150 *L 0 *D DFNCND1

*CAP
1 *1610:A2 0.000139782
2 *1515:QN 0.000441601992

*RES
1 *1515:QN *1610:A2 6.19858
*END

*D_NET *712 0.000336411

*CONN
*I *1611:A2 I *C 139.9 143.2 *L 0.000664 *D NR2D0
*I *1514:QN O *C 139.9 145.6 *L 0 *D DFNCND1

*CAP
1 *1611:A2 0.000336411016

*RES
1 *1514:QN *1611:A2 4.48459
*END

*D_NET *713 0.00127611

*CONN
*I *1613:A2 I *C 137.5 134.4 *L 0.000664 *D NR2D0
*I *1513:QN O *C 139.7 138.4 *L 0 *D DFNCND1

*CAP
1 *1613:A2 2.00696e-05
2 *1513:QN 5.47967e-05
3 *713:2 0.000623346992
4 *713:3 0.000443091
5 *713:4 0.000134799

*RES
1 *713:3 *713:4 4.0253
2 *713:2 *713:3 6.11914015
3 *1613:A2 *713:2 0.488515
4 *1513:QN *713:4 3
*END

*D_NET *714 0.000338334

*CONN
*I *1614:A2 I *C 139.1 134.4 *L 0.000664 *D NR2D0
*I *1512:QN O *C 138.9 135.6 *L 0 *D DFNCND1

*CAP
1 *1614:A2 0.000229345
2 *1512:QN 0.000108987

*RES
1 *1512:QN *1614:A2 4.3832
*END

*D_NET *715 0.000276573

*CONN
*I *1616:A2 I *C 139.9 130.8 *L 0.000664 *D NR2D0
*I *1511:QN O *C 139.9 132 *L 0 *D DFNCND1

*CAP
1 *1511:QN 0.000276573008

*RES
1 *1616:A2 *1511:QN 7.50805
*END

*D_NET *716 0.00112512

*CONN
*I *1617:A2 I *C 139.9 123.6 *L 0.000664 *D NR2D0
*I *1510:QN O *C 139.9 128.4 *L 0 *D DFNCND1

*CAP
1 *1617:A2 4.7492e-05
2 *1510:QN 0.000351113
3 *716:2 0.000726515

*RES
1 *1617:A2 *716:2 5.30148
2 *1510:QN *716:2 5.94611979
*END

*D_NET *717 0.000797869

*CONN
*I *1619:A2 I *C 139.9 121.6 *L 0.000664 *D NR2D0
*I *1509:QN O *C 139.9 124.8 *L 0 *D DFNCND1

*CAP
1 *717:2 0.000797869063

*RES
1 *1619:A2 *717:2 4.40562
2 *1509:QN *717:2 5.11183977
*END

*D_NET *718 0.000334219

*CONN
*I *1620:A2 I *C 139.9 118 *L 0.000664 *D NR2D0
*I *1508:QN O *C 140.1 120.4 *L 0 *D DFNCND1

*CAP
1 *1620:A2 0.000161298
2 *1508:QN 0.000172920996

*RES
1 *1508:QN *1620:A2 6.00331
*END

*D_NET *719 0.00126437

*CONN
*I *1558:A2 I *C 138.9 109.2 *L 0.000664 *D NR2D0
*I *1507:QN O *C 138.9 116.8 *L 0 *D DFNCND1

*CAP
1 *1558:A2 0.00126437

*RES
1 *1558:A2 *719:2 10.2962999
2 *1507:QN *719:2 1.50008
*END

*D_NET *720 0.00067455

*CONN
*I *1559:A2 I *C 139.1 110.8 *L 0.000664 *D NR2D0
*I *1506:QN O *C 139.1 114 *L 0 *D DFNCND1

*CAP
1 *1559:A2 0.00067455

*RES
1 *1559:A2 *720:2 5.31816006
2 *1506:QN *720:2 1.50003
*END

*D_NET *721 0.00138399

*CONN
*I *1561:A2 I *C 139.7 105.6 *L 0.000664 *D NR2D0
*I *1505:QN O *C 140.5 113.2 *L 0 *D DFNCND1

*CAP
1 *1561:A2 0.000261834
2 *1505:QN 0.000249678
3 *721:2 0.00087249

*RES
1 *1505:QN *721:2 3.87295
2 *1561:A2 *721:2 8.04263973
*END

*D_NET *722 0.00140212

*CONN
*I *1562:A2 I *C 139.5 103.6 *L 0.000664 *D NR2D0
*I *1504:QN O *C 145.5 106 *L 0 *D DFNCND1

*CAP
1 *722:2 0.00140212

*RES
1 *1504:QN *722:2 2.65924
2 *1562:A2 *722:2 11.3343
*END

*D_NET *723 0.00158997

*CONN
*I *1564:A2 I *C 139.5 94.8 *L 0.000664 *D NR2D0
*I *1503:QN O *C 139.3 99.6 *L 0 *D DFNCND1

*CAP
1 *1503:QN 0.000269393
2 *723:2 0.00132057

*RES
1 *1564:A2 *723:2 14.4397001
2 *1503:QN *723:2 4.02657
*END

*D_NET *724 0.000350298

*CONN
*I *1565:A2 I *C 138.7 91.2 *L 0.000664 *D NR2D0
*I *1502:QN O *C 138.7 92.4 *L 0 *D DFNCND1

*CAP
1 *1565:A2 0.000350297969

*RES
1 *1502:QN *1565:A2 4.67352
*END

*D_NET *725 0.00121605

*CONN
*I *1567:A2 I *C 139.9 84 *L 0.000664 *D NR2D0
*I *1501:QN O *C 140.5 91.6 *L 0 *D DFNCND1

*CAP
1 *1567:A2 0.000672622969
2 *1501:QN 2.0835e-06
3 *725:2 0.000525279
4 *725:3 1.60727e-05

*RES
1 *725:2 *725:3 4.75036
2 *1567:A2 *725:3 5.48483992
3 *1501:QN *725:2 0.32665
*END

*D_NET *726 0.00142986

*CONN
*I *1568:A2 I *C 139.5 87.6 *L 0.000664 *D NR2D0
*I *1500:QN O *C 146.3 88 *L 0 *D DFNCND1

*CAP
1 *1568:A2 0.000109413
2 *1500:QN 0.000170942
3 *726:2 6.70125e-05
4 *726:3 0.00108249

*RES
1 *726:2 *726:3 8.46992016
2 *1500:QN *726:2 1.75457
3 *1568:A2 *726:3 2.99994
*END

*D_NET *727 0.000686729

*CONN
*I *1570:A2 I *C 139.1 82 *L 0.000664 *D NR2D0
*I *1499:QN O *C 139.1 85.2 *L 0 *D DFNCND1

*CAP
1 *1570:A2 0.000384335
2 *1499:QN 0.000302395

*RES
1 *1499:QN *1570:A2 6.79869
*END

*D_NET *728 0.0011755

*CONN
*I *1571:A2 I *C 139.9 78.4 *L 0.000664 *D NR2D0
*I *1498:QN O *C 140.9 84.4 *L 0 *D DFNCND1

*CAP
1 *1571:A2 0.000718575
2 *1498:QN 0.000452614
3 *728:2 4.30915e-06

*RES
1 *1571:A2 *728:2 5.6877799
2 *1498:QN *728:2 4.17254
*END

*D_NET *729 0.00115592

*CONN
*I *1557:A2 I *C 139.9 74.8 *L 0.000664 *D NR2D0
*I *1497:QN O *C 140.9 80.8 *L 0 *D DFNCND1

*CAP
1 *1557:A2 0.000637898984
2 *1497:QN 0.000219816
3 *729:2 0.000298202

*RES
1 *1497:QN *729:2 3.08894
2 *1557:A2 *729:2 7.50544024
*END

*D_NET *730 0.00114582

*CONN
*I *1574:A2 I *C 139.5 71.2 *L 0.000664 *D NR2D0
*I *1496:QN O *C 139.1 77.2 *L 0 *D DFNCND1

*CAP
1 *1574:A2 0.000281081
2 *730:2 0.000864736953

*RES
1 *1574:A2 *730:2 10.9001999
2 *1496:QN *730:2 1.50007
*END

*D_NET *731 0.00127001

*CONN
*I *1576:A2 I *C 139.5 66 *L 0.000664 *D NR2D0
*I *1495:QN O *C 139.1 73.6 *L 0 *D DFNCND1

*CAP
1 *1576:A2 0.00127001

*RES
1 *1576:A2 *1495:QN 12.8663
*END

*D_NET *732 0.0026989

*CONN
*I *1577:A2 I *C 138.9 55.2 *L 0.000664 *D NR2D0
*I *1494:QN O *C 138.7 67.2 *L 0 *D DFNCND1

*CAP
1 *1494:QN 0.000355908
2 *732:2 2.92304e-06
3 *732:3 0.00148497
4 *732:4 0.000855113

*RES
1 *1494:QN *732:2 3.81805
2 *732:3 *732:4 9.41338
3 *732:2 *732:3 5.03381
4 *1577:A2 *732:4 10.0108004
*END

*D_NET *733 0.00247082

*CONN
*I *1579:A2 I *C 138.9 53.2 *L 0.000664 *D NR2D0
*I *1493:QN O *C 138.9 63.6 *L 0 *D DFNCND1

*CAP
1 *1579:A2 0.000250653
2 *733:2 0.000813672
3 *733:3 0.000588966
4 *733:4 0.000817527031

*RES
1 *1493:QN *733:3 5.80936
2 *733:2 *733:4 7.65024996
3 *1579:A2 *733:2 4.65545
4 *733:3 *733:4 7.58044
*END

*D_NET *734 0.00112317

*CONN
*I *1580:A2 I *C 138.9 56.8 *L 0.000664 *D NR2D0
*I *1492:QN O *C 139.1 60 *L 0 *D DFNCND1

*CAP
1 *1580:A2 5.97743e-05
2 *1492:QN 0.000243886
3 *734:2 0.00081952

*RES
1 *1492:QN *734:2 4.7057
2 *1580:A2 *734:2 8.44935036
*END

*D_NET *735 0.00224822

*CONN
*I *1582:A2 I *C 140.1 49.6 *L 0.000664 *D NR2D0
*I *1491:QN O *C 142.7 59.2 *L 0 *D DFNCND1

*CAP
1 *1582:A2 0.000589836
2 *1491:QN 0.000360803
3 *735:2 0.000847955
4 *735:3 0.000449629

*RES
1 *1491:QN *735:3 7.35265017
2 *735:2 *735:3 6.91712
3 *1582:A2 *735:2 5.30861
*END

*D_NET *736 0.00294718

*CONN
*I *1583:A2 I *C 139.5 42.4 *L 0.000664 *D NR2D0
*I *1490:QN O *C 146.3 52 *L 0 *D DFNCND1

*CAP
1 *1490:QN 0.000367748
2 *736:2 0.000565762
3 *736:3 0.00177522
4 *736:4 0.00023843

*RES
1 *1583:A2 *736:3 8.20197964
2 *736:2 *736:3 7.84842
3 *736:2 *736:4 4.97155
4 *1490:QN *736:4 5.78942
*END

*D_NET *737 0.0024913

*CONN
*I *1585:A2 I *C 139.5 35.2 *L 0.000664 *D NR2D0
*I *1489:QN O *C 146.1 42 *L 0 *D DFNCND1

*CAP
1 *1585:A2 0.000508802
2 *737:2 0.000197643
3 *737:3 0.000753693
4 *737:4 0.000138325
5 *737:5 0.000892849063

*RES
1 *737:4 *737:5 7.54239988
2 *1585:A2 *737:3 4.26585
3 *737:2 *737:3 4.80642
4 *737:2 *737:5 3.01358
5 *1489:QN *737:4 1.50006
*END

*D_NET *738 0.00154622

*CONN
*I *1586:A2 I *C 140.5 31.6 *L 0.000664 *D NR2D0
*I *1488:QN O *C 143.9 37.6 *L 0 *D DFNCND1

*CAP
1 *1586:A2 0.000585623
2 *738:2 0.000960597969

*RES
1 *1488:QN *738:2 4.0855
2 *1586:A2 *738:2 10.6991997
*END

*D_NET *739 0.00132108

*CONN
*I *1588:A2 I *C 140.7 22.8 *L 0.000664 *D NR2D0
*I *1487:QN O *C 143.3 27.6 *L 0 *D DFNCND1

*CAP
1 *739:2 0.000627115
2 *739:3 0.000693965

*RES
1 *739:2 *739:3 4.02529
2 *1588:A2 *739:3 4.34674
3 *1487:QN *739:2 5.30372
*END

*D_NET *740 0.000822648

*CONN
*I *1605:A2 I *C 140.7 19.2 *L 0.000664 *D NR2D0
*I *1486:QN O *C 141.9 23.2 *L 0 *D DFNCND1

*CAP
1 *1605:A2 6.26598e-06
2 *740:2 0.000816383984

*RES
1 *1605:A2 *740:2 0.488462
2 *1486:QN *740:2 7.84796
*END

*D_NET *741 0.000610318

*CONN
*I *1591:A2 I *C 145.7 12 *L 0.000664 *D NR2D0
*I *1485:QN O *C 145.7 16 *L 0 *D DFNCND1

*CAP
1 *1591:A2 0.000610318008

*RES
1 *1591:A2 *741:2 6.93520021
2 *1485:QN *741:2 1.50004
*END

*D_NET *742 0.000330722

*CONN
*I *1592:A2 I *C 144.9 8.4 *L 0.000664 *D NR2D0
*I *1484:QN O *C 145.9 8.8 *L 0 *D DFNCND1

*CAP
1 *1592:A2 0.000130963
2 *1484:QN 0.00019976

*RES
1 *1592:A2 *1484:QN 4.39531
*END

*D_NET *743 0.0033871

*CONN
*I *1289:I I *C 137.7 298 *L 0.00103 *D DEL2
*I *1763:Q O *C 138.9 276 *L 0 *D DFXQD1
*I *1625:A1 I *C 142.1 287.2 *L 0.000556 *D CKAN2D0

*CAP
1 *1289:I 7.72601e-05
2 *1763:Q 0.00013598
3 *743:3 0.000352428
4 *743:4 0.000203157
5 *743:5 0.000223784
6 *743:6 0.00013795
7 *743:7 0.0005325
8 *743:8 0.000397215
9 *743:9 0.000258687
10 *743:10 0.000592122969
11 *743:11 0.00047602

*RES
1 *743:9 *743:10 5.38638
2 *743:4 *743:11 5.7714901
3 *743:3 *743:10 4.05975
4 *1625:A1 *743:4 3.29411
5 *743:7 *743:8 3.88477
6 *743:5 *743:9 2.75919
7 *743:5 *743:8 1.61258
8 *1289:I *743:6 2.69649
9 *743:6 *743:7 4.61113
10 *1763:Q *743:3 1.55313
11 *743:5 *743:11 1.50003
*END

*D_NET *744 0.00429946

*CONN
*I *1291:I I *C 146.5 300 *L 0.00103 *D DEL2
*I *1762:Q O *C 150.9 278.8 *L 0 *D DFXQD1
*I *1641:A1 I *C 145.7 285.6 *L 0.000556 *D CKAN2D0

*CAP
1 *1291:I 5.80402e-05
2 *1762:Q 0.000492788
3 *1641:A1 9.47511e-06
4 *744:3 0.000717073
5 *744:4 3.99923e-06
6 *744:5 0.00134405
7 *744:6 0.00127772
8 *744:7 0.000316862
9 *744:8 7.94719e-05

*RES
1 *744:5 *744:7 3.61528
2 *1762:Q *744:8 6.31549
3 *744:6 *744:7 5.16693
4 *744:4 *744:5 7.27338982
5 *744:3 *744:4 6.48874
6 *1641:A1 *744:7 1.91568
7 *744:6 *744:8 5.4142
8 *1291:I *744:3 0.764008
*END

*D_NET *745 0.00551557

*CONN
*I *1287:I I *C 146.7 305.2 *L 0.00103 *D DEL2
*I *1761:Q O *C 151.9 271.6 *L 0 *D DFXQD1
*I *1623:A1 I *C 145.5 287.2 *L 0.000556 *D CKAN2D0

*CAP
1 *1287:I 1.49184e-06
2 *1761:Q 2.84806e-06
3 *745:3 0.00148133
4 *745:5 0.000552433
5 *745:6 0.000457294
6 *745:7 0.00114854
7 *745:8 0.000730957
8 *745:9 0.00114069

*RES
1 *745:7 *745:8 4.36309
2 *745:5 *745:9 7.16834
3 *745:3 *745:4 16.5016003
4 *1287:I *745:6 6.35529
5 *745:8 *745:9 4.90571
6 *745:6 *745:7 7.88494
7 *745:4 *745:5 0.256327
8 *1623:A1 *745:9 5.859
9 *1761:Q *745:3 0.518697
*END

*D_NET *746 0.00618315

*CONN
*I *1288:I I *C 144.1 303.6 *L 0.00103 *D DEL2
*I *1760:Q O *C 138.5 268.8 *L 0 *D DFXQD1
*I *1647:A1 I *C 142.5 285.6 *L 0.000556 *D CKAN2D0

*CAP
1 *1760:Q 0.000197774
2 *746:3 0.000558954
3 *746:4 0.000334273
4 *746:5 0.000412412
5 *746:6 0.00031587
6 *746:7 0.000510457
7 *746:8 0.000459904
8 *746:9 0.000486267
9 *746:10 0.000219464
10 *746:11 0.000593513008
11 *746:12 0.000376566
12 *746:13 2.889e-06
13 *746:14 0.000424855
14 *1760:Q *759:4 0.000217453008
15 *746:3 *1546:CDN 0.000822686953
16 *746:4 *1647:A2 0.000249815

*RES
1 *746:11 *746:12 3.88471
2 *746:9 *746:4 5.77148
3 *1647:A1 *746:4 4.5
4 *746:8 *746:4 5.79566
5 *746:13 *746:14 4.41741
6 *746:12 *746:13 0.256352
7 *746:5 *746:3 3.30207
8 *746:6 *746:7 5.03282
9 *746:9 *746:10 1.42536
10 *746:5 *746:7 3.6905
11 *746:6 *746:8 3.31958
12 *746:10 *746:11 4.61095
13 *1760:Q *746:14 3.60271
14 *1288:I *746:3 7.40427017
*END

*D_NET *747 0.00875597

*CONN
*I *1286:I I *C 146.3 307.2 *L 0.00103 *D DEL2
*I *1759:Q O *C 150.7 264.4 *L 0 *D DFXQD1
*I *1627:A1 I *C 148.1 287.2 *L 0.000556 *D CKAN2D0

*CAP
1 *1286:I 5.61329e-05
2 *1759:Q 0.000319711
3 *1627:A1 7.61682e-05
4 *747:3 0.000534481
5 *747:4 0.000516913
6 *747:5 0.000343672
7 *747:6 0.000317367
8 *747:7 0.00022883
9 *747:8 0.000935916
10 *747:9 7.6044e-05
11 *747:10 0.000185966
12 *747:11 0.000247391
13 *747:12 0.00052503
14 *747:13 0.000413167
15 *747:14 0.00101705
16 *747:15 0.000685498
17 *1759:Q *749:5 0.00109807
18 *747:3 *1678:A1 0.0002475
19 *747:3 *313:2 0.000931063984

*RES
1 *747:10 *747:13 3.76224
2 *1759:Q *747:8 4.23779
3 *747:7 *747:3 5.35318
4 *747:6 *747:7 2.52788
5 *747:13 *747:3 5.4445
6 *747:12 *747:15 3.17416
7 *747:5 *747:15 4.99499
8 *747:10 *747:14 21.0718994
9 *747:4 *747:6 3.73234
10 *747:4 *747:5 2.37033
11 *747:11 *747:12 3.89921
12 *1627:A1 *747:13 2.6073
13 *747:9 *747:14 1.88836
14 *1286:I *747:11 3.2166
15 *747:8 *747:9 8.10163
*END

*D_NET *748 0.00687896

*CONN
*I *1285:I I *C 145.9 308.8 *L 0.00103 *D DEL2
*I *1758:Q O *C 150.3 260.8 *L 0 *D DFXQD1
*I *1678:A1 I *C 150.1 289.2 *L 0.000556 *D CKAN2D0

*CAP
1 *1758:Q 0.000113726
2 *1678:A1 6.91586e-05
3 *748:3 0.000807405
4 *748:4 0.00060119
5 *748:5 4.90062e-05
6 *748:6 0.00165292
7 *748:7 0.000965874
8 *748:8 0.00011935
9 *748:9 0.00010283
10 *1758:Q *311:2 0.000907528984
11 *1678:A1 *747:3 0.0002475
12 *748:3 *322:3 0.00124247

*RES
1 *748:7 *748:8 16.8412991
2 *748:3 *748:9 12.2699
3 *748:3 *748:6 14.85
4 *1678:A1 *748:5 4.49994
5 *1285:I *748:4 3.7768
6 *1758:Q *748:6 7.29072
7 *748:7 *748:9 1.01069
8 *748:5 *748:9 2.26243
9 *748:4 *748:8 7.30305
*END

*D_NET *749 0.00930456

*CONN
*I *1284:I I *C 145.9 310.8 *L 0.00103 *D DEL2
*I *1757:Q O *C 150.3 254.4 *L 0 *D DFXQD1
*I *1689:A1 I *C 150.1 287.2 *L 0.000556 *D CKAN2D0

*CAP
1 *1284:I 2.48976e-05
2 *1757:Q 9.73353e-05
3 *1689:A1 9.66203e-06
4 *749:3 0.000240084
5 *749:4 0.000944165
6 *749:5 0.000652691
7 *749:6 0.000379184
8 *749:7 0.000805927
9 *749:8 0.000318499
10 *749:10 0.00120152
11 *749:11 8.80033e-07
12 *749:12 0.000763007
13 *749:13 3.85564e-05
14 *749:14 2.89678e-06
15 *749:15 5.79722e-05
16 *749:16 0.000765042
17 *749:17 0.000110389
18 *749:18 0.00049478
19 *749:19 0.000557354
20 *749:3 *258:5 0.000535516992
21 *749:4 *319:3 0.000206111992
22 *749:5 *1759:Q 0.00109807

*RES
1 *749:7 *749:9 5.73791
2 *1689:A1 *749:17 1.91594
3 *749:11 *749:12 0.450571
4 *749:19 *749:4 12.1845
5 *749:18 *749:4 3.97657
6 *749:14 *749:19 5.3532
7 *749:9 *749:5 0.256307
8 *749:12 *749:13 5.76512
9 *749:6 *749:8 2.72631
10 *749:10 *749:13 0.450571
11 *749:6 *749:17 2.86057
12 *749:15 *749:16 6.16204
13 *1284:I *749:3 0.521767
14 *749:17 *749:18 5.74122
15 *749:8 *749:10 16.6639996
16 *749:5 *749:11 4.40578
17 *749:3 *749:15 3.98394
18 *749:14 *749:16 0.256307
19 *1757:Q *749:7 1.9523
*END

*D_NET *750 0.00780826

*CONN
*I *1290:I I *C 140.7 296.4 *L 0.00103 *D DEL2
*I *1756:Q O *C 150.5 247.2 *L 0 *D DFXQD1
*I *1668:A1 I *C 148.7 256.8 *L 0.000556 *D CKAN2D0

*CAP
1 *1290:I 4.62095e-05
2 *1668:A1 2.68298e-06
3 *750:3 0.0015699
4 *750:4 0.000727637
5 *750:5 0.00058968
6 *750:6 0.00103319
7 *750:7 8.04893e-05
8 *750:8 0.000581343
9 *750:9 5.19108e-05
10 *750:10 0.000605562
11 *750:6 *312:2 0.000715066016
12 *750:3 *322:3 0.00131698
13 *750:4 *488:87 0.00048762

*RES
1 *750:7 *750:8 2.00823
2 *750:5 *750:7 4.8248
3 *1756:Q *750:4 4.16534
4 *1668:A1 *750:7 1.91402
5 *750:5 *750:4 6.1597
6 *750:6 *750:9 9.53983
7 *750:8 *750:10 7.55347
8 *750:3 *750:10 6.61728
9 *750:9 *750:3 27.5625992
10 *1290:I *750:6 1.72519
*END

*D_NET *751 0.0020537

*CONN
*I *1424:I I *C 146.7 272.8 *L 0.00103 *D DEL2
*I *1755:Q O *C 150.9 275.2 *L 0 *D DFXQD1
*I *1629:A1 I *C 149.3 280 *L 0.000556 *D CKAN2D0

*CAP
1 *1424:I 0.000211734
2 *1629:A1 4.08816e-05
3 *751:3 0.00047817
4 *751:4 5.61711e-05
5 *751:5 0.00126675

*RES
1 *751:3 *751:5 4.41236
2 *1424:I *751:3 4.35962
3 *751:4 *751:5 8.88463974
4 *1629:A1 *751:4 2.15866
5 *1755:Q *751:5 4.01433
*END

*D_NET *752 0.00234186

*CONN
*I *1421:I I *C 139.7 280 *L 0.00103 *D DEL2
*I *1754:Q O *C 146.9 271.6 *L 0 *D DFXQD1
*I *1628:A1 I *C 145.9 280 *L 0.000556 *D CKAN2D0

*CAP
1 *1421:I 6.38798e-05
2 *1754:Q 0.000197803
3 *1628:A1 1.90437e-05
4 *752:3 0.00109475992
5 *752:4 5.91523e-05
6 *752:5 0.000907213

*RES
1 *752:4 *752:5 7.93252
2 *1628:A1 *752:4 1.91896
3 *752:3 *752:4 7.95753002
4 *1421:I *752:5 4.50003
5 *1754:Q *752:3 2.89252
*END

*D_NET *753 0.00272073

*CONN
*I *1422:I I *C 140.1 267.6 *L 0.00103 *D DEL2
*I *1753:Q O *C 150.3 268 *L 0 *D DFXQD1
*I *1622:A1 I *C 144.7 272.8 *L 0.000556 *D CKAN2D0

*CAP
1 *1422:I 6.8888e-05
2 *1622:A1 7.49151e-05
3 *753:3 0.000761436
4 *753:4 3.31873e-05
5 *753:5 0.000101537
6 *753:6 0.00168078

*RES
1 *753:3 *753:6 6.93645
2 *1422:I *753:3 1.72526
3 *753:5 *753:6 5.96567
4 *753:4 *753:6 8.6914196
5 *1622:A1 *753:4 2.65016
6 *1753:Q *753:5 1.49994
*END

*D_NET *754 0.00187885

*CONN
*I *1426:I I *C 146.7 269.2 *L 0.00103 *D DEL2
*I *1752:Q O *C 150.5 265.2 *L 0 *D DFXQD1
*I *1632:A1 I *C 144.7 264 *L 0.000556 *D CKAN2D0

*CAP
1 *1632:A1 0.000309423
2 *754:4 0.000100758
3 *754:5 0.00146868

*RES
1 *754:3 *754:5 5.7493
2 *1632:A1 *754:5 6.5962801
3 *754:4 *754:5 5.18907
4 *1752:Q *754:4 1.50001
5 *1426:I *754:3 3.00001
*END

*D_NET *755 0.00197675

*CONN
*I *1425:I I *C 146.7 258.4 *L 0.00103 *D DEL2
*I *1751:Q O *C 150.5 261.6 *L 0 *D DFXQD1
*I *1633:A1 I *C 143.7 260.4 *L 0.000556 *D CKAN2D0

*CAP
1 *1425:I 0.000222285
2 *1751:Q 0.000481251
3 *1633:A1 8.88257e-05
4 *755:3 0.000689387969
5 *755:4 0.000495

*RES
1 *755:3 *755:4 5.97664
2 *1633:A1 *755:3 3.13746
3 *1751:Q *755:4 5.90982
4 *1425:I *755:3 6.00744009
*END

*D_NET *756 0.00200766

*CONN
*I *1423:I I *C 140.1 254.8 *L 0.00103 *D DEL2
*I *1750:Q O *C 149.7 253.6 *L 0 *D DFXQD1
*I *1630:A1 I *C 143.7 256.8 *L 0.000556 *D CKAN2D0

*CAP
1 *1750:Q 0.000287028
2 *756:3 0.000470735
3 *756:4 0.000618617
4 *756:5 0.000631283984

*RES
1 *1630:A1 *756:5 6.66427
2 *1750:Q *756:4 6.6644702
3 *756:4 *756:5 3.65856
4 *756:3 *756:5 4.80066
5 *1423:I *756:3 3.00001
*END

*D_NET *757 0.00171417

*CONN
*I *1427:I I *C 139.9 249.6 *L 0.00103 *D DEL2
*I *1749:Q O *C 150.1 250 *L 0 *D DFXQD1
*I *1637:A1 I *C 149.7 251.2 *L 0.000556 *D CKAN2D0

*CAP
1 *1427:I 0.000119476
2 *1637:A1 4.43817e-05
3 *757:3 0.000648652031
4 *757:4 0.000226422
5 *757:5 0.000141647
6 *757:6 0.000449231
7 *757:7 8.43589e-05

*RES
1 *757:4 *757:5 2.43979
2 *1637:A1 *757:4 3.08219
3 *1427:I *757:3 3.38859
4 *757:6 *757:7 0.132014
5 *757:5 *757:6 3.94535
6 *757:3 *757:7 6.57919979
7 *1749:Q *757:4 1.50004
*END

*D_NET *758 0.00132286

*CONN
*I *1428:I I *C 146.3 246 *L 0.00103 *D DEL2
*I *1748:Q O *C 149.7 242.8 *L 0 *D DFXQD1
*I *1665:A1 I *C 146.7 244 *L 0.000556 *D CKAN2D0

*CAP
1 *1428:I 5.06169e-05
2 *1748:Q 0.000240449
3 *758:3 0.000322849
4 *758:4 0.00070895

*RES
1 *1428:I *758:3 5.43922
2 *758:3 *758:4 3.30512
3 *1748:Q *758:4 6.16667986
4 *1665:A1 *758:3 2.99997
*END

*D_NET *759 0.00878468

*CONN
*I *1292:I I *C 138.7 290.8 *L 0.00103 *D DEL2
*I *1747:Q O *C 149.7 239.2 *L 0 *D DFXQD1
*I *1635:A1 I *C 149.7 244 *L 0.000556 *D CKAN2D0

*CAP
1 *1292:I 0.000427909
2 *1747:Q 0.000522454
3 *1635:A1 1.06304e-05
4 *759:3 6.4292e-05
5 *759:4 7.29565e-05
6 *759:5 0.00104549
7 *759:6 0.000261427
8 *759:7 0.000363836
9 *759:8 2.87603e-06
10 *759:9 0.00058114
11 *759:10 0.000274825
12 *759:11 0.00238583
13 *759:12 0.00037676
14 *759:13 0.000268235
15 *759:14 0.000476547
16 *759:3 *1665:A2 0.00032314
17 *759:4 *1760:Q 0.000217453008
18 *759:5 *489:55 0.00110893

*RES
1 *759:7 *759:8 3.10905
2 *1635:A1 *759:3 1.91567
3 *759:9 *759:10 0.256393
4 *1747:Q *759:6 4.8734
5 *759:4 *759:11 21.1891003
6 *759:8 *759:9 9.30774
7 *759:5 *759:12 3.88598
8 *759:5 *759:14 8.65883
9 *759:4 *759:10 3.89989
10 *759:6 *759:3 2.36509
11 *759:12 *759:13 2.54647
12 *759:3 *759:14 7.48259
13 *759:11 *759:13 0.256393
14 *1292:I *759:7 4.69299
*END

*D_NET *760 0.00921872

*CONN
*I *1293:I I *C 146.1 296.4 *L 0.00103 *D DEL2
*I *1746:Q O *C 149.5 235.6 *L 0 *D DFXQD1
*I *1634:A1 I *C 149.7 240.4 *L 0.000556 *D CKAN2D0

*CAP
1 *1746:Q 0.000670585
2 *760:3 0.00156233
3 *760:4 5.46166e-05
4 *760:5 0.000103655
5 *760:6 0.000291082
6 *760:7 0.000251699
7 *760:9 0.000560851
8 *760:10 3.77143e-05
9 *760:11 0.000555487
10 *760:12 0.000122726
11 *760:13 0.000126755
12 *760:14 0.000152454
13 *760:16 0.000126922
14 *760:3 *83:9 0.000512228008
15 *760:14 *354:9 0.000414381016
16 *760:3 *474:21 0.000314664004
17 *760:6 *258:3 0.00100519
18 *760:6 *263:3 0.0017547
19 *760:3 *1665:A2 0.000600648984

*RES
1 *760:3 *760:10 15.7497
2 *760:13 *760:14 4.80501
3 *760:6 *760:7 4.78342
4 *760:9 *760:15 6.79569
5 *1746:Q *760:5 8.80389
6 *760:4 *760:5 1.03877
7 *760:11 *760:13 0.256264
8 *760:8 *760:11 16.6446991
9 *760:9 *760:10 2.20326
10 *760:15 *760:16 3.90059
11 *760:12 *760:16 3.9933
12 *760:12 *760:14 0.256264
13 *760:7 *760:8 3.12952
14 *760:4 *760:3 4.99473
15 *1293:I *760:6 2.99999
16 *1634:A1 *760:5 2.99999
*END

*D_NET *761 0.00820788

*CONN
*I *1296:I I *C 143.9 289.2 *L 0.00103 *D DEL2
*I *1745:Q O *C 149.7 232.8 *L 0 *D DFXQD1
*I *1626:A1 I *C 150.5 235.2 *L 0.000556 *D CKAN2D0

*CAP
1 *1296:I 0.000132874
2 *1745:Q 0.000129736
3 *761:3 0.000189424
4 *761:4 5.8368e-05
5 *761:5 0.000247544
6 *761:6 0.000844733
7 *761:7 0.000160155
8 *761:8 0.000603166
9 *761:10 0.000492485
10 *761:11 1.56938e-06
11 *761:12 0.000324509
12 *761:13 0.000857079063
13 *761:14 0.000462549
14 *761:12 *19:4 0.000253405
15 *761:13 *91:11 0.000868147031
16 *761:10 *1755:SA 0.000310941016
17 *1296:I *318:2 0.00135329
18 *1296:I *319:2 0.000621828984
19 *761:3 *1630:A2 0.000296079004

*RES
1 *761:9 *761:10 0.256469
2 *1626:A1 *761:5 4.21203
3 *761:12 *761:3 0.256469
4 *761:10 *761:11 7.90956
5 *761:8 *761:11 0.256469
6 *1745:Q *761:5 2.30822
7 *1296:I *761:7 7.0024
8 *761:4 *761:6 7.00736
9 *761:13 *761:3 17.0986004
10 *761:6 *761:14 6.41224
11 *761:7 *761:8 9.47916
12 *761:13 *761:14 3.53525
13 *761:9 *761:12 10.0396
14 *761:4 *761:5 0.163326
*END

*D_NET *762 0.00887152

*CONN
*I *1298:I I *C 138.5 181.2 *L 0.00103 *D DEL2
*I *1744:Q O *C 149.9 229.2 *L 0 *D DFXQD1
*I *1648:A1 I *C 149.7 231.6 *L 0.000556 *D CKAN2D0

*CAP
1 *1648:A1 4.6054e-05
2 *762:3 0.000138109
3 *762:4 0.00349323
4 *762:5 0.000200154
5 *762:6 0.000248447
6 *762:7 0.00121926
7 *762:8 0.00230228
8 *762:4 *106:4 0.000314817012
9 *762:4 *763:3 0.0009091

*RES
1 *762:4 *762:8 21.538
2 *762:4 *762:7 32.7467003
3 *762:3 *762:6 0.776995
4 *1648:A1 *762:6 3.48323
5 *762:5 *762:8 2.00819
6 *762:3 *762:7 12.1666
7 *1744:Q *762:6 1.50002
8 *1298:I *762:5 3.00005
*END

*D_NET *763 0.00965938

*CONN
*I *1294:I I *C 138.1 172 *L 0.00103 *D DEL2
*I *1743:Q O *C 147.5 225.6 *L 0 *D DFXQD1
*I *1621:A1 I *C 149.7 228 *L 0.000556 *D CKAN2D0

*CAP
1 *1294:I 0.000294143
2 *1743:Q 0.00046951
3 *763:3 0.000355769
4 *763:4 0.000245785
5 *763:5 0.00080034
6 *763:6 0.00523822031
7 *763:7 0.000287029
8 *763:8 0.000592922
9 *763:9 9.36781e-05
10 *763:10 0.000372874
11 *763:3 *762:4 0.0009091

*RES
1 *1294:I *763:4 4.85942
2 *1743:Q *763:10 6.11294
3 *763:8 *763:9 0.326436
4 *763:5 *763:6 6.23252
5 *763:3 *763:9 5.80231
6 *1621:A1 *763:10 6.07239
7 *763:7 *763:10 1.86721
8 *763:7 *763:8 4.1392
9 *763:3 *763:6 45.0385017
10 *763:4 *763:5 3.36744
*END

*D_NET *764 0.00405416

*CONN
*I *1299:I I *C 139.5 238.8 *L 0.00103 *D DEL2
*I *1742:Q O *C 149.9 224.8 *L 0 *D DFXQD1
*I *1650:A1 I *C 149.7 222.4 *L 0.000556 *D CKAN2D0

*CAP
1 *1299:I 0.000275063
2 *1650:A1 0.000113336
3 *764:3 0.00156532
4 *764:4 0.000351663
5 *764:5 2.34075e-06
6 *764:6 2.34792e-05
7 *764:7 0.00053417
8 *764:8 0.000394799
9 *764:9 0.000212435
10 *764:10 0.000581558

*RES
1 *764:9 *764:10 3.88321
2 *764:6 *764:7 4.22361
3 *1650:A1 *764:8 3.48259
4 *764:8 *764:9 3.99391
5 *764:5 *764:7 0.450664
6 *764:4 *764:6 2.72114
7 *764:3 *764:10 7.16167021
8 *764:3 *764:5 6.81919
9 *1299:I *764:4 3.08548
10 *1742:Q *764:8 1.49996
*END

*D_NET *765 0.00803465

*CONN
*I *1295:I I *C 142.5 174 *L 0.00103 *D DEL2
*I *1741:Q O *C 149.9 221.2 *L 0 *D DFXQD1
*I *1651:A1 I *C 147.7 217.2 *L 0.000556 *D CKAN2D0

*CAP
1 *1295:I 0.000824355
2 *1741:Q 0.000575599
3 *1651:A1 9.20107e-05
4 *765:3 0.000170215
5 *765:4 0.000636284
6 *765:5 0.000349277
7 *765:6 0.000496852
8 *765:7 0.000961556953
9 *765:8 1.23248e-05
10 *765:9 4.4164e-06
11 *765:10 0.000727077
12 *765:11 0.000462225
13 *765:12 0.000824091
14 *765:13 0.00015048
15 *765:14 0.00079168
16 *765:7 *100:5 0.000559631992
17 *1295:I *492:75 0.000396584023

*RES
1 *765:4 *765:6 3.96603
2 *765:8 *765:10 0.256325
3 *765:4 *765:8 4.66336
4 *1741:Q *765:13 5.71667
5 *765:3 *765:13 0.524701
6 *765:3 *765:14 7.44629
7 *765:7 *765:14 10.6724997
8 *765:5 *765:6 2.72154
9 *765:9 *765:10 6.35797
10 *765:7 *765:9 0.256325
11 *765:11 *765:12 5.76992
12 *1651:A1 *765:13 2.64565
13 *1295:I *765:12 9.99505
14 *765:5 *765:11 4.08719
*END

*D_NET *766 0.00196087

*CONN
*I *1302:I I *C 141.5 217.2 *L 0.00103 *D DEL2
*I *1740:Q O *C 149.7 214 *L 0 *D DFXQD1
*I *1661:A1 I *C 149.7 215.2 *L 0.000556 *D CKAN2D0

*CAP
1 *1302:I 5.36005e-05
2 *1740:Q 0.000163774
3 *1661:A1 1.76779e-05
4 *766:3 0.000216301
5 *766:4 0.000651588008
6 *766:5 0.00054387
7 *766:6 0.000314057

*RES
1 *766:3 *766:5 5.41422
2 *1661:A1 *766:3 3.76295
3 *766:5 *766:6 0.132013
4 *766:4 *766:6 5.80255985
5 *1302:I *766:4 3.90966
6 *1740:Q *766:3 2.51719
*END

*D_NET *767 0.00187873

*CONN
*I *1303:I I *C 139.7 210 *L 0.00103 *D DEL2
*I *1739:Q O *C 149.9 210.4 *L 0 *D DFXQD1
*I *1644:A1 I *C 149.7 211.6 *L 0.000556 *D CKAN2D0

*CAP
1 *1303:I 0.000139153
2 *1644:A1 4.58029e-05
3 *767:3 0.000242351
4 *767:4 0.000554943984
5 *767:5 0.000152575
6 *767:6 0.000413378
7 *767:7 0.000330519

*RES
1 *767:6 *767:7 2.2678
2 *767:4 *767:7 5.99671984
3 *767:5 *767:6 3.07495
4 *1303:I *767:4 2.08288
5 *767:3 *767:5 2.24557
6 *1644:A1 *767:3 3.28723
7 *1739:Q *767:3 1.5
*END

*D_NET *768 0.00571522

*CONN
*I *1300:I I *C 146.5 175.6 *L 0.00103 *D DEL2
*I *1738:Q O *C 149.9 204 *L 0 *D DFXQD1
*I *1653:A1 I *C 149.7 206.4 *L 0.000556 *D CKAN2D0

*CAP
1 *1300:I 0.000495854
2 *1653:A1 4.58769e-05
3 *768:3 0.000497538
4 *768:4 0.000653746
5 *768:6 0.000606981
6 *768:7 0.000766193984
7 *768:8 0.00024933
8 *768:9 0.000688072
9 *768:10 0.000244467
10 *768:11 0.000566657
11 *768:3 *1071:I 0.000900505

*RES
1 *768:3 *768:9 4.76348
2 *768:8 *768:3 6.16858
3 *768:4 *768:11 5.18902
4 *768:4 *768:10 4.40897
5 *1653:A1 *768:10 3.48163
6 *768:7 *768:11 6.46993
7 *768:7 *768:8 1.85436
8 *768:6 *768:9 6.84543991
9 *768:5 *768:6 0.45082
10 *1300:I *768:5 6.66254
11 *1738:Q *768:10 1.50005
*END

*D_NET *769 0.00472241

*CONN
*I *1301:I I *C 137.9 184.8 *L 0.00103 *D DEL2
*I *1737:Q O *C 149.9 200.4 *L 0 *D DFXQD1
*I *1655:A1 I *C 149.7 202.8 *L 0.000556 *D CKAN2D0

*CAP
1 *1301:I 0.00196321
2 *1655:A1 0.000413102
3 *769:3 0.000526698
4 *769:4 0.00082965
5 *769:5 2.15688e-06
6 *769:7 0.000653235
7 *769:8 0.000334376

*RES
1 *769:7 *769:8 4.46553
2 *769:4 *769:8 6.72899
3 *769:4 *769:5 3.0872
4 *769:3 *769:6 0.194407
5 *1301:I *769:5 15.9059
6 *769:3 *769:7 4.57547
7 *1655:A1 *769:6 6.20426
8 *1737:Q *769:6 1.49992
*END

*D_NET *770 0.00155269

*CONN
*I *1304:I I *C 142.7 197.2 *L 0.00103 *D DEL2
*I *1736:Q O *C 150.1 196 *L 0 *D DFXQD1
*I *1654:A1 I *C 148.9 197.2 *L 0.000556 *D CKAN2D0

*CAP
1 *1736:Q 0.000267119
2 *770:3 0.000940861016
3 *770:4 0.000344702

*RES
1 *1654:A1 *770:4 4.84643
2 *770:3 *770:4 7.32474995
3 *1736:Q *770:4 5.33307
4 *1304:I *770:3 3.00004
*END

*D_NET *771 0.00215479

*CONN
*I *1305:I I *C 138.3 190 *L 0.00103 *D DEL2
*I *1735:Q O *C 148.5 189.6 *L 0 *D DFXQD1
*I *1656:A1 I *C 148.9 192 *L 0.000556 *D CKAN2D0

*CAP
1 *1305:I 0.000109578
2 *1735:Q 8.60398e-05
3 *771:3 0.00062938
4 *771:4 0.00034898
5 *771:5 0.000390007
6 *771:6 0.000590802

*RES
1 *771:4 *771:6 2.9435
2 *1305:I *771:3 1.7704
3 *771:4 *771:5 2.46202
4 *1735:Q *771:6 3.00003
5 *771:3 *771:5 6.19093
6 *1656:A1 *771:6 7.22219992
*END

*D_NET *772 0.00167111

*CONN
*I *1306:I I *C 142.7 186.4 *L 0.00103 *D DEL2
*I *1734:Q O *C 148.1 185.2 *L 0 *D DFXQD1
*I *1658:A1 I *C 148.9 186.4 *L 0.000556 *D CKAN2D0

*CAP
1 *1306:I 0.000330062
2 *1734:Q 5.40651e-05
3 *772:3 0.000546672
4 *772:4 0.000740316953

*RES
1 *772:3 *772:4 4.20886
2 *1658:A1 *772:4 7.35491991
3 *1306:I *772:3 6.83677
4 *1734:Q *772:4 3.19443
*END

*D_NET *773 0.00138136

*CONN
*I *1307:I I *C 145.3 179.2 *L 0.00103 *D DEL2
*I *1733:Q O *C 148.7 181.6 *L 0 *D DFXQD1
*I *1693:A1 I *C 148.9 182.8 *L 0.000556 *D CKAN2D0

*CAP
1 *1693:A1 0.0001544
2 *773:3 0.000941968047
3 *773:4 0.000284998

*RES
1 *773:3 *773:4 0.583243
2 *1307:I *773:3 10.0535002
3 *1693:A1 *773:4 4.11031
4 *1733:Q *773:4 1.49999
*END

*D_NET *774 0.00166112

*CONN
*I *1297:I I *C 143.5 172 *L 0.00103 *D DEL2
*I *1732:Q O *C 148.7 170.8 *L 0 *D DFXQD1
*I *1652:A1 I *C 148.7 174 *L 0.000556 *D CKAN2D0

*CAP
1 *1732:Q 0.000357833
2 *1652:A1 4.03809e-05
3 *774:3 0.000707962969
4 *774:4 0.000554941

*RES
1 *1297:I *774:3 3.19436
2 *1732:Q *774:4 4.98811
3 *1652:A1 *774:4 7.83596992
4 *774:3 *774:4 6.15975
*END

*D_NET *775 0.00206399

*CONN
*I *1322:I I *C 145.5 154 *L 0.00103 *D DEL2
*I *1731:Q O *C 149.9 149.2 *L 0 *D DFXQD1
*I *1642:A1 I *C 148.9 150.4 *L 0.000556 *D CKAN2D0

*CAP
1 *1322:I 8.14139e-05
2 *1731:Q 0.000305213
3 *775:3 0.000254702
4 *775:4 7.67651e-05
5 *775:5 0.000369402
6 *775:6 0.000976475

*RES
1 *775:4 *775:5 2.28984
2 *1731:Q *775:3 3.38175
3 *1322:I *775:6 5.55886984
4 *775:3 *775:5 4.35941
5 *775:4 *775:6 5.31051
6 *1642:A1 *775:5 2.99997
*END

*D_NET *776 0.0025175

*CONN
*I *1323:I I *C 145.5 152.4 *L 0.00103 *D DEL2
*I *1730:Q O *C 149.9 146.4 *L 0 *D DFXQD1
*I *1624:A1 I *C 149.3 145.2 *L 0.000556 *D CKAN2D0

*CAP
1 *1323:I 0.000323305
2 *1730:Q 4.10788e-05
3 *776:3 0.000321897
4 *776:4 0.00111152008
5 *776:5 0.000719694

*RES
1 *1323:I *776:3 4.77252
2 *1730:Q *776:5 2.01886
3 *776:3 *776:4 4.61123
4 *776:4 *776:5 7.27848
5 *1624:A1 *776:5 9.58335972
*END

*D_NET *777 0.00421987

*CONN
*I *1319:I I *C 145.5 156 *L 0.00103 *D DEL2
*I *1729:Q O *C 149.9 142.8 *L 0 *D DFXQD1
*I *1662:A1 I *C 145.5 141.6 *L 0.000556 *D CKAN2D0

*CAP
1 *1662:A1 0.000626761
2 *777:3 0.000260124
3 *777:4 0.000577287
4 *777:5 0.00232758
5 *777:6 0.000371468
6 *777:7 5.66135e-05

*RES
1 *777:5 *777:6 2.44025
2 *777:3 *777:7 1.91989
3 *777:4 *777:7 5.6085
4 *777:3 *777:5 15.1702003
5 *1662:A1 *777:6 8.76009
6 *1319:I *777:4 3.7775
7 *1729:Q *777:5 1.49998
*END

*D_NET *778 0.00398566

*CONN
*I *1320:I I *C 139.7 148.8 *L 0.00103 *D DEL2
*I *1728:Q O *C 149.9 139.2 *L 0 *D DFXQD1
*I *1645:A1 I *C 149.3 138 *L 0.000556 *D CKAN2D0

*CAP
1 *1320:I 0.000941259
2 *1728:Q 7.55082e-05
3 *1645:A1 0.000268671
4 *778:3 7.74773e-05
5 *778:4 0.000600089
6 *778:5 0.00124082992
7 *778:6 0.000781835

*RES
1 *1645:A1 *778:4 4.94337
2 *778:5 *778:6 7.685
3 *778:3 *778:6 6.38685
4 *778:3 *778:4 4.3115
5 *1320:I *778:5 11.1647997
6 *1728:Q *778:4 1.95541
*END

*D_NET *779 0.00736397

*CONN
*I *1311:I I *C 139.5 163.2 *L 0.00103 *D DEL2
*I *1727:Q O *C 150.7 135.6 *L 0 *D DFXQD1
*I *1666:A1 I *C 149.1 132.4 *L 0.000556 *D CKAN2D0

*CAP
1 *1311:I 8.96654e-05
2 *1666:A1 0.000217839
3 *779:3 0.000677058
4 *779:4 9.55242e-05
5 *779:5 0.000225615
6 *779:6 0.000496582
7 *779:7 0.000469099
8 *779:8 0.000523452
9 *779:9 1.81088e-06
10 *779:10 0.00174524
11 *779:11 0.000127428
12 *779:12 0.00111724
13 *779:13 0.000568112
14 *779:4 *1727:DB 0.000280695996
15 *779:5 *780:3 0.000252353008
16 *779:3 *361:6 0.000235057988
17 *1666:A1 *362:10 0.000241190996

*RES
1 *779:4 *779:12 9.89772034
2 *779:6 *779:7 3.31369
3 *779:3 *779:5 2.20787
4 *1311:I *779:3 7.3286
5 *779:4 *779:11 0.973522
6 *779:5 *779:6 4.02472
7 *779:7 *779:8 3.99437
8 *779:10 *779:12 5.35407
9 *1666:A1 *779:13 6.92581
10 *779:11 *779:13 4.98994
11 *779:9 *779:10 9.22942
12 *779:8 *779:9 0.256444
13 *1727:Q *779:11 1.5
*END

*D_NET *780 0.00701833

*CONN
*I *1316:I I *C 140.1 156 *L 0.00103 *D DEL2
*I *1726:Q O *C 150.3 131.2 *L 0 *D DFXQD1
*I *1664:A1 I *C 149.1 128.8 *L 0.000556 *D CKAN2D0

*CAP
1 *780:3 0.000112494
2 *780:4 0.00238431
3 *780:5 0.00162465
4 *780:7 1.85549e-06
5 *780:8 0.00101688
6 *780:9 3.13615e-05
7 *780:10 0.000684132
8 *780:3 *88:6 0.000337983984
9 *780:3 *361:6 0.000572316992
10 *780:3 *779:5 0.000252353008

*RES
1 *780:5 *780:7 0.256443
2 *780:3 *780:5 16.191
3 *1664:A1 *780:10 6.57932
4 *780:7 *780:8 8.3307
5 *780:4 *780:6 5.44262
6 *1726:Q *780:10 4.53272
7 *780:6 *780:8 0.256443
8 *780:4 *780:10 13.2985
9 *780:3 *780:9 4.55322
10 *1316:I *780:9 2.99999
*END

*D_NET *781 0.0063287

*CONN
*I *1317:I I *C 138.9 154 *L 0.00103 *D DEL2
*I *1725:Q O *C 150.3 127.6 *L 0 *D DFXQD1
*I *1660:A1 I *C 149.1 125.2 *L 0.000556 *D CKAN2D0

*CAP
1 *781:3 0.000633849
2 *781:4 0.00171657
3 *781:5 0.00139177
4 *781:6 0.000146734
5 *781:7 0.000959325
6 *781:5 *368:5 0.000200927012
7 *781:3 *392:3 0.000315382012
8 *781:4 *372:8 0.000507653008
9 *781:4 *485:6 0.000456510977

*RES
1 *1725:Q *781:3 4.17037
2 *781:4 *781:7 0.256643
3 *1660:A1 *781:3 6.57919
4 *1317:I *781:6 5.08238
5 *781:6 *781:7 11.735
6 *781:5 *781:4 21.2098007
7 *781:5 *781:3 9.72008
*END

*D_NET *782 0.00428326

*CONN
*I *1324:I I *C 140.3 134.4 *L 0.00103 *D DEL2
*I *1724:Q O *C 149.7 120.4 *L 0 *D DFXQD1
*I *1670:A1 I *C 150.7 120 *L 0.000556 *D CKAN2D0

*CAP
1 *1324:I 5.92741e-05
2 *1670:A1 0.000100192
3 *782:3 0.000767429
4 *782:4 0.00123006
5 *782:5 0.00115466
6 *782:6 0.000174294
7 *782:7 0.000797348

*RES
1 *782:6 *782:7 4.87398
2 *782:5 *782:6 8.61112022
3 *782:4 *782:7 5.37617
4 *782:3 *782:4 3.49643
5 *1324:I *782:3 7.21268
6 *1670:A1 *782:5 4.49346
7 *1724:Q *782:5 1.50001
*END

*D_NET *783 0.00824386

*CONN
*I *1318:I I *C 140.1 152.4 *L 0.00103 *D DEL2
*I *1723:Q O *C 150.9 117.6 *L 0 *D DFXQD1
*I *1669:A1 I *C 144.3 118 *L 0.000556 *D CKAN2D0

*CAP
1 *1669:A1 0.000109745
2 *783:3 0.000321494
3 *783:4 0.000190402
4 *783:5 0.000124372
5 *783:6 0.00101035
6 *783:8 0.0011938
7 *783:9 0.000191954
8 *783:10 0.00096744
9 *783:11 0.0011967
10 *783:4 *1080:I 0.000808121953
11 *783:3 *1334:I 0.000293518984
12 *783:4 *1065:I 0.000416668008
13 *783:5 *1197:Z 0.000880321953
14 *783:4 *373:6 0.000256875
15 *783:3 *377:2 0.000282106016

*RES
1 *783:10 *783:11 0.552534
2 *783:6 *783:10 12.0359
3 *783:3 *783:7 6.5543
4 *783:9 *783:11 9.35882
5 *783:4 *783:8 24.9386005
6 *783:4 *783:5 6.41769
7 *783:7 *783:8 0.256479
8 *783:3 *783:6 3.62496
9 *1318:I *783:5 5.24565
10 *1669:A1 *783:11 3.00012
11 *1723:Q *783:9 1.50006
*END

*D_NET *784 0.010125

*CONN
*I *1312:I I *C 138.9 161.2 *L 0.00103 *D DEL2
*I *1722:Q O *C 150.7 116.8 *L 0 *D DFXQD1
*I *1672:A1 I *C 147.9 114.4 *L 0.000556 *D CKAN2D0

*CAP
1 *1312:I 3.16237e-05
2 *1722:Q 5.53265e-05
3 *1672:A1 0.000383385
4 *784:3 0.00119639
5 *784:4 0.00196628
6 *784:5 0.000298925
7 *784:6 0.000466195
8 *784:7 0.000437691
9 *784:8 0.000305946
10 *784:9 5.74567e-05
11 *784:10 0.000594009
12 *784:12 6.39075e-06
13 *784:13 0.000350981
14 *784:14 1.95023e-06
15 *784:6 *107:5 0.000634926016
16 *784:3 *242:5 0.000531840977
17 *784:4 *375:4 0.000226270996
18 *784:5 *464:17 0.000331951992
19 *784:6 *1068:I 0.00224745984

*RES
1 *1722:Q *784:8 5.77532
2 *784:10 *784:12 2.5328
3 *1312:I *784:5 2.01956
4 *784:12 *784:13 5.3543
5 *784:9 *784:10 4.99253
6 *784:4 *784:14 0.256621
7 *784:3 *784:14 14.1275
8 *784:6 *784:8 5.83502
9 *784:11 *784:4 29.1977997
10 *784:7 *784:3 3.45503
11 *784:6 *784:7 3.93798
12 *784:11 *784:13 0.256621
13 *1672:A1 *784:8 5.68354
14 *784:5 *784:9 4.79026
*END

*D_NET *785 0.00863111

*CONN
*I *1313:I I *C 138.9 159.6 *L 0.00103 *D DEL2
*I *1721:Q O *C 150.5 110.4 *L 0 *D DFXQD1
*I *1673:A1 I *C 150.1 112.8 *L 0.000556 *D CKAN2D0

*CAP
1 *1721:Q 0.000407618
2 *785:3 0.000180794
3 *785:4 0.000209164
4 *785:5 0.000552481
5 *785:6 0.000120821
6 *785:7 0.000473624
7 *785:8 0.00102838
8 *785:9 0.000190761
9 *785:10 0.00286469
10 *785:11 1.44251e-06
11 *785:8 *455:7 0.000366266992
12 *785:8 *1206:Z 0.00133381
13 *785:3 *291:3 0.000901257969

*RES
1 *785:7 *785:8 2.94464
2 *785:4 *785:6 3.35705
3 *785:3 *785:10 0.256457
4 *785:8 *785:11 10.1018
5 *785:6 *785:7 3.83819
6 *785:5 *785:9 4.99514
7 *785:3 *785:11 2.54955
8 *785:9 *785:10 37.8540001
9 *1721:Q *785:4 3.58
10 *1313:I *785:5 3.00009
11 *1673:A1 *785:4 3.00009
*END

*D_NET *786 0.00897523

*CONN
*I *1314:I I *C 138.7 157.6 *L 0.00103 *D DEL2
*I *1720:Q O *C 150.9 109.6 *L 0 *D DFXQD1
*I *1671:A1 I *C 150.3 107.2 *L 0.000556 *D CKAN2D0

*CAP
1 *786:3 0.00035166
2 *786:4 0.00216761
3 *786:5 9.31409e-05
4 *786:6 0.00058954
5 *786:7 0.000347261
6 *786:8 0.000330128
7 *786:9 0.000353049
8 *786:10 0.000309389
9 *786:11 0.000426146
10 *786:12 0.000406962
11 *786:13 0.000380436
12 *786:14 0.000308761
13 *786:15 0.000366842
14 *786:16 0.000328474
15 *786:17 0.00031994
16 *786:18 0.000607169
17 *786:4 *208:2 0.000409745
18 *786:10 *787:6 0.000373868984
19 *786:3 *145:6 0.000505119961

*RES
1 *786:3 *786:11 4.35979
2 *786:16 *786:17 3.92953
3 *786:13 *786:14 4.13483
4 *786:15 *786:16 3.9066
5 *1314:I *786:4 4.73186
6 *786:14 *786:15 3.92726
7 *1671:A1 *786:6 5.00896
8 *786:11 *786:12 3.94792
9 *786:12 *786:13 3.96152
10 *786:17 *786:18 6.09292
11 *786:5 *786:18 3.97235
12 *786:10 *786:3 3.92927
13 *786:9 *786:10 3.90308
14 *786:8 *786:9 3.93129
15 *786:7 *786:8 3.89779
16 *786:6 *786:18 4.31318
17 *786:4 *786:7 16.5091
18 *1720:Q *786:5 1.50012
*END

*D_NET *787 0.00826837

*CONN
*I *1321:I I *C 139.3 141.6 *L 0.00103 *D DEL2
*I *1719:Q O *C 150.9 103.2 *L 0 *D DFXQD1
*I *1667:A1 I *C 150.3 102 *L 0.000556 *D CKAN2D0

*CAP
1 *787:3 0.000559725
2 *787:4 0.00221640984
3 *787:5 0.000878481
4 *787:6 0.000234983
5 *787:7 0.00180546
6 *787:7 *790:5 0.000573835
7 *787:3 *47:4 0.00020582
8 *787:4 *1673:A2 0.000416671992
9 *787:5 *145:6 0.000443358008
10 *787:4 *21:6 0.000231795996
11 *787:6 *481:4 0.000327955
12 *787:6 *786:10 0.000373868984

*RES
1 *787:6 *787:9 4.26237
2 *1667:A1 *787:3 6.28368
3 *1321:I *787:7 3.76363
4 *787:5 *787:9 12.3262
5 *787:4 *787:8 26.968399
6 *787:7 *787:6 12.5431
7 *1719:Q *787:3 3.63318
8 *787:8 *787:5 0.256368
9 *787:3 *787:4 3.34883
*END

*D_NET *788 0.0134531

*CONN
*I *1309:I I *C 138.5 170.4 *L 0.00103 *D DEL2
*I *1718:Q O *C 150.7 98.8 *L 0 *D DFXQD1
*I *1663:A1 I *C 144.9 94.8 *L 0.000556 *D CKAN2D0

*CAP
1 *1718:Q 0.000485503
2 *788:3 0.00322463
3 *788:4 0.00135943
4 *788:5 0.000369084
5 *788:6 0.000354717
6 *788:7 0.000315304
7 *788:8 0.000339316
8 *788:9 0.00024317
9 *788:10 0.000247352
10 *788:11 6.52946e-05
11 *788:7 *556:3 0.000770167031
12 *788:3 *132:5 0.00020734
13 *788:4 *802:3 0.000410719023
14 *788:5 *887:20 0.000272175996
15 *788:6 *96:3 0.00296525
16 *788:3 *69:4 0.000625246992
17 *788:7 *71:5 0.000441503008
18 *788:8 *372:7 0.000756942969

*RES
1 *788:3 *788:10 59.6607018
2 *788:8 *788:11 7.10619
3 *788:7 *788:11 16.4637
4 *788:10 *788:7 0.256719
5 *788:3 *788:9 4.36331
6 *788:4 *788:9 7.90639
7 *788:6 *788:4 5.45664
8 *788:5 *788:4 5.73521
9 *1718:Q *788:6 5.33556
10 *1663:A1 *788:5 2.9996
11 *1309:I *788:8 1.50026
*END

*D_NET *789 0.0119906

*CONN
*I *1310:I I *C 140.1 164.8 *L 0.00103 *D DEL2
*I *1717:Q O *C 150.7 96 *L 0 *D DFXQD1
*I *1649:A1 I *C 145.3 92.8 *L 0.000556 *D CKAN2D0

*CAP
1 *1310:I 0.000394047
2 *1649:A1 0.000376181
3 *789:3 0.000909569
4 *789:4 0.000688005
5 *789:5 0.000390195
6 *789:6 0.000217579
7 *789:7 0.000210805
8 *789:8 0.000263473
9 *789:9 0.000320657
10 *789:10 0.00435258
11 *789:11 0.000193271
12 *789:12 0.00106485
13 *789:13 3.05514e-06
14 *1310:I *556:3 0.000261871992
15 *789:10 *232:3 0.000776026016
16 *789:3 *112:5 0.000414051016
17 *789:3 *433:6 0.00026651
18 *789:4 *362:6 0.000887891016

*RES
1 *1310:I *789:7 8.80141
2 *789:3 *789:5 3.92234
3 *1649:A1 *789:5 5.30654
4 *789:8 *789:10 46.0012016
5 *789:6 *789:9 2.72346
6 *789:4 *789:5 6.35731
7 *789:9 *789:11 7.6285
8 *789:11 *789:12 0.256202
9 *789:10 *789:13 0.256202
10 *1717:Q *789:4 2.86314
11 *789:12 *789:13 13.4439
12 *789:7 *789:8 2.54798
13 *789:3 *789:6 5.42446
*END

*D_NET *790 0.0111304

*CONN
*I *1315:I I *C 146.5 164.8 *L 0.00103 *D DEL2
*I *1716:Q O *C 150.9 95.2 *L 0 *D DFXQD1
*I *1646:A1 I *C 149.5 92.8 *L 0.000556 *D CKAN2D0

*CAP
1 *1315:I 7.70113e-05
2 *1646:A1 0.00028721
3 *790:3 0.00309628
4 *790:4 0.000368804
5 *790:5 0.000291415
6 *790:6 0.000103469
7 *790:7 0.00101012
8 *790:8 0.000324392
9 *790:9 0.00127102
10 *790:10 0.000293352
11 *790:11 0.000226829
12 *790:5 *208:2 0.00031681498
13 *790:3 *225:2 0.00088447
14 *790:4 *47:4 0.000354586992
15 *790:4 *50:2 0.000869545
16 *790:3 *21:6 0.000204301992
17 *790:3 *236:3 0.000577015
18 *790:5 *787:7 0.000573835

*RES
1 *790:10 *790:11 2.11047
2 *790:4 *790:8 0.582821
3 *790:9 *790:11 14.8779
4 *790:3 *790:10 4.23315
5 *790:5 *790:3 38.081501
6 *1646:A1 *790:8 6.07691
7 *1716:Q *790:8 4.40457
8 *790:4 *790:9 13.7099
9 *790:7 *790:5 5.0269
10 *790:6 *790:7 3.84034
11 *1315:I *790:6 2.30862
*END

*D_NET *791 0.0022618

*CONN
*I *1416:I I *C 140.7 89.2 *L 0.00103 *D DEL2
*I *1715:Q O *C 150.9 88.8 *L 0 *D DFXQD1
*I *1675:A1 I *C 144.3 87.6 *L 0.000556 *D CKAN2D0

*CAP
1 *1715:Q 0.000252643
2 *791:3 0.000732604
3 *791:4 0.000175257
4 *791:5 0.0011013

*RES
1 *791:3 *791:5 5.26093
2 *1416:I *791:3 3.77788
3 *791:4 *791:5 5.85951
4 *1675:A1 *791:5 5.91238022
5 *1715:Q *791:4 4.0017
*END

*D_NET *792 0.00187442

*CONN
*I *1420:I I *C 143.9 85.6 *L 0.00103 *D DEL2
*I *1714:Q O *C 150.5 84.4 *L 0 *D DFXQD1
*I *1676:A1 I *C 150.1 85.6 *L 0.000556 *D CKAN2D0

*CAP
1 *1714:Q 9.68991e-05
2 *1676:A1 9.68127e-06
3 *792:3 0.000351616
4 *792:4 0.00141621

*RES
1 *792:3 *792:4 11.5747995
2 *1676:A1 *792:3 4.43981
3 *1420:I *792:4 5.14469
4 *1714:Q *792:3 2.08426
*END

*D_NET *793 0.00378765

*CONN
*I *1417:I I *C 146.7 91.2 *L 0.00103 *D DEL2
*I *1713:Q O *C 151.1 81.6 *L 0 *D DFXQD1
*I *1674:A1 I *C 143.5 82 *L 0.000556 *D CKAN2D0

*CAP
1 *1417:I 7.17967e-05
2 *793:3 0.000665948
3 *793:4 0.000225929
4 *793:5 0.000249064
5 *793:6 0.000869524
6 *793:7 0.0017054

*RES
1 *793:5 *793:7 14.8311005
2 *793:4 *793:6 7.48797
3 *1417:I *793:5 4.8393
4 *793:3 *793:6 5.49287
5 *1713:Q *793:4 1.49995
6 *1674:A1 *793:3 2.99989
7 *793:6 *793:7 1.49995
*END

*D_NET *794 0.0017608

*CONN
*I *1419:I I *C 146.1 74.8 *L 0.00103 *D DEL2
*I *1712:Q O *C 150.5 78 *L 0 *D DFXQD1
*I *1643:A1 I *C 149.9 80.4 *L 0.000556 *D CKAN2D0

*CAP
1 *1712:Q 0.00010027
2 *794:3 0.000326641
3 *794:4 0.000584515
4 *794:5 0.000749368047

*RES
1 *794:4 *794:5 5.30511999
2 *794:3 *794:4 3.92873
3 *1643:A1 *794:3 4.72754
4 *1419:I *794:5 5.00901
5 *1712:Q *794:3 2.50434
*END

*D_NET *795 0.00610686

*CONN
*I *1414:I I *C 146.3 100 *L 0.00103 *D DEL2
*I *1711:Q O *C 150.7 77.2 *L 0 *D DFXQD1
*I *1659:A1 I *C 144.1 74.8 *L 0.000556 *D CKAN2D0

*CAP
1 *1414:I 0.000262044
2 *1659:A1 0.000180033
3 *795:3 0.000598014
4 *795:4 0.000503873
5 *795:5 0.000464843
6 *795:6 0.000382449
7 *795:7 0.000542447
8 *795:8 9.28848e-07
9 *795:9 3.66075e-05
10 *795:10 0.00119357
11 *795:11 0.000113192
12 *795:12 0.00105424
13 *795:3 *1675:A2 0.000376696992
14 *795:3 *437:2 0.00039789

*RES
1 *795:5 *795:6 2.92306
2 *795:11 *795:12 8.48732
3 *795:7 *795:9 4.02853
4 *795:8 *795:10 0.450937
5 *795:3 *795:7 5.57285
6 *795:4 *795:5 4.1763
7 *795:8 *795:12 1.66346
8 *795:6 *795:3 3.58157
9 *795:9 *795:10 10.4242001
10 *1659:A1 *795:8 3.1152
11 *1414:I *795:4 4.54961
12 *1711:Q *795:11 1.49994
*END

*D_NET *796 0.00243854

*CONN
*I *1418:I I *C 140.1 69.6 *L 0.00103 *D DEL2
*I *1710:Q O *C 150.5 70.8 *L 0 *D DFXQD1
*I *1639:A1 I *C 143.3 71.2 *L 0.000556 *D CKAN2D0

*CAP
1 *1418:I 0.000650938
2 *796:3 0.0010769
3 *796:4 0.000710703

*RES
1 *796:3 *796:4 9.99707031
2 *1639:A1 *796:4 7.09875
3 *1418:I *796:4 7.9115
4 *1710:Q *796:3 2.27869
*END

*D_NET *797 0.00363562

*CONN
*I *1415:I I *C 140.3 78.4 *L 0.00103 *D DEL2
*I *1709:Q O *C 150.5 67.2 *L 0 *D DFXQD1
*I *1677:A1 I *C 143.3 66 *L 0.000556 *D CKAN2D0

*CAP
1 *1415:I 0.000707908
2 *797:3 0.000175426
3 *797:5 0.000773709
4 *797:6 0.000195882
5 *797:7 0.00178269

*RES
1 *1677:A1 *797:7 5.71271
2 *1415:I *797:4 7.93386
3 *797:4 *797:5 5.77965
4 *797:6 *797:7 5.67479
5 *797:5 *797:6 0.256533
6 *797:3 *797:7 9.5577898
7 *1709:Q *797:3 2.08406
*END

*D_NET *798 0.00657988

*CONN
*I *1412:I I *C 138.5 38.8 *L 0.00103 *D DEL2
*I *1708:Q O *C 150.5 66.4 *L 0 *D DFXQD1
*I *1640:A1 I *C 144.9 62.4 *L 0.000556 *D CKAN2D0

*CAP
1 *798:3 0.000879665
2 *798:4 0.000226781
3 *798:5 9.78139e-05
4 *798:6 0.00075448
5 *798:7 0.000960766016
6 *798:8 0.000650773
7 *798:9 8.13796e-05
8 *798:10 0.000691925
9 *798:11 0.00023244
10 *798:4 *253:3 0.000206108008
11 *798:6 *803:4 0.000380781992
12 *798:3 *218:7 0.000956222031
13 *798:4 *243:2 0.000460756016

*RES
1 *798:10 *798:11 2.72349
2 *798:9 *798:11 1.07484
3 *798:7 *798:8 7.32677
4 *798:4 *798:10 11.6177
5 *798:4 *798:8 2.42352
6 *798:6 *798:9 11.8070002
7 *798:5 *798:7 7.42748
8 *798:3 *798:6 6.25968
9 *1640:A1 *798:8 4.69444
10 *1708:Q *798:5 1.50002
11 *1412:I *798:3 3.00003
*END

*D_NET *799 0.00701685

*CONN
*I *1411:I I *C 140.5 98.4 *L 0.00103 *D DEL2
*I *1707:Q O *C 150.9 73.6 *L 0 *D DFXQD1
*I *1682:A1 I *C 149.5 62.4 *L 0.000556 *D CKAN2D0

*CAP
1 *799:3 0.000532728
2 *799:4 0.000545033
3 *799:5 0.000373961
4 *799:6 0.00157334
5 *799:7 0.00170487
6 *799:8 4.37306e-05
7 *799:9 0.000244538
8 *799:10 4.21437e-06
9 *799:12 0.000370891
10 *799:3 *503:7 0.000285537988
11 *799:4 *218:2 0.000360846992
12 *799:5 *243:5 0.000977161016

*RES
1 *799:4 *799:10 4.60705
2 *799:8 *799:5 7.76805
3 *799:7 *799:11 11.932
4 *1707:Q *799:9 4.36088
5 *799:11 *799:12 3.90603
6 *799:4 *799:12 1.25545
7 *799:5 *799:10 0.256424
8 *799:3 *799:8 4.743
9 *799:6 *799:9 12.2217999
10 *799:7 *799:9 6.77182
11 *1411:I *799:3 3.00006
12 *1682:A1 *799:6 3.00006
*END

*D_NET *800 0.00699608

*CONN
*I *1410:I I *C 143.9 33.6 *L 0.00103 *D DEL2
*I *1706:Q O *C 150.3 70 *L 0 *D DFXQD1
*I *1681:A1 I *C 150.7 56.8 *L 0.000556 *D CKAN2D0

*CAP
1 *1706:Q 0.000574056
2 *1681:A1 0.000100797
3 *800:3 0.000203113
4 *800:4 3.72545e-05
5 *800:5 0.000772609
6 *800:6 0.000486444
7 *800:7 0.000425284
8 *800:8 0.000148525
9 *800:9 0.000496014
10 *800:10 0.00269181
11 *800:5 *1057:Z 0.000265502012
12 *800:7 *436:4 0.000794693984

*RES
1 *800:6 *800:8 3.35747
2 *800:3 *800:5 0.256452
3 *1681:A1 *800:8 3.00007
4 *800:7 *800:10 25.3497009
5 *800:4 *800:5 8.57587
6 *800:3 *800:6 6.07169
7 *1410:I *800:9 4.5001
8 *800:9 *800:10 5.96803
9 *800:7 *800:8 2.05471
10 *1706:Q *800:4 7.91018
*END

*D_NET *801 0.00574241

*CONN
*I *1413:I I *C 140.7 42.4 *L 0.00103 *D DEL2
*I *1705:Q O *C 150.7 63.6 *L 0 *D DFXQD1
*I *1680:A1 I *C 149.9 58.8 *L 0.000556 *D CKAN2D0

*CAP
1 *1413:I 0.00117759
2 *801:3 0.000644525
3 *801:4 0.000376897
4 *801:5 0.000524188
5 *801:6 0.000445394
6 *801:7 0.000162493
7 *801:8 0.00110198
8 *801:9 0.000210344
9 *801:3 *806:22 0.000308331992
10 *801:3 *492:68 0.000314380996
11 *801:4 *1680:A2 0.000297394004
12 *801:5 *1474:CP 0.000178885

*RES
1 *801:3 *801:5 7.75643
2 *801:8 *801:9 2.6657
3 *801:7 *801:4 0.910108
4 *1413:I *801:5 12.6795998
5 *801:3 *801:9 7.59855
6 *801:7 *801:8 7.75836
7 *801:6 *801:4 4.65927
8 *1705:Q *801:6 3.42954
9 *1680:A1 *801:4 3.00003
*END

*D_NET *802 0.0131418

*CONN
*I *1408:I I *C 140.1 105.6 *L 0.00103 *D DEL2
*I *1704:Q O *C 150.7 60 *L 0 *D DFXQD1
*I *1638:A1 I *C 146.1 40.8 *L 0.000556 *D CKAN2D0

*CAP
1 *1638:A1 0.000351551
2 *802:3 0.000221826
3 *802:4 0.000744574
4 *802:5 0.00057941
5 *802:6 0.000952047
6 *802:7 0.000187544
7 *802:8 0.00163611
8 *802:9 0.000306227
9 *802:10 0.00176489
10 *802:3 *788:4 0.000410719023
11 *802:3 *112:5 0.00368613
12 *802:4 *462:5 0.000591803008
13 *802:4 *463:5 0.00170892

*RES
1 *802:9 *802:10 33.3188019
2 *1638:A1 *802:7 5.46992
3 *1408:I *802:3 5.66566
4 *802:4 *802:9 4.72155
5 *802:3 *802:4 21.0454
6 *802:7 *802:8 3.63611
7 *802:6 *802:10 9.20517
8 *802:8 *802:10 21.2208
9 *802:5 *802:6 4.57818
10 *1704:Q *802:5 1.69451
*END

*D_NET *803 0.00689566

*CONN
*I *1409:I I *C 146.7 22.8 *L 0.00103 *D DEL2
*I *1703:Q O *C 148.5 56.4 *L 0 *D DFXQD1
*I *1684:A1 I *C 143.9 40.8 *L 0.000556 *D CKAN2D0

*CAP
1 *1703:Q 0.000346718
2 *803:3 0.00122136
3 *803:4 0.000871045
4 *803:5 0.000212403
5 *803:6 1.39776e-05
6 *803:7 0.000515344
7 *803:9 0.000357975
8 *803:10 0.000490072
9 *803:11 0.000343643
10 *803:3 *218:7 0.000252755996
11 *803:4 *1550:B2 0.000363759023
12 *803:4 *798:6 0.000380781992
13 *803:4 *253:3 0.00152583

*RES
1 *803:6 *803:7 4.78203
2 *803:3 *803:11 13.9734001
3 *803:9 *803:11 1.62301
4 *803:8 *803:9 4.02255
5 *803:4 *803:8 4.40229
6 *803:7 *803:4 10.8564
7 *1409:I *803:5 5.246
8 *803:3 *803:10 2.14582
9 *803:5 *803:10 5.46262
10 *1684:A1 *803:11 7.30866
11 *1703:Q *803:6 4.52383
*END

*D_NET *804 0.0129848

*CONN
*I *1407:I I *C 140.3 110.8 *L 0.00103 *D DEL2
*I *1702:Q O *C 147.5 52.8 *L 0 *D DFXQD1
*I *1683:A1 I *C 144.3 31.6 *L 0.000556 *D CKAN2D0

*CAP
1 *1702:Q 8.73651e-05
2 *1683:A1 0.000358593
3 *804:3 0.00109085
4 *804:4 0.00104233
5 *804:5 4.8799e-05
6 *804:6 0.000577996
7 *804:7 6.50287e-05
8 *804:8 0.00360546
9 *804:9 0.000298626
10 *804:10 0.000100844
11 *804:11 0.000390062
12 *804:12 0.000916508
13 *804:8 *36:9 0.000916238984
14 *804:8 *1170:I 0.000354395
15 *804:7 *893:10 0.00113255
16 *804:8 *129:3 0.00085029
17 *804:3 *199:2 0.000699372969
18 *804:3 *483:2 0.000449496016

*RES
1 *804:5 *804:12 5.12249
2 *804:3 *804:10 10.5033
3 *804:9 *804:12 5.22113
4 *804:4 *804:11 9.06582
5 *804:3 *804:6 2.85227
6 *804:9 *804:10 1.23864
7 *804:7 *804:12 11.6628
8 *1683:A1 *804:6 9.39864
9 *1702:Q *804:5 2.99985
10 *1407:I *804:4 3.77768
11 *804:7 *804:8 0.256765
12 *804:8 *804:11 49.3470001
*END

*D_NET *805 0.0143357

*CONN
*I *1406:I I *C 146.3 121.6 *L 0.00103 *D DEL2
*I *1701:Q O *C 150.7 49.2 *L 0 *D DFXQD1
*I *1686:A1 I *C 149.3 24.4 *L 0.000556 *D CKAN2D0

*CAP
1 *1701:Q 8.10991e-05
2 *1686:A1 0.000249293
3 *805:3 0.00138973
4 *805:4 0.000618996
5 *805:5 0.00123353
6 *805:6 0.000216224
7 *805:7 7.10344e-05
8 *805:8 0.000634048
9 *805:9 0.000939385
10 *805:10 0.000121878
11 *805:11 0.000176576
12 *805:12 0.000271564
13 *805:14 0.00131983
14 *805:15 0.00200483984
15 *805:8 *4:2 0.000942798984
16 *805:5 *455:5 0.000479771992
17 *805:5 *199:2 0.000379968984
18 *805:9 *251:4 0.000387985
19 *805:3 *32:3 0.00106074
20 *805:4 *111:3 0.000388974023
21 *805:5 *1272:I 0.000506684023
22 *805:6 *243:3 0.000860708984

*RES
1 *805:11 *805:14 8.29303
2 *805:9 *805:12 5.87956
3 *805:5 *805:12 2.10072
4 *805:4 *805:6 0.256532
5 *805:13 *805:4 8.67104
6 *805:3 *805:16 1.75631
7 *1686:A1 *805:7 4.32744
8 *805:11 *805:15 4.10063
9 *805:7 *805:9 4.80238
10 *805:8 *805:13 6.91796
11 *805:10 *805:14 6.40554
12 *805:15 *805:16 42.3478012
13 *805:6 *805:3 15.6704
14 *1701:Q *805:10 3.0002
15 *805:5 *805:14 17.6044
16 *1406:I *805:8 3.0002
*END

*D_NET *806 0.0205951

*CONN
*I *1210:I I *C 137.5 120 *L 0.00104 *D DEL0
*I *1700:Q O *C 150.7 48.4 *L 0 *D DFXQD1
*I *1636:A1 I *C 149.7 13.6 *L 0.000556 *D CKAN2D0

*CAP
1 *1210:I 0.00042223
2 *1636:A1 0.000226115
3 *806:3 4.33488e-05
4 *806:4 0.000718323
5 *806:5 0.000756615
6 *806:6 0.000713941
7 *806:7 0.00168548
8 *806:8 0.00088592
9 *806:9 0.000672345
10 *806:10 0.000547489
11 *806:11 0.000278835
12 *806:12 0.000526321
13 *806:13 0.000694188
14 *806:14 2.15733e-06
15 *806:15 9.77539e-06
16 *806:17 0.000705244
17 *806:19 2.76408e-06
18 *806:20 0.000868257
19 *806:21 7.61806e-05
20 *806:22 0.000634322
21 *806:23 0.000144002
22 *806:24 0.0004525
23 *806:25 4.7259e-05
24 *806:26 0.00114001
25 *806:27 0.00039587
26 *806:28 0.00441814
27 *806:29 0.000458163
28 *806:28 *168:2 0.000599062031
29 *806:17 *197:2 0.000386466992
30 *806:4 *241:2 0.000280593984
31 *1210:I *242:2 0.000334166992
32 *1210:I *366:4 0.00058977
33 *806:4 *369:3 0.000570972031
34 *806:22 *801:3 0.000308331992

*RES
1 *806:5 *806:6 1.57724
2 *806:9 *806:10 5.47835
3 *806:7 *806:27 8.92801
4 *806:3 *806:28 16.4544
5 *806:6 *806:15 5.63561
6 *806:12 *806:16 4.37799
7 *806:4 *806:9 5.39081
8 *806:10 *806:11 5.07882
9 *806:22 *806:23 7.04642
10 *806:4 *806:8 4.51796
11 *806:13 *806:18 4.19274
12 *1210:I *806:14 7.27342
13 *806:23 *806:24 3.72654
14 *806:19 *806:20 5.78677
15 *806:5 *806:14 4.1622
16 *806:7 *806:15 6.21836
17 *806:21 *806:28 33.354599
18 *806:11 *806:12 2.52796
19 *806:18 *806:20 0.256511
20 *806:21 *806:26 4.44619
21 *806:13 *806:25 1.72534
22 *806:24 *806:26 4.03751
23 *806:26 *806:29 4.60295
24 *806:16 *806:17 5.14753
25 *1636:A1 *806:3 4.03293
26 *806:8 *806:27 6.19291
27 *806:25 *806:29 6.62807
28 *806:17 *806:19 0.256511
29 *1700:Q *806:22 1.49988
*END

*D_NET *881 0.00109545

*CONN
*I *1462:I I *C 148.1 166.8 *L 0.00103 *D BUFFD2
*I *1777:Q O *C 142.7 167.2 *L 0 *D DFCND1

*CAP
1 *881:2 0.00083225
2 *881:3 0.000263206

*RES
1 *881:2 *881:3 6.41934013
2 *1462:I *881:3 3.9397
3 *1777:Q *881:2 1.50003
*END

*D_NET *882 0.00867249

*CONN
*I *1776:ZN O *C 144.7 153.8 *L 0 *D CKND0
*I *1772:A2 I *C 144.5 107.2 *L 0.000606 *D CKND2D0
*I *1767:A2 I *C 144.3 157.6 *L 0.00217 *D NR2D2
*I *1766:A2 I *C 144.5 102 *L 0.00102 *D ND2D1

*CAP
1 *1767:A2 0.000546153
2 *1766:A2 0.000674798
3 *882:4 0.000416986
4 *882:5 0.000512885
5 *882:6 0.000409253
6 *882:7 0.000176332
7 *882:8 3.55241e-05
8 *882:9 0.000255999
9 *882:10 0.00263954
10 *882:4 *224:5 0.000768477031
11 *1767:A2 *343:3 0.0004453
12 *882:5 *339:2 0.00125288
13 *1767:A2 *1316:Z 0.000204082988
14 *882:5 *361:6 0.000334316992

*RES
1 *882:7 *882:4 1.39542
2 *882:6 *882:8 3.90005
3 *882:9 *882:10 33.3151016
4 *882:5 *882:9 4.78305
5 *882:4 *882:10 5.21921
6 *1766:A2 *882:7 5.56082
7 *882:6 *882:5 8.00699
8 *1767:A2 *882:8 5.3097
9 *1772:A2 *882:4 1.50014
10 *1776:ZN *882:8 1.50014
*END

*D_NET *883 0.000902498

*CONN
*I *1777:QN O *C 142.3 167.2 *L 0 *D DFCND1
*I *1764:D I *C 145.7 168.4 *L 0.000927 *D DFNSND1

*CAP
1 *1777:QN 0.000155168
2 *883:2 0.000747328984

*RES
1 *1777:QN *883:2 3.58319
2 *1764:D *883:2 10.7291002
*END

*D_NET *884 0.0024881

*CONN
*I *1775:ZN O *C 141.3 94.2 *L 0 *D INR2D0
*I *1771:A1 I *C 142.1 102 *L 0.00069 *D INR2D0
*I *1769:A1 I *C 143.1 103.4 *L 0.000617 *D CKND2D0

*CAP
1 *1775:ZN 0.000507065
2 *1769:A1 9.95118e-05
3 *884:3 0.000856853047
4 *884:4 0.000700427
5 *884:5 0.00032424

*RES
1 *1769:A1 *884:5 4.5
2 *1775:ZN *884:3 6.60678
3 *884:4 *884:5 5.56278
4 *884:3 *884:4 8.73141003
5 *1771:A1 *884:4 1.50004
*END

*D_NET *885 0.00360959

*CONN
*I *1333:I I *C 144.7 125.2 *L 0.00105 *D DEL1
*I *1774:ZN O *C 142.7 107 *L 0 *D NR2D0

*CAP
1 *1774:ZN 0.000180448
2 *885:2 0.00275271
3 *885:3 0.000139494
4 *885:4 0.000536933

*RES
1 *885:2 *885:4 20.7087994
2 *885:3 *885:4 4.73639
3 *1774:ZN *885:2 2.50423
4 *1333:I *885:3 3.00002
*END

*D_NET *886 1.0724e-05

*CONN
*I *1326:I I *C 145.1 161.2 *L 0.00103 *D DEL2
*I *1773:ZN O *C 144.7 161 *L 0 *D NR2XD0

*CAP
1 *1773:ZN 1.07240002e-05

*RES
1 *1773:ZN *1326:I 0.254225
*END

*D_NET *887 0.0086337

*CONN
*I *1772:ZN O *C 145.1 106.8 *L 0 *D CKND2D0
*I *1715:SA I *C 146.1 89.2 *L 0.00154 *D DFXQD1
*I *1714:SA I *C 145.7 84 *L 0.00154 *D DFXQD1
*I *1713:SA I *C 146.3 82 *L 0.00154 *D DFXQD1
*I *1712:SA I *C 145.7 78.4 *L 0.00154 *D DFXQD1
*I *1711:SA I *C 145.9 76.8 *L 0.00154 *D DFXQD1
*I *1710:SA I *C 145.7 71.2 *L 0.00154 *D DFXQD1
*I *1709:SA I *C 145.7 67.6 *L 0.00154 *D DFXQD1
*I *1708:SA I *C 145.7 66 *L 0.00154 *D DFXQD1

*CAP
1 *1715:SA 6.87719e-05
2 *1713:SA 0.000256784
3 *1712:SA 6.57605e-05
4 *1711:SA 0.000106468
5 *1710:SA 4.32922e-05
6 *1708:SA 0.000295954
7 *887:9 0.000753822
8 *887:10 9.38246e-05
9 *887:11 0.000552119
10 *887:12 0.000629584
11 *887:13 0.000592464
12 *887:14 3.86575e-06
13 *887:15 0.000412568
14 *887:16 0.000358533
15 *887:17 0.000593916
16 *887:18 0.000584412
17 *887:19 4.01526e-06
18 *887:20 0.000546694
19 *887:21 0.00139968
20 *887:22 0.000217593
21 *887:23 0.000308833
22 *887:13 *1441:ZN 0.000303255
23 *887:20 *788:5 0.000272175996
24 *1712:SA *437:2 0.000169314004

*RES
1 *887:17 *887:18 2.39579
2 *887:20 *887:21 0.256378
3 *887:10 *887:22 0.496721
4 *887:9 *887:22 6.20577
5 *1715:SA *887:9 1.75761
6 *887:18 *887:19 3.90485
7 *1772:ZN *887:17 4.33934
8 *1710:SA *887:11 3.24949
9 *887:11 *887:12 6.86933
10 *887:12 *887:23 2.28545
11 *887:11 *887:16 3.63664
12 *1711:SA *887:14 2.01304
13 *1712:SA *887:13 1.72554
14 *887:19 *887:20 5.5779
15 *887:14 *887:16 2.5487
16 *887:10 *887:13 5.11687
17 *1708:SA *887:23 5.00577
18 *887:9 *887:21 12.5108004
19 *1713:SA *887:10 3.52935
20 *887:13 *887:15 3.6122
21 *887:14 *887:15 0.450905
22 *1709:SA *887:23 1.50009
23 *1714:SA *887:22 2.99999
*END

*D_NET *888 0.00577013

*CONN
*I *1330:I I *C 140.1 130.8 *L 0.00103 *D DEL2
*I *1771:ZN O *C 142.7 101.4 *L 0 *D INR2D0

*CAP
1 *1771:ZN 7.0565e-05
2 *888:2 0.00146298
3 *888:4 0.00137739
4 *888:6 0.00137949
5 *888:7 6.48502e-05
6 *888:8 0.000612806
7 *888:6 *1510:CDN 0.000293538008
8 *888:4 *107:5 0.000508539023

*RES
1 *888:4 *888:5 11.3079
2 *888:2 *888:3 4.72272
3 *888:7 *888:8 3.13465
4 *888:6 *888:7 11.6756001
5 *888:5 *888:6 0.256544
6 *888:3 *888:4 0.256544
7 *1771:ZN *888:2 11.5056
8 *1330:I *888:8 7.14831
*END

*D_NET *889 0.00745527

*CONN
*I *1770:ZN O *C 145.1 124 *L 0 *D ND2D0
*I *1731:SA I *C 145.1 148.8 *L 0.00154 *D DFXQD1
*I *1730:SA I *C 145.1 146.8 *L 0.00154 *D DFXQD1
*I *1729:SA I *C 145.1 143.2 *L 0.00154 *D DFXQD1
*I *1728:SA I *C 145.1 139.6 *L 0.00154 *D DFXQD1
*I *1727:SA I *C 145.9 136 *L 0.00154 *D DFXQD1
*I *1726:SA I *C 145.5 130.8 *L 0.00154 *D DFXQD1
*I *1725:SA I *C 145.5 127.2 *L 0.00154 *D DFXQD1
*I *1724:SA I *C 144.9 120 *L 0.00154 *D DFXQD1

*CAP
1 *1770:ZN 1.99869e-05
2 *1731:SA 2.80191e-05
3 *1725:SA 0.00072009
4 *1724:SA 0.000503519
5 *889:9 0.000182893
6 *889:10 0.000329669
7 *889:11 0.000347513
8 *889:12 8.14641e-05
9 *889:13 0.0002853
10 *889:14 0.000693159
11 *889:15 0.000333789
12 *889:16 0.000152742
13 *889:17 7.87061e-05
14 *889:18 0.000521583
15 *889:19 0.000600344
16 *889:19 *335:4 0.00061399
17 *889:11 *339:2 0.000662971016
18 *1731:SA *342:2 0.000600578008
19 *889:10 *484:4 0.000362386992
20 *1725:SA *1509:CPN 0.000336573008

*RES
1 *1731:SA *889:13 4.18233
2 *1725:SA *889:12 7.04717
3 *889:10 *889:11 3.90481
4 *889:16 *889:19 15.0187998
5 *889:11 *889:14 4.28752
6 *889:12 *889:18 1.88858
7 *889:10 *889:18 4.51944
8 *889:11 *889:17 2.77111
9 *889:9 *889:19 4.10441
10 *889:16 *889:18 0.971217
11 *1724:SA *889:9 7.27061
12 *889:13 *889:15 4.93584
13 *1770:ZN *889:9 3.63874
14 *1727:SA *889:17 4.49996
15 *889:14 *889:15 3.90595
16 *1729:SA *889:15 1.49991
17 *1728:SA *889:14 1.49991
18 *1730:SA *889:13 1.49991
19 *1726:SA *889:12 1.49991
*END

*D_NET *890 0.0102179

*CONN
*I *1207:I I *C 148.9 157.6 *L 0.00072 *D BUFFD1
*I *1769:ZN O *C 143.3 103.2 *L 0 *D CKND2D0
*I *1767:A1 I *C 144.7 157.6 *L 0.00172 *D NR2D2

*CAP
1 *1769:ZN 0.000551986
2 *890:3 0.00120795
3 *890:4 2.18141e-05
4 *890:5 0.000577444
5 *890:6 0.000113321
6 *890:7 0.000131025
7 *890:8 4.95606e-05
8 *890:9 0.000378735
9 *890:10 0.00306122
10 *890:6 *26:2 0.000438686016
11 *890:3 *969:3 0.000959388047
12 *890:3 *503:6 0.000356016016
13 *890:4 *95:3 0.000321262988
14 *890:5 *1346:I 0.00106523
15 *890:6 *335:8 0.000984247031

*RES
1 *890:8 *890:10 1.88867
2 *1767:A1 *890:9 4.50001
3 *890:4 *890:9 7.34779
4 *890:5 *890:8 7.94064
5 *890:3 *890:5 13.551
6 *890:7 *890:3 1.85622
7 *890:6 *890:10 37.9796982
8 *890:6 *890:9 1.45113
9 *1769:ZN *890:7 5.29395
10 *1207:I *890:4 1.49981
*END

*D_NET *891 0.00477135

*CONN
*I *1768:ZN O *C 145.9 102.4 *L 0 *D CKND2D0
*I *1723:SA I *C 146.1 118 *L 0.00154 *D DFXQD1
*I *1722:SA I *C 145.9 116.4 *L 0.00154 *D DFXQD1
*I *1721:SA I *C 145.7 110.8 *L 0.00154 *D DFXQD1
*I *1720:SA I *C 146.1 109.2 *L 0.00154 *D DFXQD1
*I *1719:SA I *C 146.1 103.6 *L 0.00154 *D DFXQD1
*I *1718:SA I *C 145.9 98.4 *L 0.00154 *D DFXQD1
*I *1717:SA I *C 145.9 96.4 *L 0.00154 *D DFXQD1
*I *1716:SA I *C 146.1 94.8 *L 0.00154 *D DFXQD1

*CAP
1 *1768:ZN 7.00361e-06
2 *1716:SA 0.00036903
3 *891:9 0.000301702
4 *891:10 0.000616928
5 *891:11 0.000371217
6 *891:12 0.000653967
7 *891:13 0.000394414
8 *891:14 0.000384499
9 *891:15 0.000832997031
10 *891:16 0.000440782
11 *891:17 0.000398824

*RES
1 *891:14 *891:15 5.82065
2 *891:11 *891:15 1.90483
3 *891:10 *891:16 4.11246
4 *891:9 *891:11 2.15753
5 *891:13 *891:14 2.53929
6 *891:12 *891:17 2.3623
7 *891:10 *891:13 2.21491
8 *1723:SA *891:16 5.42857
9 *891:9 *891:17 2.46105
10 *1716:SA *891:12 7.95027018
11 *1768:ZN *891:11 3.48977
12 *1718:SA *891:17 1.50002
13 *1722:SA *891:16 1.50002
14 *1719:SA *891:15 1.50002
15 *1720:SA *891:14 1.50002
16 *1721:SA *891:13 1.50002
17 *1717:SA *891:12 3.00003
*END

*D_NET *892 0.000372288

*CONN
*I *1328:I I *C 145.5 157.6 *L 0.00105 *D DEL1
*I *1767:ZN O *C 144.985 157.255 *L 0 *D NR2D2

*CAP
1 *1767:ZN 9.82715e-05
2 *892:2 0.000274017012

*RES
1 *1328:I *892:2 5.51643991
2 *1767:ZN *892:2 2.99997
*END

*D_NET *893 0.0126737

*CONN
*I *1766:ZN O *C 143.9 102.4 *L 0 *D ND2D1
*I *1707:SA I *C 146.1 73.2 *L 0.00154 *D DFXQD1
*I *1706:SA I *C 145.5 69.6 *L 0.00154 *D DFXQD1
*I *1705:SA I *C 145.9 64 *L 0.00154 *D DFXQD1
*I *1704:SA I *C 145.9 60.4 *L 0.00154 *D DFXQD1
*I *1703:SA I *C 143.7 56.8 *L 0.00154 *D DFXQD1
*I *1702:SA I *C 142.7 53.2 *L 0.00154 *D DFXQD1
*I *1701:SA I *C 145.9 49.6 *L 0.00154 *D DFXQD1
*I *1700:SA I *C 145.9 48 *L 0.00154 *D DFXQD1

*CAP
1 *1766:ZN 0.000150263
2 *1704:SA 0.000496157
3 *1702:SA 0.000198218
4 *1701:SA 1.83153e-05
5 *1700:SA 0.000421497
6 *893:9 0.000391158
7 *893:10 0.000616849
8 *893:11 8.35375e-05
9 *893:12 0.000745511
10 *893:13 0.000171724
11 *893:14 9.32195e-05
12 *893:15 0.00011143
13 *893:16 0.00072045
14 *893:18 0.000423315
15 *893:19 5.32683e-05
16 *893:20 0.000384238
17 *893:21 0.00229064016
18 *893:22 0.000415975
19 *893:23 0.000364314
20 *893:21 *1170:I 0.000296997988
21 *1704:SA *470:21 0.000629064023
22 *893:10 *129:4 0.000859046016
23 *893:19 *192:4 0.00122502008
24 *893:9 *483:2 0.000380895
25 *893:10 *804:7 0.00113255

*RES
1 *893:9 *893:10 10.1595
2 *1766:ZN *893:20 9.98958
3 *893:19 *893:22 2.68444
4 *893:9 *893:23 9.40819
5 *893:13 *893:21 6.57711
6 *1702:SA *893:12 2.50269
7 *893:20 *893:21 33.8386993
8 *1701:SA *893:16 2.00649
9 *1700:SA *893:16 3.86788
10 *893:21 *893:22 4.14981
11 *893:19 *893:23 2.64984
12 *893:14 *893:23 4.59179
13 *893:15 *893:22 3.58287
14 *893:11 *893:18 4.71571
15 *1704:SA *893:14 6.56213
16 *893:11 *893:16 5.19436
17 *893:12 *893:17 4.07029
18 *1703:SA *893:17 1.49996
19 *1706:SA *893:15 1.49996
20 *1705:SA *893:14 1.49996
21 *1707:SA *893:13 1.49996
22 *893:12 *893:18 1.49996
23 *893:17 *893:10 1.49996
*END

*D_NET *894 1.045e-05

*CONN
*I *1329:I I *C 145.1 159.6 *L 0.00105 *D DEL1
*I *1765:ZN O *C 144.7 159.8 *L 0 *D NR2D1

*CAP
1 *1765:ZN 1.045e-05

*RES
1 *1765:ZN *1329:I 0.253774
*END

*D_NET *895 0.000409504

*CONN
*I *1777:D I *C 145.9 166.8 *L 0.000949 *D DFCND1
*I *1694:ZN O *C 145.9 164.6 *L 0 *D CKND0

*CAP
1 *1777:D 0.000409503984

*RES
1 *1694:ZN *1777:D 5.28983
*END

*D_NET *896 0.00108842

*CONN
*I *1693:Z O *C 148.1 182.6 *L 0 *D CKAN2D0
*I *1517:D I *C 143.5 182.8 *L 0.000792 *D DFNCND1

*CAP
1 *896:2 0.00100689008
2 *896:3 8.15376e-05

*RES
1 *1693:Z *896:3 3.00001
2 *896:2 *896:3 8.08854961
3 *1517:D *896:2 1.49994
*END

*D_NET *897 0.000390506

*CONN
*I *1692:Z O *C 145.7 24.2 *L 0 *D CKAN2D0
*I *1478:D I *C 145.5 26.4 *L 0.000792 *D DFNCND1

*CAP
1 *1692:Z 0.000324328008
2 *1478:D 6.61771e-05

*RES
1 *1478:D *1692:Z 5.10487
*END

*D_NET *898 0.00104559

*CONN
*I *1691:Z O *C 141.5 13.4 *L 0 *D CKAN2D0
*I *1475:D I *C 139.9 10 *L 0.000792 *D DFNCND1

*CAP
1 *1691:Z 0.000345706
2 *898:2 0.000415071016
3 *898:3 0.000284821

*RES
1 *1691:Z *898:3 6.52250004
2 *898:2 *898:3 3.83312
3 *1475:D *898:2 1.50005
*END

*D_NET *899 0.000556833

*CONN
*I *1690:Z O *C 145.1 35 *L 0 *D CKAN2D0
*I *1480:D I *C 147.1 35.2 *L 0.000792 *D DFNCND1

*CAP
1 *1690:Z 5.9849e-05
2 *899:2 0.000496985

*RES
1 *1690:Z *899:2 1.75742
2 *1480:D *899:2 6.62871981
*END

*D_NET *900 0.00111963

*CONN
*I *1689:Z O *C 149.3 287 *L 0 *D CKAN2D0
*I *1541:D I *C 147.7 290.8 *L 0.000792 *D DFNCND1

*CAP
1 *1689:Z 0.000161701
2 *1541:D 0.000413291
3 *900:2 0.000544641953

*RES
1 *1689:Z *900:2 2.92429
2 *1541:D *900:2 8.82794952
*END

*D_NET *901 0.000335303

*CONN
*I *1688:Z O *C 145.9 30.2 *L 0 *D CKAN2D0
*I *1479:D I *C 147.1 30 *L 0.000792 *D DFNCND1

*CAP
1 *1688:Z 0.000206457012
2 *1479:D 0.000128845

*RES
1 *1688:Z *1479:D 4.47061
*END

*D_NET *902 0.00105781

*CONN
*I *1687:Z O *C 140.3 45.8 *L 0 *D CKAN2D0
*I *1483:D I *C 140.3 51.6 *L 0.000792 *D DFNCND1

*CAP
1 *1687:Z 0.00093592
2 *902:2 0.00012189

*RES
1 *1687:Z *902:2 8.25597954
2 *1483:D *902:2 1.5
*END

*D_NET *903 0.00204731

*CONN
*I *1686:Z O *C 150.1 24.2 *L 0 *D CKAN2D0
*I *1485:D I *C 149.3 15.6 *L 0.000792 *D DFNCND1

*CAP
1 *1686:Z 0.000391709
2 *1485:D 0.000250343
3 *903:2 0.000259504
4 *903:3 0.000626694961
5 *903:4 0.000519057

*RES
1 *903:3 *903:4 2.93124
2 *1686:Z *903:2 7.41819
3 *1485:D *903:4 3.47897
4 *903:2 *903:3 4.6126
*END

*D_NET *904 0.00037443

*CONN
*I *1685:Z O *C 145.5 45.8 *L 0 *D CKAN2D0
*I *1482:D I *C 145.5 44.4 *L 0.000792 *D DFNCND1

*CAP
1 *1685:Z 0.00037443

*RES
1 *1482:D *1685:Z 4.78121
*END

*D_NET *905 0.00260093

*CONN
*I *1684:Z O *C 144.7 41 *L 0 *D CKAN2D0
*I *1487:D I *C 139.7 28 *L 0.000792 *D DFNCND1

*CAP
1 *1487:D 0.000423071
2 *905:2 0.000116635
3 *905:3 0.000609993
4 *905:4 0.00145124

*RES
1 *905:3 *905:4 13.1702995
2 *905:2 *905:3 5.40469
3 *1487:D *905:4 6.5321
4 *1684:Z *905:2 1.49999
*END

*D_NET *906 0.00169098

*CONN
*I *1683:Z O *C 145.1 31.4 *L 0 *D CKAN2D0
*I *1486:D I *C 145.5 22.8 *L 0.000792 *D DFNCND1

*CAP
1 *1683:Z 7.25237e-05
2 *906:2 0.00016992
3 *906:3 0.000607546992
4 *906:4 0.000374883
5 *906:5 0.000466097

*RES
1 *906:4 *906:5 3.33628
2 *906:3 *906:5 3.86505
3 *906:2 *906:4 3.9553
4 *1486:D *906:3 4.0178299
5 *1683:Z *906:2 3.48844
*END

*D_NET *907 0.00121487

*CONN
*I *1682:Z O *C 148.7 62.6 *L 0 *D CKAN2D0
*I *1491:D I *C 146.3 58.8 *L 0.000792 *D DFNCND1

*CAP
1 *1682:Z 0.000676953047
2 *907:2 0.000537916

*RES
1 *1682:Z *907:2 9.38918972
2 *1491:D *907:2 3.00002
*END

*D_NET *908 0.000864862

*CONN
*I *1681:Z O *C 149.9 56.6 *L 0 *D CKAN2D0
*I *1490:D I *C 149.9 51.6 *L 0.000792 *D DFNCND1

*CAP
1 *908:2 0.000864862031

*RES
1 *1681:Z *908:2 6.89807987
2 *1490:D *908:2 1.50001
*END

*D_NET *909 0.00343492

*CONN
*I *1680:Z O *C 150.7 59 *L 0 *D CKAN2D0
*I *1489:D I *C 149.7 42.4 *L 0.000792 *D DFNCND1

*CAP
1 *1680:Z 0.000484384
2 *1489:D 0.000323574
3 *909:2 0.000527379
4 *909:3 0.000590848
5 *909:4 2.78052e-06
6 *909:5 0.00150596

*RES
1 *909:3 *909:5 3.75536
2 *909:4 *909:5 6.74286
3 *909:2 *909:3 4.02694
4 *1489:D *909:2 6.79302979
5 *1680:Z *909:4 3.82647
*END

*D_NET *910 0.000768369

*CONN
*I *1679:Z O *C 144.9 38.6 *L 0 *D CKAN2D0
*I *1481:D I *C 147.3 38.8 *L 0.000792 *D DFNCND1

*CAP
1 *1679:Z 0.000111837
2 *910:2 0.000117504
3 *910:3 0.000539031992

*RES
1 *910:2 *910:3 5.43962002
2 *1679:Z *910:3 3.00002
3 *1481:D *910:2 1.50001
*END

*D_NET *911 0.000961866

*CONN
*I *1678:Z O *C 149.3 289.4 *L 0 *D CKAN2D0
*I *1542:D I *C 147.7 292.8 *L 0.000792 *D DFNCND1

*CAP
1 *1678:Z 0.000543628984
2 *911:2 7.21521e-05
3 *911:3 0.000346086

*RES
1 *911:2 *911:3 2.85914
2 *1542:D *911:3 4.49997
3 *1678:Z *911:2 5.07905006
*END

*D_NET *912 0.000335373

*CONN
*I *1677:Z O *C 142.5 66.2 *L 0 *D CKAN2D0
*I *1493:D I *C 142.5 64 *L 0.000792 *D DFNCND1

*CAP
1 *1677:Z 0.000335373008

*RES
1 *1493:D *1677:Z 4.77709
*END

*D_NET *913 0.00153202

*CONN
*I *1676:Z O *C 149.3 85.4 *L 0 *D CKAN2D0
*I *1498:D I *C 144.5 84 *L 0.000792 *D DFNCND1

*CAP
1 *1676:Z 6.57263e-05
2 *1498:D 0.000267367
3 *913:2 0.000998001016
4 *913:3 0.000200925

*RES
1 *1498:D *913:2 2.97151
2 *913:2 *913:3 7.97463989
3 *1676:Z *913:3 4.00959
*END

*D_NET *914 0.000765738

*CONN
*I *1675:Z O *C 143.5 87.8 *L 0 *D CKAN2D0
*I *1499:D I *C 142.7 85.6 *L 0.000792 *D DFNCND1

*CAP
1 *1675:Z 0.000415158008
2 *914:2 0.00035058

*RES
1 *1675:Z *914:2 7.66857004
2 *1499:D *914:2 1.49999
*END

*D_NET *915 0.00037711

*CONN
*I *1674:Z O *C 144.3 81.8 *L 0 *D CKAN2D0
*I *1497:D I *C 144.5 80.4 *L 0.000792 *D DFNCND1

*CAP
1 *1497:D 0.00037711

*RES
1 *1674:Z *1497:D 5.09213
*END

*D_NET *916 0.00107948

*CONN
*I *1673:Z O *C 149.3 113 *L 0 *D CKAN2D0
*I *1505:D I *C 144.1 112.8 *L 0.000792 *D DFNCND1

*CAP
1 *916:2 9.43152e-05
2 *916:3 0.000985167969

*RES
1 *1505:D *916:3 2.99994
2 *916:2 *916:3 7.67206001
3 *1673:Z *916:2 1.49997
*END

*D_NET *917 0.00102302

*CONN
*I *1672:Z O *C 147.1 114.2 *L 0 *D CKAN2D0
*I *1506:D I *C 142.7 114.4 *L 0.000792 *D DFNCND1

*CAP
1 *917:2 0.000906028984
2 *917:3 0.000116988

*RES
1 *917:2 *917:3 6.17610979
2 *1672:Z *917:3 3.00003
3 *1506:D *917:2 1.75456
*END

*D_NET *918 0.000633002

*CONN
*I *1671:Z O *C 149.5 107 *L 0 *D CKAN2D0
*I *1504:D I *C 149.1 105.6 *L 0.000792 *D DFNCND1

*CAP
1 *1671:Z 0.000284401
2 *1504:D 0.0003486

*RES
1 *1504:D *1671:Z 8.80769
*END

*D_NET *919 0.001289

*CONN
*I *1670:Z O *C 149.9 120.2 *L 0 *D CKAN2D0
*I *1508:D I *C 143.7 120 *L 0.000792 *D DFNCND1

*CAP
1 *1670:Z 3.553e-05
2 *1508:D 0.000171708
3 *919:2 0.00098831
4 *919:3 9.34547e-05

*RES
1 *919:2 *919:3 8.22449017
2 *1508:D *919:2 2.02563
3 *1670:Z *919:3 3.27055
*END

*D_NET *920 0.000728759

*CONN
*I *1669:Z O *C 143.5 117.8 *L 0 *D CKAN2D0
*I *1507:D I *C 142.5 116.4 *L 0.000792 *D DFNCND1

*CAP
1 *1669:Z 0.00011819
2 *1507:D 0.000334828008
3 *920:2 0.000275741

*RES
1 *1507:D *920:2 4.91612005
2 *1669:Z *920:2 4.27115
*END

*D_NET *921 0.00417101

*CONN
*I *1668:Z O *C 147.9 257 *L 0 *D CKAN2D0
*I *1540:D I *C 146.1 283.6 *L 0.000792 *D DFNCND1

*CAP
1 *1668:Z 0.00201109
2 *1540:D 0.000510912
3 *921:3 0.000547737
4 *921:4 0.000690985
5 *921:5 0.00040722
6 *921:6 3.09941e-06

*RES
1 *921:5 *921:6 2.93262
2 *921:2 *921:4 4.98799
3 *921:2 *921:3 3.66017
4 *1668:Z *921:6 15.6483002
5 *921:4 *921:5 0.256443
6 *1540:D *921:3 7.16227
*END

*D_NET *922 0.00166014

*CONN
*I *1667:Z O *C 149.5 102.2 *L 0 *D CKAN2D0
*I *1503:D I *C 142.9 100 *L 0.000792 *D DFNCND1

*CAP
1 *1503:D 0.000259435
2 *922:2 0.000299543
3 *922:3 0.00110116992

*RES
1 *922:2 *922:3 8.62915039
2 *1667:Z *922:2 2.6949
3 *1503:D *922:3 4.01819
*END

*D_NET *923 0.00117531

*CONN
*I *1666:Z O *C 148.3 132.2 *L 0 *D CKAN2D0
*I *1511:D I *C 143.5 132.4 *L 0.000792 *D DFNCND1

*CAP
1 *1511:D 0.00079767
2 *923:2 0.000377638

*RES
1 *1511:D *923:2 7.32130003
2 *1666:Z *923:2 4.67356
*END

*D_NET *924 0.00114417

*CONN
*I *1665:Z O *C 145.9 243.8 *L 0 *D CKAN2D0
*I *1532:D I *C 142.5 247.6 *L 0.000792 *D DFNCND1

*CAP
1 *1665:Z 0.00023076
2 *924:2 7.22737e-05
3 *924:4 0.00084114

*RES
1 *924:2 *924:4 4.95251989
2 *924:3 *924:4 3.83167
3 *1665:Z *924:2 2.6701
4 *1532:D *924:3 1.49998
*END

*D_NET *925 0.00114332

*CONN
*I *1664:Z O *C 148.3 128.6 *L 0 *D CKAN2D0
*I *1510:D I *C 143.5 128.8 *L 0.000792 *D DFNCND1

*CAP
1 *1510:D 0.000125382
2 *925:2 0.000940475
3 *925:3 7.74509e-05

*RES
1 *925:2 *925:3 8.06704044
2 *1664:Z *925:3 3.00003
3 *1510:D *925:2 1.75457
*END

*D_NET *926 0.000776482

*CONN
*I *1663:Z O *C 144.1 95 *L 0 *D CKAN2D0
*I *1502:D I *C 142.3 92.8 *L 0.000792 *D DFNCND1

*CAP
1 *1663:Z 0.000318539
2 *926:2 0.000457946016

*RES
1 *1663:Z *926:2 8.31995964
2 *1502:D *926:2 1.49994
*END

*D_NET *927 0.00117368

*CONN
*I *1662:Z O *C 144.7 141.8 *L 0 *D CKAN2D0
*I *1513:D I *C 143.3 138 *L 0.000792 *D DFNCND1

*CAP
1 *1513:D 9.41416e-05
2 *927:2 0.00107954

*RES
1 *1662:Z *927:2 4.16553
2 *1513:D *927:2 7.57721996
*END

*D_NET *928 0.0010617

*CONN
*I *1661:Z O *C 148.9 215 *L 0 *D CKAN2D0
*I *1524:D I *C 143.9 215.2 *L 0.000792 *D DFNCND1

*CAP
1 *1524:D 0.000148643
2 *928:2 0.00080136
3 *928:3 0.000111703

*RES
1 *928:2 *928:3 8.20121002
2 *1524:D *928:2 2.00863
3 *1661:Z *928:3 1.50006
*END

*D_NET *929 0.00111264

*CONN
*I *1660:Z O *C 148.3 125 *L 0 *D CKAN2D0
*I *1509:D I *C 143.5 125.2 *L 0.000792 *D DFNCND1

*CAP
1 *1509:D 0.000142294
2 *929:2 0.00086066
3 *929:3 0.000109685

*RES
1 *929:2 *929:3 6.84212017
2 *1660:Z *929:3 3.00001
3 *1509:D *929:2 1.75459
*END

*D_NET *930 0.000490533

*CONN
*I *1659:Z O *C 143.3 74.6 *L 0 *D CKAN2D0
*I *1495:D I *C 142.7 73.2 *L 0.000792 *D DFNCND1

*CAP
1 *1659:Z 0.000194121
2 *1495:D 0.000296413008

*RES
1 *1659:Z *1495:D 5.39508
*END

*D_NET *931 0.00101758

*CONN
*I *1658:Z O *C 148.1 186.2 *L 0 *D CKAN2D0
*I *1518:D I *C 145.7 188.4 *L 0.000792 *D DFNCND1

*CAP
1 *931:2 0.000917482031
2 *931:3 0.000100099

*RES
1 *931:2 *931:3 4.54933023
2 *1658:Z *931:3 3.00001
3 *1518:D *931:2 3.86446
*END

*D_NET *932 0.000486111

*CONN
*I *1657:Z O *C 144.1 19.4 *L 0 *D CKAN2D0
*I *1477:D I *C 144.5 17.2 *L 0.000792 *D DFNCND1

*CAP
1 *1657:Z 0.000311352988
2 *1477:D 0.000174759

*RES
1 *1657:Z *1477:D 5.33963
*END

*D_NET *933 0.00117834

*CONN
*I *1656:Z O *C 148.1 192.2 *L 0 *D CKAN2D0
*I *1519:D I *C 144.5 193.6 *L 0.000792 *D DFNCND1

*CAP
1 *1656:Z 0.000322727
2 *933:2 0.000855613984

*RES
1 *1656:Z *933:2 3.78978
2 *1519:D *933:2 9.16077042
*END

*D_NET *934 0.00102882

*CONN
*I *1655:Z O *C 148.9 203 *L 0 *D CKAN2D0
*I *1521:D I *C 143.7 202.8 *L 0.000792 *D DFNCND1

*CAP
1 *1521:D 6.85725e-05
2 *934:2 0.000159766
3 *934:3 0.000800481016

*RES
1 *934:2 *934:3 6.63024998
2 *1521:D *934:3 5.08296
3 *1655:Z *934:2 1.50004
*END

*D_NET *935 0.000820013

*CONN
*I *1654:Z O *C 148.1 197 *L 0 *D CKAN2D0
*I *1520:D I *C 145.9 199.2 *L 0.000792 *D DFNCND1

*CAP
1 *1654:Z 0.000321769
2 *935:2 0.000498243008

*RES
1 *1654:Z *935:2 8.92556953
2 *1520:D *935:2 1.50003
*END

*D_NET *936 0.000965487

*CONN
*I *1653:Z O *C 148.9 206.6 *L 0 *D CKAN2D0
*I *1522:D I *C 143.7 206.4 *L 0.000792 *D DFNCND1

*CAP
1 *1522:D 8.45988e-05
2 *936:2 0.000121516
3 *936:3 0.000759373047

*RES
1 *936:2 *936:3 6.43309021
2 *1522:D *936:3 3.614
3 *1653:Z *936:2 1.5
*END

*D_NET *937 0.000709903

*CONN
*I *1652:Z O *C 147.9 174.2 *L 0 *D CKAN2D0
*I *1516:D I *C 147.5 177.6 *L 0.000792 *D DFNCND1

*CAP
1 *1652:Z 0.000709902969

*RES
1 *1652:Z *1516:D 7.62606
*END

*D_NET *938 0.000703397

*CONN
*I *1651:Z O *C 146.9 217.4 *L 0 *D CKAN2D0
*I *1525:D I *C 144.3 218.8 *L 0.000792 *D DFNCND1

*CAP
1 *1651:Z 0.000261617
2 *1525:D 8.09209e-05
3 *938:2 0.000360856992

*RES
1 *1651:Z *938:2 7.03602982
2 *1525:D *938:2 3
*END

*D_NET *939 0.00106771

*CONN
*I *1650:Z O *C 148.9 222.2 *L 0 *D CKAN2D0
*I *1526:D I *C 143.7 222.4 *L 0.000792 *D DFNCND1

*CAP
1 *1650:Z 8.96353e-05
2 *1526:D 0.00066609
3 *939:2 0.00031198

*RES
1 *1650:Z *939:2 5.18084
2 *1526:D *939:2 6.96060991
*END

*D_NET *940 0.000558966

*CONN
*I *1649:Z O *C 144.5 92.6 *L 0 *D CKAN2D0
*I *1501:D I *C 144.1 91.2 *L 0.000792 *D DFNCND1

*CAP
1 *1649:Z 0.000217754
2 *1501:D 0.000341211992

*RES
1 *1649:Z *1501:D 5.40519
*END

*D_NET *941 0.00124969

*CONN
*I *1648:Z O *C 148.9 231.8 *L 0 *D CKAN2D0
*I *1528:D I *C 143.7 231.6 *L 0.000792 *D DFNCND1

*CAP
1 *1648:Z 0.000134302
2 *941:2 0.00111538008

*RES
1 *1648:Z *941:2 2.00862
2 *1528:D *941:2 11.1935997
*END

*D_NET *942 0.00253169

*CONN
*I *1647:Z O *C 143.3 285.8 *L 0 *D CKAN2D0
*I *1544:D I *C 143.3 300 *L 0.000792 *D DFNCND1

*CAP
1 *1647:Z 0.000472449
2 *1544:D 5.31013e-06
3 *942:2 0.000460384
4 *942:3 0.000315785
5 *942:4 0.000363653
6 *942:5 0.000287092
7 *942:6 0.000627026016

*RES
1 *942:5 *942:6 3.64668
2 *942:3 *942:6 2.48769
3 *942:3 *942:4 2.52511
4 *1544:D *942:5 3.26557
5 *1647:Z *942:2 4.88490009
6 *942:2 *942:4 3.06171
*END

*D_NET *943 0.00100894

*CONN
*I *1646:Z O *C 150.3 92.6 *L 0 *D CKAN2D0
*I *1500:D I *C 149.9 87.6 *L 0.000792 *D DFNCND1

*CAP
1 *1646:Z 0.000126089
2 *1500:D 0.000847685
3 *943:2 3.51698e-05

*RES
1 *1646:Z *943:2 2.11858
2 *1500:D *943:2 6.82679987
*END

*D_NET *944 0.00164798

*CONN
*I *1645:Z O *C 148.5 138.2 *L 0 *D CKAN2D0
*I *1512:D I *C 142.5 136 *L 0.000792 *D DFNCND1

*CAP
1 *1645:Z 0.000261869
2 *1512:D 0.000206067
3 *944:2 0.00118006

*RES
1 *1512:D *944:2 11.6911001
2 *1645:Z *944:2 3.74588
*END

*D_NET *945 0.00104976

*CONN
*I *1644:Z O *C 148.9 211.4 *L 0 *D CKAN2D0
*I *1523:D I *C 143.7 211.6 *L 0.000792 *D DFNCND1

*CAP
1 *1644:Z 0.000355085
2 *1523:D 0.000374141992
3 *945:2 0.00032054

*RES
1 *1523:D *945:2 8.98519993
2 *1644:Z *945:2 4.44626
*END

*D_NET *946 0.00187209

*CONN
*I *1643:Z O *C 149.1 80.6 *L 0 *D CKAN2D0
*I *1496:D I *C 142.7 76.8 *L 0.000792 *D DFNCND1

*CAP
1 *1496:D 0.000584909
2 *946:2 0.000938108047
3 *946:3 0.000349062

*RES
1 *946:2 *946:3 3.99453
2 *1643:Z *946:2 5.3116
3 *1496:D *946:3 8.75946045
*END

*D_NET *947 0.000975981

*CONN
*I *1642:Z O *C 148.1 150.2 *L 0 *D CKAN2D0
*I *1515:D I *C 144.1 150.4 *L 0.000792 *D DFNCND1

*CAP
1 *1642:Z 3.20897e-05
2 *947:2 0.000943896016

*RES
1 *1642:Z *947:2 2.45832
2 *1515:D *947:2 8.31140041
*END

*D_NET *948 0.00268232

*CONN
*I *1641:Z O *C 146.5 285.8 *L 0 *D CKAN2D0
*I *1546:D I *C 146.7 301.6 *L 0.000792 *D DFNCND1

*CAP
1 *1641:Z 0.000641216
2 *948:2 0.00171694
3 *948:3 0.000324158

*RES
1 *1546:D *948:3 3.65317
2 *1641:Z *948:2 5.47247
3 *948:2 *948:3 11.0993996
*END

*D_NET *949 0.000762631

*CONN
*I *1640:Z O *C 144.1 62.6 *L 0 *D CKAN2D0
*I *1492:D I *C 142.7 60.4 *L 0.000792 *D DFNCND1

*CAP
1 *1640:Z 8.08631e-05
2 *1492:D 0.000681765938

*RES
1 *1640:Z *1492:D 9.37545
*END

*D_NET *950 0.00077326

*CONN
*I *1639:Z O *C 142.5 71 *L 0 *D CKAN2D0
*I *1494:D I *C 142.3 67.6 *L 0.000792 *D DFNCND1

*CAP
1 *1639:Z 7.54032e-05
2 *1494:D 9.18985e-05
3 *950:2 0.000605952969

*RES
1 *1639:Z *950:2 1.75644
2 *1494:D *950:2 5.90005016
*END

*D_NET *951 0.000838699

*CONN
*I *1638:Z O *C 146.9 41 *L 0 *D CKAN2D0
*I *1488:D I *C 147.5 37.2 *L 0.000792 *D DFNCND1

*CAP
1 *1638:Z 1.99754e-05
2 *1488:D 0.000599124023
3 *951:2 0.000219601

*RES
1 *1638:Z *951:2 1.73848
2 *1488:D *951:2 5.87829018
*END

*D_NET *952 0.000922495

*CONN
*I *1637:Z O *C 148.9 251 *L 0 *D CKAN2D0
*I *1533:D I *C 143.9 251.2 *L 0.000792 *D DFNCND1

*CAP
1 *1533:D 6.57366e-05
2 *952:2 0.000122725
3 *952:3 0.000734033984

*RES
1 *952:2 *952:3 6.20857
2 *1533:D *952:3 5.08274
3 *1637:Z *952:2 1.50004
*END

*D_NET *953 0.0011048

*CONN
*I *1636:Z O *C 150.5 13.4 *L 0 *D CKAN2D0
*I *1484:D I *C 149.5 8.4 *L 0.000792 *D DFNCND1

*CAP
1 *1636:Z 0.000182404
2 *953:2 0.000500873047
3 *953:3 6.70964e-05
4 *953:4 0.000354421

*RES
1 *953:2 *953:3 4.60391
2 *1636:Z *953:4 7.74201012
3 *1484:D *953:2 1.49994
4 *953:3 *953:4 1.49994
*END

*D_NET *954 0.00110044

*CONN
*I *1635:Z O *C 148.9 243.8 *L 0 *D CKAN2D0
*I *1531:D I *C 143.7 244 *L 0.000792 *D DFNCND1

*CAP
1 *1531:D 9.74466e-05
2 *954:2 0.000642018984
3 *954:3 0.000360975

*RES
1 *954:2 *954:3 5.34070015
2 *1635:Z *954:3 4.79486
3 *1531:D *954:2 1.69431
*END

*D_NET *955 0.00109761

*CONN
*I *1634:Z O *C 148.9 240.2 *L 0 *D CKAN2D0
*I *1530:D I *C 143.7 240.4 *L 0.000792 *D DFNCND1

*CAP
1 *955:2 0.000871047969
2 *955:3 0.000226564

*RES
1 *955:2 *955:3 6.99729013
2 *1634:Z *955:3 3.99715
3 *1530:D *955:2 1.50001
*END

*D_NET *956 0.000630864

*CONN
*I *1633:Z O *C 142.9 260.6 *L 0 *D CKAN2D0
*I *1535:D I *C 142.3 262 *L 0.000792 *D DFNCND1

*CAP
1 *1633:Z 0.000446211016
2 *1535:D 0.000184653

*RES
1 *1633:Z *1535:D 10.308
*END

*D_NET *957 0.000570258

*CONN
*I *1632:Z O *C 143.9 264.2 *L 0 *D CKAN2D0
*I *1536:D I *C 142.3 265.6 *L 0.000792 *D DFNCND1

*CAP
1 *1536:D 0.000498466992
2 *957:2 7.17942e-05

*RES
1 *1632:Z *957:2 3.00004
2 *1536:D *957:2 5.91293001
*END

*D_NET *958 0.000630178

*CONN
*I *1631:Z O *C 146.7 13.4 *L 0 *D CKAN2D0
*I *1476:D I *C 147.1 10 *L 0.000792 *D DFNCND1

*CAP
1 *1476:D 0.000630177969

*RES
1 *1476:D *1631:Z 6.8461
*END

*D_NET *959 0.000374976

*CONN
*I *1630:Z O *C 144.5 257 *L 0 *D CKAN2D0
*I *1534:D I *C 143.9 258.4 *L 0.000792 *D DFNCND1

*CAP
1 *1630:Z 0.000241660996
2 *1534:D 0.000133315

*RES
1 *1534:D *1630:Z 4.97343
*END

*D_NET *960 0.00043653

*CONN
*I *1629:Z O *C 148.5 279.8 *L 0 *D CKAN2D0
*I *1539:D I *C 148.9 282 *L 0.000792 *D DFNCND1

*CAP
1 *1629:Z 0.00043653

*RES
1 *1629:Z *1539:D 5.24853
*END

*D_NET *961 0.000632938

*CONN
*I *1628:Z O *C 145.1 279.8 *L 0 *D CKAN2D0
*I *1538:D I *C 143.9 278.4 *L 0.000792 *D DFNCND1

*CAP
1 *1628:Z 0.000553569023
2 *1538:D 7.93673e-05

*RES
1 *1628:Z *1538:D 7.8688
*END

*D_NET *962 0.00113515

*CONN
*I *1627:Z O *C 147.3 287 *L 0 *D CKAN2D0
*I *1543:D I *C 147.1 294.4 *L 0.000792 *D DFNCND1

*CAP
1 *1627:Z 0.000592001016
2 *1543:D 0.000543158

*RES
1 *1543:D *1627:Z 10.0926
*END

*D_NET *963 0.00145656

*CONN
*I *1626:Z O *C 149.7 235.4 *L 0 *D CKAN2D0
*I *1529:D I *C 143.5 235.2 *L 0.000792 *D DFNCND1

*CAP
1 *1626:Z 0.000425881
2 *1529:D 0.000749183984
3 *963:2 0.000281497

*RES
1 *1626:Z *963:2 4.94308
2 *1529:D *963:2 9.32096004
*END

*D_NET *964 0.00317673

*CONN
*I *1625:Z O *C 142.9 287 *L 0 *D CKAN2D0
*I *1547:D I *C 142.9 303.6 *L 0.000792 *D DFNCND1

*CAP
1 *1625:Z 0.000784365
2 *964:2 0.000658924
3 *964:3 0.00111152008
4 *964:4 2.9342e-06
5 *964:5 0.000618998

*RES
1 *964:4 *964:5 3.83701
2 *964:3 *964:4 0.256406
3 *964:2 *964:5 4.16412
4 *1547:D *964:3 10.6286001
5 *1625:Z *964:2 8.5707
*END

*D_NET *965 0.00121225

*CONN
*I *1624:Z O *C 148.5 145.4 *L 0 *D CKAN2D0
*I *1514:D I *C 143.5 145.2 *L 0.000792 *D DFNCND1

*CAP
1 *1624:Z 1.22391e-05
2 *965:2 0.00105677
3 *965:3 0.000143241

*RES
1 *965:2 *965:3 7.85586977
2 *1514:D *965:2 2.00904
3 *1624:Z *965:3 3.2545
*END

*D_NET *966 0.00226311

*CONN
*I *1623:Z O *C 146.3 287 *L 0 *D CKAN2D0
*I *1545:D I *C 146.7 298 *L 0.000792 *D DFNCND1

*CAP
1 *1623:Z 0.000376889
2 *1545:D 0.000271247
3 *966:2 0.00148345
4 *966:3 0.000131515

*RES
1 *1623:Z *966:2 3.58861
2 *1545:D *966:3 4.10843
3 *966:2 *966:3 11.1440001
*END

*D_NET *967 0.000683779

*CONN
*I *1622:Z O *C 143.9 272.6 *L 0 *D CKAN2D0
*I *1537:D I *C 142.7 274.8 *L 0.000792 *D DFNCND1

*CAP
1 *1622:Z 0.000591543008
2 *967:2 9.22404e-05

*RES
1 *1622:Z *967:2 7.89943981
2 *1537:D *967:2 1.49995
*END

*D_NET *968 0.00115929

*CONN
*I *1621:Z O *C 148.9 228.2 *L 0 *D CKAN2D0
*I *1527:D I *C 143.5 228 *L 0.000792 *D DFNCND1

*CAP
1 *968:2 0.000119304
2 *968:3 0.00103998008

*RES
1 *1527:D *968:3 3.00001
2 *968:2 *968:3 7.34629011
3 *1621:Z *968:2 1.49995
*END

*D_NET *969 0.0101179

*CONN
*I *1773:A1 I *C 144.7 161.2 *L 0.000774 *D NR2XD0
*I *1696:ZN O *C 143.5 109.6 *L 0 *D IND2D0
*I *1695:A1 I *C 145.1 163.2 *L 0.000709 *D IND2D1

*CAP
1 *1696:ZN 9.10658e-05
2 *1695:A1 0.00033957
3 *969:3 0.00048744
4 *969:4 0.000207039
5 *969:5 3.57669e-05
6 *969:6 0.00234868
7 *969:7 0.00148149
8 *969:8 0.000266101
9 *969:9 0.000450813
10 *969:10 0.000145827
11 *969:11 0.000450849
12 *969:12 0.000110347
13 *969:13 0.000733866
14 *1695:A1 *107:8 0.000838096016
15 *969:3 *1346:I 0.000303667012
16 *969:4 *296:4 0.000327883984
17 *1695:A1 *297:5 0.00053994
18 *969:3 *890:3 0.000959388047

*RES
1 *969:5 *969:6 24.1702995
2 *969:3 *969:10 1.54162
3 *969:4 *969:5 3.74231
4 *969:8 *969:3 7.96592
5 *1695:A1 *969:12 3.47935
6 *969:4 *969:12 4.51091
7 *969:6 *969:9 3.01871
8 *969:7 *969:9 9.88741
9 *969:11 *969:13 6.97161
10 *969:10 *969:11 5.3636
11 *969:7 *969:8 2.09779
12 *1696:ZN *969:13 2.9999
13 *1773:A1 *969:12 1.49995
*END

*D_NET *970 0.00281144

*CONN
*I *1774:A1 I *C 142.7 107.2 *L 0.000647 *D NR2D0
*I *1699:ZN O *C 140.7 96 *L 0 *D CKND2D0
*I *1696:A1 I *C 142.9 109.2 *L 0.000681 *D IND2D0

*CAP
1 *1774:A1 8.18029e-05
2 *1699:ZN 0.000347506
3 *1696:A1 0.000400668
4 *970:3 0.000300469
5 *970:4 0.00141338
6 *970:5 0.000267622

*RES
1 *1699:ZN *970:4 5.41275
2 *970:3 *970:5 3.15251
3 *970:3 *970:4 9.57203007
4 *1774:A1 *970:5 4.50003
5 *1696:A1 *970:5 7.30069
*END

*D_NET *971 1.3376e-05

*CONN
*I *1325:I I *C 146.1 163.2 *L 0.00103 *D DEL2
*I *1695:ZN O *C 145.54 162.695 *L 0 *D IND2D1

*CAP
1 *1695:ZN 1.33759998e-05

*RES
1 *1695:ZN *1325:I 0.250842
*END

*D_NET *972 0.00125493

*CONN
*I *1698:ZN O *C 140.9 177 *L 0 *D INR2D0
*I *1465:CEN I *C 134.195 177.81 *L 0.00171 *D sram00

*CAP
1 *1698:ZN 0.000192517
2 *972:2 1.93772e-05
3 *972:3 0.000310615
4 *972:4 8.0482e-05
5 *972:5 8.62324e-05
6 *972:6 5.15888e-05
7 *972:7 0.000514123008

*RES
1 *972:2 *972:3 3.49558
2 *1698:ZN *972:4 1.84638
3 *972:2 *972:6 1.69569
4 *972:5 *972:6 0.29263
5 *972:4 *972:7 5.57008982
6 *972:6 *972:7 1.50004
7 *972:7 *1465:CEN 8.49928e-05
*END

*D_NET *973 0.00136718

*CONN
*I *1764:Q O *C 142.3 168 *L 0 *D DFNSND1
*I *1698:A1 I *C 141.5 177.6 *L 0.00069 *D INR2D0
*I *1697:A1 I *C 141.3 175.4 *L 0.000633 *D OR2D0

*CAP
1 *1764:Q 0.000635549023
2 *1697:A1 0.000108383
3 *973:3 1.03767e-06
4 *973:4 0.000622205

*RES
1 *973:3 *973:4 3.71559
2 *1764:Q *973:3 5.9401598
3 *1698:A1 *973:4 2.63861
4 *1697:A1 *973:4 2.47691
*END

*D_NET *974 0.00134564

*CONN
*I *1697:Z O *C 140.3 175.4 *L 0 *D OR2D0
*I *1465:WEN I *C 134.195 175.12 *L 0.00612 *D sram00

*CAP
1 *974:2 0.000208528
2 *974:3 0.000186964
3 *974:4 0.000135026
4 *974:5 0.000372978008
5 *974:6 7.87275e-05
6 *974:7 0.000175969
7 *974:8 1.50648e-05
8 *974:9 0.000172377

*RES
1 *974:2 *974:3 3.04075003
2 *974:8 *974:9 1.38178
3 *974:7 *974:8 0.326179
4 *974:6 *974:7 1.03296
5 *974:4 *974:5 3.01203
6 *974:3 *974:4 0.520309
7 *1697:Z *974:2 1.84637
8 *974:5 *974:6 0.132003
9 *974:9 *1465:WEN 9.27963e-05
*END

