*SPEF "IEEE 1481-1998"
*DESIGN "sram_wrapper"
*DATE "Wed Apr  1 00:28:33 2026"
*VENDOR "Cadence Design Systems, Inc."
*PROGRAM "Innovus"
*VERSION "21.16-s078_1"
*DESIGN_FLOW "COUPLING C" "PIN_CAP NONE" "NAME_SCOPE LOCAL"
*DIVIDER /
*DELIMITER :
*BUS_DELIMITER []
*T_UNIT 1 NS
*C_UNIT 1 PF
*R_UNIT 1 OHM
*L_UNIT 1 HENRY

// MMMC spef file for corner 'RC_BEST'

*NAME_MAP

*1 FE_PDN541_tpu_dout_58
*2 FE_PDN539_tpu_dout_54
*3 FE_PHN538_bus_din_5
*4 FE_PHN537_bus_din_5
*5 FE_PHN536_bus_din_5
*6 FE_PHN535_bus_din_5
*7 FE_PHN534_bus_din_5
*8 FE_PHN533_bus_din_5
*9 FE_PHN532_bus_din_5
*10 FE_PHN531_bus_din_5
*11 FE_PHN530_bus_din_5
*12 FE_PHN529_bus_din_5
*13 FE_PHN528_bus_din_5
*14 FE_PHN527_bus_din_5
*15 FE_PHN526_bus_din_3
*16 FE_PHN525_bus_din_5
*17 FE_PHN524_bus_din_5
*18 FE_PHN523_bus_din_3
*19 FE_PHN522_bus_din_5
*20 FE_PHN521_bus_din_5
*21 FE_PHN520_bus_din_3
*22 FE_PHN519_bus_din_1
*23 FE_PHN518_bus_din_3
*24 FE_PHN517_bus_din_0
*25 FE_PHN516_bus_din_5
*26 FE_PHN515_bus_din_4
*27 FE_PHN514_bus_addr_2
*28 FE_PHN513_bus_din_5
*29 FE_PHN512_bus_din_1
*30 FE_PHN511_bus_din_2
*31 FE_PHN510_bus_din_7
*32 FE_PHN509_bus_din_0
*33 FE_PHN508_bus_din_0
*34 FE_PHN507_bus_din_0
*35 FE_PHN506_bus_din_0
*36 FE_PHN505_bus_din_0
*37 FE_PHN504_bus_din_0
*38 FE_PHN503_bus_din_0
*39 FE_PHN502_bus_din_0
*40 FE_PHN501_bus_din_3
*41 FE_PHN500_bus_din_0
*42 FE_PHN499_bus_din_3
*43 FE_PHN498_bus_din_0
*44 FE_PHN497_bus_din_3
*45 FE_PHN496_bus_din_6
*46 FE_PHN495_bus_din_0
*47 FE_PHN494_bus_din_3
*48 FE_PHN493_bus_din_6
*49 FE_PHN492_bus_din_0
*50 FE_PHN491_bus_din_3
*51 FE_PHN490_bus_din_1
*52 FE_PHN489_bus_din_6
*53 FE_PHN488_bus_din_0
*54 FE_PHN487_bus_din_3
*55 FE_PHN486_bus_din_6
*56 FE_PHN485_bus_din_1
*57 FE_PHN484_bus_din_3
*58 FE_PHN483_bus_din_0
*59 FE_PHN482_bus_din_1
*60 FE_PHN481_bus_din_6
*61 FE_PHN480_bus_din_0
*62 FE_PHN479_bus_din_3
*63 FE_PHN478_bus_din_1
*64 FE_PHN477_bus_din_6
*65 FE_PHN476_bus_din_4
*66 FE_PHN475_bus_din_6
*67 FE_PHN474_bus_din_1
*68 FE_PHN473_bus_din_0
*69 FE_PHN472_bus_din_3
*70 FE_PHN471_bus_din_2
*71 FE_PHN470_bus_din_4
*72 FE_PHN469_bus_din_6
*73 FE_PHN468_bus_din_3
*74 FE_PHN467_bus_din_1
*75 FE_PHN466_bus_din_2
*76 FE_PHN465_bus_din_0
*77 FE_PHN464_bus_din_4
*78 FE_PHN463_bus_din_2
*79 FE_PHN462_bus_din_0
*80 FE_PHN461_bus_din_1
*81 FE_PHN460_bus_din_6
*82 FE_PHN459_bus_din_4
*83 FE_PHN458_bus_din_1
*84 FE_PHN457_bus_din_6
*85 FE_PHN456_bus_din_3
*86 FE_PHN455_bus_din_1
*87 FE_PHN454_bus_din_0
*88 FE_PHN453_bus_din_2
*89 FE_PHN452_bus_din_4
*90 FE_PHN451_bus_din_1
*91 FE_PHN450_bus_din_2
*92 FE_PHN449_bus_din_0
*93 FE_PHN448_bus_din_1
*94 FE_PHN447_bus_din_2
*95 FE_PHN446_bus_din_4
*96 FE_PHN445_bus_din_3
*97 FE_PHN444_bus_din_6
*98 FE_PHN443_bus_din_1
*99 FE_PHN442_bus_din_2
*100 FE_PHN441_bus_din_3
*101 FE_PHN440_bus_din_4
*102 FE_PHN439_bus_din_0
*103 FE_PHN438_bus_din_1
*104 FE_PHN437_bus_din_3
*105 FE_PHN436_bus_din_2
*106 FE_PHN435_bus_din_4
*107 FE_PHN434_bus_din_6
*108 FE_PHN433_bus_din_7
*109 FE_PHN432_bus_din_0
*110 FE_PHN431_bus_din_6
*111 FE_PHN430_bus_din_2
*112 FE_PHN429_bus_din_1
*113 FE_PHN428_bus_din_3
*114 FE_PHN427_bus_din_4
*115 FE_PHN426_bus_din_7
*116 FE_PHN425_bus_din_1
*117 FE_PHN424_bus_din_0
*118 FE_PHN423_bus_din_2
*119 FE_PHN422_bus_din_4
*120 FE_PHN421_bus_din_3
*121 FE_PHN420_bus_din_7
*122 FE_PHN419_bus_addr_7
*123 FE_PHN418_FE_OFN4_sram_addr_7
*124 FE_PHN417_bus_addr_11
*125 FE_PHN416_bus_addr_9
*126 FE_PHN415_bus_addr_6
*127 FE_PHN414_bus_addr_10
*128 FE_PHN413_bus_addr_2
*129 FE_PHN412_bus_din_1
*130 FE_PHN411_bus_din_6
*131 FE_PHN410_bus_din_2
*132 FE_PHN409_bus_din_5
*133 FE_PHN408_bus_addr_8
*134 FE_PHN407_bus_addr_8
*135 FE_PHN406_bus_addr_8
*136 FE_PHN405_bus_addr_8
*137 FE_PHN404_bus_addr_8
*138 FE_PHN403_bus_addr_8
*139 FE_PHN402_bus_addr_8
*140 FE_PHN401_tpu_dout_3
*141 FE_PHN400_tpu_dout_1
*142 FE_PHN399_bus_addr_8
*143 FE_PHN398_tpu_dout_3
*144 FE_PHN397_tpu_dout_1
*145 FE_PHN396_bus_addr_9
*146 FE_PHN395_bus_addr_8
*147 FE_PHN394_tpu_dout_0
*148 FE_PHN393_tpu_dout_3
*149 FE_PHN392_tpu_dout_1
*150 FE_PHN391_bus_addr_9
*151 FE_PHN390_bus_addr_8
*152 FE_PHN389_tpu_dout_1
*153 FE_PHN388_tpu_dout_3
*154 FE_PHN387_bus_addr_9
*155 FE_PHN386_tpu_dout_0
*156 FE_PHN385_bus_addr_8
*157 FE_PHN384_bus_addr_9
*158 FE_PHN383_tpu_dout_1
*159 FE_PHN382_tpu_dout_3
*160 FE_PHN381_tpu_dout_0
*161 FE_PHN380_bus_addr_8
*162 FE_PHN379_bus_addr_9
*163 FE_PHN378_tpu_dout_1
*164 FE_PHN377_tpu_dout_3
*165 FE_PHN376_tpu_dout_0
*166 FE_PHN375_bus_addr_9
*167 FE_PHN374_bus_addr_8
*168 FE_PHN373_tpu_dout_1
*169 FE_PHN372_tpu_dout_3
*170 FE_PHN371_tpu_dout_0
*171 FE_PHN370_bus_addr_3
*172 FE_PHN369_bus_addr_11
*173 FE_PHN368_bus_addr_8
*174 FE_PHN367_bus_addr_9
*175 FE_PHN366_tpu_dout_1
*176 FE_PHN365_tpu_dout_3
*177 FE_PHN364_tpu_dout_0
*178 FE_PHN363_bus_addr_3
*179 FE_PHN362_bus_addr_11
*180 FE_PHN361_bus_addr_9
*181 FE_PHN360_bus_addr_8
*182 FE_PHN359_tpu_dout_3
*183 FE_PHN358_tpu_dout_1
*184 FE_PHN357_tpu_dout_0
*185 FE_PHN356_bus_addr_3
*186 FE_PHN355_bus_addr_11
*187 FE_PHN354_bus_addr_9
*188 FE_PHN353_bus_addr_8
*189 FE_PHN352_tpu_dout_3
*190 FE_PHN351_tpu_dout_1
*191 FE_PHN350_bus_addr_11
*192 FE_PHN349_bus_addr_7
*193 FE_PHN348_bus_wbuf_0
*194 FE_PHN347_FE_OFN10_sram_addr_1
*195 FE_PHN346_bus_addr_11
*196 FE_PHN345_tpu_dout_0
*197 FE_PHN344_bus_addr_7
*198 FE_PHN343_bus_wbuf_0
*199 FE_PHN342_bus_addr_3
*200 FE_PHN341_bus_addr_6
*201 FE_PHN340_bus_addr_5
*202 FE_PHN339_bus_addr_4
*203 FE_PHN338_tpu_addr_7
*204 FE_PHN337_bus_addr_10
*205 FE_PHN336_FE_OFN10_sram_addr_1
*206 FE_PHN335_tpu_dout_31
*207 FE_PHN334_FE_OFN11_sram_addr_0
*208 FE_PHN332_tpu_dout_31
*209 FE_PHN331_tpu_dout_12
*210 FE_PHN330_tpu_dout_18
*211 FE_PHN329_tpu_dout_19
*212 FE_PHN328_tpu_dout_2
*213 FE_PHN327_tpu_dout_17
*214 FE_PHN326_tpu_dout_5
*215 FE_PHN325_tpu_dout_8
*216 FE_PHN324_bus_wbuf_0
*217 FE_PHN323_tpu_re
*218 FE_PHN322_bus_addr_6
*219 FE_PHN321_tpu_addr_7
*220 FE_PHN320_bus_addr_5
*221 FE_PHN319_bus_addr_4
*222 FE_PHN318_bus_addr_10
*223 FE_PHN317_tpu_dout_23
*224 FE_PHN316_tpu_dout_21
*225 FE_PHN315_tpu_dout_20
*226 FE_PHN314_FE_OFN9_sram_addr_2
*227 FE_PHN313_FE_OFN8_sram_addr_3
*228 FE_PHN312_FE_OFN7_sram_addr_4
*229 FE_PHN311_FE_OFN6_sram_addr_5
*230 FE_PHN310_FE_OFN5_sram_addr_6
*231 FE_PHN309_FE_OFN10_sram_addr_1
*232 FE_PHN308_FE_OFN11_sram_addr_0
*233 FE_PHN307_n_8
*234 FE_PHN306_bus_din_1
*235 FE_PHN305_bus_din_0
*236 FE_PHN304_bus_wbuf_0
*237 FE_PHN303_bus_din_6
*238 FE_PHN302_bus_din_2
*239 FE_PHN301_bus_din_3
*240 FE_PHN300_bus_din_4
*241 FE_PHN299_bus_din_5
*242 FE_PHN298_bus_din_7
*243 FE_PHN297_tpu_addr_8
*244 FE_PHN296_tpu_dout_19
*245 FE_PHN295_tpu_dout_18
*246 FE_PHN294_tpu_dout_13
*247 FE_PHN293_tpu_dout_7
*248 FE_PHN292_tpu_dout_11
*249 FE_PHN291_tpu_dout_6
*250 FE_PHN290_tpu_dout_4
*251 FE_PHN289_tpu_dout_9
*252 FE_PHN288_tpu_dout_2
*253 FE_PHN287_tpu_dout_10
*254 FE_PHN286_tpu_dout_8
*255 FE_PHN285_tpu_dout_14
*256 FE_PHN284_tpu_dout_5
*257 FE_PHN283_tpu_dout_17
*258 FE_PHN282_tpu_dout_52
*259 FE_PHN281_tpu_dout_60
*260 FE_PHN280_tpu_dout_56
*261 FE_PHN279_tpu_dout_55
*262 FE_PHN278_tpu_dout_12
*263 FE_PHN277_tpu_dout_54
*264 FE_PHN276_tpu_dout_58
*265 FE_PHN275_tpu_dout_57
*266 FE_PHN274_tpu_dout_59
*267 FE_PHN273_tpu_dout_50
*268 FE_PHN272_tpu_dout_51
*269 FE_PHN271_tpu_dout_53
*270 FE_PHN270_tpu_dout_62
*271 FE_PHN269_tpu_dout_47
*272 FE_PHN268_tpu_dout_48
*273 FE_PHN267_tpu_dout_49
*274 FE_PHN266_tpu_dout_61
*275 FE_PHN265_tpu_dout_44
*276 FE_PHN264_tpu_dout_63
*277 FE_PHN263_tpu_dout_40
*278 FE_PHN262_tpu_dout_46
*279 FE_PHN261_tpu_dout_43
*280 FE_PHN260_tpu_dout_39
*281 FE_PHN259_tpu_dout_45
*282 FE_PHN258_tpu_dout_41
*283 FE_PHN257_tpu_dout_38
*284 FE_PHN256_tpu_dout_37
*285 FE_PHN255_tpu_dout_36
*286 FE_PHN254_tpu_dout_32
*287 FE_PHN253_tpu_dout_34
*288 FE_PHN252_tpu_dout_35
*289 FE_PHN251_tpu_dout_33
*290 FE_PHN250_tpu_dout_27
*291 FE_PHN249_tpu_dout_24
*292 FE_PHN248_tpu_dout_22
*293 FE_PHN247_tpu_dout_25
*294 FE_PHN246_tpu_dout_26
*295 FE_PHN245_tpu_dout_28
*296 FE_PHN244_tpu_dout_29
*297 FE_PHN243_tpu_dout_30
*298 FE_PHN242_bus_addr_11
*299 FE_PHN241_bus_addr_8
*300 FE_PHN240_bus_addr_9
*301 FE_PHN239_tpu_re
*302 FE_PHN238_tpu_dout_42
*303 FE_PHN237_tpu_dout_16
*304 FE_PHN236_tpu_dout_15
*305 FE_PHN235_bus_addr_1
*306 FE_PHN234_FE_OFN9_sram_addr_2
*307 FE_PHN233_FE_OFN8_sram_addr_3
*308 FE_PHN232_FE_OFN5_sram_addr_6
*309 FE_PHN231_FE_OFN6_sram_addr_5
*310 FE_PHN230_bus_wbuf_57
*311 FE_PHN229_bus_wbuf_58
*312 FE_PHN228_bus_wbuf_59
*313 FE_PHN227_bus_wbuf_61
*314 FE_PHN226_bus_wbuf_60
*315 FE_PHN225_bus_wbuf_63
*316 FE_PHN224_bus_wbuf_56
*317 FE_PHN223_bus_wbuf_62
*318 FE_PHN222_bus_wbuf_47
*319 FE_PHN221_bus_wbuf_46
*320 FE_PHN220_bus_wbuf_43
*321 FE_PHN219_bus_wbuf_41
*322 FE_PHN218_bus_wbuf_45
*323 FE_PHN217_bus_wbuf_32
*324 FE_PHN216_bus_wbuf_44
*325 FE_PHN215_bus_wbuf_42
*326 FE_PHN214_bus_wbuf_38
*327 FE_PHN213_bus_wbuf_37
*328 FE_PHN212_bus_wbuf_40
*329 FE_PHN211_bus_wbuf_39
*330 FE_PHN210_bus_wbuf_36
*331 FE_PHN209_bus_wbuf_35
*332 FE_PHN208_bus_wbuf_34
*333 FE_PHN207_bus_wbuf_33
*334 FE_PHN206_FE_OFN4_sram_addr_7
*335 FE_PHN205_bus_wbuf_18
*336 FE_PHN204_bus_wbuf_17
*337 FE_PHN203_bus_wbuf_27
*338 FE_PHN202_bus_wbuf_22
*339 FE_PHN201_bus_wbuf_21
*340 FE_PHN200_bus_wbuf_20
*341 FE_PHN199_bus_wbuf_16
*342 FE_PHN198_bus_wbuf_26
*343 FE_PHN197_bus_wbuf_25
*344 FE_PHN196_bus_wbuf_23
*345 FE_PHN195_bus_wbuf_29
*346 FE_PHN194_bus_wbuf_28
*347 FE_PHN193_bus_wbuf_19
*348 FE_PHN192_bus_wbuf_31
*349 FE_PHN191_bus_wbuf_30
*350 FE_PHN190_bus_wbuf_24
*351 FE_PHN189_n_91
*352 FE_PHN188_n_4
*353 FE_PHN187_FE_OFN7_sram_addr_4
*354 FE_PHN186_n_10
*355 FE_PHN185_n_12
*356 FE_PHN184_n_6
*357 FE_PHN183_bus_addr_10
*358 FE_PHN182_FE_OFN3_sram_addr_8
*359 FE_PHN181_n_3
*360 FE_PHN180_bus_din_6
*361 FE_PHN179_bus_din_7
*362 FE_PHN178_bus_din_5
*363 FE_PHN177_bus_din_0
*364 FE_PHN176_bus_din_4
*365 FE_PHN175_bus_din_1
*366 FE_PHN174_bus_din_3
*367 FE_PHN173_bus_din_2
*368 FE_PHN171_tpu_dout_27
*369 FE_PHN169_tpu_dout_11
*370 FE_PHN167_tpu_dout_18
*371 FE_PHN165_tpu_dout_22
*372 FE_PHN163_tpu_dout_24
*373 FE_PHN161_tpu_dout_30
*374 FE_PHN159_tpu_dout_16
*375 FE_PHN157_tpu_dout_28
*376 FE_PHN155_tpu_dout_6
*377 FE_PHN153_tpu_dout_25
*378 FE_PHN151_tpu_dout_31
*379 FE_PHN149_tpu_dout_12
*380 FE_PHN147_tpu_dout_17
*381 FE_PHN145_tpu_dout_19
*382 FE_PHN143_tpu_dout_9
*383 FE_PHN141_tpu_dout_0
*384 FE_PHN139_tpu_dout_23
*385 FE_PHN137_tpu_dout_26
*386 FE_PHN135_tpu_dout_29
*387 FE_PHN133_tpu_dout_33
*388 FE_PHN131_tpu_dout_7
*389 FE_PHN129_tpu_dout_8
*390 FE_PHN127_tpu_dout_15
*391 FE_PHN125_tpu_dout_21
*392 FE_PHN123_tpu_dout_20
*393 FE_PHN121_tpu_dout_42
*394 FE_PHN119_tpu_dout_45
*395 FE_PHN117_tpu_dout_36
*396 FE_PHN115_tpu_dout_5
*397 FE_PHN113_tpu_dout_13
*398 FE_PHN111_tpu_dout_56
*399 FE_PHN109_tpu_dout_59
*400 FE_PHN107_tpu_dout_47
*401 FE_PHN105_tpu_dout_40
*402 FE_PHN103_tpu_dout_38
*403 FE_PHN101_tpu_dout_34
*404 FE_PHN99_tpu_dout_1
*405 FE_PHN97_tpu_dout_2
*406 FE_PHN95_tpu_dout_14
*407 FE_PHN93_tpu_dout_60
*408 FE_PHN91_tpu_dout_52
*409 FE_PHN89_tpu_dout_37
*410 FE_PHN87_tpu_dout_32
*411 FE_PHN85_tpu_dout_35
*412 FE_PHN83_tpu_dout_10
*413 FE_PHN81_tpu_dout_62
*414 FE_PHN79_tpu_dout_58
*415 FE_PHN77_tpu_dout_55
*416 FE_PHN75_tpu_dout_44
*417 FE_PHN73_tpu_dout_46
*418 FE_PHN71_tpu_dout_39
*419 FE_PHN69_tpu_dout_41
*420 FE_PHN67_tpu_dout_3
*421 FE_PHN65_tpu_dout_63
*422 FE_PHN63_tpu_dout_49
*423 FE_PHN61_tpu_dout_4
*424 FE_PHN59_tpu_dout_54
*425 FE_PHN57_tpu_dout_61
*426 FE_PHN55_tpu_dout_57
*427 FE_PHN53_tpu_dout_53
*428 FE_PHN51_tpu_dout_51
*429 FE_PHN49_tpu_dout_50
*430 FE_PHN47_tpu_dout_48
*431 FE_PHN45_tpu_dout_43
*432 FE_PHN44_bus_wbuf_1
*433 FE_PHN43_bus_wbuf_2
*434 FE_PHN42_bus_wbuf_4
*435 FE_PHN41_bus_wbuf_3
*436 FE_PHN40_bus_wbuf_6
*437 FE_PHN39_bus_wbuf_7
*438 FE_PHN38_bus_wbuf_8
*439 FE_PHN37_bus_wbuf_5
*440 FE_PHN36_bus_wbuf_11
*441 FE_PHN35_bus_wbuf_9
*442 FE_PHN34_bus_wbuf_15
*443 FE_PHN33_bus_wbuf_13
*444 FE_PHN32_bus_wbuf_10
*445 FE_PHN31_bus_wbuf_12
*446 FE_PHN30_bus_wbuf_14
*447 FE_PHN29_bus_wbuf_54
*448 FE_PHN28_bus_wbuf_53
*449 FE_PHN27_bus_wbuf_50
*450 FE_PHN26_bus_wbuf_55
*451 FE_PHN25_bus_wbuf_51
*452 FE_PHN24_bus_wbuf_52
*453 FE_PHN23_bus_wbuf_49
*454 FE_PHN22_bus_wbuf_48
*455 FE_PHN21_rstn
*456 FE_PHN20_bus_addr_3
*457 FE_PHN19_bus_addr_4
*458 FE_PHN18_bus_addr_5
*459 FE_PHN17_bus_addr_6
*460 FE_PHN16_bus_addr_7
*461 FE_PHN15_tpu_re
*462 FE_PHN14_bus_we
*463 FE_PHN13_bus_addr_0
*464 FE_PHN12_bus_addr_1
*465 CTS_12
*466 CTS_11
*467 CTS_8
*468 CTS_7
*469 CTS_6
*470 CTS_5
*471 CTS_4
*472 CTS_3
*473 CTS_2
*474 CTS_1
*475 CTS_10
*476 CTS_9
*477 LTIELO_NET
*478 LTIEHI_NET
*479 FE_OFN11_sram_addr_0
*480 FE_OFN10_sram_addr_1
*481 FE_OFN9_sram_addr_2
*482 FE_OFN8_sram_addr_3
*483 FE_OFN7_sram_addr_4
*484 FE_OFN6_sram_addr_5
*485 FE_OFN5_sram_addr_6
*486 FE_OFN4_sram_addr_7
*487 FE_OFN3_sram_addr_8
*488 FE_OFN2_bus_we_d1
*489 FE_OFN1_tpu_re
*490 FE_OFN0_rstn
*491 clk
*492 rstn
*493 bus_we
*494 bus_addr[11]
*495 bus_addr[10]
*496 bus_addr[9]
*497 bus_addr[8]
*498 bus_addr[7]
*499 bus_addr[6]
*500 bus_addr[5]
*501 bus_addr[4]
*502 bus_addr[3]
*503 bus_addr[2]
*504 bus_addr[1]
*505 bus_addr[0]
*506 bus_din[7]
*507 bus_din[6]
*508 bus_din[5]
*509 bus_din[4]
*510 bus_din[3]
*511 bus_din[2]
*512 bus_din[1]
*513 bus_din[0]
*514 tpu_re
*515 tpu_addr[8]
*516 tpu_addr[7]
*517 tpu_addr[6]
*518 tpu_addr[5]
*519 tpu_addr[4]
*520 tpu_addr[3]
*521 tpu_addr[2]
*522 tpu_addr[1]
*523 tpu_addr[0]
*524 tpu_dout[63]
*525 tpu_dout[62]
*526 tpu_dout[61]
*527 tpu_dout[60]
*528 tpu_dout[59]
*529 tpu_dout[58]
*530 tpu_dout[57]
*531 tpu_dout[56]
*532 tpu_dout[55]
*533 tpu_dout[54]
*534 tpu_dout[53]
*535 tpu_dout[52]
*536 tpu_dout[51]
*537 tpu_dout[50]
*538 tpu_dout[49]
*539 tpu_dout[48]
*540 tpu_dout[47]
*541 tpu_dout[46]
*542 tpu_dout[45]
*543 tpu_dout[44]
*544 tpu_dout[43]
*545 tpu_dout[42]
*546 tpu_dout[41]
*547 tpu_dout[40]
*548 tpu_dout[39]
*549 tpu_dout[38]
*550 tpu_dout[37]
*551 tpu_dout[36]
*552 tpu_dout[35]
*553 tpu_dout[34]
*554 tpu_dout[33]
*555 tpu_dout[32]
*556 tpu_dout[31]
*557 tpu_dout[30]
*558 tpu_dout[29]
*559 tpu_dout[28]
*560 tpu_dout[27]
*561 tpu_dout[26]
*562 tpu_dout[25]
*563 tpu_dout[24]
*564 tpu_dout[23]
*565 tpu_dout[22]
*566 tpu_dout[21]
*567 tpu_dout[20]
*568 tpu_dout[19]
*569 tpu_dout[18]
*570 tpu_dout[17]
*571 tpu_dout[16]
*572 tpu_dout[15]
*573 tpu_dout[14]
*574 tpu_dout[13]
*575 tpu_dout[12]
*576 tpu_dout[11]
*577 tpu_dout[10]
*578 tpu_dout[9]
*579 tpu_dout[8]
*580 tpu_dout[7]
*581 tpu_dout[6]
*582 tpu_dout[5]
*583 tpu_dout[4]
*584 tpu_dout[3]
*585 tpu_dout[2]
*586 tpu_dout[1]
*587 tpu_dout[0]
*588 sram_addr[8]
*589 sram_addr[7]
*590 sram_addr[6]
*591 sram_addr[5]
*592 sram_addr[4]
*593 sram_addr[3]
*594 sram_addr[2]
*595 sram_addr[1]
*596 sram_addr[0]
*597 sram_din[63]
*598 sram_din[62]
*599 sram_din[61]
*600 sram_din[60]
*601 sram_din[59]
*602 sram_din[58]
*603 sram_din[57]
*604 sram_din[56]
*605 sram_din[55]
*606 sram_din[54]
*607 sram_din[53]
*608 sram_din[52]
*609 sram_din[51]
*610 sram_din[50]
*611 sram_din[49]
*612 sram_din[48]
*613 sram_din[47]
*614 sram_din[46]
*615 sram_din[45]
*616 sram_din[44]
*617 sram_din[43]
*618 sram_din[42]
*619 sram_din[41]
*620 sram_din[40]
*621 sram_din[39]
*622 sram_din[38]
*623 sram_din[37]
*624 sram_din[36]
*625 sram_din[35]
*626 sram_din[34]
*627 sram_din[33]
*628 sram_din[32]
*629 sram_din[31]
*630 sram_din[30]
*631 sram_din[29]
*632 sram_din[28]
*633 sram_din[27]
*634 sram_din[26]
*635 sram_din[25]
*636 sram_din[24]
*637 sram_din[23]
*638 sram_din[22]
*639 sram_din[21]
*640 sram_din[20]
*641 sram_din[19]
*642 sram_din[18]
*643 sram_din[17]
*644 sram_din[16]
*645 sram_din[15]
*646 sram_din[14]
*647 sram_din[13]
*648 sram_din[12]
*649 sram_din[11]
*650 sram_din[10]
*651 sram_din[9]
*652 sram_din[8]
*653 sram_din[7]
*654 sram_din[6]
*655 sram_din[5]
*656 sram_din[4]
*657 sram_din[3]
*658 sram_din[2]
*659 sram_din[1]
*660 sram_din[0]
*661 bus_waddr_d1[8]
*662 bus_waddr_d1[7]
*663 bus_waddr_d1[6]
*664 bus_waddr_d1[5]
*665 bus_waddr_d1[4]
*666 bus_waddr_d1[3]
*667 bus_waddr_d1[2]
*668 bus_waddr_d1[1]
*669 bus_waddr_d1[0]
*670 sram_addr_ff[8]
*671 sram_addr_ff[7]
*672 sram_addr_ff[6]
*673 sram_addr_ff[5]
*674 sram_addr_ff[4]
*675 sram_addr_ff[3]
*676 sram_addr_ff[2]
*677 sram_addr_ff[1]
*678 sram_addr_ff[0]
*679 sram_din_ff[63]
*680 sram_din_ff[62]
*681 sram_din_ff[61]
*682 sram_din_ff[60]
*683 sram_din_ff[59]
*684 sram_din_ff[58]
*685 sram_din_ff[57]
*686 sram_din_ff[56]
*687 sram_din_ff[55]
*688 sram_din_ff[54]
*689 sram_din_ff[53]
*690 sram_din_ff[52]
*691 sram_din_ff[51]
*692 sram_din_ff[50]
*693 sram_din_ff[49]
*694 sram_din_ff[48]
*695 sram_din_ff[47]
*696 sram_din_ff[46]
*697 sram_din_ff[45]
*698 sram_din_ff[44]
*699 sram_din_ff[43]
*700 sram_din_ff[42]
*701 sram_din_ff[41]
*702 sram_din_ff[40]
*703 sram_din_ff[39]
*704 sram_din_ff[38]
*705 sram_din_ff[37]
*706 sram_din_ff[36]
*707 sram_din_ff[35]
*708 sram_din_ff[34]
*709 sram_din_ff[33]
*710 sram_din_ff[32]
*711 sram_din_ff[31]
*712 sram_din_ff[30]
*713 sram_din_ff[29]
*714 sram_din_ff[28]
*715 sram_din_ff[27]
*716 sram_din_ff[26]
*717 sram_din_ff[25]
*718 sram_din_ff[24]
*719 sram_din_ff[23]
*720 sram_din_ff[22]
*721 sram_din_ff[21]
*722 sram_din_ff[20]
*723 sram_din_ff[19]
*724 sram_din_ff[18]
*725 sram_din_ff[17]
*726 sram_din_ff[16]
*727 sram_din_ff[15]
*728 sram_din_ff[14]
*729 sram_din_ff[13]
*730 sram_din_ff[12]
*731 sram_din_ff[11]
*732 sram_din_ff[10]
*733 sram_din_ff[9]
*734 sram_din_ff[8]
*735 sram_din_ff[7]
*736 sram_din_ff[6]
*737 sram_din_ff[5]
*738 sram_din_ff[4]
*739 sram_din_ff[3]
*740 sram_din_ff[2]
*741 sram_din_ff[1]
*742 sram_din_ff[0]
*743 bus_wbuf[63]
*744 bus_wbuf[62]
*745 bus_wbuf[61]
*746 bus_wbuf[60]
*747 bus_wbuf[59]
*748 bus_wbuf[58]
*749 bus_wbuf[57]
*750 bus_wbuf[56]
*751 bus_wbuf[55]
*752 bus_wbuf[54]
*753 bus_wbuf[53]
*754 bus_wbuf[52]
*755 bus_wbuf[51]
*756 bus_wbuf[50]
*757 bus_wbuf[49]
*758 bus_wbuf[48]
*759 bus_wbuf[47]
*760 bus_wbuf[46]
*761 bus_wbuf[45]
*762 bus_wbuf[44]
*763 bus_wbuf[43]
*764 bus_wbuf[42]
*765 bus_wbuf[41]
*766 bus_wbuf[40]
*767 bus_wbuf[39]
*768 bus_wbuf[38]
*769 bus_wbuf[37]
*770 bus_wbuf[36]
*771 bus_wbuf[35]
*772 bus_wbuf[34]
*773 bus_wbuf[33]
*774 bus_wbuf[32]
*775 bus_wbuf[31]
*776 bus_wbuf[30]
*777 bus_wbuf[29]
*778 bus_wbuf[28]
*779 bus_wbuf[27]
*780 bus_wbuf[26]
*781 bus_wbuf[25]
*782 bus_wbuf[24]
*783 bus_wbuf[23]
*784 bus_wbuf[22]
*785 bus_wbuf[21]
*786 bus_wbuf[20]
*787 bus_wbuf[19]
*788 bus_wbuf[18]
*789 bus_wbuf[17]
*790 bus_wbuf[16]
*791 bus_wbuf[15]
*792 bus_wbuf[14]
*793 bus_wbuf[13]
*794 bus_wbuf[12]
*795 bus_wbuf[11]
*796 bus_wbuf[10]
*797 bus_wbuf[9]
*798 bus_wbuf[8]
*799 bus_wbuf[7]
*800 bus_wbuf[6]
*801 bus_wbuf[5]
*802 bus_wbuf[4]
*803 bus_wbuf[3]
*804 bus_wbuf[2]
*805 bus_wbuf[1]
*806 bus_wbuf[0]
*807 UNCONNECTED
*808 UNCONNECTED0
*809 UNCONNECTED1
*810 UNCONNECTED2
*811 UNCONNECTED3
*812 UNCONNECTED4
*813 UNCONNECTED5
*814 UNCONNECTED6
*815 UNCONNECTED7
*816 UNCONNECTED8
*817 UNCONNECTED9
*818 UNCONNECTED10
*819 UNCONNECTED11
*820 UNCONNECTED12
*821 UNCONNECTED13
*822 UNCONNECTED14
*823 UNCONNECTED15
*824 UNCONNECTED16
*825 UNCONNECTED17
*826 UNCONNECTED18
*827 UNCONNECTED19
*828 UNCONNECTED20
*829 UNCONNECTED21
*830 UNCONNECTED22
*831 UNCONNECTED23
*832 UNCONNECTED24
*833 UNCONNECTED25
*834 UNCONNECTED26
*835 UNCONNECTED27
*836 UNCONNECTED28
*837 UNCONNECTED29
*838 UNCONNECTED30
*839 UNCONNECTED31
*840 UNCONNECTED32
*841 UNCONNECTED33
*842 UNCONNECTED34
*843 UNCONNECTED35
*844 UNCONNECTED36
*845 UNCONNECTED37
*846 UNCONNECTED38
*847 UNCONNECTED39
*848 UNCONNECTED40
*849 UNCONNECTED41
*850 UNCONNECTED42
*851 UNCONNECTED43
*852 UNCONNECTED44
*853 UNCONNECTED45
*854 UNCONNECTED46
*855 UNCONNECTED47
*856 UNCONNECTED48
*857 UNCONNECTED49
*858 UNCONNECTED50
*859 UNCONNECTED51
*860 UNCONNECTED52
*861 UNCONNECTED53
*862 UNCONNECTED54
*863 UNCONNECTED55
*864 UNCONNECTED56
*865 UNCONNECTED57
*866 UNCONNECTED58
*867 UNCONNECTED59
*868 UNCONNECTED60
*869 UNCONNECTED61
*870 UNCONNECTED62
*871 UNCONNECTED63
*872 UNCONNECTED64
*873 UNCONNECTED65
*874 UNCONNECTED66
*875 UNCONNECTED67
*876 UNCONNECTED68
*877 UNCONNECTED69
*878 UNCONNECTED70
*879 UNCONNECTED71
*880 UNCONNECTED72
*881 bus_we_d1
*882 n_0
*883 n_1
*884 n_2
*885 n_3
*886 n_4
*887 n_5
*888 n_6
*889 n_7
*890 n_8
*891 n_9
*892 n_10
*893 n_11
*894 n_12
*895 n_13
*896 n_14
*897 n_15
*898 n_16
*899 n_17
*900 n_18
*901 n_19
*902 n_20
*903 n_21
*904 n_22
*905 n_23
*906 n_24
*907 n_25
*908 n_26
*909 n_27
*910 n_28
*911 n_29
*912 n_30
*913 n_31
*914 n_32
*915 n_33
*916 n_34
*917 n_35
*918 n_36
*919 n_37
*920 n_38
*921 n_39
*922 n_40
*923 n_41
*924 n_42
*925 n_43
*926 n_44
*927 n_45
*928 n_46
*929 n_47
*930 n_48
*931 n_49
*932 n_50
*933 n_51
*934 n_52
*935 n_53
*936 n_54
*937 n_55
*938 n_56
*939 n_57
*940 n_58
*941 n_59
*942 n_60
*943 n_61
*944 n_62
*945 n_63
*946 n_64
*947 n_65
*948 n_66
*949 n_67
*950 n_68
*951 n_69
*952 n_70
*953 n_71
*954 n_72
*955 n_73
*956 n_74
*957 n_75
*958 n_76
*959 n_77
*960 n_78
*961 n_79
*962 n_80
*963 n_81
*964 n_82
*965 n_83
*966 n_84
*967 n_85
*968 n_86
*969 n_89
*970 n_90
*971 n_91
*972 sram_cen
*973 sram_cen_ff
*974 sram_wen
*975 FE_PDC542_tpu_dout_58
*976 FE_PDC540_tpu_dout_54
*977 FE_PHC538_bus_din_5
*978 FE_PHC537_bus_din_5
*979 FE_PHC536_bus_din_5
*980 FE_PHC535_bus_din_5
*981 FE_PHC534_bus_din_5
*982 FE_PHC533_bus_din_5
*983 FE_PHC532_bus_din_5
*984 FE_PHC531_bus_din_5
*985 FE_PHC530_bus_din_5
*986 FE_PHC529_bus_din_5
*987 FE_PHC528_bus_din_5
*988 FE_PHC527_bus_din_5
*989 FE_PHC526_bus_din_3
*990 FE_PHC525_bus_din_5
*991 FE_PHC524_bus_din_5
*992 FE_PHC523_bus_din_3
*993 FE_PHC522_bus_din_5
*994 FE_PHC521_bus_din_5
*995 FE_PHC520_bus_din_3
*996 FE_PHC519_bus_din_1
*997 FE_PHC518_bus_din_3
*998 FE_PHC517_bus_din_0
*999 FE_PHC516_bus_din_5
*1000 FE_PHC515_bus_din_4
*1001 FE_PHC514_bus_addr_2
*1002 FE_PHC513_bus_din_5
*1003 FE_PHC512_bus_din_1
*1004 FE_PHC511_bus_din_2
*1005 FE_PHC510_bus_din_7
*1006 FE_PHC509_bus_din_0
*1007 FE_PHC508_bus_din_0
*1008 FE_PHC507_bus_din_0
*1009 FE_PHC506_bus_din_0
*1010 FE_PHC505_bus_din_0
*1011 FE_PHC504_bus_din_0
*1012 FE_PHC503_bus_din_0
*1013 FE_PHC502_bus_din_0
*1014 FE_PHC501_bus_din_3
*1015 FE_PHC500_bus_din_0
*1016 FE_PHC499_bus_din_3
*1017 FE_PHC498_bus_din_0
*1018 FE_PHC497_bus_din_3
*1019 FE_PHC496_bus_din_6
*1020 FE_PHC495_bus_din_0
*1021 FE_PHC494_bus_din_3
*1022 FE_PHC493_bus_din_6
*1023 FE_PHC492_bus_din_0
*1024 FE_PHC491_bus_din_3
*1025 FE_PHC490_bus_din_1
*1026 FE_PHC489_bus_din_6
*1027 FE_PHC488_bus_din_0
*1028 FE_PHC487_bus_din_3
*1029 FE_PHC486_bus_din_6
*1030 FE_PHC485_bus_din_1
*1031 FE_PHC484_bus_din_3
*1032 FE_PHC483_bus_din_0
*1033 FE_PHC482_bus_din_1
*1034 FE_PHC481_bus_din_6
*1035 FE_PHC480_bus_din_0
*1036 FE_PHC479_bus_din_3
*1037 FE_PHC478_bus_din_1
*1038 FE_PHC477_bus_din_6
*1039 FE_PHC476_bus_din_4
*1040 FE_PHC475_bus_din_6
*1041 FE_PHC474_bus_din_1
*1042 FE_PHC473_bus_din_0
*1043 FE_PHC472_bus_din_3
*1044 FE_PHC471_bus_din_2
*1045 FE_PHC470_bus_din_4
*1046 FE_PHC469_bus_din_6
*1047 FE_PHC468_bus_din_3
*1048 FE_PHC467_bus_din_1
*1049 FE_PHC466_bus_din_2
*1050 FE_PHC465_bus_din_0
*1051 FE_PHC464_bus_din_4
*1052 FE_PHC463_bus_din_2
*1053 FE_PHC462_bus_din_0
*1054 FE_PHC461_bus_din_1
*1055 FE_PHC460_bus_din_6
*1056 FE_PHC459_bus_din_4
*1057 FE_PHC458_bus_din_1
*1058 FE_PHC457_bus_din_6
*1059 FE_PHC456_bus_din_3
*1060 FE_PHC455_bus_din_1
*1061 FE_PHC454_bus_din_0
*1062 FE_PHC453_bus_din_2
*1063 FE_PHC452_bus_din_4
*1064 FE_PHC451_bus_din_1
*1065 FE_PHC450_bus_din_2
*1066 FE_PHC449_bus_din_0
*1067 FE_PHC448_bus_din_1
*1068 FE_PHC447_bus_din_2
*1069 FE_PHC446_bus_din_4
*1070 FE_PHC445_bus_din_3
*1071 FE_PHC444_bus_din_6
*1072 FE_PHC443_bus_din_1
*1073 FE_PHC442_bus_din_2
*1074 FE_PHC441_bus_din_3
*1075 FE_PHC440_bus_din_4
*1076 FE_PHC439_bus_din_0
*1077 FE_PHC438_bus_din_1
*1078 FE_PHC437_bus_din_3
*1079 FE_PHC436_bus_din_2
*1080 FE_PHC435_bus_din_4
*1081 FE_PHC434_bus_din_6
*1082 FE_PHC433_bus_din_7
*1083 FE_PHC432_bus_din_0
*1084 FE_PHC431_bus_din_6
*1085 FE_PHC430_bus_din_2
*1086 FE_PHC429_bus_din_1
*1087 FE_PHC428_bus_din_3
*1088 FE_PHC427_bus_din_4
*1089 FE_PHC426_bus_din_7
*1090 FE_PHC425_bus_din_1
*1091 FE_PHC424_bus_din_0
*1092 FE_PHC423_bus_din_2
*1093 FE_PHC422_bus_din_4
*1094 FE_PHC421_bus_din_3
*1095 FE_PHC420_bus_din_7
*1096 FE_PHC419_bus_addr_7
*1097 FE_PHC418_FE_OFN4_sram_addr_7
*1098 FE_PHC417_bus_addr_11
*1099 FE_PHC416_bus_addr_9
*1100 FE_PHC415_bus_addr_6
*1101 FE_PHC414_bus_addr_10
*1102 FE_PHC413_bus_addr_2
*1103 FE_PHC412_bus_din_1
*1104 FE_PHC411_bus_din_6
*1105 FE_PHC410_bus_din_2
*1106 FE_PHC409_bus_din_5
*1107 FE_PHC408_bus_addr_8
*1108 FE_PHC407_bus_addr_8
*1109 FE_PHC406_bus_addr_8
*1110 FE_PHC405_bus_addr_8
*1111 FE_PHC404_bus_addr_8
*1112 FE_PHC403_bus_addr_8
*1113 FE_PHC402_bus_addr_8
*1114 FE_PHC401_tpu_dout_3
*1115 FE_PHC400_tpu_dout_1
*1116 FE_PHC399_bus_addr_8
*1117 FE_PHC398_tpu_dout_3
*1118 FE_PHC397_tpu_dout_1
*1119 FE_PHC396_bus_addr_9
*1120 FE_PHC395_bus_addr_8
*1121 FE_PHC394_tpu_dout_0
*1122 FE_PHC393_tpu_dout_3
*1123 FE_PHC392_tpu_dout_1
*1124 FE_PHC391_bus_addr_9
*1125 FE_PHC390_bus_addr_8
*1126 FE_PHC389_tpu_dout_1
*1127 FE_PHC388_tpu_dout_3
*1128 FE_PHC387_bus_addr_9
*1129 FE_PHC386_tpu_dout_0
*1130 FE_PHC385_bus_addr_8
*1131 FE_PHC384_bus_addr_9
*1132 FE_PHC383_tpu_dout_1
*1133 FE_PHC382_tpu_dout_3
*1134 FE_PHC381_tpu_dout_0
*1135 FE_PHC380_bus_addr_8
*1136 FE_PHC379_bus_addr_9
*1137 FE_PHC378_tpu_dout_1
*1138 FE_PHC377_tpu_dout_3
*1139 FE_PHC376_tpu_dout_0
*1140 FE_PHC375_bus_addr_9
*1141 FE_PHC374_bus_addr_8
*1142 FE_PHC373_tpu_dout_1
*1143 FE_PHC372_tpu_dout_3
*1144 FE_PHC371_tpu_dout_0
*1145 FE_PHC370_bus_addr_3
*1146 FE_PHC369_bus_addr_11
*1147 FE_PHC368_bus_addr_8
*1148 FE_PHC367_bus_addr_9
*1149 FE_PHC366_tpu_dout_1
*1150 FE_PHC365_tpu_dout_3
*1151 FE_PHC364_tpu_dout_0
*1152 FE_PHC363_bus_addr_3
*1153 FE_PHC362_bus_addr_11
*1154 FE_PHC361_bus_addr_9
*1155 FE_PHC360_bus_addr_8
*1156 FE_PHC359_tpu_dout_3
*1157 FE_PHC358_tpu_dout_1
*1158 FE_PHC357_tpu_dout_0
*1159 FE_PHC356_bus_addr_3
*1160 FE_PHC355_bus_addr_11
*1161 FE_PHC354_bus_addr_9
*1162 FE_PHC353_bus_addr_8
*1163 FE_PHC352_tpu_dout_3
*1164 FE_PHC351_tpu_dout_1
*1165 FE_PHC350_bus_addr_11
*1166 FE_PHC349_bus_addr_7
*1167 FE_PHC348_bus_wbuf_0
*1168 FE_PHC347_FE_OFN10_sram_addr_1
*1169 FE_PHC346_bus_addr_11
*1170 FE_PHC345_tpu_dout_0
*1171 FE_PHC344_bus_addr_7
*1172 FE_PHC343_bus_wbuf_0
*1173 FE_PHC342_bus_addr_3
*1174 FE_PHC341_bus_addr_6
*1175 FE_PHC340_bus_addr_5
*1176 FE_PHC339_bus_addr_4
*1177 FE_PHC338_tpu_addr_7
*1178 FE_PHC337_bus_addr_10
*1179 FE_PHC336_FE_OFN10_sram_addr_1
*1180 FE_PHC335_tpu_dout_31
*1181 FE_PHC334_FE_OFN11_sram_addr_0
*1182 FE_PHC333_tpu_dout_31
*1183 FE_PHC331_tpu_dout_12
*1184 FE_PHC330_tpu_dout_18
*1185 FE_PHC329_tpu_dout_19
*1186 FE_PHC328_tpu_dout_2
*1187 FE_PHC327_tpu_dout_17
*1188 FE_PHC326_tpu_dout_5
*1189 FE_PHC325_tpu_dout_8
*1190 FE_PHC324_bus_wbuf_0
*1191 FE_PHC323_tpu_re
*1192 FE_PHC322_bus_addr_6
*1193 FE_PHC321_tpu_addr_7
*1194 FE_PHC320_bus_addr_5
*1195 FE_PHC319_bus_addr_4
*1196 FE_PHC318_bus_addr_10
*1197 FE_PHC317_tpu_dout_23
*1198 FE_PHC316_tpu_dout_21
*1199 FE_PHC315_tpu_dout_20
*1200 FE_PHC314_FE_OFN9_sram_addr_2
*1201 FE_PHC313_FE_OFN8_sram_addr_3
*1202 FE_PHC312_FE_OFN7_sram_addr_4
*1203 FE_PHC311_FE_OFN6_sram_addr_5
*1204 FE_PHC310_FE_OFN5_sram_addr_6
*1205 FE_PHC309_FE_OFN10_sram_addr_1
*1206 FE_PHC308_FE_OFN11_sram_addr_0
*1207 FE_PHC307_n_8
*1208 FE_PHC306_bus_din_1
*1209 FE_PHC305_bus_din_0
*1210 FE_PHC304_bus_wbuf_0
*1211 FE_PHC303_bus_din_6
*1212 FE_PHC302_bus_din_2
*1213 FE_PHC301_bus_din_3
*1214 FE_PHC300_bus_din_4
*1215 FE_PHC299_bus_din_5
*1216 FE_PHC298_bus_din_7
*1217 FE_PHC297_tpu_addr_8
*1218 FE_PHC296_tpu_dout_19
*1219 FE_PHC295_tpu_dout_18
*1220 FE_PHC294_tpu_dout_13
*1221 FE_PHC293_tpu_dout_7
*1222 FE_PHC292_tpu_dout_11
*1223 FE_PHC291_tpu_dout_6
*1224 FE_PHC290_tpu_dout_4
*1225 FE_PHC289_tpu_dout_9
*1226 FE_PHC288_tpu_dout_2
*1227 FE_PHC287_tpu_dout_10
*1228 FE_PHC286_tpu_dout_8
*1229 FE_PHC285_tpu_dout_14
*1230 FE_PHC284_tpu_dout_5
*1231 FE_PHC283_tpu_dout_17
*1232 FE_PHC282_tpu_dout_52
*1233 FE_PHC281_tpu_dout_60
*1234 FE_PHC280_tpu_dout_56
*1235 FE_PHC279_tpu_dout_55
*1236 FE_PHC278_tpu_dout_12
*1237 FE_PHC277_tpu_dout_54
*1238 FE_PHC276_tpu_dout_58
*1239 FE_PHC275_tpu_dout_57
*1240 FE_PHC274_tpu_dout_59
*1241 FE_PHC273_tpu_dout_50
*1242 FE_PHC272_tpu_dout_51
*1243 FE_PHC271_tpu_dout_53
*1244 FE_PHC270_tpu_dout_62
*1245 FE_PHC269_tpu_dout_47
*1246 FE_PHC268_tpu_dout_48
*1247 FE_PHC267_tpu_dout_49
*1248 FE_PHC266_tpu_dout_61
*1249 FE_PHC265_tpu_dout_44
*1250 FE_PHC264_tpu_dout_63
*1251 FE_PHC263_tpu_dout_40
*1252 FE_PHC262_tpu_dout_46
*1253 FE_PHC261_tpu_dout_43
*1254 FE_PHC260_tpu_dout_39
*1255 FE_PHC259_tpu_dout_45
*1256 FE_PHC258_tpu_dout_41
*1257 FE_PHC257_tpu_dout_38
*1258 FE_PHC256_tpu_dout_37
*1259 FE_PHC255_tpu_dout_36
*1260 FE_PHC254_tpu_dout_32
*1261 FE_PHC253_tpu_dout_34
*1262 FE_PHC252_tpu_dout_35
*1263 FE_PHC251_tpu_dout_33
*1264 FE_PHC250_tpu_dout_27
*1265 FE_PHC249_tpu_dout_24
*1266 FE_PHC248_tpu_dout_22
*1267 FE_PHC247_tpu_dout_25
*1268 FE_PHC246_tpu_dout_26
*1269 FE_PHC245_tpu_dout_28
*1270 FE_PHC244_tpu_dout_29
*1271 FE_PHC243_tpu_dout_30
*1272 FE_PHC242_bus_addr_11
*1273 FE_PHC241_bus_addr_8
*1274 FE_PHC240_bus_addr_9
*1275 FE_PHC239_tpu_re
*1276 FE_PHC238_tpu_dout_42
*1277 FE_PHC237_tpu_dout_16
*1278 FE_PHC236_tpu_dout_15
*1279 FE_PHC235_bus_addr_1
*1280 FE_PHC234_FE_OFN9_sram_addr_2
*1281 FE_PHC233_FE_OFN8_sram_addr_3
*1282 FE_PHC232_FE_OFN5_sram_addr_6
*1283 FE_PHC231_FE_OFN6_sram_addr_5
*1284 FE_PHC230_bus_wbuf_57
*1285 FE_PHC229_bus_wbuf_58
*1286 FE_PHC228_bus_wbuf_59
*1287 FE_PHC227_bus_wbuf_61
*1288 FE_PHC226_bus_wbuf_60
*1289 FE_PHC225_bus_wbuf_63
*1290 FE_PHC224_bus_wbuf_56
*1291 FE_PHC223_bus_wbuf_62
*1292 FE_PHC222_bus_wbuf_47
*1293 FE_PHC221_bus_wbuf_46
*1294 FE_PHC220_bus_wbuf_43
*1295 FE_PHC219_bus_wbuf_41
*1296 FE_PHC218_bus_wbuf_45
*1297 FE_PHC217_bus_wbuf_32
*1298 FE_PHC216_bus_wbuf_44
*1299 FE_PHC215_bus_wbuf_42
*1300 FE_PHC214_bus_wbuf_38
*1301 FE_PHC213_bus_wbuf_37
*1302 FE_PHC212_bus_wbuf_40
*1303 FE_PHC211_bus_wbuf_39
*1304 FE_PHC210_bus_wbuf_36
*1305 FE_PHC209_bus_wbuf_35
*1306 FE_PHC208_bus_wbuf_34
*1307 FE_PHC207_bus_wbuf_33
*1308 FE_PHC206_FE_OFN4_sram_addr_7
*1309 FE_PHC205_bus_wbuf_18
*1310 FE_PHC204_bus_wbuf_17
*1311 FE_PHC203_bus_wbuf_27
*1312 FE_PHC202_bus_wbuf_22
*1313 FE_PHC201_bus_wbuf_21
*1314 FE_PHC200_bus_wbuf_20
*1315 FE_PHC199_bus_wbuf_16
*1316 FE_PHC198_bus_wbuf_26
*1317 FE_PHC197_bus_wbuf_25
*1318 FE_PHC196_bus_wbuf_23
*1319 FE_PHC195_bus_wbuf_29
*1320 FE_PHC194_bus_wbuf_28
*1321 FE_PHC193_bus_wbuf_19
*1322 FE_PHC192_bus_wbuf_31
*1323 FE_PHC191_bus_wbuf_30
*1324 FE_PHC190_bus_wbuf_24
*1325 FE_PHC189_n_91
*1326 FE_PHC188_n_4
*1327 FE_PHC187_FE_OFN7_sram_addr_4
*1328 FE_PHC186_n_10
*1329 FE_PHC185_n_12
*1330 FE_PHC184_n_6
*1331 FE_PHC183_bus_addr_10
*1332 FE_PHC182_FE_OFN3_sram_addr_8
*1333 FE_PHC181_n_3
*1334 FE_PHC180_bus_din_6
*1335 FE_PHC179_bus_din_7
*1336 FE_PHC178_bus_din_5
*1337 FE_PHC177_bus_din_0
*1338 FE_PHC176_bus_din_4
*1339 FE_PHC175_bus_din_1
*1340 FE_PHC174_bus_din_3
*1341 FE_PHC173_bus_din_2
*1342 FE_PHC172_tpu_dout_27
*1343 FE_PHC170_tpu_dout_11
*1344 FE_PHC168_tpu_dout_18
*1345 FE_PHC166_tpu_dout_22
*1346 FE_PHC164_tpu_dout_24
*1347 FE_PHC162_tpu_dout_30
*1348 FE_PHC160_tpu_dout_16
*1349 FE_PHC158_tpu_dout_28
*1350 FE_PHC156_tpu_dout_6
*1351 FE_PHC154_tpu_dout_25
*1352 FE_PHC152_tpu_dout_31
*1353 FE_PHC150_tpu_dout_12
*1354 FE_PHC148_tpu_dout_17
*1355 FE_PHC146_tpu_dout_19
*1356 FE_PHC144_tpu_dout_9
*1357 FE_PHC142_tpu_dout_0
*1358 FE_PHC140_tpu_dout_23
*1359 FE_PHC138_tpu_dout_26
*1360 FE_PHC136_tpu_dout_29
*1361 FE_PHC134_tpu_dout_33
*1362 FE_PHC132_tpu_dout_7
*1363 FE_PHC130_tpu_dout_8
*1364 FE_PHC128_tpu_dout_15
*1365 FE_PHC126_tpu_dout_21
*1366 FE_PHC124_tpu_dout_20
*1367 FE_PHC122_tpu_dout_42
*1368 FE_PHC120_tpu_dout_45
*1369 FE_PHC118_tpu_dout_36
*1370 FE_PHC116_tpu_dout_5
*1371 FE_PHC114_tpu_dout_13
*1372 FE_PHC112_tpu_dout_56
*1373 FE_PHC110_tpu_dout_59
*1374 FE_PHC108_tpu_dout_47
*1375 FE_PHC106_tpu_dout_40
*1376 FE_PHC104_tpu_dout_38
*1377 FE_PHC102_tpu_dout_34
*1378 FE_PHC100_tpu_dout_1
*1379 FE_PHC98_tpu_dout_2
*1380 FE_PHC96_tpu_dout_14
*1381 FE_PHC94_tpu_dout_60
*1382 FE_PHC92_tpu_dout_52
*1383 FE_PHC90_tpu_dout_37
*1384 FE_PHC88_tpu_dout_32
*1385 FE_PHC86_tpu_dout_35
*1386 FE_PHC84_tpu_dout_10
*1387 FE_PHC82_tpu_dout_62
*1388 FE_PHC80_tpu_dout_58
*1389 FE_PHC78_tpu_dout_55
*1390 FE_PHC76_tpu_dout_44
*1391 FE_PHC74_tpu_dout_46
*1392 FE_PHC72_tpu_dout_39
*1393 FE_PHC70_tpu_dout_41
*1394 FE_PHC68_tpu_dout_3
*1395 FE_PHC66_tpu_dout_63
*1396 FE_PHC64_tpu_dout_49
*1397 FE_PHC62_tpu_dout_4
*1398 FE_PHC60_tpu_dout_54
*1399 FE_PHC58_tpu_dout_61
*1400 FE_PHC56_tpu_dout_57
*1401 FE_PHC54_tpu_dout_53
*1402 FE_PHC52_tpu_dout_51
*1403 FE_PHC50_tpu_dout_50
*1404 FE_PHC48_tpu_dout_48
*1405 FE_PHC46_tpu_dout_43
*1406 FE_PHC44_bus_wbuf_1
*1407 FE_PHC43_bus_wbuf_2
*1408 FE_PHC42_bus_wbuf_4
*1409 FE_PHC41_bus_wbuf_3
*1410 FE_PHC40_bus_wbuf_6
*1411 FE_PHC39_bus_wbuf_7
*1412 FE_PHC38_bus_wbuf_8
*1413 FE_PHC37_bus_wbuf_5
*1414 FE_PHC36_bus_wbuf_11
*1415 FE_PHC35_bus_wbuf_9
*1416 FE_PHC34_bus_wbuf_15
*1417 FE_PHC33_bus_wbuf_13
*1418 FE_PHC32_bus_wbuf_10
*1419 FE_PHC31_bus_wbuf_12
*1420 FE_PHC30_bus_wbuf_14
*1421 FE_PHC29_bus_wbuf_54
*1422 FE_PHC28_bus_wbuf_53
*1423 FE_PHC27_bus_wbuf_50
*1424 FE_PHC26_bus_wbuf_55
*1425 FE_PHC25_bus_wbuf_51
*1426 FE_PHC24_bus_wbuf_52
*1427 FE_PHC23_bus_wbuf_49
*1428 FE_PHC22_bus_wbuf_48
*1429 FE_PHC21_rstn
*1430 FE_PHC20_bus_addr_3
*1431 FE_PHC19_bus_addr_4
*1432 FE_PHC18_bus_addr_5
*1433 FE_PHC17_bus_addr_6
*1434 FE_PHC16_bus_addr_7
*1435 FE_PHC15_tpu_re
*1436 FE_PHC14_bus_we
*1437 FE_PHC13_bus_addr_0
*1438 FE_PHC12_bus_addr_1
*1439 CTS_ccl_a_inv_00009
*1440 CTS_ccl_a_inv_00008
*1441 CTS_ccl_a_inv_00007
*1442 CTS_ccl_a_inv_00006
*1443 CTS_ccl_a_inv_00005
*1444 CTS_ccl_a_inv_00004
*1445 CTS_ccl_a_inv_00003
*1446 CTS_ccl_a_inv_00002
*1447 CTS_ccl_a_inv_00001
*1448 CTS_ccl_a_inv_00010
*1449 CTS_ccl_a_inv_00011
*1450 CTS_cmf_inv_00057
*1451 LTIELO
*1452 LTIEHI
*1453 FE_OFC11_sram_addr_0
*1454 FE_OFC10_sram_addr_1
*1455 FE_OFC9_sram_addr_2
*1456 FE_OFC8_sram_addr_3
*1457 FE_OFC7_sram_addr_4
*1458 FE_OFC6_sram_addr_5
*1459 FE_OFC5_sram_addr_6
*1460 FE_OFC4_sram_addr_7
*1461 FE_OFC3_sram_addr_8
*1462 FE_OFC2_bus_we_d1
*1463 FE_OFC1_tpu_re
*1464 FE_OFC0_rstn
*1465 u_sram
*1466 bus_waddr_d1_reg\[0\]
*1467 bus_waddr_d1_reg\[1\]
*1468 bus_waddr_d1_reg\[2\]
*1469 bus_waddr_d1_reg\[3\]
*1470 bus_waddr_d1_reg\[4\]
*1471 bus_waddr_d1_reg\[5\]
*1472 bus_waddr_d1_reg\[6\]
*1473 bus_waddr_d1_reg\[7\]
*1474 bus_waddr_d1_reg\[8\]
*1475 sram_addr_ff_reg\[0\]
*1476 sram_addr_ff_reg\[1\]
*1477 sram_addr_ff_reg\[2\]
*1478 sram_addr_ff_reg\[3\]
*1479 sram_addr_ff_reg\[4\]
*1480 sram_addr_ff_reg\[5\]
*1481 sram_addr_ff_reg\[6\]
*1482 sram_addr_ff_reg\[7\]
*1483 sram_addr_ff_reg\[8\]
*1484 sram_din_ff_reg\[0\]
*1485 sram_din_ff_reg\[1\]
*1486 sram_din_ff_reg\[2\]
*1487 sram_din_ff_reg\[3\]
*1488 sram_din_ff_reg\[4\]
*1489 sram_din_ff_reg\[5\]
*1490 sram_din_ff_reg\[6\]
*1491 sram_din_ff_reg\[7\]
*1492 sram_din_ff_reg\[8\]
*1493 sram_din_ff_reg\[9\]
*1494 sram_din_ff_reg\[10\]
*1495 sram_din_ff_reg\[11\]
*1496 sram_din_ff_reg\[12\]
*1497 sram_din_ff_reg\[13\]
*1498 sram_din_ff_reg\[14\]
*1499 sram_din_ff_reg\[15\]
*1500 sram_din_ff_reg\[16\]
*1501 sram_din_ff_reg\[17\]
*1502 sram_din_ff_reg\[18\]
*1503 sram_din_ff_reg\[19\]
*1504 sram_din_ff_reg\[20\]
*1505 sram_din_ff_reg\[21\]
*1506 sram_din_ff_reg\[22\]
*1507 sram_din_ff_reg\[23\]
*1508 sram_din_ff_reg\[24\]
*1509 sram_din_ff_reg\[25\]
*1510 sram_din_ff_reg\[26\]
*1511 sram_din_ff_reg\[27\]
*1512 sram_din_ff_reg\[28\]
*1513 sram_din_ff_reg\[29\]
*1514 sram_din_ff_reg\[30\]
*1515 sram_din_ff_reg\[31\]
*1516 sram_din_ff_reg\[32\]
*1517 sram_din_ff_reg\[33\]
*1518 sram_din_ff_reg\[34\]
*1519 sram_din_ff_reg\[35\]
*1520 sram_din_ff_reg\[36\]
*1521 sram_din_ff_reg\[37\]
*1522 sram_din_ff_reg\[38\]
*1523 sram_din_ff_reg\[39\]
*1524 sram_din_ff_reg\[40\]
*1525 sram_din_ff_reg\[41\]
*1526 sram_din_ff_reg\[42\]
*1527 sram_din_ff_reg\[43\]
*1528 sram_din_ff_reg\[44\]
*1529 sram_din_ff_reg\[45\]
*1530 sram_din_ff_reg\[46\]
*1531 sram_din_ff_reg\[47\]
*1532 sram_din_ff_reg\[48\]
*1533 sram_din_ff_reg\[49\]
*1534 sram_din_ff_reg\[50\]
*1535 sram_din_ff_reg\[51\]
*1536 sram_din_ff_reg\[52\]
*1537 sram_din_ff_reg\[53\]
*1538 sram_din_ff_reg\[54\]
*1539 sram_din_ff_reg\[55\]
*1540 sram_din_ff_reg\[56\]
*1541 sram_din_ff_reg\[57\]
*1542 sram_din_ff_reg\[58\]
*1543 sram_din_ff_reg\[59\]
*1544 sram_din_ff_reg\[60\]
*1545 sram_din_ff_reg\[61\]
*1546 sram_din_ff_reg\[62\]
*1547 sram_din_ff_reg\[63\]
*1548 p11362A__2398
*1549 p11362A3056__5107
*1550 p11362A3057__6260
*1551 p11362A3058__4319
*1552 p11362A3059__8428
*1553 p11362A3060__5526
*1554 p11362A3061__6783
*1555 p11362A3062__3680
*1556 p11362A3063__1617
*1557 p11608A__2802
*1558 p11608A3064__1705
*1559 p11608A3065__5122
*1560 p11608A3066__8246
*1561 p11608A3067__7098
*1562 p11608A3068__6131
*1563 p11608A3069__1881
*1564 p11608A3070__5115
*1565 p11608A3071__7482
*1566 p11608A3072__4733
*1567 p11608A3073__6161
*1568 p11608A3074__9315
*1569 p11608A3075__9945
*1570 p11608A3076__2883
*1571 p11608A3077__2346
*1572 p11608A3078__1666
*1573 p11608A3079__7410
*1574 p11608A3080__6417
*1575 p11608A3081__5477
*1576 p11608A3082__2398
*1577 p11608A3083__5107
*1578 p11608A3084__6260
*1579 p11608A3085__4319
*1580 p11608A3086__8428
*1581 p11608A3087__5526
*1582 p11608A3088__6783
*1583 p11608A3089__3680
*1584 p11608A3090__1617
*1585 p11608A3091__2802
*1586 p11608A3092__1705
*1587 p11608A3093__5122
*1588 p11608A3094__8246
*1589 p11608A3095__7098
*1590 p11608A3096__6131
*1591 p11608A3097__1881
*1592 p11608A3098__5115
*1593 p11608A3099__7482
*1594 p11608A3100__4733
*1595 p11608A3101__6161
*1596 p11608A3102__9315
*1597 p11608A3103__9945
*1598 p11608A3104__2883
*1599 p11608A3105__2346
*1600 p11608A3106__1666
*1601 p11608A3107__7410
*1602 p11608A3108__6417
*1603 p11608A3109__5477
*1604 p11608A3110__2398
*1605 p11608A3111__5107
*1606 p11608A3112__6260
*1607 p11608A3113__4319
*1608 p11608A3114__8428
*1609 p11608A3115__5526
*1610 p11608A3116__6783
*1611 p11608A3117__3680
*1612 p11608A3118__1617
*1613 p11608A3119__2802
*1614 p11608A3120__1705
*1615 p11608A3121__5122
*1616 p11608A3122__8246
*1617 p11608A3123__7098
*1618 p11608A3124__6131
*1619 p11608A3125__1881
*1620 p11608A3126__5115
*1621 p11422A__7482
*1622 p11422A3200__4733
*1623 p11422A3201__6161
*1624 p11422A3202__9315
*1625 p11422A3203__9945
*1626 p11422A3204__2883
*1627 p11422A3205__2346
*1628 p11422A3206__1666
*1629 p11422A3207__7410
*1630 p11422A3208__6417
*1631 p11774A__5477
*1632 p11422A3209__2398
*1633 p11422A3210__5107
*1634 p11422A3211__6260
*1635 p11422A3212__4319
*1636 p11422A3213__8428
*1637 p11422A3214__5526
*1638 p11422A3215__6783
*1639 p11422A3216__3680
*1640 p11422A3217__1617
*1641 p11422A3218__2802
*1642 p11422A3219__1705
*1643 p11422A3220__5122
*1644 p11422A3221__8246
*1645 p11422A3222__7098
*1646 p11422A3223__6131
*1647 p11422A3224__1881
*1648 p11422A3225__5115
*1649 p11422A3226__7482
*1650 p11422A3227__4733
*1651 p11422A3228__6161
*1652 p11422A3229__9315
*1653 p11422A3230__9945
*1654 p11422A3231__2883
*1655 p11422A3232__2346
*1656 p11422A3233__1666
*1657 p11774A3234__7410
*1658 p11422A3235__6417
*1659 p11422A3236__5477
*1660 p11422A3237__2398
*1661 p11422A3238__5107
*1662 p11422A3239__6260
*1663 p11422A3240__4319
*1664 p11422A3241__8428
*1665 p11422A3242__5526
*1666 p11422A3243__6783
*1667 p11422A3244__3680
*1668 p11422A3245__1617
*1669 p11422A3246__2802
*1670 p11422A3247__1705
*1671 p11422A3248__5122
*1672 p11422A3249__8246
*1673 p11422A3250__7098
*1674 p11422A3251__6131
*1675 p11422A3252__1881
*1676 p11422A3253__5115
*1677 p11422A3254__7482
*1678 p11422A3255__4733
*1679 p11774A3256__6161
*1680 p11422A3257__9315
*1681 p11422A3258__9945
*1682 p11422A3259__2883
*1683 p11422A3260__2346
*1684 p11422A3261__1666
*1685 p11774A3262__7410
*1686 p11422A3263__6417
*1687 p11774A3264__5477
*1688 p11774A3265__2398
*1689 p11422A3266__5107
*1690 p11774A3267__6260
*1691 p11774A3268__4319
*1692 p11774A3269__8428
*1693 p11422A3270__5526
*1694 Fp23701A
*1695 p23616A__6783
*1696 p23543A__3680
*1697 p11189A__1617
*1698 p11168A__2802
*1699 p23533A__1705
*1700 bus_wbuf_reg\[0\]
*1701 bus_wbuf_reg\[1\]
*1702 bus_wbuf_reg\[2\]
*1703 bus_wbuf_reg\[3\]
*1704 bus_wbuf_reg\[4\]
*1705 bus_wbuf_reg\[5\]
*1706 bus_wbuf_reg\[6\]
*1707 bus_wbuf_reg\[7\]
*1708 bus_wbuf_reg\[8\]
*1709 bus_wbuf_reg\[9\]
*1710 bus_wbuf_reg\[10\]
*1711 bus_wbuf_reg\[11\]
*1712 bus_wbuf_reg\[12\]
*1713 bus_wbuf_reg\[13\]
*1714 bus_wbuf_reg\[14\]
*1715 bus_wbuf_reg\[15\]
*1716 bus_wbuf_reg\[16\]
*1717 bus_wbuf_reg\[17\]
*1718 bus_wbuf_reg\[18\]
*1719 bus_wbuf_reg\[19\]
*1720 bus_wbuf_reg\[20\]
*1721 bus_wbuf_reg\[21\]
*1722 bus_wbuf_reg\[22\]
*1723 bus_wbuf_reg\[23\]
*1724 bus_wbuf_reg\[24\]
*1725 bus_wbuf_reg\[25\]
*1726 bus_wbuf_reg\[26\]
*1727 bus_wbuf_reg\[27\]
*1728 bus_wbuf_reg\[28\]
*1729 bus_wbuf_reg\[29\]
*1730 bus_wbuf_reg\[30\]
*1731 bus_wbuf_reg\[31\]
*1732 bus_wbuf_reg\[32\]
*1733 bus_wbuf_reg\[33\]
*1734 bus_wbuf_reg\[34\]
*1735 bus_wbuf_reg\[35\]
*1736 bus_wbuf_reg\[36\]
*1737 bus_wbuf_reg\[37\]
*1738 bus_wbuf_reg\[38\]
*1739 bus_wbuf_reg\[39\]
*1740 bus_wbuf_reg\[40\]
*1741 bus_wbuf_reg\[41\]
*1742 bus_wbuf_reg\[42\]
*1743 bus_wbuf_reg\[43\]
*1744 bus_wbuf_reg\[44\]
*1745 bus_wbuf_reg\[45\]
*1746 bus_wbuf_reg\[46\]
*1747 bus_wbuf_reg\[47\]
*1748 bus_wbuf_reg\[48\]
*1749 bus_wbuf_reg\[49\]
*1750 bus_wbuf_reg\[50\]
*1751 bus_wbuf_reg\[51\]
*1752 bus_wbuf_reg\[52\]
*1753 bus_wbuf_reg\[53\]
*1754 bus_wbuf_reg\[54\]
*1755 bus_wbuf_reg\[55\]
*1756 bus_wbuf_reg\[56\]
*1757 bus_wbuf_reg\[57\]
*1758 bus_wbuf_reg\[58\]
*1759 bus_wbuf_reg\[59\]
*1760 bus_wbuf_reg\[60\]
*1761 bus_wbuf_reg\[61\]
*1762 bus_wbuf_reg\[62\]
*1763 bus_wbuf_reg\[63\]
*1764 sram_cen_ff_reg
*1765 p23572A__5122
*1766 p23649A__8246
*1767 p23572A3363__7098
*1768 p23649A3364__6131
*1769 p23566A__1881
*1770 p23658A__5115
*1771 p23607A__7482
*1772 p23658A3365__4733
*1773 p23566A3367__6161
*1774 p23639A__9315
*1775 p23529A__9945
*1776 Fp23597A
*1777 bus_we_d1_reg


*PORTS

*491 I *C 10 324
*492 I *C 15 324
*493 I *C 0 5
*494 I *C 0 48.2
*495 I *C 0 44.6
*496 I *C 0 41
*497 I *C 0 37.4
*498 I *C 0 33.8
*499 I *C 0 30.2
*500 I *C 0 26.6
*501 I *C 0 23
*502 I *C 0 19.4
*503 I *C 0 15.8
*504 I *C 0 12.2
*505 I *C 0 8.6
*506 I *C 0 77
*507 I *C 0 73.4
*508 I *C 0 69.8
*509 I *C 0 66.2
*510 I *C 0 62.6
*511 I *C 0 59
*512 I *C 0 55.4
*513 I *C 0 51.8
*514 I *C 155 5
*515 I *C 155 37.4
*516 I *C 155 33.8
*517 I *C 155 30.2
*518 I *C 155 26.6
*519 I *C 155 23
*520 I *C 155 19.4
*521 I *C 155 15.8
*522 I *C 155 12.2
*523 I *C 155 8.6
*524 O *C 155 267.8
*525 O *C 155 264.2
*526 O *C 155 260.6
*527 O *C 155 257
*528 O *C 155 253.4
*529 O *C 155 249.8
*530 O *C 155 246.2
*531 O *C 155 242.6
*532 O *C 155 239
*533 O *C 155 235.4
*534 O *C 155 231.8
*535 O *C 155 228.2
*536 O *C 155 224.6
*537 O *C 155 221
*538 O *C 155 217.4
*539 O *C 155 213.8
*540 O *C 155 210.2
*541 O *C 155 206.6
*542 O *C 155 203
*543 O *C 155 199.4
*544 O *C 155 195.8
*545 O *C 155 192.2
*546 O *C 155 188.6
*547 O *C 155 185
*548 O *C 155 181.4
*549 O *C 155 177.8
*550 O *C 155 174.2
*551 O *C 155 170.6
*552 O *C 155 167
*553 O *C 155 163.4
*554 O *C 155 159.8
*555 O *C 155 156.2
*556 O *C 155 152.6
*557 O *C 155 149
*558 O *C 155 145.4
*559 O *C 155 141.8
*560 O *C 155 138.2
*561 O *C 155 134.6
*562 O *C 155 131
*563 O *C 155 127.4
*564 O *C 155 123.8
*565 O *C 155 120.2
*566 O *C 155 116.6
*567 O *C 155 113
*568 O *C 155 109.4
*569 O *C 155 105.8
*570 O *C 155 102.2
*571 O *C 155 98.6
*572 O *C 155 95
*573 O *C 155 91.4
*574 O *C 155 87.8
*575 O *C 155 84.2
*576 O *C 155 80.6
*577 O *C 155 77
*578 O *C 155 73.4
*579 O *C 155 69.8
*580 O *C 155 66.2
*581 O *C 155 62.6
*582 O *C 155 59
*583 O *C 155 55.4
*584 O *C 155 51.8
*585 O *C 155 48.2
*586 O *C 155 44.6
*587 O *C 155 41


*D_NET *1 0.00517396

*CONN
*I *1388:Z O *C 150.7 276 *L 0 *D BUFFD8
*I *975:I I *C 140.5 256.8 *L 0.00287 *D BUFFD8

*CAP
1 *975:I 0.000120483
2 *1:2 0.000203409
3 *1:3 0.00117428008
4 *1:4 0.00100639
5 *1:2 *748:6 0.00117901
6 *1:3 *263:4 0.000220795996
7 *1:2 *311:7 0.00126958

*RES
1 *1:2 *1:4 14.3239002
2 *1388:Z *1:2 1.07949
3 *975:I *1:3 0.450026
4 *1:3 *1:4 6.4632
*END

*D_NET *2 0.00499486

*CONN
*I *1398:Z O *C 146.5 257.2 *L 0 *D BUFFD8
*I *976:I I *C 145.9 231.6 *L 0.00287 *D BUFFD8

*CAP
1 *1398:Z 0.000197035
2 *2:2 0.00462323
3 *2:3 0.000174601

*RES
1 *2:2 *2:3 16.9449997
2 *1398:Z *2:3 0.997008
3 *976:I *2:2 2.70971
*END

*D_NET *3 0.00564952

*CONN
*I *977:Z O *C 145.3 81.6 *L 0 *D BUFFD1
*I *1721:DB I *C 147.1 110.8 *L 0.0011 *D DFXQD1

*CAP
1 *1721:DB 0.000216232
2 *977:Z 0.000166018
3 *3:2 0.000516075
4 *3:3 0.000206065
5 *3:4 0.00016888
6 *3:5 0.000797946953
7 *3:3 *483:2 0.00151154
8 *3:3 *192:2 0.000242744004
9 *3:4 *216:2 0.00162875
10 *1721:DB *305:4 0.00019526

*RES
1 *3:2 *3:4 1.35901
2 *977:Z *3:3 0.949033
3 *3:4 *3:5 17.9601002
4 *1721:DB *3:2 2.41794
5 *3:3 *3:5 0.592769
*END

*D_NET *4 0.0111045

*CONN
*I *977:I I *C 144.7 82 *L 0.00072 *D BUFFD1
*I *978:Z O *C 151.9 135.8 *L 0 *D DEL005

*CAP
1 *4:2 0.000508728
2 *4:3 0.000301061
3 *4:4 6.40608e-05
4 *4:5 0.000220413
5 *4:6 0.000144505
6 *4:7 0.00267744
7 *4:2 *95:2 0.000330255
8 *4:2 *193:2 0.00291727
9 *4:2 *455:7 0.00283182
10 *4:2 *805:8 0.00110893

*RES
1 *4:6 *4:2 5.89462
2 *4:5 *4:7 1.58397
3 *4:3 *4:5 0.449927
4 *978:Z *4:4 0.449927
5 *4:2 *4:7 37.8031006
6 *977:I *4:3 0.224964
7 *4:4 *4:6 0.224964
*END

*D_NET *5 0.00371927

*CONN
*I *979:I I *C 138.3 82 *L 0.000643 *D CKBD0
*I *1106:Z O *C 139.7 106.8 *L 0 *D BUFFD2

*CAP
1 *5:2 0.000166279
2 *5:3 0.000317705
3 *5:4 0.0002997
4 *5:5 0.00237409
5 *5:6 0.000561471

*RES
1 *5:5 *5:6 16.0051994
2 *5:4 *5:6 0.592722
3 *979:I *5:3 1.30413
4 *5:3 *5:5 1.33222
5 *5:2 *5:4 0.617877
6 *1106:Z *5:2 0.224927
*END

*D_NET *6 0.00492752

*CONN
*I *980:I I *C 138.7 139.6 *L 0.000643 *D CKBD0
*I *1336:Z O *C 140.7 117.6 *L 0 *D BUFFD2

*CAP
1 *1336:Z 0.0001766
2 *980:I 0.000277497
3 *6:2 9.25625e-05
4 *6:3 0.000175455
5 *6:4 0.00416913
6 *6:5 3.63252e-05

*RES
1 *6:2 *6:4 3.02839
2 *1336:Z *6:2 0.602719
3 *6:4 *6:5 14.6893997
4 *6:3 *6:5 0.450078
5 *980:I *6:3 2.10515
*END

*D_NET *7 0.0045118

*CONN
*I *979:Z O *C 138.9 81.6 *L 0 *D CKBD0
*I *981:I I *C 151.3 92.8 *L 0.000643 *D CKBD0

*CAP
1 *7:2 0.000191857
2 *7:3 0.000120513
3 *7:4 1.62436e-05
4 *7:5 0.00220856
5 *7:6 0.00197465

*RES
1 *7:4 *7:6 8.47140026
2 *7:2 *7:5 0.449966
3 *7:5 *7:6 8.37924
4 *981:I *7:3 0.675013
5 *979:Z *7:2 0.225047
6 *7:3 *7:4 0.225047
*END

*D_NET *8 0.00534288

*CONN
*I *980:Z O *C 139.3 139.2 *L 0 *D CKBD0
*I *982:I I *C 151.3 130.8 *L 0.000643 *D CKBD0

*CAP
1 *8:2 0.000995567
2 *8:3 8.6251e-05
3 *8:4 0.000123023
4 *8:5 0.00129703
5 *8:5 *335:5 0.00100307
6 *8:4 *780:3 0.000808287969
7 *8:2 *890:4 0.00102966

*RES
1 *8:3 *8:5 9.24269009
2 *8:2 *8:3 3.12739
3 *980:Z *8:2 0.434661
4 *8:4 *8:5 6.48777
5 *982:I *8:4 0.965084
*END

*D_NET *9 0.00491549

*CONN
*I *981:Z O *C 151.9 92.4 *L 0 *D CKBD0
*I *983:I I *C 137.7 84 *L 0.000643 *D CKBD0

*CAP
1 *981:Z 0.000324139
2 *983:I 0.000160248
3 *9:2 0.00171225
4 *9:3 0.00238679
5 *9:4 0.000332042

*RES
1 *9:2 *9:3 6.48677
2 *981:Z *9:4 3.01608
3 *983:I *9:2 1.10566
4 *9:3 *9:4 9.78135014
*END

*D_NET *10 0.000491971

*CONN
*I *982:Z O *C 151.9 131.2 *L 0 *D CKBD0
*I *984:I I *C 150.5 130.8 *L 0.000643 *D CKBD0

*CAP
1 *10:2 0.000491970977

*RES
1 *984:I *10:2 0.675001
2 *982:Z *10:2 1.53531003
*END

*D_NET *11 1.3001e-05

*CONN
*I *983:Z O *C 138.3 84.4 *L 0 *D CKBD0
*I *985:I I *C 138.5 84 *L 0.000643 *D CKBD0

*CAP
1 *983:Z 1.30009998e-05

*RES
1 *983:Z *985:I 0.158484
*END

*D_NET *12 0.00439864

*CONN
*I *984:Z O *C 151.1 131.2 *L 0 *D CKBD0
*I *986:I I *C 140.5 139.6 *L 0.000643 *D CKBD0

*CAP
1 *984:Z 0.000138721
2 *12:2 0.000648747
3 *12:3 4.02423e-05
4 *12:4 0.00021131
5 *12:5 0.00335959

*RES
1 *12:4 *12:5 5.54187
2 *12:2 *12:3 1.80461
3 *984:Z *12:4 0.575957
4 *12:3 *12:5 8.82326031
5 *986:I *12:2 0.449941
*END

*D_NET *13 0.0049617

*CONN
*I *986:Z O *C 141.1 139.2 *L 0 *D CKBD0
*I *987:I I *C 151.3 127.2 *L 0.000643 *D CKBD0

*CAP
1 *13:2 0.000256354
2 *13:3 0.000247675
3 *13:4 0.000213089
4 *13:5 0.00424460969

*RES
1 *13:4 *13:5 6.52457
2 *13:3 *13:5 11.4216995
3 *987:I *13:2 0.937808
4 *986:Z *13:3 1.30467
5 *13:2 *13:4 0.224997
*END

*D_NET *14 0.000447925

*CONN
*I *985:Z O *C 139.1 84.4 *L 0 *D CKBD0
*I *988:I I *C 140.1 84 *L 0.000643 *D CKBD0

*CAP
1 *988:I 0.000131069
2 *14:2 0.000316854004

*RES
1 *988:I *14:2 1.78140998
2 *985:Z *14:2 0.450001
*END

*D_NET *15 0.00346677

*CONN
*I *989:Z O *C 151.7 95.2 *L 0 *D CKBD1
*I *1719:DB I *C 147.5 103.6 *L 0.0011 *D DFXQD1

*CAP
1 *989:Z 0.00014875
2 *15:2 0.00331802

*RES
1 *989:Z *15:2 2.97373
2 *1719:DB *15:2 10.6211004
*END

*D_NET *16 0.00198334

*CONN
*I *990:Z O *C 139.9 206.8 *L 0 *D DEL0
*I *1737:DA I *C 145.5 200.8 *L 0.000721 *D DFXQD1

*CAP
1 *1737:DA 0.000507622
2 *990:Z 0.000244875
3 *16:2 8.0367e-05
4 *16:3 0.00115047

*RES
1 *16:2 *16:3 4.12236023
2 *990:Z *16:3 2.58459
3 *1737:DA *16:2 1.66345
*END

*D_NET *17 0.0169452

*CONN
*I *991:Z O *C 151.1 127.6 *L 0 *D CKBD0
*I *1729:DB I *C 146.5 143.2 *L 0.0011 *D DFXQD1
*I *999:I I *C 137.5 204.4 *L 0.00104 *D DEL0

*CAP
1 *999:I 0.000172114
2 *1729:DB 0.000166589
3 *991:Z 0.000282745
4 *17:3 0.00398791
5 *17:4 0.00421033
6 *17:5 0.000626265
7 *17:6 0.000411557
8 *17:7 0.000325211
9 *17:8 0.00049257
10 *17:9 7.9022e-05
11 *17:10 0.000505612
12 *17:11 0.0012754
13 *17:7 *91:15 0.000813153047
14 *17:5 *26:2 0.000989368984
15 *999:I *207:4 0.000227565
16 *17:3 *96:8 0.00159117
17 *17:4 *338:3 0.000265455996
18 *1729:DB *305:17 0.000523165

*RES
1 *17:3 *17:10 13.7406
2 *17:8 *17:10 2.28949
3 *17:5 *17:4 30.1413994
4 *991:Z *17:6 1.23305
5 *17:7 *17:11 10.9296
6 *17:6 *17:3 8.51222
7 *1729:DB *17:9 0.675164
8 *17:8 *17:9 1.9956
9 *17:4 *17:7 7.47096
10 *999:I *17:5 1.72562
11 *17:9 *17:11 0.224901
*END

*D_NET *18 0.00374173

*CONN
*I *992:I I *C 151.1 120 *L 0.000643 *D CKBD0
*I *1036:Z O *C 138.7 114 *L 0 *D CKBD0

*CAP
1 *1036:Z 0.000243335
2 *18:2 0.000397965
3 *18:3 0.000723384
4 *18:4 0.00175627
5 *18:5 0.000620771

*RES
1 *1036:Z *18:4 0.544739
2 *18:2 *18:3 2.50815
3 *992:I *18:2 1.79189
4 *18:4 *18:5 6.48265982
5 *18:3 *18:5 2.79531
*END

*D_NET *19 0.00977219

*CONN
*I *993:Z O *C 140.5 218.4 *L 0 *D DEL0
*I *1745:DA I *C 145.3 233.2 *L 0.000721 *D DFXQD1
*I *1761:DB I *C 148.5 271.2 *L 0.0011 *D DFXQD1
*I *1753:DA I *C 145.9 267.6 *L 0.000721 *D DFXQD1

*CAP
1 *1753:DA 0.000407656
2 *19:4 0.00038509
3 *19:5 0.000315672
4 *19:6 0.000648896
5 *19:7 0.000710051
6 *19:8 0.00010997
7 *19:9 7.8771e-05
8 *19:10 8.13218e-05
9 *19:11 0.000368695
10 *19:12 0.0014288
11 *19:13 0.000198617
12 *19:14 0.000105173
13 *19:15 0.000480693
14 *19:7 *91:16 0.00192904
15 *1753:DA *1752:DA 0.000846977031
16 *1753:DA *351:11 0.000512026016
17 *19:4 *761:12 0.000315565996
18 *1753:DA *258:2 0.000849183047

*RES
1 *19:13 *19:14 1.38491
2 *19:6 *19:7 2.99491
3 *19:7 *19:15 6.25862
4 *19:8 *19:13 2.86938
5 *19:4 *19:8 1.87845
6 *1745:DA *19:12 1.14561
7 *19:5 *19:4 1.86177
8 *19:12 *19:15 4.52713
9 *1761:DB *19:5 1.49535
10 *1753:DA *19:4 2.0484
11 *19:10 *19:11 2.10248
12 *19:11 *19:12 11.5063
13 *19:9 *19:10 2.04787
14 *19:9 *19:14 2.14233
15 *993:Z *19:6 0.225084
*END

*D_NET *20 0.00508738

*CONN
*I *994:Z O *C 151.9 81.6 *L 0 *D CKBD0
*I *1713:DB I *C 147.7 82 *L 0.0011 *D DFXQD1
*I *1705:DB I *C 147.3 64 *L 0.0011 *D DFXQD1

*CAP
1 *1705:DB 0.000205733
2 *1713:DB 0.000437672
3 *994:Z 0.00048625
4 *20:3 0.00193411
5 *20:4 0.000671471
6 *20:5 0.000287453
7 *1713:DB *129:11 0.000262989023
8 *20:3 *799:4 0.000207142988
9 *1705:DB *364:16 0.000383108984
10 *20:4 *1708:CP 0.000211446992

*RES
1 *20:5 *20:3 9.33798027
2 *20:4 *20:3 4.53719
3 *1713:DB *20:5 2.17163
4 *1705:DB *20:4 1.47416
5 *994:Z *20:5 2.88292
*END

*D_NET *21 0.00610796

*CONN
*I *992:Z O *C 151.7 120.4 *L 0 *D CKBD0
*I *995:I I *C 138.1 136 *L 0.00182 *D DEL005

*CAP
1 *21:2 0.000257369
2 *21:3 0.00171706
3 *21:4 0.000204549
4 *21:5 0.0001593
5 *21:6 0.000327351
6 *21:7 0.000224016
7 *21:6 *787:4 0.000316255
8 *21:6 *790:3 0.000274886016
9 *21:2 *89:2 0.000840947969
10 *21:3 *464:17 0.00178623

*RES
1 *21:7 *21:3 7.1542
2 *21:2 *21:3 10.7833004
3 *21:6 *21:7 2.45066
4 *992:Z *21:5 0.702093
5 *21:5 *21:6 1.73606
6 *21:4 *21:2 1.55655
7 *995:I *21:4 0.224926
*END

*D_NET *22 0.000389349

*CONN
*I *996:Z O *C 151.9 85.2 *L 0 *D CKBD1
*I *1030:I I *C 150.5 85.6 *L 0.000643 *D CKBD0

*CAP
1 *1030:I 0.000297937012
2 *996:Z 9.1411e-05

*RES
1 *996:Z *1030:I 1.83065
*END

*D_NET *23 0.00104884

*CONN
*I *997:Z O *C 151.7 113 *L 0 *D DEL005
*I *1014:I I *C 150.7 107.2 *L 0.000643 *D CKBD0

*CAP
1 *1014:I 5.93755e-05
2 *23:2 0.000179755
3 *23:3 0.000268066
4 *23:4 0.000541643984

*RES
1 *23:2 *23:4 3.63742995
2 *23:3 *23:4 1.18154
3 *1014:I *23:3 0.675025
4 *997:Z *23:2 0.827768
*END

*D_NET *24 0.004324

*CONN
*I *998:Z O *C 138.9 73.6 *L 0 *D BUFFD1
*I *1066:I I *C 140.5 55.2 *L 0.000643 *D CKBD0

*CAP
1 *1066:I 0.000211361
2 *24:2 0.000588265
3 *24:3 7.70115e-05
4 *24:4 0.00344737

*RES
1 *998:Z *24:2 1.77908
2 *24:3 *24:4 2.754
3 *1066:I *24:3 0.675039
4 *24:2 *24:4 12.8789997
*END

*D_NET *25 0.00267332

*CONN
*I *990:I I *C 137.5 206.4 *L 0.00104 *D DEL0
*I *993:I I *C 138.1 218.8 *L 0.00104 *D DEL0
*I *999:Z O *C 139.9 204 *L 0 *D DEL0

*CAP
1 *990:I 6.80555e-05
2 *993:I 7.31482e-05
3 *25:3 0.00149665
4 *25:4 0.00103547

*RES
1 *990:I *25:3 0.844423
2 *25:3 *25:4 1.75252
3 *993:I *25:3 7.88882017
4 *999:Z *25:4 1.88842
*END

*D_NET *26 0.00821528

*CONN
*I *1000:I I *C 137.7 202.8 *L 0.00103 *D DEL015
*I *1069:Z O *C 151.9 157.2 *L 0 *D DEL015

*CAP
1 *1000:I 0.000139558
2 *26:2 0.00345389
3 *26:3 0.000357221
4 *26:4 8.50626e-05
5 *26:5 0.00102961
6 *26:2 *207:5 0.000317602988
7 *26:2 *70:2 0.00116186
8 *26:2 *890:6 0.000681132031
9 *26:2 *17:5 0.000989368984

*RES
1 *26:3 *26:2 28.5342999
2 *1000:I *26:3 1.41679
3 *26:4 *26:5 6.36553
4 *26:2 *26:5 5.58225
5 *1069:Z *26:4 0.225101
*END

*D_NET *27 0.00366298

*CONN
*I *1001:Z O *C 151.3 110.4 *L 0 *D CKBD1
*I *1774:A2 I *C 143.1 107.2 *L 0.000664 *D NR2D0

*CAP
1 *1774:A2 1.85731e-05
2 *27:2 0.000560614
3 *27:3 0.0013032
4 *27:4 0.00126691
5 *27:5 0.000500201
6 *27:6 1.34824e-05

*RES
1 *1774:A2 *27:2 0.919673
2 *27:5 *27:6 0.220252
3 *27:3 *27:4 2.55793
4 *27:2 *27:4 3.04774
5 *1001:Z *27:5 1.64003
6 *27:3 *27:6 5.53255987
*END

*D_NET *28 0.00678975

*CONN
*I *988:Z O *C 140.7 84.4 *L 0 *D CKBD0
*I *1002:I I *C 151.1 109.2 *L 0.000968 *D CKBD1

*CAP
1 *1002:I 3.70971e-05
2 *28:2 0.000191203
3 *28:3 0.000141112
4 *28:4 0.00126163008
5 *28:5 0.000912894
6 *28:6 0.000104342
7 *28:7 0.000100068
8 *28:5 *145:2 0.00244912
9 *28:4 *480:2 0.00138073
10 *28:5 *484:2 0.000211579004

*RES
1 *28:4 *28:5 5.01406
2 *28:2 *28:4 0.450025
3 *1002:I *28:3 0.675038
4 *28:3 *28:6 0.450025
5 *28:6 *28:7 1.98883
6 *28:5 *28:7 19.1760998
7 *988:Z *28:2 0.225013
*END

*D_NET *29 0.00115239

*CONN
*I *996:I I *C 151.3 85.6 *L 0.000968 *D CKBD1
*I *1003:Z O *C 151.7 80.6 *L 0 *D DEL005

*CAP
1 *1003:Z 4.04875e-05
2 *29:2 0.000874536953
3 *29:3 3.65108e-05
4 *29:4 0.000200849

*RES
1 *29:2 *29:3 3.93621993
2 *1003:Z *29:2 0.622182
3 *29:3 *29:4 0.854682
4 *996:I *29:4 0.674976
*END

*D_NET *30 0.000437675

*CONN
*I *1004:Z O *C 138.1 181.6 *L 0 *D BUFFD1
*I *1062:I I *C 137.5 182.8 *L 0.00103 *D DEL015

*CAP
1 *1004:Z 0.000437675

*RES
1 *1004:Z *1062:I 1.90007
*END

*D_NET *31 0.00259546

*CONN
*I *1005:Z O *C 139.9 200.4 *L 0 *D DEL01
*I *1082:I I *C 137.9 192 *L 0.00104 *D DEL0

*CAP
1 *1082:I 0.000121475
2 *1005:Z 0.000327045
3 *31:2 0.00214694

*RES
1 *1082:I *31:2 0.949239
2 *1005:Z *31:2 10.4343004
*END

*D_NET *32 0.00665313

*CONN
*I *998:I I *C 138.3 73.2 *L 0.00072 *D BUFFD1
*I *1006:Z O *C 142.3 106.8 *L 0 *D DEL01

*CAP
1 *32:2 0.000839685
2 *32:3 0.000246889
3 *32:4 0.000311253
4 *32:5 0.000324988
5 *32:6 0.00152828
6 *32:7 0.000411926
7 *32:6 *336:2 0.0013657
8 *32:4 *483:3 0.00025953502
9 *32:3 *805:3 0.00136488

*RES
1 *32:5 *32:7 1.3319
2 *32:3 *32:5 0.450169
3 *32:2 *32:4 3.37346
4 *32:6 *32:7 23.0126991
5 *32:4 *32:6 1.03764
6 *1006:Z *32:3 0.225085
7 *998:I *32:2 0.225085
*END

*D_NET *33 0.00441912

*CONN
*I *1007:Z O *C 151.1 70 *L 0 *D BUFFD1
*I *1700:DB I *C 147.3 48 *L 0.0011 *D DFXQD1

*CAP
1 *1700:DB 0.000130684
2 *1007:Z 0.000214563
3 *33:2 0.000138891
4 *33:3 0.000488419
5 *33:4 0.00231845
6 *33:5 0.00112811

*RES
1 *33:4 *33:5 13.5058002
2 *33:2 *33:4 0.450083
3 *33:3 *33:5 2.39303
4 *1700:DB *33:2 0.674919
5 *1007:Z *33:3 2.85486
*END

*D_NET *34 0.00124043

*CONN
*I *1007:I I *C 150.5 69.6 *L 0.00072 *D BUFFD1
*I *1008:Z O *C 151.3 67.2 *L 0 *D CKBD0

*CAP
1 *1007:I 0.000279506
2 *1008:Z 0.00013797
3 *34:2 0.000822957969

*RES
1 *1008:Z *34:2 1.12366
2 *1007:I *34:2 4.29967022
*END

*D_NET *35 0.000322821

*CONN
*I *1008:I I *C 150.7 67.6 *L 0.000643 *D CKBD0
*I *1009:Z O *C 151.3 66.4 *L 0 *D CKBD0

*CAP
1 *1009:Z 0.000322820996

*RES
1 *1009:Z *1008:I 1.68308
*END

*D_NET *36 0.0294329

*CONN
*I *1010:Z O *C 144.3 66.4 *L 0 *D CKBD1
*I *1708:DB I *C 147.1 66 *L 0.0011 *D DFXQD1
*I *1716:DB I *C 147.5 94.8 *L 0.0011 *D DFXQD1
*I *1724:DB I *C 146.3 120 *L 0.0011 *D DFXQD1
*I *1732:DA I *C 144.3 170.4 *L 0.000721 *D DFXQD1
*I *1740:DA I *C 145.3 213.6 *L 0.000721 *D DFXQD1
*I *1748:DA I *C 145.3 242.4 *L 0.000721 *D DFXQD1
*I *1756:DB I *C 147.1 247.6 *L 0.0011 *D DFXQD1

*CAP
1 *1756:DB 7.58411e-05
2 *1732:DA 0.000269764
3 *1724:DB 0.000202195
4 *1716:DB 0.000368972
5 *1010:Z 8.69273e-05
6 *36:8 0.00113148
7 *36:9 0.00186291
8 *36:10 0.000206147
9 *36:11 0.000126639
10 *36:12 0.000289236
11 *36:13 3.5817e-06
12 *36:14 0.000496634
13 *36:15 0.000366726
14 *36:16 0.00154619
15 *36:17 0.000685043
16 *36:19 0.00152413
17 *36:20 0.00147361
18 *36:21 0.000352854
19 *36:22 0.000171922
20 *36:23 0.000198187
21 *36:24 0.000443647
22 *36:25 0.000345037
23 *36:26 0.000311665
24 *36:27 0.000185168
25 *36:28 0.000289265
26 *36:29 0.000177522
27 *36:30 0.000262203
28 *36:31 5.68524e-08
29 *36:32 0.000760912
30 *36:33 0.000277724
31 *36:34 0.0004165
32 *36:35 0.00056895
33 *36:36 0.00014739
34 *36:37 0.000475229
35 *36:38 0.00126784
36 *36:39 0.00017502
37 *36:40 0.000275649
38 *36:41 0.000963705
39 *36:43 2.95064e-05
40 *36:44 0.000125956
41 *36:45 0.000675008
42 *36:46 1.64872e-06
43 *1724:DB *467:13 0.00114066008
44 *36:8 *195:3 0.000685636016
45 *36:8 *437:4 0.000197706992
46 *36:9 *804:8 0.00124992
47 *36:9 *243:8 0.000901915
48 *36:10 *292:4 0.00186948
49 *36:10 *338:2 0.000460403008
50 *1724:DB *347:2 0.000382546016
51 *1716:DB *341:3 0.000480321992
52 *36:11 *364:16 0.00105603
53 *1732:DA *114:3 0.000774287969
54 *36:11 *798:7 0.000261698008
55 *36:12 *531:9 0.000357711992

*RES
1 *36:21 *36:22 2.26661
2 *36:10 *36:36 1.27037
3 *36:11 *36:17 3.1347
4 *1724:DB *36:36 1.36932
5 *36:13 *36:16 3.98197
6 *36:21 *36:23 1.3977
7 *36:31 *36:32 5.06012
8 *36:8 *36:37 1.40095
9 *1756:DB *36:13 0.746975
10 *36:24 *36:26 0.159236
11 *36:30 *36:32 0.159236
12 *36:12 *36:25 2.38529
13 *36:9 *36:37 17.7175999
14 *36:18 *36:19 0.159236
15 *36:27 *36:38 2.50614
16 *36:25 *36:26 3.62565
17 *1010:Z *36:17 0.450131
18 *36:14 *36:38 2.95059
19 *36:39 *36:41 10.918
20 *36:15 *36:23 2.85381
21 *36:24 *36:38 13.0776
22 *36:9 *36:17 0.209521
23 *36:10 *36:31 1.777
24 *36:40 *36:46 3.16471
25 *36:19 *36:28 9.41329
26 *36:35 *36:39 3.7419
27 *36:8 *36:34 6.62058
28 *36:30 *36:33 3.37909
29 *36:42 *36:44 0.159236
30 *36:28 *36:29 2.26634
31 *1732:DA *36:15 1.45718
32 *36:18 *36:20 8.53357
33 *1748:DA *36:16 1.85649
34 *36:15 *36:35 2.82082
35 *36:43 *36:44 2.62158
36 *36:42 *36:45 10.0562
37 *36:41 *36:43 0.159236
38 *36:12 *36:16 1.27848
39 *36:27 *36:29 0.159236
40 *1716:DB *36:8 2.60941
41 *36:33 *36:34 1.19224
42 *36:45 *36:46 0.159236
43 *36:20 *36:22 0.159236
44 *1740:DA *36:14 0.450131
45 *1708:DB *36:11 0.450131
46 *36:36 *36:40 0.22493
*END

*D_NET *37 0.0022976

*CONN
*I *1011:Z O *C 145.7 77 *L 0 *D DEL005
*I *1013:I I *C 144.9 71.2 *L 0.000643 *D CKBD0

*CAP
1 *1013:I 8.47995e-05
2 *37:2 0.000404673
3 *37:3 5.88819e-05
4 *37:4 0.00174924

*RES
1 *37:2 *37:4 6.30670977
2 *37:3 *37:4 0.384835
3 *1013:I *37:3 0.674977
4 *1011:Z *37:2 1.22216
*END

*D_NET *38 0.00121893

*CONN
*I *1011:I I *C 145.1 76.8 *L 0.00182 *D DEL005
*I *1012:Z O *C 145.9 74.6 *L 0 *D DEL005

*CAP
1 *1012:Z 0.000400438
2 *38:2 0.000209113
3 *38:3 0.000609375

*RES
1 *1012:Z *38:3 2.53304005
2 *38:2 *38:3 0.450015
3 *1011:I *38:2 0.224988
*END

*D_NET *39 0.00188134

*CONN
*I *1012:I I *C 145.3 74.8 *L 0.00182 *D DEL005
*I *1015:Z O *C 144.7 71 *L 0 *D DEL005

*CAP
1 *1015:Z 0.00011516
2 *39:2 0.00146857
3 *39:3 0.000297591

*RES
1 *39:2 *39:3 5.72197008
2 *1015:Z *39:2 0.449997
3 *1012:I *39:3 0.674996
*END

*D_NET *40 0.00519869

*CONN
*I *997:I I *C 151.1 112.8 *L 0.00182 *D DEL005
*I *1340:Z O *C 138.1 102.4 *L 0 *D BUFFD2

*CAP
1 *1340:Z 0.000260626
2 *40:2 0.00200095016
3 *40:3 0.000532549
4 *40:4 0.000401289
5 *40:2 *305:5 0.000246868008
6 *40:3 *786:3 0.00065304
7 *40:2 *787:3 0.000941129063
8 *40:2 *1771:ZN 0.000162257002

*RES
1 *997:I *40:3 1.40388
2 *40:2 *40:4 9.15289021
3 *1340:Z *40:2 0.644401
4 *40:3 *40:4 9.13739
*END

*D_NET *41 0.00299084

*CONN
*I *1015:I I *C 144.1 71.2 *L 0.00182 *D DEL005
*I *1023:Z O *C 138.7 63.8 *L 0 *D DEL005

*CAP
1 *1015:I 0.0012925
2 *41:2 0.00169833

*RES
1 *1023:Z *41:2 4.65025
2 *1015:I *41:2 6.22261
*END

*D_NET *42 0.00296985

*CONN
*I *1014:Z O *C 151.3 106.8 *L 0 *D CKBD0
*I *1016:I I *C 145.3 112.8 *L 0.000643 *D CKBD0

*CAP
1 *1014:Z 0.000203918
2 *42:2 0.00168798
3 *42:3 6.20484e-05
4 *42:4 0.000447578
5 *42:5 0.000568327

*RES
1 *42:2 *42:3 4.5419302
2 *42:3 *42:5 2.49274
3 *1014:Z *42:2 2.38469
4 *1016:I *42:4 1.20215
5 *42:4 *42:5 0.225031
*END

*D_NET *43 0.00298874

*CONN
*I *1013:Z O *C 145.5 70.8 *L 0 *D CKBD0
*I *1017:I I *C 138.5 62.4 *L 0.000643 *D CKBD0

*CAP
1 *1017:I 0.000197194
2 *43:2 0.00149021
3 *43:3 0.000152557
4 *43:4 0.000560429
5 *43:5 0.000588353

*RES
1 *43:3 *43:5 2.49128
2 *43:2 *43:4 2.23954
3 *1017:I *43:4 0.675003
4 *43:2 *43:5 6.3331399
5 *1013:Z *43:3 0.224969
*END

*D_NET *44 0.00305534

*CONN
*I *1016:Z O *C 145.9 113.2 *L 0 *D CKBD0
*I *1018:I I *C 151.1 105.6 *L 0.000643 *D CKBD0

*CAP
1 *1018:I 0.000233811
2 *44:2 0.000651012
3 *44:3 9.87062e-05
4 *44:4 0.000914405
5 *44:5 0.0011574

*RES
1 *44:3 *44:4 3.2242
2 *44:2 *44:5 3.66696
3 *44:2 *44:3 1.96016
4 *1018:I *44:5 2.19018
5 *1016:Z *44:4 0.224988
*END

*D_NET *45 0.0012558

*CONN
*I *1019:Z O *C 151.7 117.6 *L 0 *D CKBD1
*I *1722:DB I *C 147.3 116.4 *L 0.0011 *D DFXQD1

*CAP
1 *1019:Z 6.60758e-05
2 *45:2 8.05299e-05
3 *45:3 0.00110919

*RES
1 *45:2 *45:3 3.19395995
2 *1722:DB *45:3 1.5327
3 *1019:Z *45:2 0.384283
*END

*D_NET *46 0.00268876

*CONN
*I *1017:Z O *C 139.1 62.8 *L 0 *D CKBD0
*I *1020:I I *C 138.1 71.2 *L 0.00182 *D DEL005

*CAP
1 *1017:Z 0.000186155
2 *1020:I 0.000304467
3 *46:2 7.38397e-05
4 *46:3 0.00212427

*RES
1 *1020:I *46:2 1.41025
2 *1017:Z *46:3 3.04757
3 *46:2 *46:3 5.86582994
*END

*D_NET *47 0.00666225

*CONN
*I *1018:Z O *C 151.7 106 *L 0 *D CKBD0
*I *1021:I I *C 138.1 85.6 *L 0.000643 *D CKBD0

*CAP
1 *1021:I 0.000209463
2 *47:2 0.00156026
3 *47:3 4.25926e-05
4 *47:4 0.000217344
5 *47:5 0.000693719
6 *47:6 0.000608105
7 *47:7 9.7613e-07
8 *47:9 0.000852375
9 *47:2 *91:9 0.00119596008
10 *1021:I *1021:Z 0.000467651992
11 *47:4 *787:3 0.000296903008
12 *47:4 *790:4 0.000516898984

*RES
1 *47:8 *47:9 0.286216
2 *47:6 *47:8 4.086
3 *47:5 *47:7 5.38995
4 *47:6 *47:7 0.159196
5 *47:2 *47:5 7.37320995
6 *1021:I *47:2 1.48655
7 *47:4 *47:9 5.70609
8 *47:3 *47:4 1.80753
9 *1018:Z *47:3 0.225013
*END

*D_NET *48 0.00198347

*CONN
*I *1019:I I *C 151.1 118 *L 0.000968 *D CKBD1
*I *1022:Z O *C 145.9 117.8 *L 0 *D DEL005

*CAP
1 *1022:Z 0.000337293
2 *48:2 0.00023131
3 *48:3 0.00141487

*RES
1 *48:2 *48:3 4.28736019
2 *1022:Z *48:3 2.05576
3 *1019:I *48:2 0.450024
*END

*D_NET *49 0.00164324

*CONN
*I *1023:I I *C 138.1 64 *L 0.00182 *D DEL005
*I *1032:Z O *C 138.9 60 *L 0 *D CKBD0

*CAP
1 *1032:Z 4.58354e-05
2 *1023:I 7.39261e-05
3 *49:2 0.000260832
4 *49:3 0.00126264

*RES
1 *1023:I *49:2 0.384247
2 *49:2 *49:3 3.69291997
3 *1032:Z *49:3 1.56877
*END

*D_NET *50 0.00696743

*CONN
*I *1021:Z O *C 138.7 85.2 *L 0 *D CKBD0
*I *1024:I I *C 150.3 105.6 *L 0.000643 *D CKBD0

*CAP
1 *1021:Z 8.22726e-05
2 *1024:I 0.000113534
3 *50:2 0.000262155
4 *50:3 0.00130588
5 *50:4 0.00225879
6 *50:4 *129:5 0.000514240977
7 *50:2 *790:4 0.0012714
8 *50:2 *225:3 0.000434943984
9 *50:2 *1719:CP 0.000256555996
10 *1021:Z *1021:I 0.000467651992

*RES
1 *50:2 *50:4 16.7010002
2 *1024:I *50:2 2.41611
3 *1021:Z *50:3 0.834846
4 *50:3 *50:4 7.29344
*END

*D_NET *51 0.000711457

*CONN
*I *1003:I I *C 151.1 80.4 *L 0.00182 *D DEL005
*I *1025:Z O *C 151.7 84.2 *L 0 *D DEL005

*CAP
1 *51:2 0.000156017
2 *51:3 0.000162876
3 *51:4 0.000392558984

*RES
1 *51:2 *51:4 2.49833989
2 *51:3 *51:4 0.980603
3 *1003:I *51:3 0.449988
4 *1025:Z *51:2 0.827811
*END

*D_NET *52 0.0022589

*CONN
*I *1026:I I *C 138.3 134.4 *L 0.000643 *D CKBD0
*I *1334:Z O *C 138.1 127.6 *L 0 *D BUFFD1

*CAP
1 *1334:Z 0.00032786
2 *52:2 0.000373261
3 *52:3 0.00155777

*RES
1 *52:2 *52:3 6.30670023
2 *1026:I *52:2 1.31848
3 *1334:Z *52:3 1.17875
*END

*D_NET *53 0.00327139

*CONN
*I *1020:Z O *C 138.7 71 *L 0 *D DEL005
*I *1027:I I *C 137.5 60.4 *L 0.000643 *D CKBD0

*CAP
1 *1020:Z 7.29591e-05
2 *1027:I 0.000241557
3 *53:2 0.00200308984
4 *53:3 0.000860288
5 *53:4 9.34989e-05

*RES
1 *53:3 *53:4 3.2448
2 *53:2 *53:3 8.45530987
3 *1027:I *53:2 1.72703
4 *1020:Z *53:4 0.450014
*END

*D_NET *54 0.000808707

*CONN
*I *1024:Z O *C 150.9 106 *L 0 *D CKBD0
*I *1028:I I *C 151.1 103.6 *L 0.000643 *D CKBD0

*CAP
1 *1028:I 0.000161862
2 *54:2 0.000646845

*RES
1 *1028:I *54:2 3.41940999
2 *1024:Z *54:2 0.224983
*END

*D_NET *55 1.0687e-05

*CONN
*I *1029:Z O *C 138.3 131.2 *L 0 *D CKBD0
*I *1034:I I *C 138.5 130.8 *L 0.000643 *D CKBD0

*CAP
1 *1029:Z 1.06869995e-05

*RES
1 *1029:Z *1034:I 0.158494
*END

*D_NET *56 0.00202765

*CONN
*I *1025:I I *C 151.1 84 *L 0.00182 *D DEL005
*I *1033:Z O *C 146.1 87.8 *L 0 *D DEL005

*CAP
1 *1033:Z 0.000685997
2 *56:2 0.00124939
3 *56:3 9.2253e-05

*RES
1 *1033:Z *56:2 3.44235
2 *56:2 *56:3 3.8487401
3 *1025:I *56:3 0.450026
*END

*D_NET *57 0.00599939

*CONN
*I *1028:Z O *C 151.7 103.2 *L 0 *D CKBD0
*I *1031:I I *C 138.1 87.6 *L 0.000643 *D CKBD0

*CAP
1 *57:2 0.00197011
2 *57:3 0.00193876
3 *57:5 0.000176043
4 *57:3 *1500:CDN 0.000715228047
5 *57:2 *364:6 0.000473993008
6 *57:2 *1716:CP 0.000725266016

*RES
1 *57:2 *57:4 7.82556
2 *57:3 *57:4 3.50291
3 *1031:I *57:3 8.34848976
4 *57:2 *57:5 3.05209
5 *1028:Z *57:5 0.224967
*END

*D_NET *58 0.00171259

*CONN
*I *1027:Z O *C 138.1 60 *L 0 *D CKBD0
*I *1053:I I *C 139.7 56.8 *L 0.000643 *D CKBD0

*CAP
1 *1053:I 0.000441978
2 *58:2 0.00127062

*RES
1 *1053:I *58:2 3.98874998
2 *1027:Z *58:2 1.56876
*END

*D_NET *59 0.00115297

*CONN
*I *1033:I I *C 145.5 87.6 *L 0.00182 *D DEL005
*I *1037:Z O *C 146.3 91.4 *L 0 *D DEL005

*CAP
1 *1037:Z 0.000178618
2 *59:2 0.000603233984
3 *59:3 0.000371118

*RES
1 *1037:Z *59:3 1.58496
2 *59:2 *59:3 2.29273009
3 *1033:I *59:2 0.224984
*END

*D_NET *60 0.00304729

*CONN
*I *1034:Z O *C 139.1 131.2 *L 0 *D CKBD0
*I *1038:I I *C 144.7 127.2 *L 0.00182 *D DEL005

*CAP
1 *60:2 0.000312797
2 *60:3 0.000317996
3 *60:4 0.00241650016

*RES
1 *60:3 *60:4 3.15047
2 *1038:I *60:3 0.929622
3 *60:2 *60:4 6.06869984
4 *1034:Z *60:2 0.82776
*END

*D_NET *61 0.00211973

*CONN
*I *1035:Z O *C 138.1 59.2 *L 0 *D CKBD0
*I *1076:I I *C 144.3 60.4 *L 0.000968 *D CKBD1

*CAP
1 *61:2 9.4057e-05
2 *61:3 0.00155226
3 *61:4 0.000473411

*RES
1 *61:2 *61:4 1.85896
2 *61:3 *61:4 5.62173986
3 *1035:Z *61:3 0.225003
4 *1076:I *61:2 0.225003
*END

*D_NET *62 0.00467072

*CONN
*I *1031:Z O *C 138.7 88 *L 0 *D CKBD0
*I *1036:I I *C 138.1 114.4 *L 0.000643 *D CKBD0

*CAP
1 *1031:Z 0.000276835
2 *62:2 0.000325903
3 *62:3 0.00028058
4 *62:4 0.000998393
5 *62:5 0.00278899

*RES
1 *62:3 *62:5 0.449874
2 *1031:Z *62:3 1.09824
3 *1036:I *62:2 0.449874
4 *62:4 *62:5 17.5077
5 *62:2 *62:4 0.70206
*END

*D_NET *63 0.00384364

*CONN
*I *1030:Z O *C 151.1 85.2 *L 0 *D CKBD0
*I *1041:I I *C 143.5 92.8 *L 0.000643 *D CKBD0

*CAP
1 *1030:Z 0.000107486
2 *1041:I 4.35821e-05
3 *63:2 0.00132958
4 *63:3 6.1243e-05
5 *63:4 3.67735e-05
6 *63:5 0.00226499016

*RES
1 *63:2 *63:3 4.45602
2 *63:4 *63:5 1.93069
3 *1041:I *63:2 1.00243
4 *1030:Z *63:4 0.449991
5 *63:3 *63:5 6.91456985
*END

*D_NET *64 0.00196318

*CONN
*I *1038:Z O *C 145.3 127.4 *L 0 *D DEL005
*I *1104:I I *C 141.3 123.6 *L 0.00104 *D DEL0

*CAP
1 *1104:I 0.00113429
2 *1038:Z 6.58748e-05
3 *64:2 0.000621276
4 *64:3 0.000141736

*RES
1 *1038:Z *64:3 1.13298
2 *1104:I *64:2 4.19072008
3 *64:2 *64:3 2.56229
*END

*D_NET *65 0.00163062

*CONN
*I *1039:I I *C 145.3 107.2 *L 0.000968 *D CKBD1
*I *1338:Z O *C 138.1 106.8 *L 0 *D BUFFD2

*CAP
1 *1338:Z 0.00013667
2 *65:2 0.000212795
3 *65:3 0.00128117

*RES
1 *65:2 *65:3 5.47481012
2 *1039:I *65:2 0.575918
3 *1338:Z *65:3 0.450024
*END

*D_NET *66 0.000399673

*CONN
*I *1040:Z O *C 151.5 98.8 *L 0 *D CKBD0
*I *1046:I I *C 150.9 96.4 *L 0.000643 *D CKBD0

*CAP
1 *1046:I 8.40347e-05
2 *1040:Z 0.000315636016

*RES
1 *1040:Z *1046:I 2.95756
*END

*D_NET *67 0.00234856

*CONN
*I *1037:I I *C 145.7 91.2 *L 0.00182 *D DEL005
*I *1048:Z O *C 138.7 95 *L 0 *D DEL005

*CAP
1 *1037:I 0.00023674
2 *1048:Z 0.000417051
3 *67:2 0.000124432
4 *67:3 0.00157032

*RES
1 *67:2 *67:3 4.35046005
2 *1037:I *67:2 0.769974
3 *1048:Z *67:3 3.4211
*END

*D_NET *68 0.00162162

*CONN
*I *1009:I I *C 150.7 66 *L 0.000643 *D CKBD0
*I *1042:Z O *C 145.5 66.2 *L 0 *D DEL005

*CAP
1 *68:2 0.000105641
2 *68:3 0.00117461
3 *68:4 0.000341369

*RES
1 *68:3 *68:4 1.15463
2 *68:2 *68:3 4.0047698
3 *1042:Z *68:4 0.994715
4 *1009:I *68:2 0.449999
*END

*D_NET *69 0.0102956

*CONN
*I *995:Z O *C 138.7 135.8 *L 0 *D DEL005
*I *1043:I I *C 139.5 91.2 *L 0.000643 *D CKBD0

*CAP
1 *995:Z 0.000501216
2 *69:2 0.000682692
3 *69:3 0.000596875
4 *69:4 4.31147e-05
5 *69:5 0.00021278
6 *69:6 0.00208065016
7 *995:Z *372:2 0.00266769
8 *69:4 *788:3 0.000911692969
9 *69:2 *132:5 0.000488316016
10 *69:3 *391:6 0.000556753984
11 *69:3 *397:2 0.0015538

*RES
1 *69:5 *69:6 2.51269
2 *1043:I *69:5 1.21609
3 *69:3 *69:6 16.361
4 *69:3 *69:2 2.99495
5 *69:4 *69:2 18.2583008
6 *995:Z *69:4 1.81898
*END

*D_NET *70 0.00730408

*CONN
*I *1004:I I *C 137.5 181.2 *L 0.00072 *D BUFFD1
*I *1044:Z O *C 138.3 117.6 *L 0 *D CKBD1

*CAP
1 *1004:I 6.26289e-05
2 *1044:Z 0.000154589
3 *70:2 1.83278e-05
4 *70:3 0.000138584
5 *70:4 0.00124179
6 *70:5 0.000383884
7 *70:6 0.00234135016
8 *70:4 *386:3 0.000346031016
9 *70:2 *26:2 0.00116186
10 *1004:I *108:3 0.000850225
11 *70:4 *207:2 0.000209305996
12 *70:4 *377:3 0.000395496016

*RES
1 *70:4 *70:5 0.701759
2 *70:3 *70:6 1.84269
3 *70:5 *70:6 23.2863007
4 *1044:Z *70:3 0.449836
5 *70:2 *70:4 17.0582
6 *1004:I *70:2 1.16936
*END

*D_NET *71 0.00833428

*CONN
*I *1039:Z O *C 145.9 106.8 *L 0 *D CKBD1
*I *1045:I I *C 138.3 175.6 *L 0.00103 *D DEL01

*CAP
1 *1039:Z 0.000201695
2 *71:2 0.00040297
3 *71:3 0.00343594
4 *71:4 0.000283432
5 *71:5 0.000213858
6 *71:6 0.000534829
7 *71:7 9.29043e-05
8 *71:6 *77:3 0.000292273008
9 *71:5 *371:4 0.000707202031
10 *71:6 *788:7 0.000342341016
11 *71:2 *119:2 0.000761031953
12 *71:3 *123:5 0.00106581

*RES
1 *71:7 *71:3 3.56917
2 *71:6 *71:2 1.86234
3 *71:2 *71:3 35.7605019
4 *71:5 *71:6 7.66437
5 *71:4 *71:7 0.450171
6 *1045:I *71:5 1.11315
7 *1039:Z *71:4 0.450171
*END

*D_NET *72 0.00179353

*CONN
*I *1046:Z O *C 151.5 96 *L 0 *D CKBD0
*I *1058:I I *C 150.5 92.8 *L 0.000643 *D CKBD0

*CAP
1 *1046:Z 0.000164397
2 *72:2 0.000739546
3 *72:3 9.63484e-05
4 *72:4 0.00079324

*RES
1 *72:2 *72:4 1.98837
2 *72:3 *72:4 1.73596
3 *1058:I *72:3 0.674989
4 *1046:Z *72:2 3.3083601
*END

*D_NET *73 0.00484635

*CONN
*I *1043:Z O *C 140.1 91.6 *L 0 *D CKBD0
*I *1047:I I *C 151.1 102 *L 0.00182 *D DEL005

*CAP
1 *1043:Z 0.000129618
2 *73:2 0.000795621
3 *73:3 0.00250870984
4 *73:4 0.0014124

*RES
1 *73:3 *73:4 5.88078
2 *73:2 *73:3 10.2133999
3 *1047:I *73:2 2.4706
4 *1043:Z *73:4 0.450078
*END

*D_NET *74 0.00259359

*CONN
*I *1041:Z O *C 144.1 92.4 *L 0 *D CKBD0
*I *1103:I I *C 139.3 102 *L 0.00104 *D DEL0

*CAP
1 *1041:Z 0.000615531
2 *1103:I 9.45812e-05
3 *74:2 7.42038e-05
4 *74:3 0.000687989
5 *74:4 0.00112126992

*RES
1 *74:3 *74:4 2.09741
2 *1103:I *74:3 2.84483
3 *1041:Z *74:2 2.57373
4 *74:2 *74:4 3.02365994
*END

*D_NET *75 0.000771562

*CONN
*I *1049:I I *C 138.5 123.6 *L 0.00182 *D DEL005
*I *1052:Z O *C 139.1 121.4 *L 0 *D DEL005

*CAP
1 *1052:Z 0.000564661016
2 *1049:I 0.0002069

*RES
1 *1049:I *1052:Z 2.73191
*END

*D_NET *76 0.00901997

*CONN
*I *1032:I I *C 138.3 60.4 *L 0.000643 *D CKBD0
*I *1050:Z O *C 138.3 30.4 *L 0 *D CKBD0

*CAP
1 *1032:I 0.000522534
2 *76:2 0.00116477
3 *76:3 0.000110336
4 *76:2 *201:3 0.000568705039
5 *76:2 *357:2 0.00156885
6 *76:3 *438:3 0.00246486
7 *76:2 *1470:CP 0.00033969
8 *76:3 *485:3 0.00228022

*RES
1 *76:3 *76:2 30.6492004
2 *1032:I *76:3 1.84355
3 *1050:Z *76:2 2.51372
*END

*D_NET *77 0.0077844

*CONN
*I *1045:Z O *C 140.1 175.2 *L 0 *D DEL01
*I *1051:I I *C 138.1 110.8 *L 0.000643 *D CKBD0

*CAP
1 *77:2 0.00256736
2 *77:3 0.000196661
3 *77:4 0.000581951
4 *77:5 0.000518095
5 *77:4 *286:3 0.000283214004
6 *77:4 *368:2 0.000320356016
7 *77:3 *485:6 0.000334791992
8 *77:2 *111:2 0.000505369023
9 *77:3 *89:6 0.00113601008
10 *77:3 *119:2 0.00104831008
11 *77:3 *71:6 0.000292273008

*RES
1 *77:3 *77:2 39.783699
2 *1051:I *77:5 2.34322
3 *77:4 *77:3 3.46505
4 *1045:Z *77:4 0.225216
5 *77:5 *77:2 0.225216
*END

*D_NET *78 0.00137333

*CONN
*I *1049:Z O *C 139.1 123.8 *L 0 *D DEL005
*I *1079:I I *C 138.5 118 *L 0.000643 *D CKBD0

*CAP
1 *1049:Z 0.000103645
2 *1079:I 0.000240903
3 *78:2 7.06174e-05
4 *78:3 0.000958159063

*RES
1 *1079:I *78:3 1.27565
2 *1049:Z *78:2 0.763921
3 *78:2 *78:3 3.61422992
*END

*D_NET *79 0.000887459

*CONN
*I *1053:Z O *C 140.3 56.4 *L 0 *D CKBD0
*I *1061:I I *C 139.7 55.2 *L 0.000643 *D CKBD0

*CAP
1 *1061:I 8.03647e-05
2 *1053:Z 0.000456703008
3 *79:2 0.000350386

*RES
1 *1053:Z *79:2 2.35236001
2 *1061:I *79:2 0.67499
*END

*D_NET *80 0.00241136

*CONN
*I *1048:I I *C 138.1 94.8 *L 0.00182 *D DEL005
*I *1054:Z O *C 138.7 103.2 *L 0 *D CKBD0

*CAP
1 *1048:I 0.000102875
2 *80:2 0.000612825
3 *80:3 0.00169565

*RES
1 *80:2 *80:3 8.28824997
2 *1054:Z *80:2 0.760962
3 *1048:I *80:3 0.510933
*END

*D_NET *81 0.00227412

*CONN
*I *1022:I I *C 145.3 118 *L 0.00182 *D DEL005
*I *1055:Z O *C 151.9 116.6 *L 0 *D DEL005

*CAP
1 *1055:Z 0.000182978
2 *81:2 0.000894399
3 *81:3 0.00119675008

*RES
1 *81:3 *81:4 3.34354
2 *1055:Z *81:2 3.83811998
3 *1022:I *81:3 1.02436
4 *81:2 *81:4 0.225007
*END

*D_NET *82 0.00483626

*CONN
*I *1051:Z O *C 138.7 110.4 *L 0 *D CKBD0
*I *1056:I I *C 137.7 148.8 *L 0.00103 *D DEL01

*CAP
1 *1051:Z 0.000194354
2 *1056:I 0.000243888
3 *82:2 0.000376568
4 *82:3 0.000268568
5 *82:4 0.0037528

*RES
1 *82:3 *82:4 24.4934006
2 *1051:Z *82:2 0.449983
3 *82:2 *82:4 1.27408
4 *1056:I *82:3 1.61194
*END

*D_NET *83 0.0265821

*CONN
*I *1057:Z O *C 151.5 63.6 *L 0 *D CKBD1
*I *1709:DB I *C 147.1 67.6 *L 0.0011 *D DFXQD1
*I *1717:DB I *C 147.3 96.4 *L 0.0011 *D DFXQD1
*I *1725:DB I *C 146.9 127.2 *L 0.0011 *D DFXQD1
*I *1733:DA I *C 144.3 181.2 *L 0.000721 *D DFXQD1
*I *1741:DA I *C 145.5 220.8 *L 0.000721 *D DFXQD1
*I *1749:DA I *C 145.7 249.6 *L 0.000721 *D DFXQD1
*I *1757:DB I *C 146.9 254.8 *L 0.0011 *D DFXQD1

*CAP
1 *1757:DB 6.68801e-05
2 *1733:DA 0.000166857
3 *1717:DB 0.000314854
4 *1709:DB 1.21767e-05
5 *1057:Z 0.000305195
6 *83:8 0.00013495
7 *83:9 0.000386266
8 *83:10 0.00299999
9 *83:11 0.00100164
10 *83:12 3.63469e-05
11 *83:13 0.000660011
12 *83:14 0.000279514
13 *83:15 0.00181963
14 *83:16 0.000161547
15 *83:17 0.00043369
16 *83:19 0.000273563
17 *83:21 0.000510138
18 *83:22 4.46783e-05
19 *83:24 0.00052735
20 *83:25 0.000456945
21 *83:26 0.00017821
22 *83:27 0.000273471
23 *83:28 0.000298008
24 *83:29 0.000152346
25 *83:30 0.000252551
26 *83:31 0.00139876
27 *83:32 0.000118196
28 *83:33 0.000854243
29 *83:13 *115:9 0.00218499
30 *83:13 *351:12 0.00280008
31 *1757:DB *1757:CP 0.000526336016
32 *83:8 *432:6 0.000376176016
33 *83:8 *480:2 0.00178788
34 *83:9 *760:3 0.000687645
35 *83:10 *292:5 0.000814593047
36 *83:10 *336:3 0.000691565
37 *83:8 *341:2 0.00171046
38 *1733:DA *472:29 0.00023309
39 *83:11 *196:8 0.000249659004
40 *1057:Z *800:5 0.000401736992

*RES
1 *83:31 *83:32 14.2238
2 *83:9 *83:18 1.34366
3 *1709:DB *83:11 0.675215
4 *83:25 *83:26 0.159303
5 *83:12 *83:11 3.49894
6 *83:23 *83:24 0.159303
7 *83:28 *83:29 0.394613
8 *83:11 *83:30 1.18644
9 *83:20 *83:21 9.36451
10 *83:15 *83:16 1.28952
11 *1749:DA *83:9 1.07868
12 *83:21 *83:22 0.159303
13 *83:28 *83:32 20.0107
14 *1717:DB *83:8 1.60032
15 *83:10 *83:33 34.1179008
16 *83:22 *83:27 5.20546
17 *83:19 *83:20 0.159303
18 *83:16 *83:33 1.12085
19 *83:15 *83:26 12.8348
20 *83:29 *83:10 1.44882
21 *83:30 *83:31 3.40107
22 *1057:Z *83:12 3.27925
23 *83:8 *83:32 0.449797
24 *1725:DB *83:17 0.675215
25 *83:24 *83:27 6.71936
26 *83:17 *83:29 0.578905
27 *1733:DA *83:16 0.60962
28 *83:13 *83:9 4.16947
29 *83:18 *83:19 3.11422
30 *1757:DB *83:13 0.743934
31 *83:23 *83:25 5.51261
32 *83:14 *83:27 0.929267
33 *1741:DA *83:14 0.224898
*END

*D_NET *84 0.00579971

*CONN
*I *1058:Z O *C 151.1 92.4 *L 0 *D CKBD0
*I *1714:DB I *C 147.1 84 *L 0.0011 *D DFXQD1
*I *1706:DB I *C 146.9 69.6 *L 0.0011 *D DFXQD1

*CAP
1 *1706:DB 0.000266506
2 *1058:Z 0.000174962
3 *84:3 0.000619675
4 *84:4 0.000519811
5 *84:5 1.95189e-06
6 *84:6 0.000230249
7 *84:7 0.000504611
8 *84:8 0.00159896
9 *84:4 *467:10 0.000215472988
10 *1058:Z *488:75 0.000246202012
11 *84:4 *364:7 0.000809896016
12 *1706:DB *887:9 0.000212507988
13 *84:3 *437:2 0.000398871992

*RES
1 *1706:DB *84:6 2.45465
2 *1058:Z *84:8 2.96723
3 *84:7 *84:8 7.7136302
4 *84:5 *84:3 3.92685
5 *84:4 *84:7 0.272359
6 *84:3 *84:6 1.74091
7 *84:4 *84:5 3.09129
8 *1714:DB *84:7 0.44997
*END

*D_NET *85 0.0038754

*CONN
*I *1059:Z O *C 151.7 192.4 *L 0 *D DEL0
*I *1087:I I *C 137.5 186.4 *L 0.00104 *D DEL0

*CAP
1 *1087:I 0.00139591
2 *1059:Z 7.28753e-05
3 *85:2 0.00201939984
4 *85:3 0.00038724

*RES
1 *85:2 *85:3 10.1206999
2 *1087:I *85:2 5.90106
3 *1059:Z *85:3 0.450008
*END

*D_NET *86 0.00290936

*CONN
*I *1060:Z O *C 138.7 56.6 *L 0 *D DEL005
*I *1067:I I *C 150.9 58.8 *L 0.000643 *D CKBD0

*CAP
1 *1060:Z 0.000695036
2 *86:2 0.000363615
3 *86:3 0.00185069

*RES
1 *1060:Z *86:3 2.52064
2 *86:2 *86:3 9.70979977
3 *1067:I *86:2 0.675016
*END

*D_NET *87 0.0128552

*CONN
*I *1006:I I *C 140.5 107.2 *L 0.00103 *D DEL01
*I *1061:Z O *C 140.3 55.6 *L 0 *D CKBD0

*CAP
1 *1006:I 0.000256372
2 *1061:Z 0.000923394
3 *87:2 0.00018998
4 *87:3 0.000596848
5 *87:4 0.000848524
6 *87:5 0.000673191
7 *87:6 0.000314007
8 *87:7 0.000605844
9 *87:8 0.0026085
10 *1061:Z *464:6 0.00102267
11 *87:2 *241:3 0.00252231
12 *87:4 *1356:I 0.000468678008
13 *87:2 *371:2 0.000643890039
14 *87:2 *515:2 0.001181

*RES
1 *1061:Z *87:4 3.49117
2 *87:7 *87:8 27.9020996
3 *87:3 *87:5 2.62604
4 *1006:I *87:6 1.77709
5 *87:2 *87:7 0.159231
6 *87:6 *87:2 6.22067
7 *87:4 *87:5 4.76502
8 *87:3 *87:8 3.13311
*END

*D_NET *88 0.0158898

*CONN
*I *1062:Z O *C 139.7 182.4 *L 0 *D DEL015
*I *1068:I I *C 138.1 116.4 *L 0.00182 *D DEL005

*CAP
1 *1068:I 0.000285375
2 *88:2 0.00165934
3 *88:3 0.000568553
4 *88:4 7.59758e-05
5 *88:5 0.000345132
6 *88:6 0.00182317
7 *88:2 *286:2 0.000193055
8 *88:2 *106:2 0.00236211984
9 *88:2 *1095:Z 0.000576485977
10 *88:2 *371:5 0.00432364
11 *88:6 *780:4 0.000460485977
12 *1068:I *784:5 0.00321649

*RES
1 *88:5 *88:6 35.0900002
2 *88:2 *88:3 0.414424
3 *1068:I *88:5 1.11477
4 *1062:Z *88:2 15.4691
5 *88:4 *88:6 4.97094
6 *88:3 *88:4 4.31771
*END

*D_NET *89 0.00607423

*CONN
*I *1056:Z O *C 139.5 149.2 *L 0 *D DEL01
*I *1063:I I *C 138.1 109.2 *L 0.000643 *D CKBD0

*CAP
1 *1056:Z 0.000147474
2 *1063:I 5.83309e-05
3 *89:2 0.00179808
4 *89:3 0.000302136
5 *89:4 8.88408e-05
6 *89:5 0.000197464
7 *89:6 0.000220483
8 *89:5 *464:5 0.000695252031
9 *89:2 *21:2 0.000840947969
10 *89:6 *77:3 0.00113601008
11 *89:5 *371:2 0.000324015996
12 *89:2 *111:2 0.000265195996

*RES
1 *89:6 *89:2 25.9232006
2 *89:3 *89:5 0.450143
3 *1056:Z *89:4 0.450143
4 *89:5 *89:2 1.20605
5 *89:4 *89:6 0.954083
6 *1063:I *89:3 0.709233
*END

*D_NET *90 0.00208321

*CONN
*I *1057:I I *C 150.9 64 *L 0.000968 *D CKBD1
*I *1064:Z O *C 145.7 60 *L 0 *D CKBD1

*CAP
1 *90:2 0.000293004
2 *90:3 0.00105227992
3 *90:4 0.000737921

*RES
1 *90:2 *90:4 3.37280011
2 *90:3 *90:4 3.32221
3 *1057:I *90:2 1.07628
4 *1064:Z *90:3 0.225004
*END

*D_NET *91 0.0337919

*CONN
*I *1065:Z O *C 139.5 138.4 *L 0 *D DEL01
*I *1710:DB I *C 147.1 71.2 *L 0.0011 *D DFXQD1
*I *1718:DB I *C 147.3 98.4 *L 0.0011 *D DFXQD1
*I *1726:DB I *C 146.9 130.8 *L 0.0011 *D DFXQD1
*I *1734:DA I *C 143.7 184.8 *L 0.000721 *D DFXQD1
*I *1742:DA I *C 145.5 224.4 *L 0.000721 *D DFXQD1
*I *1750:DA I *C 145.3 253.2 *L 0.000721 *D DFXQD1
*I *1758:DB I *C 146.9 260.4 *L 0.0011 *D DFXQD1

*CAP
1 *1734:DA 0.000554425
2 *1065:Z 8.1843e-05
3 *91:8 0.000251424
4 *91:9 0.00189549
5 *91:10 0.000400354
6 *91:11 0.000532006
7 *91:12 0.000235972
8 *91:13 0.000269722
9 *91:14 0.000631539
10 *91:15 0.00168274
11 *91:16 0.00165934
12 *91:17 0.000141331
13 *91:18 0.00192301
14 *91:19 0.000757726
15 *91:20 0.000197018
16 *91:21 0.000153755
17 *91:22 0.000323944
18 *91:24 0.000798852
19 *91:25 0.000215535
20 *91:26 1.289e-06
21 *91:27 0.000227516
22 *91:28 2.4457e-05
23 *91:29 0.000539569
24 *91:30 3.1e-08
25 *91:31 8.5232e-05
26 *91:32 0.000322234
27 *91:33 0.000566968
28 *91:34 0.00232923
29 *91:35 0.000160735
30 *91:36 0.000920852
31 *91:37 0.000206659
32 *91:39 0.000130209
33 *91:40 2.2641e-05
34 *91:11 *467:20 0.00127515992
35 *91:8 *483:11 0.000788296016
36 *91:9 *47:2 0.00119596008
37 *91:10 *129:8 0.000592257031
38 *91:11 *761:13 0.00116667
39 *91:12 *292:5 0.000746895
40 *91:13 *347:5 0.000666113984
41 *91:10 *104:10 0.001643
42 *91:13 *294:5 0.00294705
43 *91:14 *296:6 0.000507484961
44 *91:15 *17:7 0.000813153047
45 *1734:DA *472:15 0.00031713
46 *91:14 *1727:DB 0.000749481016
47 *91:12 *290:2 0.000210550996
48 *91:16 *19:7 0.00192904

*RES
1 *91:10 *91:9 1.61
2 *91:19 *91:23 2.24246
3 *91:9 *91:22 13.3657
4 *91:31 *91:33 3.99989
5 *91:15 *91:31 23.3383999
6 *91:25 *91:34 16.361
7 *91:8 *91:36 1.485
8 *91:29 *91:30 0.784879
9 *91:11 *91:26 2.62635
10 *91:28 *91:29 4.75379
11 *91:16 *91:30 13.5538
12 *91:13 *91:33 0.67199
13 *91:16 *91:19 0.612163
14 *91:24 *91:25 0.159184
15 *91:26 *91:27 2.49281
16 *91:36 *91:38 5.8809
17 *1742:DA *91:19 0.960444
18 *91:39 *91:40 3.12527
19 *91:35 *91:37 3.86314
20 *91:28 *91:32 0.917354
21 *91:12 *91:15 1.44334
22 *91:14 *91:31 6.75124
23 *91:18 *91:8 10.889
24 *91:21 *91:22 2.20863
25 *1758:DB *91:11 0.827613
26 *1734:DA *91:34 2.90163
27 *91:37 *91:40 0.159184
28 *91:33 *91:35 1.25175
29 *91:27 *91:32 0.917354
30 *1065:Z *91:14 1.15453
31 *91:38 *91:39 0.159184
32 *91:12 *91:34 5.87769
33 *91:18 *91:20 2.60712
34 *91:17 *91:32 0.769566
35 *1718:DB *91:18 0.884591
36 *91:23 *91:24 7.52971
37 *91:20 *91:21 2.54373
38 *1750:DA *91:17 0.225065
39 *1726:DB *91:13 0.45013
40 *1710:DB *91:10 0.45013
*END

*D_NET *92 0.00233277

*CONN
*I *1066:Z O *C 141.1 55.6 *L 0 *D CKBD0
*I *1083:I I *C 147.1 55.2 *L 0.000968 *D CKBD1

*CAP
1 *1083:I 0.000266918
2 *92:2 0.00100448
3 *92:3 0.00106137

*RES
1 *1066:Z *92:2 0.659682
2 *1083:I *92:3 3.2136
3 *92:2 *92:3 4.07511997
*END

*D_NET *93 0.00230185

*CONN
*I *1067:Z O *C 151.5 59.2 *L 0 *D CKBD0
*I *1090:I I *C 148.1 53.2 *L 0.00182 *D DEL005

*CAP
1 *1090:I 4.25911e-05
2 *93:2 0.000125334
3 *93:3 0.000752371
4 *93:4 0.000112808
5 *93:5 0.00126873008

*RES
1 *93:4 *93:5 0.476787
2 *93:2 *93:3 2.72362
3 *1090:I *93:4 0.674984
4 *93:3 *93:5 4.94254017
5 *1067:Z *93:2 0.224969
*END

*D_NET *94 0.00110356

*CONN
*I *1052:I I *C 138.5 121.6 *L 0.00182 *D DEL005
*I *1068:Z O *C 138.7 116.6 *L 0 *D DEL005

*CAP
1 *1052:I 0.000140194
2 *1068:Z 0.000963365

*RES
1 *1052:I *94:2 0.538446
2 *1068:Z *94:2 3.70668006
*END

*D_NET *95 0.00889185

*CONN
*I *1063:Z O *C 138.7 109.6 *L 0 *D CKBD0
*I *1069:I I *C 149.7 157.6 *L 0.00103 *D DEL015

*CAP
1 *1063:Z 0.000165641
2 *95:2 0.000652473
3 *95:3 0.000282815
4 *95:4 0.000597659
5 *95:5 0.000492156
6 *95:6 0.000338595
7 *95:7 0.00191688
8 *95:2 *193:2 0.00207399016
9 *95:2 *336:4 0.00204135984
10 *95:2 *4:2 0.000330255

*RES
1 *95:6 *95:7 3.12277
2 *95:5 *95:2 3.75121
3 *1069:I *95:3 1.19818
4 *95:2 *95:7 29.5870991
5 *1063:Z *95:4 0.450109
6 *95:4 *95:6 1.49841
7 *95:3 *95:5 1.54671
*END

*D_NET *96 0.0140912

*CONN
*I *989:I I *C 151.1 94.8 *L 0.000968 *D CKBD1
*I *1070:Z O *C 139.7 145.6 *L 0 *D DEL015

*CAP
1 *989:I 0.000245324
2 *1070:Z 7.39965e-05
3 *96:2 0.00125449
4 *96:3 0.000927059
5 *96:4 0.000173429
6 *96:5 0.00036952
7 *96:6 4.50706e-05
8 *96:7 9.41774e-05
9 *96:8 0.00275532
10 *96:8 *17:3 0.00159117
11 *96:7 *362:6 0.00152043
12 *96:3 *788:6 0.00435418
13 *96:2 *1719:CP 0.000687021016

*RES
1 *96:6 *96:8 5.39031
2 *96:5 *96:8 36.1132011
3 *989:I *96:7 1.43106
4 *96:3 *96:7 2.87865
5 *96:2 *96:3 1.95731
6 *1070:Z *96:4 0.486572
7 *96:4 *96:5 1.6636
8 *96:2 *96:6 6.76351
*END

*D_NET *97 0.0232296

*CONN
*I *1071:Z O *C 148.1 193.2 *L 0 *D DEL0
*I *1730:DB I *C 146.5 146.8 *L 0.0011 *D DFXQD1
*I *1738:DA I *C 145.5 204.4 *L 0.000721 *D DFXQD1
*I *1746:DA I *C 145.1 235.2 *L 0.000721 *D DFXQD1
*I *1754:DA I *C 142.5 271.2 *L 0.000721 *D DFXQD1
*I *1762:DB I *C 147.5 278.4 *L 0.0011 *D DFXQD1

*CAP
1 *1746:DA 0.000265147
2 *1071:Z 6.84398e-05
3 *97:6 0.000253431
4 *97:7 0.00124223
5 *97:8 0.000352424
6 *97:9 0.00042339
7 *97:10 0.000619641
8 *97:11 0.000307903
9 *97:12 0.000349716
10 *97:13 0.000237546
11 *97:14 0.000483217
12 *97:15 0.000306777
13 *97:16 2.3219e-05
14 *97:18 0.000470954
15 *97:20 8.94982e-05
16 *97:21 0.000285445
17 *97:22 0.000175892
18 *97:24 4.01083e-05
19 *97:25 0.000308116
20 *97:26 4.33036e-05
21 *97:27 0.00113067
22 *97:28 0.000105931
23 *97:29 8.95591e-05
24 *97:30 0.000538389
25 *97:31 0.00199431
26 *97:32 0.000101093
27 *97:33 0.000168559
28 *97:34 0.000164633
29 *97:35 0.000109126
30 *97:36 0.0010437
31 *97:11 *101:5 0.00136661
32 *97:9 *115:10 0.00249163
33 *97:9 *268:5 0.000939018047
34 *97:10 *1754:SA 0.00157654
35 *97:6 *264:2 0.000407948984
36 *97:7 *336:7 0.00139723
37 *97:7 *343:4 0.00091519
38 *97:8 *472:14 0.00057896
39 *97:7 *114:5 0.00109088
40 *97:9 *527:4 0.000673123984

*RES
1 *97:27 *97:28 3.50601
2 *97:25 *97:26 6.65515
3 *97:22 *97:26 0.675986
4 *97:11 *97:15 2.92115
5 *97:17 *97:8 0.159255
6 *97:17 *97:18 7.07237
7 *97:9 *97:14 2.47795
8 *97:24 *97:25 0.159255
9 *97:10 *97:32 1.36936
10 *97:12 *97:31 1.41172
11 *97:12 *97:30 4.7309
12 *97:32 *97:33 6.13602
13 *97:13 *97:36 3.05123
14 *97:22 *97:23 2.98888
15 *97:6 *97:14 3.55537
16 *97:7 *97:24 8.42474
17 *97:19 *97:20 0.159255
18 *97:31 *97:34 13.0952997
19 *97:11 *97:28 1.6473
20 *97:18 *97:20 1.38614
21 *97:9 *97:10 2.73451
22 *97:21 *97:23 0.159255
23 *97:34 *97:35 0.159255
24 *1730:DB *97:7 1.55639
25 *97:29 *97:30 0.159255
26 *97:27 *97:29 11.1509
27 *97:33 *97:35 2.416
28 *97:16 *97:36 4.01295
29 *1738:DA *97:11 0.701762
30 *1071:Z *97:13 0.760309
31 *1762:DB *97:6 1.08921
32 *97:19 *97:21 3.12176
33 *1746:DA *97:12 2.21998
34 *97:8 *97:36 4.01295
35 *97:15 *97:16 0.159255
36 *1754:DA *97:10 0.224996
*END

*D_NET *98 0.00243232

*CONN
*I *1064:I I *C 145.1 60.4 *L 0.000968 *D CKBD1
*I *1072:Z O *C 151.7 56.4 *L 0 *D CKBD1

*CAP
1 *1072:Z 2.47423e-06
2 *98:2 0.000168779
3 *98:3 0.000597828
4 *98:4 8.05865e-05
5 *98:5 0.0012011
6 *98:6 0.000258859
7 *98:7 0.000122722

*RES
1 *98:6 *98:7 1.73732
2 *98:4 *98:5 3.13983989
3 *1072:Z *98:2 0.536115
4 *98:5 *98:7 2.46464
5 *98:2 *98:4 0.45002
6 *1064:I *98:3 1.05283
7 *98:3 *98:6 0.675006
*END

*D_NET *99 0.0175896

*CONN
*I *1065:I I *C 137.7 138 *L 0.00103 *D DEL01
*I *1073:Z O *C 151.5 60 *L 0 *D CKBD1

*CAP
1 *1065:I 0.000201984
2 *1073:Z 0.000617789
3 *99:2 0.0036246
4 *99:3 2.3174e-05
5 *99:4 0.000465969
6 *99:5 1.13381e-05
7 *99:6 1.82516e-06
8 *99:7 0.000773038
9 *99:8 0.001241
10 *99:9 0.000119188
11 *99:10 0.00151107
12 *99:11 9.07049e-06
13 *99:3 *373:2 0.000297403008
14 *1073:Z *436:3 0.000224598008
15 *1065:I *783:4 0.000530513008
16 *99:2 *172:5 0.00195462
17 *99:2 *237:5 0.00556862
18 *99:2 *1338:I 0.000413883008

*RES
1 *99:9 *99:10 8.26951
2 *99:2 *99:9 9.0094
3 *99:6 *99:7 7.98081
4 *99:2 *99:5 21.0457993
5 *1073:Z *99:8 3.2913
6 *99:3 *99:4 14.4459
7 *99:10 *99:11 0.159282
8 *99:8 *99:11 6.63975
9 *99:5 *99:7 0.161209
10 *1065:I *99:3 1.66476
11 *99:4 *99:6 0.159282
*END

*D_NET *100 0.0139817

*CONN
*I *1074:Z O *C 139.9 196 *L 0 *D DEL0
*I *1735:DA I *C 144.1 190 *L 0.000721 *D DFXQD1
*I *1743:DA I *C 143.1 226 *L 0.000721 *D DFXQD1
*I *1751:DA I *C 146.1 262 *L 0.000721 *D DFXQD1
*I *1759:DB I *C 147.3 264 *L 0.0011 *D DFXQD1

*CAP
1 *1759:DB 7.89637e-05
2 *1735:DA 0.000968005
3 *1074:Z 0.000453859
4 *100:5 0.00154152
5 *100:6 0.000347986
6 *100:7 0.000159433
7 *100:8 0.000535904
8 *100:9 1.29371e-06
9 *100:10 0.0010692
10 *100:11 0.000716436
11 *100:12 0.000376353
12 *100:13 0.000288052
13 *100:14 0.000758752
14 *100:15 0.000120762
15 *100:16 0.00023595
16 *100:17 0.00105577
17 *100:18 0.00041667
18 *100:19 0.000138145
19 *100:20 0.000318466
20 *100:21 0.000684187
21 *100:22 8.84901e-05
22 *100:23 0.000111495
23 *100:24 0.000764985
24 *100:25 0.00031983
25 *1735:DA *324:2 0.00120266
26 *100:5 *765:7 0.000771611953
27 *100:6 *351:15 0.000456936992

*RES
1 *100:17 *100:18 2.01645
2 *100:14 *100:25 3.29006
3 *100:8 *100:25 1.60995
4 *100:12 *100:13 1.18362
5 *100:5 *100:15 1.21046
6 *100:18 *100:23 0.652857
7 *100:5 *100:23 8.84183979
8 *1735:DA *100:24 6.31959
9 *100:6 *100:22 1.79168
10 *1759:DB *100:7 1.44023
11 *1074:Z *100:21 1.56313
12 *100:7 *100:22 1.11063
13 *100:19 *100:20 1.27212
14 *100:16 *100:20 2.47908
15 *100:13 *100:17 4.45276
16 *100:9 *100:11 2.98852
17 *100:10 *100:14 4.85575
18 *100:21 *100:24 2.7821
19 *100:19 *100:24 2.91566
20 *100:15 *100:16 1.92201
21 *100:9 *100:10 0.285077
22 *100:6 *100:8 2.5124
23 *100:11 *100:12 1.796
24 *1743:DA *100:23 0.225039
25 *1751:DA *100:22 0.225039
*END

*D_NET *101 0.0158616

*CONN
*I *1075:Z O *C 151.7 186 *L 0 *D DEL0
*I *1736:DA I *C 145.7 195.6 *L 0.000721 *D DFXQD1
*I *1744:DA I *C 145.5 229.6 *L 0.000721 *D DFXQD1
*I *1752:DA I *C 146.1 265.6 *L 0.000721 *D DFXQD1
*I *1760:DB I *C 141.9 269.2 *L 0.0011 *D DFXQD1

*CAP
1 *1752:DA 0.000257233
2 *101:5 0.000227589
3 *101:6 8.09237e-05
4 *101:7 0.00101516
5 *101:8 0.000411677
6 *101:9 0.00147918
7 *101:10 0.000214164
8 *101:11 0.000620425
9 *101:12 0.00176667
10 *101:14 0.000299179
11 *101:15 0.000101752
12 *101:16 7.46434e-05
13 *101:17 0.000295059
14 *101:18 0.00188798
15 *101:19 0.000813184
16 *101:20 1.48077e-05
17 *101:21 0.000104288
18 *101:22 0.00026504
19 *101:23 0.000205925
20 *101:24 0.000547107
21 *101:25 0.000235655
22 *101:26 0.000179161
23 *101:27 0.000160465
24 *1752:DA *351:11 0.00239066
25 *1752:DA *1753:DA 0.000846977031
26 *101:5 *97:11 0.00136661

*RES
1 *101:22 *101:24 6.67307
2 *101:5 *101:25 3.93647
3 *101:5 *101:23 3.41268
4 *101:20 *101:26 0.144865
5 *101:20 *101:21 3.05655
6 *101:17 *101:26 0.449948
7 *101:8 *101:12 7.98477983
8 *101:9 *101:13 5.77512
9 *101:18 *101:27 6.25663
10 *101:15 *101:27 0.701787
11 *101:23 *101:27 2.66107
12 *1760:DB *101:19 2.2389
13 *101:7 *101:11 3.94292
14 *101:10 *101:11 2.48708
15 *101:24 *101:25 1.31731
16 *101:9 *101:26 2.73478
17 *101:21 *101:22 0.807908
18 *1752:DA *101:6 1.99035
19 *101:7 *101:8 1.93308
20 *101:16 *101:18 4.73499
21 *101:12 *101:14 1.52298
22 *101:6 *101:19 2.23951
23 *101:10 *101:19 1.12298
24 *101:13 *101:14 0.159242
25 *1744:DA *101:17 0.225035
26 *1075:Z *101:16 0.225035
27 *1736:DA *101:15 0.225035
*END

*D_NET *102 0.00166895

*CONN
*I *1010:I I *C 143.7 66 *L 0.000968 *D CKBD1
*I *1076:Z O *C 144.9 60 *L 0 *D CKBD1

*CAP
1 *1010:I 1.69647e-05
2 *102:2 0.00165198

*RES
1 *1010:I *102:2 5.54225016
2 *1076:Z *102:2 0.225036
*END

*D_NET *103 0.0022355

*CONN
*I *1077:Z O *C 149.7 56.6 *L 0 *D DEL005
*I *1701:DB I *C 147.3 49.6 *L 0.0011 *D DFXQD1

*CAP
1 *1077:Z 0.000404344
2 *103:2 0.00183116

*RES
1 *1701:DB *103:2 5.76289988
2 *1077:Z *103:2 3.14596
*END

*D_NET *104 0.0201887

*CONN
*I *1078:Z O *C 151.9 145.6 *L 0 *D DEL015
*I *1711:DB I *C 147.3 76.8 *L 0.0011 *D DFXQD1
*I *1703:DB I *C 145.1 56.8 *L 0.0011 *D DFXQD1

*CAP
1 *1703:DB 0.000374363
2 *104:3 0.0017861
3 *104:4 0.000566177
4 *104:5 0.000202253
5 *104:6 0.000422848
6 *104:7 2.72269e-05
7 *104:8 0.000408812
8 *104:9 0.000433777
9 *104:10 0.000412982
10 *104:11 0.00127757
11 *104:12 0.00109859
12 *104:13 4.59232e-05
13 *104:10 *91:10 0.001643
14 *104:6 *467:13 3.412e-06
15 *104:8 *467:14 0.000102869
16 *104:8 *467:15 0.000156779
17 *104:9 *467:15 8.748e-06
18 *104:10 *467:14 0.000128241
19 *104:10 *467:15 6.3652e-05
20 *104:11 *467:13 3.438e-06
21 *104:11 *467:14 0.000110794
22 *104:12 *467:10 2.0172e-05
23 *104:12 *467:14 0.000383946
24 *104:12 *467:15 5.1752e-05
25 *104:13 *467:14 3.5073e-05
26 *104:13 *467:15 8.0986e-05
27 *104:3 *467:16 1.2103e-05
28 *104:3 *467:13 0.00356989
29 *104:3 *467:17 0.000723053
30 *104:3 *467:14 0.000662460974
31 *104:4 *109:3 0.000607901992
32 *104:6 *294:2 0.00086195
33 *104:4 *305:8 0.003436
34 *104:3 *132:3 0.0004659

*RES
1 *104:12 *104:13 4.12893
2 *104:10 *104:13 3.76818
3 *1703:DB *104:4 1.84619
4 *104:7 *104:11 9.27664
5 *104:11 *104:12 7.12293
6 *104:8 *104:10 9.86319
7 *104:7 *104:3 0.476869
8 *104:6 *104:3 35.2335014
9 *104:5 *104:6 3.57733
10 *104:4 *104:8 1.82307
11 *1711:DB *104:9 1.97629
12 *1078:Z *104:5 0.225263
13 *104:9 *104:13 0.225263
*END

*D_NET *105 0.00107102

*CONN
*I *1079:Z O *C 139.1 117.6 *L 0 *D CKBD0
*I *1085:I I *C 141.5 118 *L 0.00103 *D DEL01

*CAP
1 *105:2 0.000184981
2 *105:3 0.000886036016

*RES
1 *1085:I *105:2 0.514781
2 *105:3 *105:4 2.43339992
3 *1079:Z *105:3 0.225012
4 *105:2 *105:4 0.225012
*END

*D_NET *106 0.0125753

*CONN
*I *1000:Z O *C 139.9 203.2 *L 0 *D DEL015
*I *1080:I I *C 137.5 143.2 *L 0.00103 *D DEL015

*CAP
1 *1000:Z 2.16505e-06
2 *1080:I 0.000177833
3 *106:2 0.00489264
4 *106:3 0.000312364
5 *106:4 0.000723799
6 *106:5 0.000351933
7 *106:6 0.000344168
8 *106:2 *368:5 0.000822352969
9 *106:2 *88:2 0.00236211984
10 *106:2 *371:5 0.000529295039
11 *106:3 *373:6 0.000448138008
12 *1080:I *783:4 0.00117505
13 *106:4 *762:3 0.000433400977

*RES
1 *106:4 *106:2 30.0543995
2 *106:3 *106:5 10.4041
3 *1000:Z *106:4 0.271488
4 *106:5 *106:6 2.45118
5 *106:2 *106:6 6.49277
6 *1080:I *106:3 1.41751
*END

*D_NET *107 0.0230294

*CONN
*I *1040:I I *C 150.9 98.4 *L 0.000643 *D CKBD0
*I *1055:I I *C 151.3 116.4 *L 0.00182 *D DEL005
*I *1071:I I *C 145.7 193.6 *L 0.00104 *D DEL0
*I *1081:Z O *C 145.7 135.6 *L 0 *D DEL01

*CAP
1 *1071:I 0.000408532
2 *1081:Z 0.000195283
3 *107:4 0.000475672
4 *107:5 0.00205127
5 *107:6 0.00101632
6 *107:7 0.000396638
7 *107:8 0.00103463
8 *107:9 0.00157544
9 *107:10 0.000515768
10 *107:12 0.00111004
11 *107:13 1.97192e-06
12 *107:15 0.000543687
13 *107:16 0.000148583
14 *107:17 0.000273471
15 *107:18 7.51209e-07
16 *107:19 3.07683e-05
17 *107:20 0.000533452
18 *107:21 1.77473e-05
19 *107:22 0.000473324
20 *107:23 0.000689203
21 *107:24 0.000541747
22 *107:25 0.000518209
23 *107:26 0.000190995
24 *1071:I *467:19 0.000753911016
25 *1071:I *768:3 0.00138052
26 *107:4 *225:3 0.00100121
27 *107:5 *888:4 0.000750763984
28 *107:6 *293:2 0.00156333
29 *1081:Z *295:4 0.000977875
30 *107:7 *296:6 0.00116583
31 *107:5 *784:5 0.000946368984
32 *107:8 *1695:A1 0.00122797
33 *107:9 *472:11 0.000518063008

*RES
1 *107:22 *107:23 1.12702
2 *107:16 *107:17 2.27521
3 *107:7 *107:17 4.44228
4 *107:13 *107:8 4.12503
5 *1040:I *107:22 1.87761
6 *107:21 *107:24 2.8634
7 *107:16 *107:6 12.3906002
8 *107:7 *107:19 1.24462
9 *107:23 *107:4 2.00504
10 *107:5 *107:18 9.79586
11 *1081:Z *107:25 3.29409
12 *107:11 *107:12 4.32393
13 *107:9 *107:14 9.8074
14 *107:14 *107:15 1.32006
15 *107:5 *107:24 4.86844
16 *107:10 *107:6 2.43403
17 *107:4 *107:26 8.89497
18 *107:19 *107:20 2.61137
19 *107:12 *107:13 0.159193
20 *107:18 *107:20 0.285111
21 *1071:I *107:15 7.2017
22 *107:24 *107:26 1.07862
23 *107:10 *107:8 2.1026
24 *107:11 *107:9 0.159193
25 *1055:I *107:21 0.224988
26 *107:7 *107:25 0.224988
*END

*D_NET *108 0.0129382

*CONN
*I *1005:I I *C 138.1 200.8 *L 0.00103 *D DEL01
*I *1335:Z O *C 140.7 124 *L 0 *D BUFFD2

*CAP
1 *1005:I 8.78794e-05
2 *1335:Z 0.000270433
3 *108:2 0.00246266
4 *108:3 0.0032501
5 *108:4 6.72982e-05
6 *108:5 0.000745735
7 *108:6 0.000569728
8 *108:5 *1074:I 0.000635671016
9 *108:3 *207:5 0.000324685
10 *108:2 *391:2 0.000399753008
11 *108:2 *392:8 0.000335316992
12 *108:3 *1004:I 0.000850225
13 *108:3 *375:2 0.0022438
14 *108:3 *1270:I 0.000386758008
15 *108:2 *231:4 0.00030818998

*RES
1 *108:2 *108:6 22.6135
2 *108:4 *108:2 3.15263
3 *1335:Z *108:4 1.02423
4 *108:5 *108:3 31.3663998
5 *1005:I *108:5 1.11325
6 *108:3 *108:6 0.384326
*END

*D_NET *109 0.00605647

*CONN
*I *1035:I I *C 137.5 58.8 *L 0.000643 *D CKBD0
*I *1042:I I *C 144.9 66 *L 0.00182 *D DEL005
*I *1083:Z O *C 147.7 55.6 *L 0 *D CKBD1

*CAP
1 *1035:I 0.000312984
2 *1042:I 0.000628375
3 *1083:Z 5.68077e-05
4 *109:3 0.000895232
5 *109:4 6.75193e-05
6 *109:5 0.000381526
7 *109:6 0.00197187
8 *109:7 0.000136212
9 *109:8 0.000241433
10 *109:9 0.000327457
11 *109:9 *467:14 0.000235200996
12 *1035:I *479:18 0.000193911992
13 *109:3 *104:4 0.000607901992

*RES
1 *1042:I *109:8 3.38359
2 *1083:Z *109:5 0.384177
3 *109:8 *109:9 4.06229
4 *109:6 *109:7 8.0157299
5 *109:4 *109:7 0.854582
6 *109:3 *109:5 2.24794
7 *109:3 *109:4 2.94805
8 *1035:I *109:6 2.33393
9 *109:7 *109:9 0.225051
*END

*D_NET *110 0.00279921

*CONN
*I *1081:I I *C 143.9 136 *L 0.00103 *D DEL01
*I *1084:Z O *C 140.7 127.6 *L 0 *D DEL01

*CAP
1 *1081:I 0.000239754
2 *110:2 0.00220926
3 *110:3 0.000350191

*RES
1 *110:2 *110:3 5.76375008
2 *1084:Z *110:2 2.51636
3 *1081:I *110:3 1.86441
*END

*D_NET *111 0.00863496

*CONN
*I *1085:Z O *C 143.3 117.6 *L 0 *D DEL01
*I *1212:I I *C 138.7 49.6 *L 0.00072 *D BUFFD1

*CAP
1 *1085:Z 6.26234e-06
2 *111:2 0.00118718
3 *111:3 0.000363543
4 *111:4 0.000414458
5 *111:5 0.000428399
6 *111:6 1.2089e-05
7 *111:7 0.00356872
8 *111:2 *89:2 0.000265195996
9 *111:2 *464:5 0.000434500977
10 *111:2 *77:2 0.000505369023
11 *111:4 *485:3 0.000388598008
12 *111:3 *805:4 0.000567048008
13 *111:2 *515:3 0.00049366

*RES
1 *111:5 *111:2 2.74447
2 *1085:Z *111:3 0.835025
3 *111:2 *111:7 41.3950005
4 *1212:I *111:4 0.449726
5 *111:4 *111:6 0.869133
6 *111:3 *111:5 3.42284
7 *111:6 *111:7 0.224863
*END

*D_NET *112 0.0159724

*CONN
*I *1054:I I *C 138.1 103.6 *L 0.000643 *D CKBD0
*I *1086:Z O *C 151.7 52 *L 0 *D CKBD1

*CAP
1 *1054:I 3.60001e-05
2 *1086:Z 0.000176609
3 *112:2 0.000516755
4 *112:3 0.000244702
5 *112:4 0.00132888
6 *112:5 0.000922929
7 *112:6 0.000461293
8 *112:7 0.00161042
9 *112:8 0.000443624
10 *112:2 *397:4 0.000327946992
11 *112:5 *462:3 0.00385143
12 *112:5 *789:3 0.000620003984
13 *112:5 *802:4 0.00543175

*RES
1 *112:7 *112:8 32.0489998
2 *112:5 *112:6 14.8567
3 *112:4 *112:7 3.02367
4 *1054:I *112:2 0.329116
5 *112:6 *112:8 2.79822
6 *112:3 *112:4 5.35291
7 *112:2 *112:5 3.57676
8 *1086:Z *112:3 0.602973
*END

*D_NET *113 0.012154

*CONN
*I *1074:I I *C 137.5 195.6 *L 0.00104 *D DEL0
*I *1087:Z O *C 139.9 186 *L 0 *D DEL0
*I *1727:DB I *C 147.3 136 *L 0.0011 *D DFXQD1

*CAP
1 *1074:I 6.35883e-05
2 *1727:DB 0.000201969
3 *1087:Z 0.000115208
4 *113:3 0.000992656
5 *113:4 0.000416152
6 *113:5 0.000244379
7 *113:6 0.000810416
8 *113:7 0.000395576
9 *113:8 0.00151492
10 *113:9 0.000556719
11 *113:10 0.00137413
12 *113:11 0.00179083
13 *113:12 0.000434406
14 *113:13 0.000236263
15 *113:14 3.28462e-05
16 *1727:DB *91:14 0.000749481016
17 *113:6 *366:5 0.000920711016
18 *1074:I *1301:I 0.000279891992
19 *1727:DB *779:4 0.000388198984
20 *1074:I *108:5 0.000635671016

*RES
1 *113:12 *113:13 3.61524
2 *1727:DB *113:12 2.23372
3 *113:10 *113:14 1.73583
4 *1074:I *113:10 6.49862
5 *113:6 *113:13 3.12609
6 *113:4 *113:8 7.14427
7 *113:5 *113:9 1.0328
8 *113:6 *113:7 5.26973
9 *1087:Z *113:14 0.449986
10 *113:3 *113:11 5.17592
11 *113:10 *113:11 9.40079975
12 *113:8 *113:9 2.15081
13 *113:3 *113:4 2.18438
14 *113:5 *113:7 2.14091
*END

*D_NET *114 0.011041

*CONN
*I *1075:I I *C 149.3 186.4 *L 0.00104 *D DEL0
*I *1088:Z O *C 151.7 182.4 *L 0 *D DEL0
*I *1728:DB I *C 146.5 139.6 *L 0.0011 *D DFXQD1

*CAP
1 *1728:DB 0.000573495
2 *1088:Z 0.000366167
3 *114:3 0.000257435
4 *114:4 0.000132321
5 *114:5 0.00134195
6 *114:6 5.36903e-05
7 *114:7 0.000482434
8 *114:8 0.000843769
9 *114:9 0.000337458
10 *114:10 0.000198257
11 *114:11 1.82653e-05
12 *114:12 5.88504e-05
13 *114:3 *1732:DA 0.000774287969
14 *114:5 *97:7 0.00109088
15 *114:5 *351:10 0.000796313984
16 *114:3 *292:3 0.000348046992
17 *114:4 *336:5 0.00155929
18 *114:5 *338:3 0.00123411
19 *114:5 *361:19 0.000574043984

*RES
1 *114:3 *114:4 3.12684
2 *114:10 *114:11 3.57988
3 *114:5 *114:4 17.3528996
4 *114:8 *114:9 2.92004
5 *1728:DB *114:7 2.30812
6 *114:7 *114:5 2.28747
7 *114:3 *114:12 4.6038
8 *114:10 *114:12 2.17335
9 *114:6 *114:9 2.11377
10 *1075:I *114:9 1.30406
11 *1088:Z *114:6 2.22472
12 *114:8 *114:11 0.225067
*END

*D_NET *115 0.0214475

*CONN
*I *1089:Z O *C 140.5 178 *L 0 *D DEL0
*I *1731:DB I *C 146.5 148.8 *L 0.0011 *D DFXQD1
*I *1739:DA I *C 145.5 210 *L 0.000721 *D DFXQD1
*I *1747:DA I *C 145.3 238.8 *L 0.000721 *D DFXQD1
*I *1755:DA I *C 146.5 274.8 *L 0.000721 *D DFXQD1
*I *1763:DB I *C 142.3 276.4 *L 0.0011 *D DFXQD1

*CAP
1 *1739:DA 0.000346401
2 *1731:DB 0.000235693
3 *115:6 5.84295e-05
4 *115:7 0.000698053
5 *115:8 0.000223617
6 *115:9 0.000870791
7 *115:10 0.000704479
8 *115:11 0.000207241
9 *115:12 0.000308174
10 *115:13 0.000454885
11 *115:14 0.00065185
12 *115:15 0.000137385
13 *115:16 0.000449484
14 *115:17 0.000140586
15 *115:19 0.000559568
16 *115:20 0.0016385
17 *115:21 0.000750832
18 *115:22 0.000159012
19 *115:23 0.000269346
20 *115:24 6.11797e-05
21 *115:25 0.00124552
22 *115:26 0.000199765
23 *115:27 0.000424282
24 *115:28 0.00100685
25 *115:14 *354:11 0.00112546
26 *115:6 *310:5 0.00141608
27 *115:6 *263:3 0.00133242
28 *115:7 *343:4 0.000296983008
29 *115:7 *339:4 0.000597796016
30 *115:8 *472:29 0.000200248008
31 *115:9 *83:13 0.00218499
32 *115:10 *97:9 0.00249163

*RES
1 *115:21 *115:22 5.55586
2 *115:18 *115:9 0.159197
3 *115:19 *115:27 2.54084
4 *115:13 *115:22 2.72188
5 *115:25 *115:28 15.505
6 *115:11 *115:15 0.518642
7 *115:14 *115:28 2.7432
8 *115:17 *115:9 4.65672
9 *115:23 *115:24 1.4433
10 *115:20 *115:27 9.3045
11 *1731:DB *115:7 2.46638
12 *115:23 *115:8 2.97449
13 *115:20 *115:21 1.72196
14 *115:15 *115:16 11.1312
15 *115:12 *115:27 1.33121
16 *1739:DA *115:13 1.08938
17 *115:25 *115:26 1.21227
18 *115:18 *115:19 4.50674
19 *115:16 *115:17 1.21753
20 *115:6 *115:11 0.479434
21 *115:24 *115:28 17.2448997
22 *115:13 *115:8 0.900189
23 *115:7 *115:26 2.0572
24 *1763:DB *115:10 1.45699
25 *1089:Z *115:14 0.60995
26 *115:6 *115:10 2.86897
27 *1747:DA *115:12 0.224982
28 *1755:DA *115:11 0.224982
*END

*D_NET *116 0.00136398

*CONN
*I *1072:I I *C 151.1 56.8 *L 0.000968 *D CKBD1
*I *1090:Z O *C 148.7 53 *L 0 *D DEL005

*CAP
1 *1090:Z 0.000202299
2 *116:2 0.000827672031
3 *116:3 0.000334011

*RES
1 *116:2 *116:3 3.17131996
2 *1072:I *116:3 1.62582
3 *1090:Z *116:2 0.669531
*END

*D_NET *117 0.00372766

*CONN
*I *1050:I I *C 137.7 30 *L 0.000643 *D CKBD0
*I *1091:Z O *C 143.5 41.2 *L 0 *D CKBD1

*CAP
1 *1050:I 0.000655556
2 *1091:Z 0.000730422
3 *117:2 0.00174727
4 *117:3 0.000588449
5 *117:4 5.97221e-06

*RES
1 *117:2 *117:4 3.39889
2 *1050:I *117:3 2.99928
3 *1091:Z *117:4 2.8688
4 *117:2 *117:3 5.45714998
*END

*D_NET *118 0.0104006

*CONN
*I *1073:I I *C 150.9 60.4 *L 0.000968 *D CKBD1
*I *1092:Z O *C 149.1 12.4 *L 0 *D DEL01

*CAP
1 *1092:Z 1.13734e-06
2 *118:2 0.00135213
3 *118:3 0.000159228
4 *118:4 0.00023452
5 *118:5 0.00372679
6 *118:6 0.000759347
7 *118:3 *436:5 0.00218079
8 *118:2 *1177:I 0.00198673

*RES
1 *118:4 *118:6 2.84832
2 *118:2 *118:6 6.2658
3 *118:3 *118:2 0.629655
4 *1073:I *118:4 0.675027
5 *118:3 *118:5 33.0385017
6 *1092:Z *118:5 1.06925
*END

*D_NET *119 0.00526926

*CONN
*I *1080:Z O *C 139.7 142.8 *L 0 *D DEL015
*I *1093:I I *C 138.1 105.6 *L 0.000968 *D CKBD1

*CAP
1 *119:2 0.00197607
2 *119:3 0.000206366
3 *119:4 0.000350738
4 *119:5 0.000168464
5 *119:6 8.02972e-05
6 *119:2 *71:2 0.000761031953
7 *119:2 *77:3 0.00104831008
8 *119:3 *485:5 0.000261453008
9 *119:5 *781:4 0.000212751992
10 *119:2 *487:4 0.000203803008

*RES
1 *119:3 *119:5 0.674982
2 *119:5 *119:6 0.628936
3 *1093:I *119:4 0.674982
4 *119:2 *119:6 23.9500008
5 *119:4 *119:2 1.45741
6 *1080:Z *119:3 0.225116
*END

*D_NET *120 0.00295491

*CONN
*I *1047:Z O *C 151.7 102.2 *L 0 *D DEL005
*I *1094:I I *C 138.1 100 *L 0.000968 *D CKBD1

*CAP
1 *1047:Z 4.95635e-05
2 *1094:I 0.000175965
3 *120:2 0.00236745
4 *120:3 0.000361936

*RES
1 *120:2 *120:3 9.24431992
2 *1047:Z *120:3 3.04655
3 *1094:I *120:2 1.28362
*END

*D_NET *121 0.00399652

*CONN
*I *1082:Z O *C 140.3 192.4 *L 0 *D DEL0
*I *1095:I I *C 138.1 179.2 *L 0.00104 *D DEL0

*CAP
1 *1095:I 2.89157e-05
2 *121:2 0.000273367
3 *121:3 0.00323377
4 *121:4 0.000153756
5 *121:5 0.000306723

*RES
1 *121:2 *121:4 1.24902
2 *1095:I *121:5 0.450031
3 *121:2 *121:3 12.3351002
4 *121:3 *121:5 1.1199
5 *1082:Z *121:4 0.224921
*END

*D_NET *122 0.000481058

*CONN
*I *1096:Z O *C 144.3 106.8 *L 0 *D CKBD1
*I *1166:I I *C 144.1 109.2 *L 0.00103 *D DEL01

*CAP
1 *1166:I 0.000248878008
2 *1096:Z 0.00023218

*RES
1 *1166:I *1096:Z 1.50992
*END

*D_NET *123 0.00758929

*CONN
*I *1097:Z O *C 139.1 78 *L 0 *D BUFFD1
*I *1308:I I *C 141.3 139.6 *L 0.00105 *D DEL1

*CAP
1 *1097:Z 0.000136973
2 *123:2 0.00262472
3 *123:3 0.000441318
4 *123:4 0.000407996
5 *123:5 9.09951e-05
6 *123:6 0.000468473
7 *123:4 *482:2 0.00196342
8 *123:5 *71:3 0.00106581
9 *123:2 *515:3 0.0003896

*RES
1 *123:6 *123:2 37.9169998
2 *123:5 *123:6 0.384169
3 *123:4 *123:2 2.51908
4 *123:3 *123:5 0.450126
5 *1308:I *123:3 0.994558
6 *1097:Z *123:4 0.450126
*END

*D_NET *124 0.00118968

*CONN
*I *1098:Z O *C 138.1 92.4 *L 0 *D BUFFD1
*I *1146:I I *C 137.5 91.2 *L 0.00072 *D BUFFD1

*CAP
1 *1146:I 0.00017853
2 *1098:Z 0.000134225
3 *124:2 0.000876927969

*RES
1 *1098:Z *124:2 3.27967
2 *1146:I *124:2 1.38646
*END

*D_NET *125 0.000463524

*CONN
*I *1099:Z O *C 151.9 88 *L 0 *D CKBD1
*I *1119:I I *C 151.1 89.2 *L 0.000643 *D CKBD0

*CAP
1 *1099:Z 0.000463524023

*RES
1 *1099:Z *1119:I 2.00317
*END

*D_NET *126 0.000855105

*CONN
*I *1100:Z O *C 140.3 95.2 *L 0 *D CKBD1
*I *1192:I I *C 141.7 94.8 *L 0.00103 *D DEL015

*CAP
1 *1192:I 0.000656638047
2 *126:2 0.000198469

*RES
1 *1192:I *126:2 2.16224003
2 *1100:Z *126:2 0.225013
*END

*D_NET *127 0.00150421

*CONN
*I *1101:Z O *C 142.1 41.2 *L 0 *D CKBD1
*I *1473:D I *C 139.1 44.4 *L 0.000971 *D DFCNQD1

*CAP
1 *1101:Z 0.000559211
2 *127:2 5.6214e-05
3 *127:3 0.000888777969

*RES
1 *127:2 *127:3 3.19608998
2 *1101:Z *127:2 1.98336
3 *1473:D *127:3 0.225018
*END

*D_NET *128 0.000856441

*CONN
*I *1102:Z O *C 143.7 102.4 *L 0 *D CKBD0
*I *1769:A2 I *C 142.7 103.6 *L 0.000606 *D CKND2D0

*CAP
1 *1769:A2 0.000485830977
2 *1102:Z 0.000370613

*RES
1 *1769:A2 *1102:Z 2.77423
*END

*D_NET *129 0.014072

*CONN
*I *1060:I I *C 138.1 56.8 *L 0.00182 *D DEL005
*I *1077:I I *C 149.1 56.8 *L 0.00182 *D DEL005
*I *1103:Z O *C 141.7 102.4 *L 0 *D DEL0

*CAP
1 *1060:I 0.000165349
2 *1077:I 0.000159701
3 *1103:Z 0.000918951
4 *129:3 0.000436408
5 *129:4 0.000711538
6 *129:5 7.44072e-05
7 *129:6 0.00156631
8 *129:7 7.98031e-05
9 *129:8 0.00206797
10 *129:9 0.000407504
11 *129:10 5.56634e-05
12 *129:11 0.000873101
13 *129:12 0.00168309
14 *129:8 *91:10 0.000592257031
15 *129:11 *1713:DB 0.000262989023
16 *129:4 *251:3 0.000701835
17 *129:6 *799:4 0.000268455
18 *129:3 *804:8 0.00126277992
19 *129:4 *893:9 0.00126965
20 *129:5 *50:4 0.000514240977

*RES
1 *129:6 *129:7 6.56969
2 *1077:I *129:6 0.704669
3 *1060:I *129:9 0.384822
4 *129:5 *129:12 3.15377
5 *129:5 *129:11 7.81512
6 *129:8 *129:10 9.52369
7 *129:7 *129:8 0.159231
8 *1103:Z *129:3 5.12674
9 *129:3 *129:12 11.3550997
10 *129:9 *129:4 2.33631
11 *129:6 *129:4 6.91899
12 *129:10 *129:11 0.225071
*END

*D_NET *130 0.00177534

*CONN
*I *1084:I I *C 138.9 127.2 *L 0.00103 *D DEL01
*I *1104:Z O *C 143.7 124 *L 0 *D DEL0

*CAP
1 *1104:Z 0.000335418
2 *130:2 0.000106353
3 *130:3 5.25801e-05
4 *130:4 0.00128098

*RES
1 *130:2 *130:4 3.79869008
2 *1104:Z *130:2 0.98845
3 *130:3 *130:4 1.68007
4 *1084:I *130:3 0.450028
*END

*D_NET *131 0.00655598

*CONN
*I *1105:I I *C 146.5 19.2 *L 0.00104 *D DEL0
*I *1341:Z O *C 140.9 41.2 *L 0 *D BUFFD2

*CAP
1 *1105:I 0.000175581
2 *131:2 0.00224258
3 *131:3 0.000140848
4 *131:4 5.30746e-05
5 *131:5 0.000172398
6 *131:2 *201:4 0.00153819
7 *131:2 *463:8 0.00223331

*RES
1 *131:2 *131:5 17.5720997
2 *131:3 *131:2 5.40655
3 *131:4 *131:5 0.768994
4 *1105:I *131:3 0.953735
5 *1341:Z *131:4 0.44992
*END

*D_NET *132 0.00737207

*CONN
*I *987:Z O *C 151.9 127.6 *L 0 *D CKBD0
*I *1106:I I *C 139.1 107.2 *L 0.00103 *D BUFFD2

*CAP
1 *987:Z 6.88812e-05
2 *132:2 0.000135136
3 *132:3 0.000766312
4 *132:4 0.000744703
5 *132:5 0.000156252
6 *132:6 0.000899228
7 *132:7 0.000283086
8 *132:8 0.00100052
9 *132:9 0.0011551
10 *132:5 *69:2 0.000488316016
11 *132:3 *104:3 0.0004659
12 *132:4 *305:6 0.000663586953
13 *132:6 *377:2 0.00025738498
14 *132:5 *788:3 0.000287654004

*RES
1 *132:7 *132:9 2.56001
2 *132:4 *132:8 4.4267
3 *132:2 *132:3 3.33907
4 *1106:I *132:7 0.450051
5 *132:6 *132:9 6.69654
6 *132:5 *132:6 3.78794
7 *987:Z *132:2 0.351068
8 *132:5 *132:8 2.11243
9 *132:3 *132:4 7.05105019
*END

*D_NET *133 0.00172544

*CONN
*I *1107:Z O *C 151.7 38.4 *L 0 *D BUFFD1
*I *1108:I I *C 150.9 49.6 *L 0.000643 *D CKBD0

*CAP
1 *1107:Z 5.39267e-05
2 *133:2 0.000739967969
3 *133:3 0.000218022
4 *133:4 0.000495446
5 *133:5 0.000218067

*RES
1 *133:3 *133:5 2.2284
2 *1108:I *133:5 0.675026
3 *1107:Z *133:2 0.640578
4 *133:2 *133:4 4.00275993
5 *133:3 *133:4 2.51309
*END

*D_NET *134 0.00163162

*CONN
*I *1108:Z O *C 151.5 49.2 *L 0 *D CKBD0
*I *1109:I I *C 144.7 51.6 *L 0.00182 *D DEL005

*CAP
1 *1109:I 0.000675671016
2 *134:2 0.000432518
3 *134:3 0.000523432

*RES
1 *1108:Z *134:2 1.52163
2 *1109:I *134:3 2.61120009
3 *134:2 *134:3 2.48868
*END

*D_NET *135 0.000945592

*CONN
*I *1109:Z O *C 145.3 51.8 *L 0 *D DEL005
*I *1110:I I *C 144.5 49.6 *L 0.000643 *D CKBD0

*CAP
1 *135:2 0.000945591953

*RES
1 *1109:Z *135:2 1.27343
2 *1110:I *135:2 2.21813989
*END

*D_NET *136 0.00302674

*CONN
*I *1110:Z O *C 145.1 49.2 *L 0 *D CKBD0
*I *1111:I I *C 138.1 55.2 *L 0.000643 *D CKBD0

*CAP
1 *1111:I 0.000289154
2 *1110:Z 0.00126371
3 *136:2 0.00147388

*RES
1 *1110:Z *136:2 4.38971
2 *1111:I *136:2 6.25359011
*END

*D_NET *137 0.00040577

*CONN
*I *1111:Z O *C 138.7 55.6 *L 0 *D CKBD0
*I *1112:I I *C 138.1 53.2 *L 0.00182 *D DEL005

*CAP
1 *1112:I 0.00029717498
2 *1111:Z 0.000108595

*RES
1 *1111:Z *1112:I 1.60144
*END

*D_NET *138 0.000380253

*CONN
*I *1112:Z O *C 138.7 53 *L 0 *D DEL005
*I *1113:I I *C 137.9 51.6 *L 0.000643 *D CKBD0

*CAP
1 *1113:I 6.59411e-05
2 *1112:Z 0.00031431002

*RES
1 *1112:Z *1113:I 1.95553
*END

*D_NET *139 0.000635501

*CONN
*I *1113:Z O *C 138.5 52 *L 0 *D CKBD0
*I *1116:I I *C 137.9 49.6 *L 0.00182 *D DEL005

*CAP
1 *139:2 0.000635501016

*RES
1 *1113:Z *139:2 0.358747
2 *1116:I *139:2 1.70987999
*END

*D_NET *140 0.00124174

*CONN
*I *1114:Z O *C 143.5 30.4 *L 0 *D CKBD1
*I *1122:I I *C 148.1 28 *L 0.000643 *D CKBD0

*CAP
1 *1122:I 0.000342159
2 *1114:Z 0.000115731
3 *140:2 7.13628e-05
4 *140:3 0.000712486016

*RES
1 *140:2 *140:3 3.12083006
2 *1122:I *140:2 1.56894
3 *1114:Z *140:3 0.45001
*END

*D_NET *141 0.000416125

*CONN
*I *1115:Z O *C 151.9 45.6 *L 0 *D BUFFD1
*I *1118:I I *C 151.3 48 *L 0.00182 *D DEL005

*CAP
1 *1118:I 4.92547e-06
2 *1115:Z 0.000411198008

*RES
1 *1115:Z *1118:I 2.05875
*END

*D_NET *142 0.0013038

*CONN
*I *1116:Z O *C 138.5 49.4 *L 0 *D DEL005
*I *1120:I I *C 140.5 46 *L 0.000643 *D CKBD0

*CAP
1 *1120:I 0.00065423
2 *1116:Z 0.000575914
3 *142:2 7.36539e-05

*RES
1 *1116:Z *142:2 2.50647
2 *1120:I *142:2 2.57212996
*END

*D_NET *143 0.00142855

*CONN
*I *1114:I I *C 142.9 30 *L 0.000968 *D CKBD1
*I *1117:Z O *C 149.1 31.4 *L 0 *D DEL005

*CAP
1 *143:2 0.00142855

*RES
1 *1117:Z *143:2 0.864367
2 *1114:I *143:2 5.21709013
*END

*D_NET *144 0.00211192

*CONN
*I *1118:Z O *C 151.9 48.2 *L 0 *D DEL005
*I *1123:I I *C 147.9 40.8 *L 0.000643 *D CKBD0

*CAP
1 *1123:I 0.000454616
2 *1118:Z 8.09626e-05
3 *144:2 0.000926953984
4 *144:3 0.000285477
5 *144:4 0.000319197
6 *144:5 4.47105e-05

*RES
1 *144:2 *144:4 1.75892
2 *1123:I *144:3 3.07944012
3 *144:3 *144:4 1.38715
4 *144:2 *144:5 2.23971
5 *1118:Z *144:5 0.450009
*END

*D_NET *145 0.00939614

*CONN
*I *1119:Z O *C 151.7 88.8 *L 0 *D CKBD0
*I *1124:I I *C 149.7 138 *L 0.00103 *D DEL015

*CAP
1 *1124:I 0.000119662
2 *1119:Z 8.68259e-05
3 *145:2 0.00023212
4 *145:3 0.000102205
5 *145:4 6.63371e-05
6 *145:5 0.000687403
7 *145:6 0.000291338
8 *145:7 0.00019133
9 *145:8 0.00111615
10 *145:7 *484:3 0.00195526
11 *145:4 *786:4 0.000738598984
12 *145:6 *787:5 0.000619180977
13 *145:2 *28:5 0.00244912
14 *145:3 *225:2 0.000220705
15 *145:2 *480:3 0.000519900039

*RES
1 *145:7 *145:3 1.34291
2 *145:6 *145:7 2.384
3 *145:2 *145:8 25.9920006
4 *1119:Z *145:5 0.450148
5 *145:3 *145:2 2.74134
6 *145:5 *145:8 3.37472
7 *145:4 *145:6 2.76673
8 *1124:I *145:4 0.675024
*END

*D_NET *146 0.00105159

*CONN
*I *1120:Z O *C 141.1 45.6 *L 0 *D CKBD0
*I *1125:I I *C 142.9 44.4 *L 0.00182 *D DEL005

*CAP
1 *1125:I 0.000363627
2 *1120:Z 0.000687961016

*RES
1 *1120:Z *1125:I 3.37027
*END

*D_NET *147 0.00126936

*CONN
*I *1121:Z O *C 148.9 6 *L 0 *D CKBD1
*I *1129:I I *C 145.1 8.4 *L 0.000643 *D CKBD0

*CAP
1 *147:2 0.000220152
2 *147:3 0.00104920992

*RES
1 *147:2 *147:3 2.9400301
2 *1121:Z *147:2 0.953706
3 *147:3 *147:4 2.48038
4 *1129:I *147:4 0.450004
*END

*D_NET *148 0.00122369

*CONN
*I *1122:Z O *C 148.7 27.6 *L 0 *D CKBD0
*I *1127:I I *C 151.3 24.4 *L 0.000643 *D CKBD0

*CAP
1 *1122:Z 0.000469423
2 *148:2 0.000754268984

*RES
1 *1127:I *148:2 0.675019
2 *1122:Z *148:2 4.44871998
*END

*D_NET *149 0.00103633

*CONN
*I *1123:Z O *C 148.5 41.2 *L 0 *D CKBD0
*I *1126:I I *C 149.5 37.2 *L 0.00182 *D DEL005

*CAP
1 *1126:I 0.000770477031
2 *1123:Z 7.26566e-06
3 *149:2 0.000258589

*RES
1 *1123:Z *149:2 0.334293
2 *1126:I *149:2 3.36274004
*END

*D_NET *150 0.00556233

*CONN
*I *1124:Z O *C 151.9 138.4 *L 0 *D DEL015
*I *1128:I I *C 143.9 116.4 *L 0.00103 *D DEL01

*CAP
1 *1128:I 0.000102193
2 *1124:Z 4.2536e-05
3 *150:2 0.000708261
4 *150:3 0.00104171
5 *150:5 0.00122182
6 *150:6 0.00140433
7 *1128:I *340:2 0.00045676
8 *1128:I *890:3 0.000241963008
9 *150:3 *969:3 0.000342768008

*RES
1 *150:5 *150:6 6.83857012
2 *1124:Z *150:2 3.06941
3 *150:4 *150:5 0.159236
4 *150:3 *150:4 4.18343
5 *1128:I *150:3 2.01757
6 *150:2 *150:6 6.32841
*END

*D_NET *151 0.00124202

*CONN
*I *1125:Z O *C 143.5 44.6 *L 0 *D DEL005
*I *1130:I I *C 139.7 42.4 *L 0.000643 *D CKBD0

*CAP
1 *1130:I 0.000410763
2 *1125:Z 0.000149065
3 *151:2 0.000682192969

*RES
1 *1125:Z *151:2 3.31778002
2 *1130:I *151:2 1.7288
*END

*D_NET *152 0.00118147

*CONN
*I *1126:Z O *C 150.1 37.4 *L 0 *D DEL005
*I *1132:I I *C 150.9 33.6 *L 0.000643 *D CKBD0

*CAP
1 *1132:I 0.000263761
2 *1126:Z 0.000392057
3 *152:2 0.000525654023

*RES
1 *1132:I *152:2 2.38881
2 *1126:Z *152:2 2.62919998
*END

*D_NET *153 0.00089895

*CONN
*I *1127:Z O *C 151.9 24 *L 0 *D CKBD0
*I *1133:I I *C 151.3 19.2 *L 0.00182 *D DEL005

*CAP
1 *1133:I 0.000268793
2 *1127:Z 3.49976e-06
3 *153:2 0.000626656992

*RES
1 *1127:Z *153:2 0.327338
2 *1133:I *153:2 4.26066017
*END

*D_NET *154 0.0130789

*CONN
*I *1128:Z O *C 145.7 116.8 *L 0 *D DEL01
*I *1131:I I *C 137.9 48 *L 0.00182 *D DEL005

*CAP
1 *1131:I 0.000504436
2 *154:2 4.22004e-05
3 *154:3 0.000952369
4 *154:4 0.000354506
5 *154:5 0.000485862
6 *154:6 0.000240089
7 *154:7 0.000109179
8 *154:8 0.000358221
9 *154:9 9.43565e-06
10 *154:10 0.000510565
11 *154:11 0.00105501
12 *154:13 0.000405139
13 *154:14 0.00243451
14 *154:16 0.000403653
15 *154:17 0.00178081
16 *154:3 *239:3 0.00192321
17 *154:8 *384:2 0.000430718008
18 *1131:I *479:3 0.00107901

*RES
1 *154:12 *154:14 14.2916002
2 *154:2 *154:3 0.465585
3 *154:6 *154:7 1.63969
4 *154:11 *154:13 0.159193
5 *1131:I *154:5 3.08006
6 *154:15 *154:16 2.39269
7 *154:14 *154:16 0.159193
8 *154:6 *154:10 0.664249
9 *154:2 *154:5 4.21338
10 *154:4 *154:17 7.3425
11 *154:8 *154:17 3.73471
12 *154:3 *154:15 6.38015
13 *154:12 *154:13 2.02829
14 *154:8 *154:9 0.159193
15 *154:9 *154:10 3.12258
16 *1128:Z *154:4 0.717895
17 *154:7 *154:11 5.78045
*END

*D_NET *155 0.00101203

*CONN
*I *1129:Z O *C 145.7 8.8 *L 0 *D CKBD0
*I *1134:I I *C 151.3 10 *L 0.00182 *D DEL005

*CAP
1 *1134:I 0.000357736
2 *155:2 0.000457171992
3 *155:3 0.000197128

*RES
1 *155:2 *155:3 2.88568
2 *1134:I *155:3 2.9665699
3 *1129:Z *155:2 0.225019
*END

*D_NET *156 0.000704716

*CONN
*I *1130:Z O *C 140.3 42 *L 0 *D CKBD0
*I *1135:I I *C 138.1 42.4 *L 0.00182 *D DEL005

*CAP
1 *1135:I 6.82373e-05
2 *156:2 0.000139764
3 *156:3 0.000496715977

*RES
1 *156:2 *156:3 1.88940001
2 *1135:I *156:3 0.814417
3 *1130:Z *156:2 0.224989
*END

*D_NET *157 0.00134202

*CONN
*I *1131:Z O *C 138.5 48.2 *L 0 *D DEL005
*I *1136:I I *C 137.9 40.8 *L 0.00182 *D DEL005

*CAP
1 *1131:Z 6.97875e-05
2 *157:2 0.000174863
3 *157:3 0.000222394
4 *157:4 0.000874981016

*RES
1 *157:2 *157:4 0.449988
2 *1131:Z *157:3 0.827748
3 *157:3 *157:4 4.88494015
4 *1136:I *157:2 0.225031
*END

*D_NET *158 0.00321643

*CONN
*I *1132:Z O *C 151.5 34 *L 0 *D CKBD0
*I *1149:I I *C 150.9 13.6 *L 0.000643 *D CKBD0

*CAP
1 *158:2 0.000678223
2 *158:3 0.00181477
3 *158:4 0.000427531
4 *158:5 0.000293143
5 *158:6 2.74147e-06

*RES
1 *158:5 *158:6 1.51217
2 *158:3 *158:6 8.23237038
3 *158:2 *158:4 2.56056
4 *158:4 *158:5 2.41296
5 *1149:I *158:3 1.30465
6 *1132:Z *158:2 0.224978
*END

*D_NET *159 0.00334903

*CONN
*I *1133:Z O *C 151.9 19.4 *L 0 *D DEL005
*I *1138:I I *C 138.3 24.4 *L 0.000643 *D CKBD0

*CAP
1 *1133:Z 0.000190004
2 *159:2 0.000268017
3 *159:3 2.51881e-05
4 *159:4 0.0028658

*RES
1 *159:2 *159:4 9.9034996
2 *1133:Z *159:2 0.728981
3 *159:3 *159:4 3.23599
4 *1138:I *159:3 0.225011
*END

*D_NET *160 0.00204458

*CONN
*I *1134:Z O *C 151.9 9.8 *L 0 *D DEL005
*I *1139:I I *C 137.9 10 *L 0.000643 *D CKBD0

*CAP
1 *160:2 0.000517218
2 *160:3 1.44287e-05
3 *160:4 0.00151294

*RES
1 *160:2 *160:3 2.35431
2 *1139:I *160:4 1.79543
3 *160:3 *160:4 6.20269012
4 *1134:Z *160:2 0.224972
*END

*D_NET *161 0.000369504

*CONN
*I *1135:Z O *C 138.7 42.2 *L 0 *D DEL005
*I *1141:I I *C 138.7 40.8 *L 0.000643 *D CKBD0

*CAP
1 *1141:I 0.000317303984
2 *1135:Z 5.21989e-05

*RES
1 *1135:Z *1141:I 1.78777
*END

*D_NET *162 0.00187915

*CONN
*I *1136:Z O *C 138.5 41 *L 0 *D DEL005
*I *1140:I I *C 147.1 40.8 *L 0.000643 *D CKBD0

*CAP
1 *162:2 0.000102905
2 *162:3 0.000945178984
3 *162:4 0.000831068

*RES
1 *162:2 *162:4 3.45036
2 *162:3 *162:4 3.59359002
3 *1136:Z *162:3 0.224983
4 *1140:I *162:2 0.450021
*END

*D_NET *163 0.00313023

*CONN
*I *1115:I I *C 151.3 46 *L 0.00072 *D BUFFD1
*I *1137:Z O *C 138.7 45.8 *L 0 *D BUFFD4

*CAP
1 *163:2 0.000680306
2 *163:3 0.00244993

*RES
1 *1137:Z *163:3 0.450064
2 *163:2 *163:3 11.4102001
3 *1115:I *163:2 0.224945
*END

*D_NET *164 0.00279395

*CONN
*I *1138:Z O *C 138.9 24 *L 0 *D CKBD0
*I *1156:I I *C 150.7 20.8 *L 0.00182 *D DEL005

*CAP
1 *1156:I 8.38296e-06
2 *1138:Z 0.000784828
3 *164:2 0.000156791
4 *164:3 0.000935907031
5 *164:4 0.00090803

*RES
1 *1138:Z *164:3 3.14944
2 *164:3 *164:4 3.73373
3 *164:2 *164:4 4.20790005
4 *1156:I *164:2 0.350958
*END

*D_NET *165 0.00103869

*CONN
*I *1139:Z O *C 138.5 9.6 *L 0 *D CKBD0
*I *1144:I I *C 137.9 15.6 *L 0.00182 *D DEL005

*CAP
1 *1144:I 0.000763668984
2 *1139:Z 0.000275019

*RES
1 *1144:I *1139:Z 4.1203
*END

*D_NET *166 0.00105189

*CONN
*I *1140:Z O *C 147.7 41.2 *L 0 *D CKBD0
*I *1148:I I *C 145.5 38.8 *L 0.00182 *D DEL005

*CAP
1 *1148:I 9.43901e-05
2 *1140:Z 0.000436151
3 *166:2 0.000521353008

*RES
1 *1148:I *166:2 0.450002
2 *1140:Z *166:2 3.11484003
*END

*D_NET *167 0.00100388

*CONN
*I *1141:Z O *C 139.3 41.2 *L 0 *D CKBD0
*I *1147:I I *C 140.1 35.2 *L 0.00182 *D DEL005

*CAP
1 *1147:I 0.000427754
2 *1141:Z 0.000576131992

*RES
1 *1141:Z *1147:I 3.99827
*END

*D_NET *168 0.006634

*CONN
*I *1137:I I *C 137.5 46 *L 0.00201 *D BUFFD4
*I *1142:Z O *C 151.9 12.2 *L 0 *D DEL005

*CAP
1 *1137:I 5.27716e-05
2 *1142:Z 0.000169068
3 *168:2 2.33323e-05
4 *168:3 0.00342076
5 *168:4 0.000189268
6 *168:5 0.000339858
7 *168:6 0.000362355
8 *168:2 *806:28 0.000722621016
9 *1137:I *479:9 0.0007025
10 *168:3 *461:19 0.000651428984

*RES
1 *168:4 *168:5 2.04567
2 *1142:Z *168:4 3.20812
3 *1137:I *168:2 0.623489
4 *168:3 *168:6 8.94646
5 *168:2 *168:3 17.4769001
6 *168:5 *168:6 2.19101
*END

*D_NET *169 0.00134607

*CONN
*I *1143:Z O *C 151.9 30.2 *L 0 *D DEL005
*I *1163:I I *C 150.3 24.4 *L 0.000643 *D CKBD0

*CAP
1 *1143:Z 3.13231e-06
2 *169:2 3.5453e-05
3 *169:3 0.00130749

*RES
1 *169:2 *169:3 4.09138012
2 *1143:Z *169:2 0.311024
3 *1163:I *169:3 2.30221
*END

*D_NET *170 0.00305137

*CONN
*I *1144:Z O *C 138.5 15.8 *L 0 *D DEL005
*I *1151:I I *C 143.7 26.4 *L 0.000643 *D CKBD0

*CAP
1 *1144:Z 0.000594634
2 *170:2 0.000781353
3 *170:3 0.000963133984
4 *170:4 0.00071225

*RES
1 *170:2 *170:3 4.29848003
2 *170:3 *170:4 2.53825
3 *1151:I *170:2 3.59818
4 *1144:Z *170:4 2.44446
*END

*D_NET *171 0.00179661

*CONN
*I *1145:Z O *C 141.7 23.2 *L 0 *D CKBD1
*I *1152:I I *C 143.7 30 *L 0.000643 *D CKBD0

*CAP
1 *1152:I 0.000458217
2 *171:2 0.000977832969
3 *171:3 0.000360561

*RES
1 *1152:I *171:3 3.18268
2 *171:2 *171:3 4.0430398
3 *1145:Z *171:2 0.22499
*END

*D_NET *172 0.00716617

*CONN
*I *1146:Z O *C 138.1 91.6 *L 0 *D BUFFD1
*I *1153:I I *C 137.5 132.4 *L 0.00103 *D DEL015

*CAP
1 *1153:I 0.000250936
2 *1146:Z 0.000233302
3 *172:2 1.22104e-05
4 *172:3 6.4253e-05
5 *172:4 0.000406679
6 *172:5 1.15288e-05
7 *172:6 1.80786e-06
8 *172:7 0.00131882
9 *172:8 0.00194226
10 *172:5 *99:2 0.00195462
11 *172:5 *1338:I 0.000708596016
12 *1146:Z *806:8 0.000261155996

*RES
1 *172:4 *172:6 0.159303
2 *172:2 *172:4 6.88541
3 *1153:I *172:2 1.88325
4 *172:6 *172:7 6.81487
5 *1146:Z *172:3 1.34412
6 *172:5 *172:8 13.8830996
7 *172:5 *172:7 0.159303
8 *172:3 *172:8 2.11352
*END

*D_NET *173 0.000683212

*CONN
*I *1147:Z O *C 140.7 35 *L 0 *D DEL005
*I *1155:I I *C 137.9 35.2 *L 0.000643 *D CKBD0

*CAP
1 *173:2 9.90572e-05
2 *173:3 0.000584155039

*RES
1 *1155:I *173:3 0.45
2 *173:2 *173:3 1.98767996
3 *1147:Z *173:2 0.224985
*END

*D_NET *174 0.00102539

*CONN
*I *1148:Z O *C 146.1 38.6 *L 0 *D DEL005
*I *1154:I I *C 143.1 37.2 *L 0.000643 *D CKBD0

*CAP
1 *174:2 0.00102539

*RES
1 *1148:Z *174:2 0.70457
2 *1154:I *174:2 3.47387004
*END

*D_NET *175 0.0005194

*CONN
*I *1149:Z O *C 151.5 13.2 *L 0 *D CKBD0
*I *1157:I I *C 150.9 15.6 *L 0.00182 *D DEL005

*CAP
1 *1149:Z 0.000251241
2 *175:2 0.000268157012

*RES
1 *1149:Z *175:2 2.60654998
2 *1157:I *175:2 0.449989
*END

*D_NET *176 0.00105001

*CONN
*I *1143:I I *C 151.3 30 *L 0.00182 *D DEL005
*I *1150:Z O *C 150.3 26.6 *L 0 *D DEL005

*CAP
1 *1150:Z 0.00052625
2 *176:2 0.000523761

*RES
1 *1143:I *176:2 0.33433
2 *1150:Z *176:2 3.52771997
*END

*D_NET *177 0.00285506

*CONN
*I *1151:Z O *C 144.3 26.8 *L 0 *D CKBD0
*I *1158:I I *C 144.9 40.8 *L 0.000643 *D CKBD0

*CAP
1 *1158:I 0.000255971
2 *1151:Z 0.000246923
3 *177:2 0.000312189
4 *177:3 0.000256115
5 *177:4 0.000838199
6 *177:5 0.000945658047

*RES
1 *177:2 *177:3 1.04328
2 *1151:Z *177:5 2.44878
3 *177:4 *177:5 2.56642
4 *177:3 *177:4 3.29920006
5 *1158:I *177:2 2.54674
*END

*D_NET *178 0.00348486

*CONN
*I *1152:Z O *C 144.3 30.4 *L 0 *D CKBD0
*I *1159:I I *C 143.7 44.4 *L 0.000643 *D CKBD0

*CAP
1 *178:2 0.000931558
2 *178:3 3.24542e-06
3 *178:4 0.00134613
4 *178:5 0.00109026
5 *178:6 0.000113672

*RES
1 *178:5 *178:6 1.07956
2 *178:4 *178:5 3.28146
3 *178:3 *178:4 4.86854982
4 *178:2 *178:3 0.1592
5 *1159:I *178:2 3.62935
6 *1152:Z *178:6 0.225019
*END

*D_NET *179 0.00172084

*CONN
*I *1153:Z O *C 139.7 132 *L 0 *D DEL015
*I *1160:I I *C 137.5 128.8 *L 0.00103 *D DEL015

*CAP
1 *1160:I 0.000888322031
2 *179:2 0.000226937
3 *179:3 0.00060558

*RES
1 *1160:I *179:3 3.75870991
2 *179:2 *179:3 2.30274
3 *1153:Z *179:2 0.449994
*END

*D_NET *180 0.000996817

*CONN
*I *1154:Z O *C 143.7 37.6 *L 0 *D CKBD0
*I *1161:I I *C 143.1 33.6 *L 0.00182 *D DEL005

*CAP
1 *180:2 0.000349375
2 *180:3 0.000647445977

*RES
1 *180:2 *180:3 3.04210997
2 *1154:Z *180:2 0.403102
3 *1161:I *180:3 0.224992
*END

*D_NET *181 0.00129531

*CONN
*I *1155:Z O *C 138.5 34.8 *L 0 *D CKBD0
*I *1162:I I *C 137.9 28 *L 0.00182 *D DEL005

*CAP
1 *1162:I 0.000765007969
2 *181:2 0.000530305

*RES
1 *1162:I *181:2 3.06383991
2 *1155:Z *181:2 2.38932
*END

*D_NET *182 0.00136241

*CONN
*I *1150:I I *C 149.7 26.4 *L 0.00182 *D DEL005
*I *1156:Z O *C 151.3 20.6 *L 0 *D DEL005

*CAP
1 *1150:I 0.00010049
2 *1156:Z 0.000178211
3 *182:3 0.00108369992

*RES
1 *1156:Z *182:3 1.62356
2 *1150:I *182:2 0.38423
3 *182:2 *182:3 3.29162002
*END

*D_NET *183 0.00139958

*CONN
*I *1157:Z O *C 151.5 15.8 *L 0 *D DEL005
*I *1164:I I *C 148.1 20.8 *L 0.000643 *D CKBD0

*CAP
1 *1164:I 0.000256057
2 *1157:Z 0.000183597
3 *183:2 0.000732365
4 *183:3 0.00022756

*RES
1 *183:2 *183:3 2.85207009
2 *1164:I *183:2 2.82317
3 *1157:Z *183:3 1.06304
*END

*D_NET *184 0.00736415

*CONN
*I *1158:Z O *C 145.5 41.2 *L 0 *D CKBD0
*I *1170:I I *C 144.1 73.2 *L 0.00103 *D DEL01

*CAP
1 *1170:I 0.00016027
2 *1158:Z 0.000353521
3 *184:2 0.00125176
4 *184:3 0.000764327
5 *184:4 0.000521486
6 *184:5 0.000153344
7 *184:6 0.00075131
8 *184:8 6.44028e-05
9 *184:9 0.00140081
10 *184:10 0.000490535
11 *1170:I *804:8 0.000484135977
12 *1170:I *893:21 0.000423303008
13 *1170:I *488:177 0.000231240996
14 *184:2 *504:4 0.000313705

*RES
1 *184:6 *184:8 3.88327
2 *184:9 *184:10 3.75666
3 *184:8 *184:10 0.544672
4 *184:7 *184:9 4.96738
5 *184:5 *184:6 0.421063
6 *184:2 *184:5 6.34362984
7 *184:3 *184:4 3.10057
8 *1158:Z *184:3 1.34034
9 *1170:I *184:7 1.1754
10 *184:4 *184:2 2.21934
*END

*D_NET *185 0.00434942

*CONN
*I *1159:Z O *C 144.3 44.8 *L 0 *D CKBD0
*I *1173:I I *C 143.9 64 *L 0.00103 *D DEL01

*CAP
1 *1173:I 0.00278061
2 *1159:Z 0.000317202
3 *185:2 0.000644884
4 *185:3 0.000606698

*RES
1 *185:2 *185:3 2.01309
2 *1173:I *185:2 12.8887997
3 *1159:Z *185:3 1.51159
*END

*D_NET *186 0.00137028

*CONN
*I *1160:Z O *C 139.7 128.4 *L 0 *D DEL015
*I *1165:I I *C 137.5 125.2 *L 0.00103 *D DEL015

*CAP
1 *1165:I 0.000876241016
2 *186:2 0.000374844
3 *186:3 0.000119185

*RES
1 *186:2 *186:3 1.79618
2 *1165:I *186:2 3.32762003
3 *1160:Z *186:3 0.224986
*END

*D_NET *187 0.00138763

*CONN
*I *1161:Z O *C 143.7 33.8 *L 0 *D DEL005
*I *1274:I I *C 143.5 28 *L 0.00104 *D DEL0

*CAP
1 *1274:I 0.00049943
2 *1161:Z 9.92045e-05
3 *187:2 0.000789001016

*RES
1 *1274:I *187:2 2.24679
2 *1161:Z *187:2 3.07337999
*END

*D_NET *188 0.00103621

*CONN
*I *1162:Z O *C 138.5 27.8 *L 0 *D DEL005
*I *1273:I I *C 137.5 22.8 *L 0.00104 *D DEL0

*CAP
1 *1273:I 0.000151288
2 *188:2 0.000884923984

*RES
1 *1162:Z *188:2 1.65546
2 *1273:I *188:2 2.90490007
*END

*D_NET *189 0.00113955

*CONN
*I *1163:Z O *C 150.9 24 *L 0 *D CKBD0
*I *1394:I I *C 149.1 28 *L 0.00287 *D BUFFD8

*CAP
1 *1394:I 0.00031115
2 *189:2 0.000828406953

*RES
1 *1163:Z *189:2 0.449988
2 *1394:I *189:2 3.92577004
*END

*D_NET *190 0.00116965

*CONN
*I *1164:Z O *C 148.7 20.4 *L 0 *D CKBD0
*I *1378:I I *C 146.1 24.4 *L 0.00287 *D BUFFD8

*CAP
1 *1378:I 0.000122233
2 *1164:Z 0.000153075
3 *190:2 0.000341632
4 *190:3 0.000552716016

*RES
1 *190:2 *190:3 2.50804996
2 *1164:Z *190:2 1.85838
3 *1378:I *190:3 0.450015
*END

*D_NET *191 0.00489357

*CONN
*I *1165:Z O *C 139.7 124.8 *L 0 *D DEL015
*I *1169:I I *C 144.3 100 *L 0.00103 *D DEL01

*CAP
1 *1169:I 0.000145122
2 *1165:Z 0.000137228
3 *191:2 0.00388981
4 *191:3 0.000721397

*RES
1 *191:2 *191:3 16.0666008
2 *1169:I *191:2 2.30423
3 *1165:Z *191:3 2.5587
*END

*D_NET *192 0.00793848

*CONN
*I *1166:Z O *C 145.9 109.6 *L 0 *D DEL01
*I *1171:I I *C 143.7 67.6 *L 0.00103 *D DEL01

*CAP
1 *192:2 0.000969122031
2 *192:3 0.000574419
3 *192:4 0.000399494
4 *192:5 0.000615145
5 *192:6 0.000348121
6 *192:7 0.000100853
7 *192:8 1.44921e-06
8 *192:9 0.000319758
9 *192:10 0.000213921
10 *192:11 0.000103692
11 *192:12 0.000126895
12 *192:13 0.000571802
13 *192:5 *1494:CPN 0.000618978984
14 *192:12 *224:2 0.000212376992
15 *192:2 *3:3 0.000242744004
16 *192:3 *195:3 0.000298860996
17 *192:4 *437:2 0.000528522031
18 *192:5 *893:19 0.00169235

*RES
1 *192:7 *192:4 3.62497
2 *192:2 *192:10 1.6077
3 *192:8 *192:2 7.95785999
4 *192:6 *192:12 1.72912
5 *1166:Z *192:6 0.929526
6 *192:11 *192:13 0.159191
7 *192:7 *192:9 0.821213
8 *192:3 *192:11 2.71196
9 *192:3 *192:9 4.65346
10 *192:4 *192:8 0.159191
11 *192:5 *192:10 2.82974
12 *192:12 *192:13 2.80643
13 *1171:I *192:5 1.45725
*END

*D_NET *193 0.0103458

*CONN
*I *1167:Z O *C 151.5 174.4 *L 0 *D DEL0
*I *1190:I I *C 143.9 114.4 *L 0.00103 *D DEL015

*CAP
1 *193:2 0.00299195
2 *193:3 0.000168236
3 *193:4 0.000599577
4 *193:5 0.000101444
5 *193:6 0.000538629
6 *193:7 6.52855e-05
7 *193:6 *455:8 0.000889478984
8 *193:2 *4:2 0.00291727
9 *193:2 *95:2 0.00207399016

*RES
1 *193:7 *193:2 0.855148
2 *193:5 *193:6 5.56214
3 *193:4 *193:7 0.450239
4 *193:3 *193:5 0.450239
5 *1190:I *193:4 1.72684
6 *193:6 *193:2 40.145401
7 *1167:Z *193:3 0.224813
*END

*D_NET *194 0.00128905

*CONN
*I *1168:Z O *C 139.9 164.4 *L 0 *D DEL0
*I *1465:A[1] I *C 134.265 162.125 *L 0.00555 *D sram00

*CAP
1 *194:2 0.000587425
2 *194:3 0.000701627031

*RES
1 *194:2 *194:3 3.75031996
2 *1168:Z *194:2 1.86612
3 *1168:Z *1465:A[1] 0.000114451
*END

*D_NET *195 0.00980758

*CONN
*I *1169:Z O *C 146.1 99.6 *L 0 *D DEL01
*I *1272:I I *C 143.1 48 *L 0.00104 *D DEL0

*CAP
1 *1272:I 0.000809838
2 *195:2 0.000177214
3 *195:3 0.00025109
4 *195:4 0.000468906
5 *195:5 0.00245015
6 *195:6 7.2381e-05
7 *195:7 0.000310685
8 *195:9 7.47738e-08
9 *195:10 0.00061894
10 *1272:I *580:2 0.000251509004
11 *195:3 *36:8 0.000685636016
12 *195:2 *432:2 0.000388025
13 *195:3 *192:3 0.000298860996
14 *195:2 *251:2 0.000434478984
15 *195:3 *434:2 0.00188796
16 *1272:I *805:5 0.000701888984

*RES
1 *195:9 *195:10 4.82743
2 *195:5 *195:6 2.58339
3 *195:4 *195:9 2.67166
4 *195:3 *195:4 3.3972
5 *1169:Z *195:3 0.449936
6 *195:8 *195:10 0.159133
7 *195:6 *195:7 4.22106
8 *195:5 *195:8 16.0692005
9 *195:2 *195:7 1.79827
10 *1272:I *195:2 3.11669
*END

*D_NET *196 0.00687233

*CONN
*I *1170:Z O *C 145.9 73.6 *L 0 *D DEL01
*I *1357:I I *C 149.1 17.2 *L 0.00287 *D BUFFD8

*CAP
1 *1357:I 8.67546e-05
2 *1170:Z 8.26252e-05
3 *196:2 0.00243802
4 *196:3 0.000329162
5 *196:4 0.000123584
6 *196:5 0.000256246
7 *196:7 0.00128517
8 *196:8 0.00035591
9 *196:8 *83:11 0.000249659004
10 *196:2 *251:4 0.000338420977
11 *196:2 *432:6 0.000749483984
12 *196:2 *480:5 0.000577286016

*RES
1 *196:3 *196:5 1.20609
2 *196:6 *196:7 0.159295
3 *196:5 *196:8 1.12384
4 *196:2 *196:6 21.3052006
5 *196:4 *196:2 1.77695
6 *1170:Z *196:3 0.67489
7 *196:7 *196:8 13.331
8 *1357:I *196:4 0.449927
*END

*D_NET *197 0.00740727

*CONN
*I *1171:Z O *C 145.5 67.2 *L 0 *D DEL01
*I *1434:I I *C 140.7 31.6 *L 0.00105 *D DEL1

*CAP
1 *1434:I 0.000231181
2 *1171:Z 0.000448348
3 *197:2 0.00108399
4 *197:3 0.000681104
5 *197:4 0.000352248
6 *197:5 0.000156571
7 *197:7 0.000815423
8 *197:8 0.00118649992
9 *197:9 1.8648e-06
10 *197:10 0.000954088
11 *197:4 *249:2 0.000982671953
12 *197:2 *806:17 0.000513295

*RES
1 *197:4 *197:8 9.16965961
2 *1171:Z *197:2 1.70378
3 *197:9 *197:10 4.50732
4 *197:6 *197:7 3.68936
5 *197:5 *197:7 0.159227
6 *197:3 *197:6 2.71245
7 *197:8 *197:9 0.159227
8 *197:4 *197:5 2.64081
9 *197:2 *197:3 4.62778
10 *1434:I *197:10 3.22245
*END

*D_NET *198 0.0043782

*CONN
*I *1172:Z O *C 151.9 62.8 *L 0 *D DEL01
*I *1700:DA I *C 146.3 48 *L 0.000721 *D DFXQD1

*CAP
1 *1700:DA 0.00063886
2 *198:2 0.000490758
3 *198:3 0.000619686
4 *198:4 0.00262889

*RES
1 *198:2 *198:3 3.05131
2 *1172:Z *198:2 0.313094
3 *198:3 *198:4 2.55552
4 *1700:DA *198:4 11.1274004
*END

*D_NET *199 0.0096646

*CONN
*I *1173:Z O *C 145.7 63.6 *L 0 *D DEL01
*I *1430:I I *C 138.1 13.6 *L 0.00105 *D DEL1

*CAP
1 *1430:I 0.000484714
2 *1173:Z 0.000246803
3 *199:2 0.000748579
4 *199:3 0.00152544
5 *199:4 7.55097e-05
6 *199:5 0.000364467
7 *199:7 0.000487578
8 *199:8 0.000191917
9 *199:9 0.000872132
10 *199:10 0.000633453
11 *199:11 2.56044e-06
12 *199:12 0.000505338
13 *199:14 0.000236794
14 *199:15 4.61112e-05
15 *199:16 0.000237539
16 *199:3 *1224:Z 0.000242585
17 *199:2 *804:3 0.000959007031
18 *199:2 *805:5 0.000492023008
19 *199:3 *1691:A1 0.000493963984
20 *199:2 *580:3 0.000818106016

*RES
1 *199:13 *199:14 2.01512
2 *199:12 *199:14 0.667007
3 *199:11 *199:12 3.81789
4 *199:7 *199:8 0.159244
5 *199:4 *199:10 3.85542
6 *199:6 *199:2 0.159244
7 *199:2 *199:13 7.45446014
8 *1430:I *199:5 3.43877
9 *199:9 *199:16 1.93982
10 *199:15 *199:16 2.15094
11 *199:3 *199:5 3.12893
12 *199:3 *199:15 6.12773
13 *1173:Z *199:4 0.866859
14 *199:6 *199:7 2.99027
15 *199:8 *199:9 2.22294
16 *199:10 *199:11 0.159244
*END

*D_NET *200 0.00123391

*CONN
*I *1174:Z O *C 143.5 26.6 *L 0 *D DEL005
*I *1433:I I *C 139.1 24.4 *L 0.00105 *D DEL1

*CAP
1 *200:2 0.000295397
2 *200:3 0.000938518984

*RES
1 *200:2 *200:3 2.86901999
2 *1433:I *200:3 1.58029
3 *1174:Z *200:2 0.704559
*END

*D_NET *201 0.00964784

*CONN
*I *1175:Z O *C 149.5 59.2 *L 0 *D DEL01
*I *1194:I I *C 140.9 6.4 *L 0.00103 *D DEL015

*CAP
1 *1194:I 0.000213144
2 *1175:Z 0.000222774
3 *201:2 0.000771358
4 *201:3 0.00010683
5 *201:4 0.00147113
6 *201:5 7.13398e-05
7 *201:6 0.00087096
8 *201:7 0.00107521
9 *201:8 2.68029e-05
10 *201:9 0.000330322
11 *201:10 0.000235435
12 *201:12 0.000249936
13 *201:4 *357:3 0.000392183008
14 *201:2 *438:3 0.000907918984
15 *201:2 *463:9 0.000595624023
16 *201:3 *76:2 0.000568705039
17 *201:4 *131:2 0.00153819

*RES
1 *201:2 *201:3 3.39423
2 *201:5 *201:6 3.6851
3 *201:6 *201:2 0.0925326
4 *1194:I *201:4 1.3384
5 *201:8 *201:10 0.159297
6 *201:3 *201:7 12.7937002
7 *201:8 *201:12 1.74172
8 *201:4 *201:11 10.2957
9 *201:11 *201:12 2.52747
10 *201:7 *201:9 0.159297
11 *201:9 *201:10 6.98055
12 *1175:Z *201:5 0.937624
*END

*D_NET *202 0.00257723

*CONN
*I *1176:Z O *C 144.5 24 *L 0 *D DEL01
*I *1195:I I *C 143.7 10 *L 0.00103 *D DEL015

*CAP
1 *1195:I 0.000773926
2 *202:2 0.000637109
3 *202:3 1.8832e-06
4 *202:5 0.0011643

*RES
1 *202:2 *202:3 1.30598
2 *202:4 *202:5 3.83683991
3 *1195:I *202:3 3.70745
4 *202:2 *202:5 1.84524
5 *1176:Z *202:4 0.22499
*END

*D_NET *203 0.00170299

*CONN
*I *1177:Z O *C 148.7 55.6 *L 0 *D CKBD0
*I *1193:I I *C 142.1 55.2 *L 0.00103 *D DEL015

*CAP
1 *203:2 0.00015941
2 *203:3 0.00154358

*RES
1 *1193:I *203:3 0.675036
2 *203:2 *203:3 5.52920008
3 *1177:Z *203:2 0.225012
*END

*D_NET *204 0.00135148

*CONN
*I *1178:Z O *C 138.1 38.4 *L 0 *D CKBD0
*I *1196:I I *C 137.5 31.6 *L 0.00103 *D DEL015

*CAP
1 *1196:I 0.00122496
2 *1178:Z 8.50472e-05
3 *204:2 4.14582e-05

*RES
1 *1178:Z *204:2 0.632919
2 *1196:I *204:2 4.96753979
*END

*D_NET *205 0.00200072

*CONN
*I *1168:I I *C 137.5 164.8 *L 0.00104 *D DEL0
*I *1179:Z O *C 139.9 156.4 *L 0 *D DEL0

*CAP
1 *1179:Z 0.000274089
2 *205:2 6.62506e-06
3 *205:3 0.000482678
4 *205:4 0.000573463
5 *205:5 0.000663873984

*RES
1 *205:2 *205:4 2.48512
2 *205:2 *205:3 0.285151
3 *1179:Z *205:4 1.28287
4 *205:3 *205:5 2.90001011
5 *1168:I *205:5 1.70923
*END

*D_NET *206 0.00255723

*CONN
*I *1180:Z O *C 151.7 196.8 *L 0 *D DEL0
*I *1182:I I *C 137.9 199.6 *L 0.00373 *D CKBD12

*CAP
1 *1182:I 0.000317102
2 *206:2 0.000116309
3 *206:3 0.00212379

*RES
1 *206:2 *206:3 9.36229038
2 *1182:I *206:3 1.86214
3 *1180:Z *206:2 0.225
*END

*D_NET *207 0.00525097

*CONN
*I *1181:Z O *C 144.9 204 *L 0 *D DEL1
*I *1465:A[0] I *C 134.195 162.705 *L 0.00555 *D sram00

*CAP
1 *207:2 1.46131e-05
2 *207:3 7.82299e-05
3 *207:4 0.000363215
4 *207:5 0.000269462
5 *207:6 0.000110302
6 *207:7 0.000164588
7 *207:8 9.00554e-05
8 *207:9 4.37512e-05
9 *207:10 7.39751e-05
10 *207:12 0.00192303
11 *207:13 0.000225006
12 *207:14 1.37915e-06
13 *207:16 1.49652e-06
14 *207:17 7.20678e-05
15 *207:2 *70:4 0.000209305996
16 *207:3 *386:6 0.000270216992
17 *207:2 *377:9 0.000470408008
18 *207:4 *999:I 0.000227565
19 *207:5 *26:2 0.000317602988
20 *207:5 *108:3 0.000324685

*RES
1 *207:6 *207:7 1.6266
2 *207:13 *207:14 0.159222
3 *207:4 *207:9 0.092595
4 *207:8 *207:4 3.82196
5 *207:9 *207:5 0.394367
6 *207:2 *207:15 1.11964
7 *207:15 *207:17 0.159222
8 *207:11 *207:12 0.159222
9 *207:2 *207:10 1.25904
10 *207:14 *207:3 1.22593
11 *207:3 *207:16 0.159222
12 *207:16 *207:17 1.98165
13 *207:11 *207:13 3.24618
14 *207:7 *207:8 0.092595
15 *207:5 *207:12 18.7187
16 *1181:Z *207:6 0.225
17 *1181:Z *1465:A[0] 0.0001
*END

*D_NET *208 0.00802181

*CONN
*I *1180:I I *C 149.3 197.2 *L 0.00104 *D DEL0
*I *1352:Z O *C 150.7 142 *L 0 *D BUFFD8

*CAP
1 *208:2 0.00123399
2 *208:3 0.000855848
3 *208:4 0.000618436
4 *208:5 0.00199063
5 *208:7 0.000502312
6 *208:8 0.000648508
7 *208:9 1.3365e-06
8 *208:10 0.000785499
9 *208:11 1.78909e-05
10 *208:3 *326:2 0.000408601992
11 *208:2 *786:5 0.000535933008
12 *208:2 *790:5 0.000422805

*RES
1 *208:6 *208:7 3.24685
2 *208:5 *208:6 8.87569046
3 *208:2 *208:11 8.52059
4 *1352:Z *208:2 1.20548
5 *208:8 *208:11 3.70218
6 *208:7 *208:9 0.159268
7 *208:4 *208:5 2.14091
8 *208:3 *208:4 5.64847
9 *208:9 *208:10 6.26415
10 *208:8 *208:10 0.159268
11 *1180:I *208:3 0.450042
*END

*D_NET *209 0.00100635

*CONN
*I *1183:Z O *C 140.7 62.8 *L 0 *D CKBD1
*I *1236:I I *C 139.7 66 *L 0.00104 *D DEL0

*CAP
1 *1236:I 1.00639e-05
2 *1183:Z 0.000996277969

*RES
1 *1183:Z *1236:I 3.98645
*END

*D_NET *210 0.00211478

*CONN
*I *1184:Z O *C 145.9 95.2 *L 0 *D BUFFD1
*I *1219:I I *C 143.5 103.6 *L 0.00104 *D DEL0

*CAP
1 *1184:Z 0.000352453
2 *210:2 0.000145171
3 *210:3 0.00161717

*RES
1 *210:2 *210:3 5.50847006
2 *1184:Z *210:3 2.67623
3 *1219:I *210:2 0.450018
*END

*D_NET *211 0.00258457

*CONN
*I *1185:Z O *C 142.1 96 *L 0 *D BUFFD1
*I *1218:I I *C 140.1 109.2 *L 0.00104 *D DEL0

*CAP
1 *1218:I 1.45531e-06
2 *1185:Z 0.000849029
3 *211:2 0.00173407

*RES
1 *1218:I *211:2 6.24507999
2 *1185:Z *211:2 4.45844
*END

*D_NET *212 0.000353207

*CONN
*I *1186:Z O *C 138.1 20.4 *L 0 *D CKBD1
*I *1226:I I *C 137.5 19.2 *L 0.00104 *D DEL0

*CAP
1 *1226:I 6.85993e-05
2 *1186:Z 0.000284606992

*RES
1 *1186:Z *1226:I 1.72334
*END

*D_NET *213 0.000461751

*CONN
*I *1187:Z O *C 146.1 81.6 *L 0 *D CKBD1
*I *1231:I I *C 146.5 80.4 *L 0.00104 *D DEL0

*CAP
1 *1231:I 0.000276751016
2 *1187:Z 0.000184999

*RES
1 *1187:Z *1231:I 2.04503
*END

*D_NET *214 0.00165759

*CONN
*I *1188:Z O *C 151.5 34.8 *L 0 *D CKBD1
*I *1230:I I *C 149.5 40.8 *L 0.00104 *D DEL0

*CAP
1 *1188:Z 8.68073e-05
2 *214:2 0.00076476
3 *214:3 0.000806023984

*RES
1 *1230:I *214:2 3.35459995
2 *1188:Z *214:3 0.449986
3 *214:2 *214:3 3.0788
*END

*D_NET *215 0.000857967

*CONN
*I *1189:Z O *C 151.5 42 *L 0 *D CKBD1
*I *1228:I I *C 149.3 44.4 *L 0.00104 *D DEL0

*CAP
1 *1228:I 0.000762137031
2 *1189:Z 7.37308e-05
3 *215:2 2.2096e-05

*RES
1 *1228:I *215:2 3.2437799
2 *1189:Z *215:2 0.450019
*END

*D_NET *216 0.00729409

*CONN
*I *1172:I I *C 150.1 62.4 *L 0.00103 *D DEL01
*I *1190:Z O *C 146.1 114 *L 0 *D DEL015

*CAP
1 *216:2 0.00049638
2 *216:3 0.00230319
3 *216:4 0.000301891
4 *216:5 5.77423e-05
5 *216:6 9.50657e-05
6 *216:7 0.000181556
7 *216:8 2.75884e-05
8 *216:2 *3:4 0.00162875
9 *216:3 *432:6 0.0017653
10 *216:3 *483:3 0.000436628984

*RES
1 *216:7 *216:8 1.76129
2 *216:3 *216:7 29.0676994
3 *216:2 *216:8 2.38402
4 *216:6 *216:3 2.99743
5 *216:4 *216:2 0.70212
6 *1172:I *216:5 0.450191
7 *1190:Z *216:4 0.93897
8 *216:5 *216:6 0.224874
*END

*D_NET *217 0.00221604

*CONN
*I *1191:Z O *C 139.5 16.8 *L 0 *D DEL01
*I *1275:I I *C 146.9 13.6 *L 0.00104 *D DEL0

*CAP
1 *1275:I 0.000618165
2 *217:2 0.000289449
3 *217:3 0.00102237
4 *217:4 0.000286048

*RES
1 *217:2 *217:4 2.38473
2 *1191:Z *217:3 0.350925
3 *217:3 *217:4 3.58339
4 *1275:I *217:2 2.4913
*END

*D_NET *218 0.0107785

*CONN
*I *1174:I I *C 142.9 26.4 *L 0.00182 *D DEL005
*I *1192:Z O *C 143.9 95.2 *L 0 *D DEL015

*CAP
1 *1174:I 0.00015322
2 *1192:Z 8.04494e-05
3 *218:2 0.000527966
4 *218:3 0.000555171
5 *218:4 0.000549544
6 *218:5 0.000376587
7 *218:6 0.000244923
8 *218:7 0.000793113
9 *218:8 0.00138634
10 *218:9 0.000485319
11 *218:10 0.000256727
12 *218:12 0.000275068
13 *218:13 0.000111821
14 *218:14 0.000162528
15 *218:15 0.000383674
16 *218:7 *798:3 0.00131604
17 *218:7 *247:2 0.000819606016
18 *218:2 *433:3 0.00150368
19 *218:2 *799:5 0.000474456992
20 *218:7 *803:3 0.000322302012

*RES
1 *218:10 *218:13 0.15929
2 *218:2 *218:4 1.77986
3 *218:6 *218:8 13.0489998
4 *218:12 *218:13 4.37469
5 *218:11 *218:12 0.15929
6 *1174:I *218:7 0.449993
7 *218:9 *218:14 0.764789
8 *1192:Z *218:3 2.44251
9 *218:4 *218:5 1.80814
10 *218:7 *218:11 8.50029
11 *218:14 *218:15 2.61175
12 *218:10 *218:15 1.7705
13 *218:2 *218:3 2.30353
14 *218:5 *218:6 1.08994
15 *218:8 *218:9 5.93911
*END

*D_NET *219 0.00351448

*CONN
*I *1193:Z O *C 144.3 55.6 *L 0 *D DEL015
*I *1549:B2 I *C 150.5 45.8 *L 0.000739 *D MOAI22D0

*CAP
1 *1549:B2 0.0003214
2 *1193:Z 0.000266899
3 *219:2 0.0021362
4 *219:3 0.000307416
5 *219:4 0.000482589

*RES
1 *219:2 *219:4 3.1485
2 *219:2 *219:3 6.1045599
3 *1549:B2 *219:4 2.30905
4 *1193:Z *219:3 0.929619
*END

*D_NET *220 0.00251019

*CONN
*I *1194:Z O *C 143.1 6 *L 0 *D DEL015
*I *1432:I I *C 143.3 20.8 *L 0.00105 *D DEL1

*CAP
1 *1194:Z 0.00133407
2 *220:2 0.000527745
3 *220:3 0.000648378

*RES
1 *1432:I *220:3 2.96371
2 *1194:Z *220:2 5.37139988
3 *220:2 *220:3 2.0728
*END

*D_NET *221 0.0027674

*CONN
*I *1195:Z O *C 145.9 9.6 *L 0 *D DEL015
*I *1431:I I *C 139.7 17.2 *L 0.00105 *D DEL1

*CAP
1 *1195:Z 0.000689258
2 *221:2 3.36923e-05
3 *221:4 0.00204447

*RES
1 *221:3 *221:4 2.85818
2 *221:2 *221:4 5.10975981
3 *1195:Z *221:2 2.66107
4 *1431:I *221:3 0.450036
*END

*D_NET *222 0.00457298

*CONN
*I *1196:Z O *C 139.7 31.2 *L 0 *D DEL015
*I *1331:I I *C 144.9 6.4 *L 0.00105 *D DEL1

*CAP
1 *222:2 0.000929202
2 *222:3 0.000368082
3 *222:4 0.0032757

*RES
1 *222:2 *222:4 14.2047997
2 *222:3 *222:4 5.08773
3 *1331:I *222:3 1.47432
4 *1196:Z *222:2 3.24602
*END

*D_NET *223 0.00895519

*CONN
*I *1197:Z O *C 139.9 152.8 *L 0 *D DEL0
*I *1358:I I *C 149.1 114.4 *L 0.00287 *D BUFFD8

*CAP
1 *1358:I 0.000642075
2 *1197:Z 0.000202606
3 *223:2 4.1733e-05
4 *223:4 0.000144865
5 *223:5 0.000530946
6 *223:6 0.000163808
7 *223:7 2.81979e-06
8 *223:8 0.000238222
9 *223:9 0.000947668047
10 *223:10 0.000815658
11 *223:11 0.000353458
12 *223:12 0.000422058
13 *223:13 0.000804741
14 *1197:Z *361:6 0.000554618008
15 *1197:Z *368:3 0.000275216016
16 *223:4 *384:3 0.00114941
17 *1197:Z *783:5 0.00109367
18 *1358:I *488:92 0.000571623984

*RES
1 *223:3 *223:4 1.77436
2 *223:7 *223:8 2.73741
3 *223:9 *223:12 6.75601006
4 *223:2 *223:10 3.53831
5 *223:6 *223:9 3.3577
6 *1197:Z *223:13 2.93668
7 *223:6 *223:8 0.159272
8 *223:11 *223:12 1.76271
9 *1358:I *223:2 6.42396
10 *223:4 *223:13 2.46103
11 *223:10 *223:11 1.60344
12 *223:5 *223:7 0.159272
13 *223:3 *223:5 4.84186
*END

*D_NET *224 0.005728

*CONN
*I *1198:Z O *C 151.9 132 *L 0 *D DEL0
*I *1365:I I *C 146.5 107.2 *L 0.00287 *D BUFFD8

*CAP
1 *1198:Z 0.000224318
2 *224:2 0.000607786
3 *224:3 5.37796e-05
4 *224:4 0.000647202
5 *224:5 0.000172146
6 *224:6 0.000309288
7 *224:7 0.00112065008
8 *224:8 0.000252687
9 *224:9 0.000312349
10 *224:5 *361:5 0.000741918047
11 *224:2 *882:4 0.00107351008
12 *224:2 *192:12 0.000212376992

*RES
1 *224:6 *224:7 0.159189
2 *224:2 *224:6 3.36975
3 *224:5 *224:8 3.47183
4 *1198:Z *224:3 1.69271
5 *224:8 *224:9 3.33359
6 *224:4 *224:5 0.0925837
7 *1365:I *224:2 1.47939
8 *224:7 *224:9 7.50008011
9 *224:3 *224:4 2.80326
*END

*D_NET *225 0.00592523

*CONN
*I *1199:Z O *C 151.9 128.4 *L 0 *D DEL0
*I *1366:I I *C 146.5 102 *L 0.00287 *D BUFFD8

*CAP
1 *1366:I 0.000225989
2 *1199:Z 0.000108931
3 *225:2 0.000547309
4 *225:3 0.0010049
5 *225:4 0.000197208
6 *225:5 9.92863e-05
7 *225:6 0.000228719
8 *225:7 0.000113577
9 *225:2 *145:3 0.000220705
10 *225:3 *50:2 0.000434943984
11 *225:3 *107:4 0.00100121
12 *225:2 *236:2 0.000543084023
13 *225:2 *790:3 0.00119937

*RES
1 *225:6 *225:7 1.32206
2 *225:5 *225:6 2.21032
3 *225:4 *225:5 2.64285
4 *225:3 *225:7 9.27254009
5 *1199:Z *225:2 2.71671
6 *1366:I *225:3 1.934
7 *225:2 *225:4 2.87913
*END

*D_NET *226 0.00383511

*CONN
*I *1200:Z O *C 151.9 167.2 *L 0 *D DEL0
*I *1465:A[2] I *C 134.265 156.66 *L 0.00555 *D sram00

*CAP
1 *226:2 9.31894e-05
2 *226:3 0.00099352
3 *226:4 0.000330764
4 *226:5 6.20353e-05
5 *226:6 0.000102104
6 *226:7 0.000716241
7 *226:8 0.000716014
8 *226:9 9.20221e-06
9 *226:10 4.6481e-05
10 *226:11 0.000213121
11 *226:13 0.000201569
12 *226:14 0.000348426
13 *226:15 2.44078e-06

*RES
1 *226:2 *226:3 4.58493996
2 *226:12 *226:14 1.6149
3 *226:7 *226:13 0.967975
4 *226:12 *226:13 0.15923
5 *226:5 *226:6 0.219187
6 *226:4 *226:5 0.411019
7 *226:6 *226:7 3.54197
8 *226:8 *226:15 3.48236
9 *226:10 *226:11 1.40159
10 *226:8 *226:9 0.268439
11 *226:9 *226:10 0.0548491
12 *226:14 *226:15 0.15923
13 *226:3 *226:4 1.32184
14 *1200:Z *226:2 0.224993
15 *1200:Z *1465:A[2] 6.99606e-05
*END

*D_NET *227 0.00154264

*CONN
*I *1201:Z O *C 140.3 150 *L 0 *D DEL0
*I *1465:A[3] I *C 134.265 155 *L 0.00555 *D sram00

*CAP
1 *1201:Z 0.000196761
2 *227:2 5.50762e-05
3 *227:3 0.000462053
4 *227:4 3.38931e-06
5 *227:5 8.19308e-05
6 *227:6 3.03908e-06
7 *227:7 0.000740393984

*RES
1 *227:2 *227:5 0.619377
2 *227:2 *227:3 1.83218
3 *1201:Z *227:4 0.837944
4 *227:6 *227:7 3.71376991
5 *227:3 *227:4 0.159236
6 *227:5 *227:6 0.0925949
7 *1201:Z *1465:A[3] 0.000113335
*END

*D_NET *228 0.00323204

*CONN
*I *1202:Z O *C 151.7 150 *L 0 *D DEL0
*I *1465:A[4] I *C 134.265 153.41 *L 0.00555 *D sram00

*CAP
1 *228:2 0.000518822
2 *228:4 0.000114802
3 *228:5 4.52198e-05
4 *228:6 0.000238355
5 *228:7 0.00162918
6 *228:8 4.3057e-05
7 *228:9 0.000392112
8 *228:10 4.74323e-05
9 *228:11 0.000203054

*RES
1 *228:9 *228:10 0.092595
2 *228:5 *228:11 1.60995
3 *228:2 *228:3 1.43151
4 *228:8 *228:9 1.79597
5 *228:7 *228:8 0.092595
6 *228:6 *228:7 7.7366
7 *228:4 *228:5 0.488358
8 *228:3 *228:4 0.159222
9 *228:2 *228:10 0.619367
10 *1202:Z *228:6 0.225
11 *1202:Z *1465:A[4] 0.0001
*END

*D_NET *229 0.00355067

*CONN
*I *1203:Z O *C 148.7 142 *L 0 *D DEL0
*I *1465:A[5] I *C 134.265 151.75 *L 0.00555 *D sram00

*CAP
1 *1203:Z 0.000115139
2 *229:2 6.00277e-05
3 *229:3 0.000246495
4 *229:4 0.000447453
5 *229:5 0.000326388
6 *229:6 0.000134022
7 *229:7 0.000573731
8 *229:8 4.61285e-05
9 *229:9 0.000469433
10 *229:10 0.000174911
11 *229:11 3.93136e-05
12 *229:12 0.000882637031
13 *229:14 2.35962e-05
14 *229:15 1.13671e-05

*RES
1 *229:7 *229:8 0.218516
2 *229:2 *229:3 1.19214
3 *229:12 *229:13 0.159205
4 *229:9 *229:13 0.58909
5 *229:5 *229:6 0.218516
6 *229:4 *229:5 1.50415
7 *229:6 *229:7 2.42553
8 *229:10 *229:11 0.159205
9 *229:8 *229:9 2.78657
10 *229:11 *229:14 0.187053
11 *1203:Z *229:2 0.35094
12 *229:10 *229:12 5.38370991
13 *229:14 *229:15 0.268463
14 *229:3 *229:4 1.5973
15 *1203:Z *1465:A[5] 8.21489e-05
*END

*D_NET *230 0.00156682

*CONN
*I *1204:Z O *C 139.9 146.4 *L 0 *D DEL0
*I *1465:A[6] I *C 134.265 150.16 *L 0.00555 *D sram00

*CAP
1 *1204:Z 0.000754368984
2 *230:2 4.41559e-05
3 *230:3 0.000120496
4 *230:4 1.41239e-05
5 *230:5 0.000633665

*RES
1 *230:2 *230:3 0.493477
2 *230:4 *230:5 3.29266
3 *230:3 *230:4 0.0674248
4 *1204:Z *230:2 2.72025
5 *1204:Z *1465:A[6] 0.000100484
*END

*D_NET *231 0.00829134

*CONN
*I *1179:I I *C 137.5 156 *L 0.00104 *D DEL0
*I *1205:Z O *C 151.9 124.8 *L 0 *D DEL0

*CAP
1 *1179:I 2.75401e-05
2 *231:2 0.000321886
3 *231:3 0.000260839
4 *231:4 0.000470755
5 *231:5 0.00185302
6 *231:6 6.33366e-06
7 *231:7 0.000189077
8 *231:8 0.000677362
9 *231:9 0.000340774
10 *231:10 8.92933e-05
11 *231:11 0.000570425
12 *231:12 0.00032361
13 *231:13 0.000720991
14 *231:4 *108:2 0.00030818998
15 *231:3 *366:5 0.00130223
16 *231:4 *384:4 0.000829007969

*RES
1 *231:2 *231:8 2.51599
2 *231:4 *231:7 3.77898
3 *231:11 *231:12 1.51093
4 *231:5 *231:6 7.80423021
5 *1179:I *231:2 0.329027
6 *231:5 *231:13 3.38934
7 *231:8 *231:9 4.43477
8 *231:12 *231:13 2.62721
9 *231:3 *231:6 1.9014
10 *231:10 *231:11 2.53742
11 *231:3 *231:4 0.159214
12 *231:7 *231:9 2.30616
13 *1205:Z *231:10 0.224948
*END

*D_NET *232 0.011838

*CONN
*I *1181:I I *C 141.7 204.4 *L 0.00105 *D DEL1
*I *1206:Z O *C 142.5 121.2 *L 0 *D DEL0

*CAP
1 *1206:Z 0.000153261
2 *232:2 0.000150744
3 *232:3 0.000608418
4 *232:4 0.000239409
5 *232:5 0.000942723
6 *232:6 0.000388108
7 *232:7 0.00206199
8 *232:8 9.3857e-05
9 *232:7 *455:11 0.000618233008
10 *232:4 *320:2 0.00155264
11 *232:4 *321:2 0.00142109
12 *232:2 *1267:Z 0.000733858984
13 *1206:Z *785:8 0.00183345
14 *232:3 *789:10 0.00104018

*RES
1 *232:6 *232:8 0.15907
2 *232:2 *232:6 2.74407
3 *232:5 *232:2 2.66889
4 *232:3 *232:7 2.56839
5 *232:4 *232:5 18.3741
6 *1181:I *232:4 0.827748
7 *1206:Z *232:3 0.4498
8 *232:7 *232:8 27.2189007
*END

*D_NET *233 0.00111277

*CONN
*I *1207:Z O *C 149.5 157.2 *L 0 *D BUFFD1
*I *1765:A1 I *C 144.7 159.6 *L 0.00093 *D NR2D1

*CAP
1 *1207:Z 0.000133183
2 *233:2 0.000979592031

*RES
1 *1765:A1 *233:2 0.854627
2 *1207:Z *233:2 3.91587996
*END

*D_NET *234 0.0030729

*CONN
*I *1208:Z O *C 145.9 34.8 *L 0 *D BUFFD1
*I *1339:I I *C 145.3 19.2 *L 0.00103 *D BUFFD2

*CAP
1 *1339:I 0.000150497
2 *1208:Z 0.000440534
3 *234:2 0.00119041
4 *234:3 8.66286e-05
5 *234:4 0.00120483992

*RES
1 *234:3 *234:4 4.41731977
2 *234:2 *234:4 2.93951
3 *1339:I *234:2 2.38296
4 *1208:Z *234:3 2.38236
*END

*D_NET *235 0.00311872

*CONN
*I *1209:Z O *C 146.5 31.2 *L 0 *D BUFFD1
*I *1337:I I *C 145.9 12 *L 0.00103 *D BUFFD2

*CAP
1 *1337:I 0.000506192
2 *1209:Z 0.000170575
3 *235:2 0.000286677
4 *235:3 0.00104472992
5 *235:4 8.33106e-05
6 *235:5 0.00016203
7 *235:6 0.000865212

*RES
1 *235:5 *235:6 4.63516998
2 *235:4 *235:6 0.159207
3 *235:3 *235:5 1.55225
4 *235:2 *235:3 3.04296
5 *1337:I *235:4 3.47029
6 *1209:Z *235:2 1.86663
*END

*D_NET *236 0.00847269

*CONN
*I *1167:I I *C 149.1 174 *L 0.00104 *D DEL0
*I *1210:Z O *C 139.9 120.4 *L 0 *D DEL0

*CAP
1 *1167:I 0.000406712
2 *1210:Z 0.00060944
3 *236:2 0.00273991
4 *236:3 0.000256369
5 *236:4 0.000378073
6 *236:5 0.000573569
7 *236:6 0.000196959
8 *236:7 0.000220246
9 *236:8 0.000274932
10 *236:3 *467:13 0.00130486
11 *236:6 *290:2 0.000224545
12 *236:7 *790:3 0.000744000938
13 *236:2 *225:2 0.000543084023

*RES
1 *236:7 *236:2 25.7938004
2 *236:6 *236:7 1.18941
3 *236:4 *236:5 2.51814
4 *1210:Z *236:5 2.73303
5 *236:2 *236:8 2.71139
6 *236:3 *236:8 2.84757
7 *236:3 *236:4 1.34526
8 *1167:I *236:6 3.40016
*END

*D_NET *237 0.0112656

*CONN
*I *1211:Z O *C 138.1 73.6 *L 0 *D CKBD1
*I *1334:I I *C 137.5 127.2 *L 0.00072 *D BUFFD1

*CAP
1 *1334:I 0.000152459
2 *237:2 2.75209e-05
3 *237:3 0.00027045
4 *237:4 0.00029229
5 *237:5 0.000265268
6 *237:6 0.000188117
7 *237:7 0.00251546
8 *237:8 0.000767324
9 *237:9 3.10906e-06
10 *237:10 0.00050931
11 *237:11 0.000117952
12 *237:5 *99:2 0.00556862
13 *237:7 *397:3 0.000226910996
14 *1334:I *783:3 0.00036079

*RES
1 *237:5 *237:7 23.3320007
2 *237:2 *237:3 7.50308
3 *1334:I *237:2 1.41054
4 *237:9 *237:10 2.87022
5 *237:7 *237:9 0.15914
6 *237:5 *237:6 3.02046
7 *237:3 *237:4 1.45469
8 *1211:Z *237:11 0.450007
9 *237:8 *237:11 3.08276
10 *237:8 *237:10 0.15914
11 *237:4 *237:6 1.79718
*END

*D_NET *238 0.00214224

*CONN
*I *1212:Z O *C 139.3 49.2 *L 0 *D BUFFD1
*I *1341:I I *C 140.3 40.8 *L 0.00103 *D BUFFD2

*CAP
1 *1341:I 0.000163968
2 *238:2 0.00161808
3 *238:3 7.3108e-05
4 *238:4 0.000287099

*RES
1 *238:3 *238:4 0.953666
2 *238:2 *238:3 6.1813302
3 *1341:I *238:2 0.748426
4 *1212:Z *238:4 0.225047
*END

*D_NET *239 0.00719868

*CONN
*I *1213:Z O *C 138.1 62.8 *L 0 *D CKBD1
*I *1340:I I *C 137.5 102 *L 0.00103 *D BUFFD2

*CAP
1 *1340:I 1.86242e-05
2 *239:2 0.000349311
3 *239:3 0.000143476
4 *239:4 5.82409e-05
5 *239:5 1.59328e-05
6 *239:6 0.000310959
7 *239:7 0.000480434
8 *239:8 0.00176378
9 *239:9 0.000322397
10 *239:4 *479:2 0.00122735
11 *239:2 *1098:I 0.000584955977
12 *239:3 *154:3 0.00192321

*RES
1 *239:7 *239:8 1.29271
2 *239:3 *239:8 11.4223003
3 *239:2 *239:5 0.782216
4 *1340:I *239:4 0.323657
5 *239:6 *239:7 5.82479
6 *239:3 *239:9 2.05628
7 *239:5 *239:6 3.34812
8 *239:4 *239:2 3.41609
9 *1213:Z *239:9 0.450018
*END

*D_NET *240 0.00599479

*CONN
*I *1214:Z O *C 138.1 66.4 *L 0 *D CKBD1
*I *1338:I I *C 137.5 107.2 *L 0.00103 *D BUFFD2

*CAP
1 *1338:I 0.000255004
2 *240:2 0.000493798
3 *240:4 3.30373e-07
4 *240:5 0.00103475
5 *240:6 0.000215469
6 *240:7 1.29727e-05
7 *240:8 0.000431049
8 *240:9 1.49769e-06
9 *240:10 0.0014434
10 *240:11 9.70196e-05
11 *240:10 *506:2 0.000277400996
12 *240:10 *508:2 0.000356925
13 *1338:I *99:2 0.000413883008
14 *240:2 *496:8 0.000252685996
15 *1338:I *172:5 0.000708596016

*RES
1 *240:9 *240:10 7.78623
2 *240:6 *240:8 0.159193
3 *240:3 *240:5 9.52775955
4 *1214:Z *240:11 0.449958
5 *1338:I *240:3 2.18655
6 *240:7 *240:8 2.73725
7 *240:4 *240:2 5.1301
8 *240:4 *240:5 0.285094
9 *240:10 *240:11 2.64508
10 *240:6 *240:9 1.64878
11 *240:2 *240:7 0.28524
*END

*D_NET *241 0.00905356

*CONN
*I *1215:Z O *C 138.1 67.2 *L 0 *D CKBD1
*I *1336:I I *C 140.1 118 *L 0.00103 *D BUFFD2

*CAP
1 *1336:I 0.000318748
2 *1215:Z 9.53272e-05
3 *241:2 0.000489743
4 *241:3 0.000814931953
5 *241:4 0.000290918
6 *241:5 0.000640058
7 *241:6 3.27291e-05
8 *241:7 0.00067454
9 *241:8 2.02692e-06
10 *241:9 0.000274206
11 *241:10 0.000194335
12 *241:11 0.000163608
13 *241:12 0.000422432
14 *241:6 *242:3 0.00120418
15 *241:4 *371:3 0.000596063008
16 *241:2 *806:4 0.000317402988
17 *241:3 *87:2 0.00252231

*RES
1 *241:6 *241:7 6.65078
2 *241:7 *241:8 0.159254
3 *241:4 *241:3 9.7358799
4 *241:6 *241:3 0.159254
5 *1336:I *241:4 2.80507
6 *241:5 *241:12 3.10352
7 *241:8 *241:2 4.99035
8 *241:10 *241:11 2.07877
9 *241:11 *241:12 3.36751
10 *241:2 *241:9 3.31952
11 *241:9 *241:10 2.01533
12 *1215:Z *241:5 0.449981
*END

*D_NET *242 0.00735968

*CONN
*I *1216:Z O *C 138.1 77.2 *L 0 *D CKBD1
*I *1335:I I *C 140.1 123.6 *L 0.00103 *D BUFFD2

*CAP
1 *1335:I 0.00033964
2 *242:2 0.00018147
3 *242:3 0.00131862
4 *242:4 0.000301249
5 *242:5 0.000396703
6 *242:6 0.000308533
7 *242:7 2.69619e-06
8 *242:8 0.000697087
9 *242:9 0.000349338
10 *242:10 0.000374872
11 *242:5 *392:2 0.000728495
12 *242:5 *784:3 0.000777967969
13 *242:2 *1210:I 0.00037887
14 *242:3 *241:6 0.00120418

*RES
1 *242:6 *242:3 14.0263004
2 *242:5 *242:2 4.3738
3 *242:4 *242:10 1.60026
4 *1335:I *242:5 3.06098
5 *242:9 *242:10 2.35983
6 *242:8 *242:9 2.2616
7 *242:7 *242:8 5.39791
8 *242:3 *242:7 0.159234
9 *242:2 *242:6 1.43182
10 *1216:Z *242:4 0.22494
*END

*D_NET *243 0.0100572

*CONN
*I *1217:Z O *C 140.3 113.2 *L 0 *D DEL0
*I *1550:B2 I *C 143.3 49.4 *L 0.000739 *D MOAI22D0

*CAP
1 *1550:B2 0.000299902
2 *243:2 0.000324666
3 *243:3 0.00023113
4 *243:4 7.69981e-05
5 *243:5 0.000831906
6 *243:6 0.000361555
7 *243:8 0.000477129
8 *243:9 0.000132809
9 *243:10 0.000671149
10 *243:11 1.37953e-06
11 *243:12 0.00111614
12 *243:13 0.000219907
13 *243:8 *36:9 0.000901915
14 *243:10 *798:4 0.000627524023
15 *1550:B2 *253:2 0.000281165
16 *243:3 *335:2 0.0006996
17 *243:4 *799:6 0.00134603
18 *1550:B2 *803:4 0.000502812031
19 *243:2 *805:6 0.000953471016

*RES
1 *243:4 *243:6 2.35987
2 *243:10 *243:11 0.159227
3 *243:7 *243:10 7.14615
4 *243:4 *243:5 0.28519
5 *243:2 *243:3 2.23943
6 *243:8 *243:9 6.76306
7 *243:7 *243:8 0.159227
8 *243:11 *243:12 10.3318005
9 *243:3 *243:5 9.60519
10 *243:6 *243:9 0.28519
11 *243:12 *243:13 3.31745
12 *1550:B2 *243:13 1.93122
13 *1217:Z *243:2 0.224968
*END

*D_NET *244 0.00288306

*CONN
*I *1218:Z O *C 142.5 109.6 *L 0 *D DEL0
*I *1355:I I *C 142.9 96.4 *L 0.00287 *D BUFFD8

*CAP
1 *1355:I 0.000508857
2 *1218:Z 0.000402738
3 *244:2 0.000807617
4 *244:3 0.000209748
5 *244:4 0.000954106953

*RES
1 *1218:Z *244:2 1.43719
2 *244:3 *244:4 3.50061989
3 *244:2 *244:3 3.23686
4 *1355:I *244:4 2.51046
*END

*D_NET *245 0.00318047

*CONN
*I *1219:Z O *C 145.9 103.2 *L 0 *D DEL0
*I *1344:I I *C 137.7 96.4 *L 0.00287 *D BUFFD8

*CAP
1 *1344:I 0.00116375992
2 *245:2 0.000985613
3 *245:3 0.00102013
4 *245:4 1.09743e-05

*RES
1 *245:3 *245:4 4.2365098
2 *1219:Z *245:2 1.6139
3 *245:2 *245:4 2.17585
4 *1344:I *245:3 4.07768
*END

*D_NET *246 0.00569786

*CONN
*I *1220:Z O *C 142.5 103.2 *L 0 *D DEL0
*I *1371:I I *C 140.3 74.8 *L 0.00287 *D BUFFD8

*CAP
1 *1220:Z 0.000192498
2 *246:2 0.000371942
3 *246:3 0.00105612
4 *246:4 0.000178542
5 *246:5 0.000267644
6 *246:6 0.000350267
7 *246:7 7.51459e-05
8 *246:3 *492:67 0.000432691992
9 *246:3 *248:2 0.00160461
10 *246:3 *463:3 0.000645174961
11 *246:2 *788:3 0.000335189023
12 *246:3 *802:3 0.000188040996

*RES
1 *246:4 *246:5 2.03238
2 *246:6 *246:7 0.782266
3 *1220:Z *246:2 2.15348
4 *246:4 *246:6 4.37676
5 *246:3 *246:7 10.54
6 *246:2 *246:5 2.56777
7 *1371:I *246:3 0.575924
*END

*D_NET *247 0.00604424

*CONN
*I *1221:Z O *C 139.9 6 *L 0 *D DEL0
*I *1362:I I *C 141.5 46 *L 0.00287 *D BUFFD8

*CAP
1 *1221:Z 0.000834918
2 *247:2 0.00200089
3 *247:3 0.000384943
4 *247:4 0.000344091
5 *247:6 0.000549722
6 *247:7 2.3204e-06
7 *247:2 *218:7 0.000819606016
8 *1221:Z *462:8 0.000798752031
9 *247:3 *513:4 0.000309017988

*RES
1 *247:5 *247:3 4.37483
2 *1362:I *247:4 1.08922
3 *1221:Z *247:2 3.15254
4 *247:3 *247:7 0.159165
5 *247:5 *247:6 0.159165
6 *247:2 *247:7 15.2723999
7 *247:4 *247:6 5.12754
*END

*D_NET *248 0.00727932

*CONN
*I *1222:Z O *C 140.3 98.8 *L 0 *D DEL0
*I *1343:I I *C 138.3 59.2 *L 0.00373 *D CKBD12

*CAP
1 *1343:I 0.000604773984
2 *248:2 0.000415844
3 *248:3 0.000379826
4 *248:4 0.000478817
5 *248:5 0.000152128
6 *248:6 8.41156e-05
7 *248:7 7.06885e-06
8 *248:8 0.00056369
9 *248:8 *492:67 0.000761851016
10 *248:3 *301:36 0.00034291
11 *248:4 *487:2 0.00116617
12 *248:4 *463:4 0.000412649023
13 *248:2 *515:3 0.000304861016
14 *248:2 *246:3 0.00160461

*RES
1 *248:2 *248:8 6.6142
2 *248:6 *248:7 1.76336
3 *248:4 *248:7 6.8878
4 *248:3 *248:4 1.78895
5 *1343:I *248:3 2.13089
6 *1222:Z *248:5 0.450034
7 *248:6 *248:8 2.21575
8 *248:5 *248:2 8.14284992
*END

*D_NET *249 0.00775018

*CONN
*I *1223:Z O *C 144.9 12.4 *L 0 *D DEL0
*I *1350:I I *C 140.7 56.8 *L 0.00287 *D BUFFD8

*CAP
1 *1350:I 0.000151921
2 *1223:Z 0.000591917
3 *249:2 0.000442993
4 *249:3 0.000768091
5 *249:4 0.0030216
6 *249:2 *357:3 0.000650998008
7 *1223:Z *1691:A1 0.000301221016
8 *249:2 *464:6 0.000535651016
9 *249:2 *485:3 0.000303131992
10 *249:2 *197:4 0.000982671953

*RES
1 *249:3 *249:4 4.68412
2 *1350:I *249:2 2.89768
3 *249:2 *249:4 26.3862991
4 *1223:Z *249:3 3.07322
*END

*D_NET *250 0.00523256

*CONN
*I *1224:Z O *C 145.5 13.2 *L 0 *D DEL0
*I *1397:I I *C 146.5 46 *L 0.00287 *D BUFFD8

*CAP
1 *1397:I 0.000365273
2 *1224:Z 0.00025465
3 *250:2 0.00159439
4 *250:3 0.000248981
5 *250:4 0.000259224
6 *250:5 0.000342112
7 *250:2 *253:4 0.000672581016
8 *250:2 *1683:A1 0.0005707
9 *1224:Z *806:28 0.000180099004
10 *250:3 *1690:A1 0.000187279004
11 *250:2 *435:5 0.000314691992
12 *1224:Z *199:3 0.000242585

*RES
1 *250:5 *250:3 0.159217
2 *250:4 *250:5 5.12472
3 *250:6 *250:3 2.39288
4 *250:2 *250:6 12.1190004
5 *1224:Z *250:2 1.72864
6 *1397:I *250:4 2.59426
*END

*D_NET *251 0.00852429

*CONN
*I *1225:Z O *C 145.5 16 *L 0 *D DEL0
*I *1356:I I *C 141.1 62.4 *L 0.00287 *D BUFFD8

*CAP
1 *1356:I 0.0002003
2 *251:2 0.000215844
3 *251:3 0.00116068
4 *251:4 0.00125611
5 *251:5 0.000149733
6 *251:6 0.000130416
7 *251:7 0.000315623
8 *251:8 0.000566844
9 *251:9 0.00211345
10 *251:10 2.54769e-06
11 *251:11 2.54769e-06
12 *251:2 *195:2 0.000434478984
13 *1356:I *87:4 0.000468678008
14 *251:3 *129:4 0.000701835
15 *251:4 *805:9 0.000466821992
16 *251:4 *196:2 0.000338420977

*RES
1 *251:8 *251:9 0.159232
2 *251:2 *251:10 0.159232
3 *251:6 *251:2 2.98945
4 *251:5 *251:7 3.29835
5 *251:9 *251:10 13.6232996
6 *251:6 *251:7 0.159232
7 *1225:Z *251:4 1.0795
8 *251:8 *251:11 1.38632
9 *251:4 *251:11 5.75523
10 *251:3 *251:5 5.61533
11 *1356:I *251:3 3.5187
*END

*D_NET *252 0.00305875

*CONN
*I *1226:Z O *C 139.9 19.6 *L 0 *D DEL0
*I *1379:I I *C 141.1 35.2 *L 0.00287 *D BUFFD8

*CAP
1 *252:2 0.000751112
2 *252:3 4.79658e-06
3 *252:4 0.000589017
4 *252:5 0.000530144
5 *252:6 0.000887977031
6 *252:7 0.000295708

*RES
1 *252:6 *252:7 0.923229
2 *252:5 *252:6 3.22519994
3 *252:2 *252:3 0.159203
4 *1379:I *252:2 2.96398
5 *252:3 *252:4 2.48524
6 *252:4 *252:5 2.40163
7 *1226:Z *252:7 0.45
*END

*D_NET *253 0.00757088

*CONN
*I *1227:Z O *C 143.9 19.6 *L 0 *D DEL0
*I *1386:I I *C 145.7 62.4 *L 0.00287 *D BUFFD8

*CAP
1 *1227:Z 5.09114e-05
2 *253:2 0.00130945
3 *253:3 0.000267645
4 *253:4 0.00119916
5 *253:5 5.72853e-05
6 *253:6 0.000106219
7 *253:3 *803:4 0.00211442
8 *253:2 *1550:B2 0.000281165
9 *253:3 *1703:DA 0.00123304
10 *253:3 *798:4 0.000279013008
11 *253:4 *250:2 0.000672581016

*RES
1 *253:5 *253:4 0.350805
2 *1386:I *253:3 1.86606
3 *1227:Z *253:5 0.384168
4 *253:2 *253:6 1.18537
5 *253:4 *253:6 16.3167992
6 *253:3 *253:2 12.9803
*END

*D_NET *254 0.00285068

*CONN
*I *1228:Z O *C 151.7 44.8 *L 0 *D DEL0
*I *1363:I I *C 149.1 55.2 *L 0.00287 *D BUFFD8

*CAP
1 *1363:I 0.000425265
2 *254:2 0.00125218
3 *254:3 0.000752263
4 *254:4 0.000354206
5 *254:5 6.67791e-05

*RES
1 *254:2 *254:4 3.34189
2 *1228:Z *254:5 0.450007
3 *1363:I *254:3 4.33381987
4 *254:3 *254:4 1.21379
5 *254:2 *254:5 1.9879
*END

*D_NET *255 0.00564385

*CONN
*I *1229:Z O *C 142.7 49.2 *L 0 *D DEL0
*I *1380:I I *C 140.3 82 *L 0.00287 *D BUFFD8

*CAP
1 *1380:I 4.88536e-06
2 *255:2 0.00081094
3 *255:3 0.000459134
4 *255:4 0.00197631
5 *255:5 2.86487e-06
6 *255:6 0.000531479
7 *255:7 0.000504127
8 *255:9 0.0006645
9 *255:10 8.14227e-06
10 *255:11 0.000457596
11 *255:2 *492:83 0.00022389

*RES
1 *255:6 *255:9 1.15923
2 *255:5 *255:2 3.287
3 *255:3 *255:5 2.12217
4 *255:3 *255:4 0.159189
5 *1380:I *255:11 1.24123
6 *255:9 *255:10 2.62551
7 *255:7 *255:11 2.14339
8 *255:7 *255:8 1.43153
9 *255:4 *255:8 8.53034973
10 *1229:Z *255:6 1.01566
11 *255:2 *255:10 0.159189
*END

*D_NET *256 0.00302812

*CONN
*I *1230:Z O *C 151.9 41.2 *L 0 *D DEL0
*I *1370:I I *C 149.1 53.2 *L 0.00287 *D BUFFD8

*CAP
1 *1370:I 6.73138e-06
2 *1230:Z 9.03928e-06
3 *256:2 0.00106777
4 *256:3 0.000798761
5 *256:4 0.00114582

*RES
1 *1230:Z *256:2 0.32735
2 *256:3 *256:4 2.36215
3 *256:2 *256:4 6.60912991
4 *1370:I *256:3 2.8802
*END

*D_NET *257 0.0033182

*CONN
*I *1231:Z O *C 148.9 80.8 *L 0 *D DEL0
*I *1354:I I *C 140.5 87.6 *L 0.00287 *D BUFFD8

*CAP
1 *1354:I 0.00105036
2 *1231:Z 0.00101648
3 *257:2 0.000102517
4 *257:3 0.00114885

*RES
1 *257:2 *257:3 4.59917021
2 *1231:Z *257:2 3.40917
3 *1354:I *257:3 4.07824
*END

*D_NET *258 0.00789547

*CONN
*I *1232:Z O *C 145.1 311.2 *L 0 *D DEL1
*I *1382:I I *C 140.5 253.6 *L 0.00373 *D CKBD12

*CAP
1 *1382:I 0.000103153
2 *258:2 0.000188274
3 *258:3 0.000342205
4 *258:4 0.000642195
5 *258:5 0.000150993
6 *258:6 0.000265321
7 *258:8 0.00095862
8 *258:9 1.37876e-06
9 *258:10 0.00118891
10 *258:11 1.3842e-05
11 *258:12 8.47213e-05
12 *258:13 9.14155e-05
13 *258:2 *1753:DA 0.000849183047
14 *258:10 *1755:SA 0.000811703984
15 *258:5 *749:4 0.000636447031
16 *258:2 *475:35 0.00031288
17 *258:3 *760:6 0.00125421

*RES
1 *258:7 *258:3 3.7476
2 *258:3 *258:9 0.159253
3 *258:2 *258:11 1.76277
4 *258:5 *258:8 7.13318
5 *258:6 *258:13 4.87022
6 *258:7 *258:8 0.159253
7 *258:9 *258:10 14.6997004
8 *258:11 *258:12 2.8993
9 *1382:I *258:4 0.350805
10 *258:4 *258:6 3.65092
11 *1232:Z *258:5 0.701834
12 *258:2 *258:10 0.159253
13 *258:12 *258:13 1.32359
*END

*D_NET *259 0.00560168

*CONN
*I *1233:Z O *C 145.5 308.4 *L 0 *D DEL1
*I *1381:I I *C 140.9 282.4 *L 0.00373 *D CKBD12

*CAP
1 *259:2 0.000732164
2 *259:3 0.000850104
3 *259:4 0.000907965
4 *259:5 0.000687821
5 *259:6 0.000919925
6 *259:7 8.24683e-05
7 *259:8 0.000397392
8 *259:9 0.000845374
9 *259:2 *1625:A2 0.00017847

*RES
1 *259:4 *259:8 3.58024
2 *259:2 *259:7 1.78861
3 *1381:I *259:9 0.450011
4 *1233:Z *259:3 3.72748995
5 *259:7 *259:9 2.81234
6 *259:5 *259:6 3.39965
7 *259:4 *259:5 2.61782
8 *259:2 *259:6 2.01822
9 *259:3 *259:8 2.07356
*END

*D_NET *260 0.00519921

*CONN
*I *1234:Z O *C 145.7 307.6 *L 0 *D DEL1
*I *1372:I I *C 139.5 264.4 *L 0.00373 *D CKBD12

*CAP
1 *1372:I 8.22035e-05
2 *260:2 0.0009823
3 *260:3 8.18818e-05
4 *260:4 2.96801e-05
5 *260:5 0.00263562
6 *260:2 *261:2 0.00119693992
7 *260:2 *1544:CDN 0.000190595

*RES
1 *260:4 *260:5 0.980309
2 *260:3 *260:2 3.75158
3 *1372:I *260:4 0.674933
4 *260:2 *260:5 26.7912998
5 *1234:Z *260:3 0.224842
*END

*D_NET *261 0.00544505

*CONN
*I *1235:Z O *C 141.5 307.6 *L 0 *D DEL1
*I *1389:I I *C 138.5 260.8 *L 0.00373 *D CKBD12

*CAP
1 *1389:I 0.000497363
2 *261:2 0.000220392
3 *261:3 7.75231e-05
4 *261:4 0.000733544
5 *261:5 0.00163202
6 *261:3 *268:3 0.000910865
7 *1389:I *492:88 0.000176388984
8 *261:2 *260:2 0.00119693992

*RES
1 *261:4 *261:5 0.159281
2 *261:2 *261:4 5.87401
3 *1235:Z *261:2 0.44986
4 *261:3 *261:5 23.5104008
5 *1389:I *261:3 2.40643
*END

*D_NET *262 0.00418662

*CONN
*I *1236:Z O *C 142.1 66.4 *L 0 *D DEL0
*I *1353:I I *C 137.9 80.4 *L 0.00287 *D BUFFD8

*CAP
1 *1353:I 7.41199e-05
2 *1236:Z 0.000177585
3 *262:2 9.57213e-05
4 *262:3 2.35227e-05
5 *262:4 0.00381575

*RES
1 *262:2 *262:4 3.58912
2 *1353:I *262:3 0.854095
3 *262:3 *262:4 11.0120001
4 *1236:Z *262:2 0.384788
*END

*D_NET *263 0.00794576

*CONN
*I *1237:Z O *C 146.5 304.8 *L 0 *D DEL1
*I *1398:I I *C 144.9 256.8 *L 0.00287 *D BUFFD8

*CAP
1 *263:2 0.00068617
2 *263:3 0.000802686953
3 *263:4 0.000347188
4 *263:5 0.000572543
5 *263:7 0.000187863
6 *263:3 *115:6 0.00133242
7 *263:4 *1:3 0.000220795996
8 *263:2 *747:4 0.000263487988
9 *263:2 *310:3 0.00126205
10 *263:3 *760:6 0.00227056

*RES
1 *263:6 *263:7 1.63763
2 *1398:I *263:4 1.72856
3 *263:3 *263:5 10.9971
4 *263:3 *263:6 14.3596001
5 *263:4 *263:5 1.17421
6 *263:2 *263:7 4.2652
7 *1237:Z *263:2 0.225026
*END

*D_NET *264 0.00503293

*CONN
*I *1238:Z O *C 143.3 294 *L 0 *D DEL1
*I *1388:I I *C 149.1 276.4 *L 0.00287 *D BUFFD8

*CAP
1 *1388:I 0.000302716
2 *1238:Z 9.59718e-05
3 *264:2 0.000490482
4 *264:3 0.00078478
5 *264:4 0.000282445
6 *264:5 0.000370613
7 *264:6 0.00138964
8 *264:8 0.000591225
9 *264:9 0.000125891
10 *264:2 *97:6 0.000407948984
11 *264:2 *1446:ZN 0.000191211992

*RES
1 *264:9 *264:2 2.87255
2 *264:3 *264:8 3.77087
3 *1238:Z *264:3 0.384184
4 *264:7 *264:8 2.15027
5 *264:5 *264:2 2.7281
6 *264:4 *264:6 0.669394
7 *264:6 *264:7 4.54229021
8 *264:4 *264:5 1.39749
9 *1388:I *264:9 1.70156
*END

*D_NET *265 0.00479949

*CONN
*I *1239:Z O *C 143.9 293.2 *L 0 *D DEL1
*I *1400:I I *C 143.7 269.2 *L 0.00287 *D BUFFD8

*CAP
1 *1400:I 0.000473846
2 *1239:Z 0.000297688
3 *265:2 0.000963913
4 *265:3 4.62848e-06
5 *265:4 0.00114156
6 *265:5 3.07858e-05
7 *265:6 0.00139141
8 *265:7 0.000495629

*RES
1 *265:4 *265:5 0.285154
2 *1400:I *265:2 3.65124
3 *1239:Z *265:3 1.20068
4 *265:6 *265:7 0.731125
5 *265:5 *265:6 5.74658012
6 *265:3 *265:4 4.18937
7 *265:2 *265:7 3.52743
*END

*D_NET *266 0.00292071

*CONN
*I *1240:Z O *C 141.7 286.8 *L 0 *D DEL1
*I *1373:I I *C 139.5 272.4 *L 0.00373 *D CKBD12

*CAP
1 *266:2 0.000351457
2 *266:3 0.00078003
3 *266:4 0.000693749
4 *266:5 0.000508582
5 *266:6 0.000586888

*RES
1 *266:2 *266:3 3.0072701
2 *1240:Z *266:2 1.19211
3 *266:4 *266:5 0.411013
4 *266:3 *266:4 2.85199
5 *1373:I *266:6 2.19277
6 *266:5 *266:6 2.14037
*END

*D_NET *267 0.0076664

*CONN
*I *1241:Z O *C 143.7 289.6 *L 0 *D DEL1
*I *1403:I I *C 145.9 240.4 *L 0.00287 *D BUFFD8

*CAP
1 *1241:Z 0.000134578
2 *267:2 0.000114136
3 *267:3 0.000682086
4 *267:4 0.000497175
5 *267:5 0.00111176
6 *267:6 9.82237e-05
7 *267:3 *455:6 0.000287681016
8 *267:4 *316:2 0.00209799
9 *267:3 *318:2 0.00234208984
10 *267:5 *319:2 0.000300693008

*RES
1 *267:5 *267:6 1.47492
2 *267:4 *267:5 27.2665997
3 *267:3 *267:6 2.25627
4 *267:2 *267:3 2.14268
5 *1241:Z *267:4 1.03972
6 *1403:I *267:2 0.225086
*END

*D_NET *268 0.00506939

*CONN
*I *1242:Z O *C 142.1 286 *L 0 *D DEL1
*I *1402:I I *C 141.9 242.4 *L 0.00287 *D BUFFD8

*CAP
1 *268:2 0.000177197
2 *268:3 0.00058937
3 *268:4 0.000372692
4 *268:5 0.000280774
5 *268:6 0.000644607
6 *268:8 8.15572e-05
7 *268:9 0.0007029
8 *268:2 *492:88 0.000156832988
9 *268:3 *261:3 0.000910865
10 *268:4 *532:3 0.000213575996
11 *268:5 *97:9 0.000939018047

*RES
1 *1242:Z *268:5 0.701809
2 *268:3 *268:6 0.159267
3 *1402:I *268:4 0.450056
4 *268:8 *268:9 7.27787
5 *268:7 *268:9 0.159267
6 *268:2 *268:8 1.29236
7 *268:3 *268:2 8.91351986
8 *268:4 *268:7 3.98549
9 *268:5 *268:6 6.126
*END

*D_NET *269 0.00438338

*CONN
*I *1243:Z O *C 141.9 271.6 *L 0 *D DEL1
*I *1401:I I *C 145.9 251.2 *L 0.00287 *D BUFFD8

*CAP
1 *1401:I 0.000189297
2 *1243:Z 0.000286328
3 *269:2 0.000971863
4 *269:3 0.00050281
5 *269:4 0.000544234
6 *269:5 0.00117366008
7 *269:6 0.000715174

*RES
1 *269:4 *269:5 2.10225
2 *269:2 *269:3 5.76119995
3 *1401:I *269:6 3.44172
4 *269:5 *269:6 3.65182
5 *269:3 *269:4 2.38849
6 *1243:Z *269:2 1.37718
*END

*D_NET *270 0.00314073

*CONN
*I *1244:Z O *C 151.9 297.6 *L 0 *D DEL1
*I *1387:I I *C 147.7 286 *L 0.00373 *D CKBD12

*CAP
1 *1387:I 6.2635e-06
2 *270:2 0.000702348
3 *270:3 0.00026887
4 *270:4 0.00111846992
5 *270:5 0.000625565
6 *270:6 0.000338468
7 *270:7 8.07258e-05

*RES
1 *270:4 *270:5 3.63358998
2 *270:2 *270:4 2.23767
3 *270:2 *270:3 3.0384
4 *270:5 *270:6 1.58315
5 *270:3 *270:7 1.73585
6 *1244:Z *270:7 0.449985
7 *1387:I *270:6 0.551559
*END

*D_NET *271 0.00334792

*CONN
*I *1245:Z O *C 144.7 214 *L 0 *D DEL1
*I *1374:I I *C 145.9 228 *L 0.00287 *D BUFFD8

*CAP
1 *1374:I 0.000293377
2 *271:2 0.00126514992
3 *271:3 0.000408319
4 *271:4 0.00112812
5 *271:5 0.000252933

*RES
1 *1374:I *271:2 5.88988018
2 *271:4 *271:5 1.47858
3 *271:3 *271:4 3.08137
4 *271:2 *271:3 1.77399
5 *1245:Z *271:5 0.225041
*END

*D_NET *272 0.00370933

*CONN
*I *1246:Z O *C 144.9 221.2 *L 0 *D DEL1
*I *1404:I I *C 149.1 236.8 *L 0.00287 *D BUFFD8

*CAP
1 *1404:I 0.000344552
2 *272:3 0.000452503
3 *272:4 0.00214641
4 *272:5 9.18697e-05
5 *272:6 0.000673973

*RES
1 *272:5 *272:6 2.81184
2 *272:4 *272:5 0.159258
3 *272:2 *272:4 8.43062019
4 *272:2 *272:3 1.89939
5 *1246:Z *272:6 0.449986
6 *1404:I *272:3 1.33504
*END

*D_NET *273 0.00384836

*CONN
*I *1247:Z O *C 148.7 222 *L 0 *D DEL1
*I *1396:I I *C 144.5 236.4 *L 0.00373 *D CKBD12

*CAP
1 *1396:I 0.000438402
2 *1247:Z 0.000332571
3 *273:2 9.89751e-05
4 *273:3 0.000456891
5 *273:4 0.000392066
6 *273:5 0.00212946016

*RES
1 *273:3 *273:5 5.80627012
2 *1396:I *273:4 2.73055
3 *273:3 *273:4 1.90394
4 *273:2 *273:5 2.38697
5 *1247:Z *273:2 1.12792
*END

*D_NET *274 0.00274956

*CONN
*I *1248:Z O *C 151.9 294 *L 0 *D DEL1
*I *1399:I I *C 147.7 283.2 *L 0.00373 *D CKBD12

*CAP
1 *1399:I 5.27243e-06
2 *274:2 0.000241357
3 *274:3 0.000596768008
4 *274:4 0.000595393
5 *274:5 0.000423024
6 *274:6 0.000413016
7 *274:7 0.000474728

*RES
1 *274:4 *274:5 1.70851
2 *274:3 *274:6 1.18095
3 *274:3 *274:5 2.47756
4 *274:2 *274:7 2.49128
5 *1248:Z *274:2 0.854624
6 *1399:I *274:6 0.535288
7 *274:4 *274:7 2.56063008
*END

*D_NET *275 0.00200998

*CONN
*I *1249:Z O *C 144.9 224.8 *L 0 *D DEL1
*I *1390:I I *C 149.1 218.8 *L 0.00287 *D BUFFD8

*CAP
1 *1390:I 0.000277653
2 *1249:Z 9.157e-05
3 *275:2 0.000842132969
4 *275:3 0.00079861

*RES
1 *275:2 *275:3 3.38308
2 *1390:I *275:2 4.18762016
3 *1249:Z *275:3 0.44997
*END

*D_NET *276 0.00204794

*CONN
*I *1250:Z O *C 151.9 301.2 *L 0 *D DEL1
*I *1395:I I *C 149.1 290.8 *L 0.00287 *D BUFFD8

*CAP
1 *1395:I 0.000963325
2 *1250:Z 8.49037e-05
3 *276:2 0.000705453
4 *276:4 0.000282155
5 *276:5 1.20976e-05

*RES
1 *276:2 *276:4 2.03113
2 *1395:I *276:3 3.7365799
3 *276:3 *276:4 1.38885
4 *276:2 *276:5 1.98768
5 *1250:Z *276:5 0.450025
*END

*D_NET *277 0.00216997

*CONN
*I *1251:Z O *C 148.7 211.2 *L 0 *D DEL1
*I *1375:I I *C 145.9 202.8 *L 0.00287 *D BUFFD8

*CAP
1 *1375:I 0.000520486
2 *277:2 0.000976972969
3 *277:3 0.000252715
4 *277:4 0.000419799

*RES
1 *277:2 *277:4 3.91714001
2 *1375:I *277:2 2.4518
3 *277:3 *277:4 1.86174
4 *1251:Z *277:3 0.224977
*END

*D_NET *278 0.00217049

*CONN
*I *1252:Z O *C 144.7 232.8 *L 0 *D DEL1
*I *1391:I I *C 149.1 226 *L 0.00287 *D BUFFD8

*CAP
1 *1391:I 0.000105459
2 *1252:Z 0.000316919
3 *278:2 0.00127185
4 *278:3 0.000476291

*RES
1 *278:2 *278:3 4.96856022
2 *1391:I *278:2 0.866481
3 *1252:Z *278:3 3.22703
*END

*D_NET *279 0.00327308

*CONN
*I *1253:Z O *C 144.9 229.2 *L 0 *D DEL1
*I *1405:I I *C 149.1 217.2 *L 0.00287 *D BUFFD8

*CAP
1 *1405:I 4.50646e-06
2 *1253:Z 9.48159e-05
3 *279:2 7.77241e-05
4 *279:3 0.00107393
5 *279:4 0.000889313
6 *279:5 0.000586626
7 *279:6 0.000546183

*RES
1 *279:3 *279:5 3.447
2 *279:2 *279:4 3.64194989
3 *1405:I *279:3 0.998346
4 *279:2 *279:6 2.55997
5 *279:4 *279:5 2.10917
6 *1253:Z *279:6 0.45002
*END

*D_NET *280 0.00204482

*CONN
*I *1254:Z O *C 145.5 207.6 *L 0 *D DEL1
*I *1392:I I *C 149.1 199.2 *L 0.00287 *D BUFFD8

*CAP
1 *1392:I 0.000202394
2 *280:2 0.000612618
3 *280:3 3.31001e-05
4 *280:4 0.000757937031
5 *280:5 0.000438779

*RES
1 *280:3 *280:5 1.45558
2 *280:2 *280:4 2.57444
3 *1392:I *280:2 1.40561
4 *280:3 *280:4 3.11334991
5 *1254:Z *280:5 0.449976
*END

*D_NET *281 0.00410298

*CONN
*I *1255:Z O *C 143.9 236.4 *L 0 *D DEL1
*I *1368:I I *C 145.9 218.8 *L 0.00287 *D BUFFD8

*CAP
1 *1255:Z 0.000270003
2 *281:2 0.0013592
3 *281:4 0.00173409
4 *281:5 0.000739704

*RES
1 *281:4 *281:5 6.11736012
2 *281:2 *281:5 2.7836
3 *1255:Z *281:3 1.46792
4 *281:2 *281:3 5.13259
5 *1368:I *281:4 0.224958
*END

*D_NET *282 0.00120994

*CONN
*I *1256:Z O *C 148.7 214.8 *L 0 *D DEL1
*I *1393:I I *C 149.1 208 *L 0.00287 *D BUFFD8

*CAP
1 *1393:I 0.000227415
2 *1256:Z 0.000368872
3 *282:2 0.000613648008

*RES
1 *1256:Z *282:2 3.96640992
2 *1393:I *282:2 1.24894
*END

*D_NET *283 0.00250041

*CONN
*I *1257:Z O *C 148.7 206.8 *L 0 *D DEL1
*I *1376:I I *C 149.1 193.6 *L 0.00287 *D BUFFD8

*CAP
1 *1376:I 0.00110319992
2 *1257:Z 0.000707422
3 *283:2 0.000684444
4 *283:3 5.3363e-06

*RES
1 *1257:Z *283:2 3.27472
2 *283:2 *283:3 2.41993
3 *1376:I *283:3 4.09080982
*END

*D_NET *284 0.00289404

*CONN
*I *1258:Z O *C 144.9 200.4 *L 0 *D DEL1
*I *1383:I I *C 149.1 190 *L 0.00287 *D BUFFD8

*CAP
1 *1383:I 0.000339047
2 *1258:Z 0.00037453
3 *284:2 0.00143806
4 *284:3 6.80245e-06
5 *284:4 0.000589641
6 *284:5 0.000145945

*RES
1 *284:3 *284:4 2.61101
2 *284:2 *284:5 6.05632019
3 *1383:I *284:5 1.42268
4 *1258:Z *284:3 1.33656
5 *284:2 *284:4 0.159226
*END

*D_NET *285 0.00323257

*CONN
*I *1259:Z O *C 142.5 196.8 *L 0 *D DEL1
*I *1369:I I *C 149.1 184.8 *L 0.00287 *D BUFFD8

*CAP
1 *1369:I 0.000634097
2 *1259:Z 0.000621106
3 *285:2 0.000124763
4 *285:3 0.000485999
5 *285:4 0.0013666

*RES
1 *285:3 *285:4 1.98205
2 *285:2 *285:4 4.37986
3 *1369:I *285:2 2.17844
4 *1259:Z *285:3 4.95388985
*END

*D_NET *286 0.00590728

*CONN
*I *1260:Z O *C 140.7 193.2 *L 0 *D DEL1
*I *1384:I I *C 149.1 170.4 *L 0.00287 *D BUFFD8

*CAP
1 *1384:I 0.000225281
2 *286:2 0.000532967
3 *286:3 0.000574577969
4 *286:4 0.000420007
5 *286:5 0.000294202
6 *286:6 0.000565688
7 *286:7 8.8692e-05
8 *286:8 0.000349499
9 *286:9 0.000214041
10 *286:10 0.000487701
11 *286:11 0.000133091
12 *286:12 0.000303803
13 *286:2 *489:39 0.000679777969
14 *286:3 *77:4 0.000283214004
15 *286:2 *88:2 0.000193055
16 *286:3 *1095:Z 0.000183087012
17 *286:2 *556:3 0.000378603984

*RES
1 *286:6 *286:12 2.77798
2 *1384:I *286:9 1.72845
3 *286:9 *286:10 1.96477
4 *286:2 *286:5 2.77283
5 *286:4 *286:7 2.7856
6 *286:3 *286:8 2.4942
7 *1260:Z *286:11 0.450001
8 *286:11 *286:12 2.58601
9 *286:3 *286:5 1.3784
10 *286:7 *286:8 2.40094
11 *286:2 *286:10 2.88563991
12 *286:4 *286:6 0.91801
*END

*D_NET *287 0.00415977

*CONN
*I *1261:Z O *C 145.1 196 *L 0 *D DEL1
*I *1377:I I *C 149.1 177.6 *L 0.00287 *D BUFFD8

*CAP
1 *1377:I 0.000278813
2 *287:2 4.80484e-05
3 *287:3 0.000709713
4 *287:4 0.000167989
5 *287:5 0.000906171
6 *287:6 0.00124214992
7 *287:7 0.000806909

*RES
1 *287:5 *287:6 4.34197998
2 *287:3 *287:4 0.159207
3 *1261:Z *287:7 2.72248
4 *287:4 *287:5 2.58209
5 *287:3 *287:7 3.19043
6 *287:2 *287:6 3.1208
7 *1377:I *287:2 0.98055
*END

*D_NET *288 0.00412858

*CONN
*I *1262:Z O *C 144.7 192.4 *L 0 *D DEL1
*I *1385:I I *C 149.1 181.2 *L 0.00287 *D BUFFD8

*CAP
1 *1385:I 3.25923e-05
2 *1262:Z 0.000184342
3 *288:2 0.00108368
4 *288:4 0.000925646
5 *288:5 8.82686e-05
6 *288:6 0.000996503
7 *288:7 0.000817568

*RES
1 *288:2 *288:3 3.72014
2 *1385:I *288:7 0.449995
3 *288:5 *288:7 2.89884
4 *288:4 *288:6 3.9009099
5 *288:3 *288:4 3.22794
6 *1262:Z *288:6 0.449995
7 *288:2 *288:5 0.402496
*END

*D_NET *289 0.00464425

*CONN
*I *1263:Z O *C 141.9 188.8 *L 0 *D DEL1
*I *1361:I I *C 149.1 172 *L 0.00287 *D BUFFD8

*CAP
1 *1361:I 0.000129565
2 *289:2 0.000110494
3 *289:3 0.00126467
4 *289:4 0.000568218
5 *289:5 0.000327406
6 *289:7 0.00224394016

*RES
1 *289:4 *289:5 1.5111
2 *289:2 *289:3 4.74714
3 *1361:I *289:4 2.43786
4 *289:6 *289:7 3.49892
5 *289:3 *289:5 0.159182
6 *289:2 *289:7 5.95103979
7 *1263:Z *289:6 0.225016
*END

*D_NET *290 0.00632512

*CONN
*I *1264:Z O *C 150.1 188.8 *L 0 *D DEL1
*I *1342:I I *C 145.3 128.8 *L 0.00287 *D BUFFD8

*CAP
1 *290:2 0.000667752
2 *290:3 0.000614906
3 *290:4 5.48473e-05
4 *290:5 0.000186365
5 *290:6 0.00252239984
6 *290:2 *91:12 0.000210550996
7 *290:6 *467:13 0.000569281992
8 *290:2 *236:6 0.000224545
9 *290:2 *341:5 0.000998271016
10 *290:2 *481:6 0.000276201016

*RES
1 *290:2 *290:6 37.2668991
2 *290:5 *290:2 1.73608
3 *290:3 *290:6 2.72325
4 *1264:Z *290:4 0.4498
5 *1342:I *290:3 0.225185
6 *290:4 *290:5 0.225185
*END

*D_NET *291 0.0112015

*CONN
*I *1265:Z O *C 147.9 182.4 *L 0 *D DEL1
*I *1346:I I *C 143.3 121.6 *L 0.00287 *D BUFFD8

*CAP
1 *1346:I 2.17047e-05
2 *291:2 0.000598969
3 *291:3 0.000413052
4 *291:4 0.000499463
5 *291:5 0.00333901
6 *291:6 6.7305e-05
7 *291:7 0.000254292
8 *291:8 0.000238293
9 *291:9 0.000124828
10 *291:11 0.000405053
11 *291:6 *455:10 0.000993359063
12 *291:4 *320:2 0.000580548008
13 *291:3 *368:4 0.000535658008
14 *291:2 *785:3 0.00122024
15 *1346:I *890:5 0.00148723
16 *1346:I *969:4 0.000422517969

*RES
1 *291:10 *291:11 2.74427
2 *291:7 *291:8 0.159167
3 *291:6 *291:11 1.32083
4 *291:6 *291:7 3.62277
5 *291:4 *291:9 5.82355
6 *1346:I *291:2 0.474963
7 *291:3 *291:4 4.05821
8 *291:2 *291:5 3.47702
9 *1265:Z *291:3 1.48435
10 *291:9 *291:10 0.159167
11 *291:5 *291:8 23.7612
*END

*D_NET *292 0.00893462

*CONN
*I *1266:Z O *C 145.1 178.8 *L 0 *D DEL1
*I *1345:I I *C 146.3 112.8 *L 0.00287 *D BUFFD8

*CAP
1 *1345:I 0.000277215
2 *292:2 0.000134096
3 *292:3 0.000517197
4 *292:4 0.000845106
5 *292:5 5.48852e-05
6 *292:6 0.000153194
7 *292:7 0.000145382
8 *292:8 0.000407894
9 *292:9 8.63066e-05
10 *292:11 0.000374049
11 *292:12 0.000956877031
12 *292:13 1.52289e-05
13 *292:14 0.000214314
14 *292:15 1.05857e-05
15 *292:4 *36:10 0.00186948
16 *292:5 *83:10 0.000814593047
17 *292:5 *91:12 0.000746895
18 *292:2 *338:2 0.000267553008
19 *292:3 *114:3 0.000348046992
20 *292:2 *356:4 0.000298559004
21 *1345:I *471:23 0.00039714

*RES
1 *292:9 *292:12 10.8032999
2 *292:6 *292:10 4.35356
3 *292:12 *292:15 0.159241
4 *292:8 *292:9 0.159241
5 *292:14 *292:15 3.12481
6 *292:13 *292:14 0.159241
7 *292:2 *292:4 3.711
8 *292:3 *292:5 2.37493
9 *292:2 *292:7 1.8039
10 *292:5 *292:8 9.66142
11 *1345:I *292:4 3.36021
12 *292:11 *292:13 5.26582
13 *292:6 *292:7 2.7389
14 *292:10 *292:11 0.159241
15 *1266:Z *292:3 0.225014
*END

*D_NET *293 0.0103835

*CONN
*I *1267:Z O *C 142.3 174.4 *L 0 *D DEL1
*I *1351:I I *C 145.9 123.6 *L 0.00287 *D BUFFD8

*CAP
1 *1351:I 0.000135395
2 *1267:Z 0.000248102
3 *293:2 0.00178498
4 *293:3 0.000229663
5 *293:4 0.000269238
6 *293:5 0.000224324
7 *293:7 0.000795404
8 *293:8 0.000697595
9 *293:9 0.000832528
10 *293:10 0.000348444
11 *293:11 7.88785e-05
12 *293:2 *107:6 0.00156333
13 *1267:Z *232:2 0.000733858984
14 *293:2 *295:3 0.000856677031
15 *293:2 *1270:Z 0.0011538
16 *293:9 *362:7 0.000431286016

*RES
1 *293:5 *293:7 5.40697
2 *293:6 *293:8 3.00206
3 *293:3 *293:4 2.14259
4 *293:2 *293:3 2.00424
5 *293:4 *293:5 2.14334
6 *293:2 *293:10 12.2528
7 *293:8 *293:9 2.82164
8 *293:6 *293:7 0.159292
9 *1351:I *293:11 1.14758
10 *293:9 *293:11 3.13537
11 *1267:Z *293:10 6.66598
*END

*D_NET *294 0.00905458

*CONN
*I *1268:Z O *C 146.3 175.2 *L 0 *D DEL1
*I *1359:I I *C 149.1 123.6 *L 0.00287 *D BUFFD8

*CAP
1 *1359:I 0.000157022
2 *1268:Z 0.000231542
3 *294:2 0.00136605
4 *294:3 0.000754261
5 *294:4 7.21014e-05
6 *294:5 0.00120438
7 *294:6 0.000409325
8 *294:5 *91:13 0.00294705
9 *294:2 *467:18 0.00105089
10 *294:2 *104:6 0.00086195

*RES
1 *294:4 *294:5 1.10644
2 *294:6 *294:2 22.7024994
3 *294:3 *294:4 2.33621
4 *1359:I *294:3 0.835201
5 *294:5 *294:2 7.42016
6 *1268:Z *294:6 2.34625
*END

*D_NET *295 0.00695817

*CONN
*I *1269:Z O *C 142.1 168 *L 0 *D DEL1
*I *1349:I I *C 145.9 134.4 *L 0.00287 *D BUFFD8

*CAP
1 *1349:I 0.000346457
2 *1269:Z 5.05119e-05
3 *295:2 0.000921751
4 *295:3 0.00108109
5 *295:4 7.0621e-05
6 *295:5 0.000174994
7 *295:6 0.000291227
8 *295:7 0.000284876
9 *295:8 0.000531183
10 *295:9 0.000233292
11 *295:4 *1081:Z 0.000977875
12 *295:2 *1512:CDN 0.00113760992
13 *295:3 *293:2 0.000856677031

*RES
1 *295:9 *295:2 2.81368
2 *295:7 *295:8 3.81097
3 *295:3 *295:6 1.87185
4 *295:4 *295:2 2.81176
5 *1349:I *295:4 0.887862
6 *295:6 *295:7 2.03629
7 *295:3 *295:5 9.69136047
8 *1269:Z *295:5 1.15567
9 *295:8 *295:9 1.73949
*END

*D_NET *296 0.00781066

*CONN
*I *1270:Z O *C 142.1 167.2 *L 0 *D DEL1
*I *1360:I I *C 149.1 134.4 *L 0.00287 *D BUFFD8

*CAP
1 *1360:I 0.00026422
2 *1270:Z 0.000268322
3 *296:2 4.3838e-05
4 *296:4 0.000218891
5 *296:5 8.53242e-09
6 *296:6 0.00316073
7 *296:6 *91:14 0.000507484961
8 *296:6 *107:7 0.00116583
9 *1360:I *362:8 0.000267311992
10 *296:4 *969:5 0.000460146992
11 *1360:I *488:98 0.000300074004
12 *1270:Z *293:2 0.0011538

*RES
1 *296:5 *296:6 15.9598999
2 *1270:Z *296:3 1.2286
3 *296:3 *296:4 4.12538
4 *296:2 *296:6 5.52713
5 *1360:I *296:2 2.69927
6 *296:4 *296:5 0.159268
*END

*D_NET *297 0.00608736

*CONN
*I *1271:Z O *C 150.3 168 *L 0 *D DEL1
*I *1347:I I *C 145.5 145.2 *L 0.00287 *D BUFFD8

*CAP
1 *1347:I 0.000355234
2 *1271:Z 6.39815e-05
3 *297:2 0.00146712
4 *297:4 0.000415052
5 *297:5 0.000299939
6 *297:6 0.00018008
7 *297:7 1.79095e-06
8 *297:8 0.00105594
9 *297:9 5.78923e-05
10 *297:2 *335:6 0.000284845
11 *297:2 *1311:Z 0.00111662992
12 *297:5 *1695:A1 0.000788853984

*RES
1 *297:3 *297:5 3.21053
2 *1347:I *297:6 3.5246
3 *297:7 *297:8 7.05372
4 *297:5 *297:7 0.159187
5 *297:3 *297:4 2.52697
6 *297:2 *297:9 4.73104
7 *297:6 *297:8 0.159187
8 *297:2 *297:4 1.77796
9 *1271:Z *297:9 0.450006
*END

*D_NET *298 0.000799058

*CONN
*I *1272:Z O *C 145.5 48.4 *L 0 *D DEL0
*I *1474:D I *C 141.9 48 *L 0.000971 *D DFCNQD1

*CAP
1 *1474:D 0.000653865977
2 *298:2 0.00014519

*RES
1 *1272:Z *298:2 0.449997
2 *1474:D *298:2 2.84223008
*END

*D_NET *299 0.00183815

*CONN
*I *1273:Z O *C 139.9 23.2 *L 0 *D DEL0
*I *1471:D I *C 139.1 33.6 *L 0.000971 *D DFCNQD1

*CAP
1 *1471:D 0.000248855
2 *1273:Z 0.000691987
3 *299:3 0.000897313984

*RES
1 *299:2 *299:3 2.3004
2 *1471:D *299:3 2.448
3 *1273:Z *299:2 2.93831992
*END

*D_NET *300 0.00290812

*CONN
*I *1274:Z O *C 145.9 27.6 *L 0 *D DEL0
*I *1472:D I *C 139.1 37.2 *L 0.000971 *D DFCNQD1

*CAP
1 *1472:D 2.31278e-06
2 *1274:Z 0.000447478
3 *300:2 0.000523014
4 *300:3 0.00097159
5 *300:4 0.000374626
6 *300:5 0.000589107

*RES
1 *300:2 *300:4 1.51293
2 *1274:Z *300:5 1.72711
3 *300:3 *300:4 2.47656
4 *1472:D *300:2 2.6414
5 *300:3 *300:5 3.88053989
*END

*D_NET *301 0.0316671

*CONN
*I *1275:Z O *C 149.3 13.2 *L 0 *D DEL0
*I *1553:A1 I *C 143.7 6.4 *L 0.000721 *D MOAI22D0
*I *1554:A1 I *C 150.3 12 *L 0.000721 *D MOAI22D0
*I *1554:B1 I *C 149.3 12 *L 0.000689 *D MOAI22D0
*I *1591:A1 I *C 145.3 12 *L 0.000647 *D NR2D0
*I *1582:A1 I *C 139.7 49.6 *L 0.000647 *D NR2D0
*I *1463:I I *C 139.5 139.6 *L 0.000968 *D CKBD1
*I *1613:A1 I *C 137.9 134.4 *L 0.000647 *D NR2D0
*I *1614:A1 I *C 139.5 134.4 *L 0.000647 *D NR2D0
*I *1616:A1 I *C 139.5 130.8 *L 0.000647 *D NR2D0
*I *1617:A1 I *C 139.5 123.6 *L 0.000647 *D NR2D0
*I *1619:A1 I *C 139.5 121.6 *L 0.000647 *D NR2D0
*I *1620:A1 I *C 139.5 118 *L 0.000647 *D NR2D0
*I *1559:A1 I *C 139.5 110.8 *L 0.000647 *D NR2D0
*I *1558:A1 I *C 139.3 109.2 *L 0.000647 *D NR2D0
*I *1561:A1 I *C 139.3 105.6 *L 0.000647 *D NR2D0
*I *1562:A1 I *C 139.1 103.6 *L 0.000647 *D NR2D0
*I *1564:A1 I *C 139.1 94.8 *L 0.000647 *D NR2D0
*I *1565:A1 I *C 139.1 91.2 *L 0.000647 *D NR2D0
*I *1568:A1 I *C 139.1 87.6 *L 0.000647 *D NR2D0
*I *1567:A1 I *C 139.5 84 *L 0.000647 *D NR2D0
*I *1570:A1 I *C 139.5 82 *L 0.000647 *D NR2D0
*I *1571:A1 I *C 139.5 78.4 *L 0.000647 *D NR2D0
*I *1557:A1 I *C 139.5 74.8 *L 0.000647 *D NR2D0
*I *1574:A1 I *C 139.1 71.2 *L 0.000647 *D NR2D0
*I *1576:A1 I *C 139.1 66 *L 0.000647 *D NR2D0
*I *1580:A1 I *C 139.3 56.8 *L 0.000647 *D NR2D0
*I *1577:A1 I *C 139.3 55.2 *L 0.000647 *D NR2D0
*I *1579:A1 I *C 139.3 53.2 *L 0.000647 *D NR2D0
*I *1583:A1 I *C 139.1 42.4 *L 0.000647 *D NR2D0
*I *1585:A1 I *C 139.1 35.2 *L 0.000647 *D NR2D0
*I *1586:A1 I *C 140.1 31.6 *L 0.000647 *D NR2D0
*I *1588:A1 I *C 140.3 22.8 *L 0.000647 *D NR2D0
*I *1605:A1 I *C 140.3 19.2 *L 0.000647 *D NR2D0
*I *1592:A1 I *C 144.5 8.4 *L 0.000647 *D NR2D0
*I *1553:B1 I *C 144.7 6.4 *L 0.000689 *D MOAI22D0

*CAP
1 *1579:A1 7.81176e-05
2 *1562:A1 8.2425e-05
3 *1463:I 0.000505892
4 *1554:A1 0.000340458
5 *1553:A1 0.000291605
6 *1275:Z 9.13429e-06
7 *301:36 0.00133213
8 *301:37 0.000454939
9 *301:38 0.000170067
10 *301:39 0.000172772
11 *301:40 0.000805462
12 *301:41 0.000269505
13 *301:42 0.00110951
14 *301:43 0.000673448
15 *301:44 0.000605785
16 *301:45 0.000334008
17 *301:46 0.000130845
18 *301:47 0.000469009
19 *301:48 0.000233898
20 *301:49 0.000281669
21 *301:50 0.000400329
22 *301:51 0.000382103
23 *301:52 0.000312016
24 *301:53 0.000989338
25 *301:54 0.000511975
26 *301:55 0.000435957
27 *301:56 0.000669574
28 *301:57 0.00018327
29 *301:58 0.000856783
30 *301:59 0.000450957
31 *301:60 0.0009712
32 *301:61 0.000231041
33 *301:62 0.000554984
34 *301:63 0.000758709
35 *301:64 0.000514875
36 *301:65 0.00141852
37 *301:66 0.000320349
38 *301:67 0.000176863
39 *301:68 0.000685959
40 *301:69 0.000575655
41 *301:70 0.000711392
42 *301:71 0.00065598
43 *301:72 0.000765224
44 *301:73 0.000865311
45 *301:74 0.000482992
46 *301:75 0.000111733
47 *301:76 0.000356951
48 *301:77 0.000605937
49 *301:78 0.000609335
50 *301:79 0.000585871
51 *301:80 0.000627495
52 *301:81 0.000435047
53 *301:82 0.000456498
54 *301:83 0.000776588
55 *301:84 0.000427688
56 *301:85 0.000674162
57 *301:86 0.000875766
58 *301:87 0.000316713
59 *301:88 0.000102966
60 *301:89 0.000864943
61 *301:50 *438:2 0.00026442998
62 *301:36 *248:3 0.00034291

*RES
1 *301:58 *301:83 3.07954
2 *301:66 *301:81 1.22102
3 *301:59 *301:61 0.159234
4 *301:51 *301:68 2.65172
5 *301:50 *301:84 0.943074
6 *301:49 *301:66 1.65923
7 *301:56 *301:57 2.57251
8 *301:64 *301:88 2.20073
9 *301:55 *301:62 2.2545
10 *301:49 *301:82 1.69735
11 *301:86 *301:88 1.33402
12 *301:58 *301:67 0.319266
13 *301:52 *301:70 1.17993
14 *301:41 *301:43 1.3798
15 *301:36 *301:84 1.50718
16 *301:62 *301:86 1.99424
17 *301:46 *301:71 2.35985
18 *301:69 *301:70 2.69658
19 *301:69 *301:74 1.58948
20 *301:60 *301:61 4.19486
21 *301:55 *301:68 1.68057
22 *301:40 *301:42 1.024
23 *1579:A1 *301:50 0.718549
24 *301:52 *301:53 2.43941
25 *301:47 *301:53 1.94254
26 *301:43 *301:64 2.72489
27 *301:38 *301:87 2.60059
28 *301:42 *301:79 4.30696
29 *301:46 *301:47 1.99949
30 *1562:A1 *301:59 0.384786
31 *1591:A1 *301:39 0.929605
32 *301:41 *301:78 2.50904
33 *301:73 *301:89 3.39504
34 *301:54 *301:72 2.07221
35 *1463:I *301:45 2.13487
36 *301:76 *301:77 1.35229
37 *301:44 *301:80 2.3489
38 *301:45 *301:69 2.82169
39 *301:65 *301:71 4.56527
40 *301:59 *301:63 1.66105
41 *301:37 *301:75 0.151358
42 *301:82 *301:83 3.05261
43 *301:78 *301:79 2.40414
44 *301:67 *301:73 3.49321
45 *301:57 *301:60 0.912369
46 *301:54 *301:81 1.51346
47 *1619:A1 *301:46 0.636934
48 *1553:A1 *301:76 1.83707
49 *301:44 *301:51 1.35526
50 *301:50 *301:80 3.16401
51 *301:40 *301:87 3.24677
52 *1275:Z *301:37 1.15984
53 *301:72 *301:85 2.69499
54 *301:56 *301:85 2.63917
55 *301:48 *301:63 3.13981
56 *301:48 *301:65 1.60215
57 *1554:A1 *301:37 2.36899
58 *301:39 *301:77 2.52183
59 *301:36 *301:89 7.48066998
60 *301:38 *301:75 0.56274
61 *1585:A1 *301:86 0.224982
62 *1565:A1 *301:85 0.224982
63 *1564:A1 *301:56 0.224982
64 *1577:A1 *301:84 0.224982
65 *1558:A1 *301:48 0.224982
66 *1557:A1 *301:83 0.224982
67 *1571:A1 *301:82 0.224982
68 *1567:A1 *301:81 0.224982
69 *1617:A1 *301:47 0.224982
70 *1582:A1 *301:80 0.224982
71 *1605:A1 *301:79 0.224982
72 *1588:A1 *301:78 0.224982
73 *1592:A1 *301:77 0.224982
74 *1553:B1 *301:76 0.224982
75 *1554:B1 *301:75 0.224982
76 *1613:A1 *301:74 0.224982
77 *1576:A1 *301:73 0.224982
78 *1568:A1 *301:72 0.224982
79 *1620:A1 *301:71 0.224982
80 *1616:A1 *301:70 0.224982
81 *1614:A1 *301:69 0.224982
82 *1583:A1 *301:68 0.449963
83 *1574:A1 *301:67 0.449963
84 *1580:A1 *301:36 0.449963
85 *1570:A1 *301:66 0.449963
86 *1559:A1 *301:65 0.449963
87 *1586:A1 *301:64 0.449963
88 *1561:A1 *301:63 0.449963
89 *301:39 *301:87 0.224982
*END

*D_NET *302 0.00317582

*CONN
*I *1276:Z O *C 142.5 225.6 *L 0 *D DEL0
*I *1367:I I *C 145.9 208 *L 0.00287 *D BUFFD8

*CAP
1 *302:2 0.000761098
2 *302:3 0.000577528
3 *302:4 3.52541e-05
4 *302:5 0.00169011
5 *302:6 0.000111823

*RES
1 *302:3 *302:5 0.15918
2 *1367:I *302:6 0.450047
3 *1276:Z *302:2 3.17384
4 *302:2 *302:4 0.285078
5 *302:4 *302:5 7.90306997
6 *302:3 *302:6 2.72645
*END

*D_NET *303 0.00414941

*CONN
*I *1277:Z O *C 139.9 70 *L 0 *D DEL0
*I *1348:I I *C 137.7 89.2 *L 0.00287 *D BUFFD8

*CAP
1 *1348:I 0.000169527
2 *303:2 2.9366e-05
3 *303:3 0.00383367
4 *303:4 0.000116879

*RES
1 *303:2 *303:3 13.4066
2 *1348:I *303:2 1.24889
3 *303:3 *303:4 2.70399
4 *1277:Z *303:4 0.450051
*END

*D_NET *304 0.00485802

*CONN
*I *1278:Z O *C 142.3 70.8 *L 0 *D DEL0
*I *1364:I I *C 146.3 92.8 *L 0.00287 *D BUFFD8

*CAP
1 *1278:Z 0.000102666
2 *304:2 0.000267499
3 *304:3 0.000603041
4 *304:4 0.000946763
5 *304:5 2.87041e-06
6 *304:6 0.000891203
7 *304:7 0.00128844
8 *304:8 0.000755547

*RES
1 *304:4 *304:8 1.50105
2 *304:4 *304:6 3.4937
3 *304:2 *304:8 3.06773
4 *1364:I *304:2 0.476837
5 *304:3 *304:6 2.54706
6 *304:3 *304:5 2.05431
7 *1278:Z *304:7 0.384193
8 *304:5 *304:7 5.01363993
*END

*D_NET *305 0.0214666

*CONN
*I *1279:Z O *C 142.5 52.8 *L 0 *D DEL0
*I *1776:I I *C 144.3 153.8 *L 0.00062 *D CKND0
*I *1770:A2 I *C 144.5 123.6 *L 0.000677 *D ND2D0
*I *1768:A2 I *C 145.3 102 *L 0.000606 *D CKND2D0

*CAP
1 *1770:A2 0.000472346
2 *305:4 0.00131963
3 *305:5 0.000375501
4 *305:6 5.76746e-05
5 *305:7 0.00218102
6 *305:8 0.00154919
7 *305:9 0.0010632
8 *305:10 0.000215123
9 *305:11 5.55114e-05
10 *305:12 0.000523798
11 *305:13 0.00161765
12 *305:14 0.000383322
13 *305:15 0.000316828
14 *305:16 0.000126598
15 *305:17 5.56445e-05
16 *305:17 *1729:DB 0.000523165
17 *305:4 *1721:DB 0.00019526
18 *305:5 *40:2 0.000246868008
19 *305:6 *132:4 0.000663586953
20 *305:7 *1330:Z 0.00096372
21 *305:8 *434:3 0.00185226
22 *1770:A2 *338:2 0.00158376
23 *305:7 *347:3 0.00168896
24 *305:8 *104:4 0.003436

*RES
1 *305:9 *305:8 3.51566
2 *305:12 *305:13 8.25671
3 *1768:A2 *305:5 1.11547
4 *305:6 *305:7 0.515801
5 *305:10 *305:17 1.58305
6 *305:6 *305:4 15.9803
7 *305:11 *305:4 0.967502
8 *305:13 *305:14 3.85623
9 *305:8 *305:16 10.5847
10 *305:15 *305:16 1.46413
11 *305:7 *305:17 19.6303997
12 *305:11 *305:12 6.63952
13 *305:14 *305:15 4.06381
14 *305:5 *305:4 1.50367
15 *1770:A2 *305:7 2.11143
16 *1776:I *305:10 0.224952
17 *1279:Z *305:9 0.224952
*END

*D_NET *306 0.00164043

*CONN
*I *1200:I I *C 149.5 166.8 *L 0.00104 *D DEL0
*I *1280:Z O *C 151.9 160 *L 0 *D DEL1

*CAP
1 *1200:I 5.65534e-06
2 *1280:Z 8.77275e-05
3 *306:2 0.00045174
4 *306:3 0.000392054
5 *306:4 0.000703268984

*RES
1 *306:3 *306:4 1.58209
2 *306:2 *306:3 1.77678
3 *1200:I *306:2 2.19949007
4 *1280:Z *306:4 1.75326
*END

*D_NET *307 0.00180964

*CONN
*I *1201:I I *C 137.9 150.4 *L 0.00104 *D DEL0
*I *1281:Z O *C 144.9 146.4 *L 0 *D DEL1

*CAP
1 *307:2 0.00014307
2 *307:4 0.00166657

*RES
1 *307:3 *307:4 2.32411
2 *307:2 *307:4 4.68453979
3 *1201:I *307:3 0.449969
4 *1281:Z *307:2 0.449969
*END

*D_NET *308 0.00199336

*CONN
*I *1204:I I *C 137.5 146.8 *L 0.00104 *D DEL0
*I *1282:Z O *C 143.9 142.8 *L 0 *D DEL1

*CAP
1 *1204:I 8.19127e-05
2 *1282:Z 0.00018068
3 *308:2 0.00162918
4 *308:3 0.000101602

*RES
1 *308:2 *308:3 4.63170004
2 *1204:I *308:2 2.60116
3 *1282:Z *308:3 0.940107
*END

*D_NET *309 0.00127651

*CONN
*I *1203:I I *C 146.3 141.6 *L 0.00104 *D DEL0
*I *1283:Z O *C 148.3 138.4 *L 0 *D DEL1

*CAP
1 *1283:Z 0.000310426
2 *309:3 0.000966083984

*RES
1 *1283:Z *309:3 2.17945
2 *309:2 *309:3 2.60610008
3 *1203:I *309:2 0.449991
*END

*D_NET *310 0.00787125

*CONN
*I *1284:Z O *C 151.1 311.2 *L 0 *D DEL2
*I *1757:DA I *C 145.9 254.8 *L 0.000721 *D DFXQD1

*CAP
1 *1757:DA 0.000244117
2 *310:2 2.4e-08
3 *310:3 0.00035709
4 *310:5 0.00281079
5 *310:6 0.000474
6 *310:8 0.000235875
7 *310:9 0.000531741
8 *310:5 *115:6 0.00141608
9 *310:5 *1446:I 0.000539486992
10 *310:3 *263:2 0.00126205

*RES
1 *310:7 *310:9 3.53287
2 *310:4 *310:6 6.26537
3 *310:7 *310:8 0.159049
4 *310:4 *310:5 0.159049
5 *310:2 *310:3 2.90145
6 *1757:DA *310:9 2.42977
7 *310:6 *310:8 2.71476
8 *310:3 *310:5 22.3679008
9 *1284:Z *310:2 0.224921
*END

*D_NET *311 0.0074592

*CONN
*I *1285:Z O *C 151.1 308.4 *L 0 *D DEL2
*I *1758:DA I *C 145.9 260.4 *L 0.000721 *D DFXQD1

*CAP
1 *1758:DA 0.000206966
2 *311:2 0.000741929
3 *311:3 0.000139024
4 *311:4 9.70545e-05
5 *311:5 0.000303281
6 *311:6 0.00242119
7 *311:7 0.000312518
8 *311:8 0.000264896
9 *311:9 0.000295523
10 *311:10 0.000208961
11 *311:7 *1:2 0.00126958
12 *311:2 *1758:Q 0.00119827

*RES
1 *311:9 *311:10 2.75076
2 *311:7 *311:8 2.75267
3 *311:2 *311:4 3.12015
4 *311:5 *311:6 0.159322
5 *1758:DA *311:2 0.434589
6 *311:8 *311:9 2.75949
7 *311:5 *311:7 2.52624
8 *311:4 *311:10 4.26951
9 *311:3 *311:6 17.8789997
10 *1285:Z *311:3 1.20556
*END

*D_NET *312 0.00567172

*CONN
*I *1286:Z O *C 151.5 307.6 *L 0 *D DEL2
*I *1759:DA I *C 146.3 264 *L 0.000721 *D DFXQD1

*CAP
1 *312:2 0.000294767
2 *312:3 0.00034139
3 *312:4 9.75186e-05
4 *312:5 0.000659117
5 *312:6 0.000530198
6 *312:7 0.000620509
7 *312:9 7.67691e-05
8 *312:10 0.00139326
9 *312:2 *467:12 0.000369908008
10 *312:2 *1755:CP 0.000209919004
11 *312:3 *748:4 0.000175545
12 *312:2 *750:6 0.000902827031

*RES
1 *312:9 *312:10 12.6901999
2 *312:7 *312:9 0.15917
3 *312:8 *312:10 0.15917
4 *312:2 *312:6 2.60694
5 *312:4 *312:3 2.28705
6 *312:2 *312:8 4.53266
7 *312:5 *312:6 1.35197
8 *312:3 *312:7 6.37782
9 *1759:DA *312:5 1.77778
10 *1286:Z *312:4 0.225006
*END

*D_NET *313 0.00623414

*CONN
*I *1287:Z O *C 151.9 304.8 *L 0 *D DEL2
*I *1761:DA I *C 147.5 271.2 *L 0.000721 *D DFXQD1

*CAP
1 *1287:Z 3.56773e-06
2 *313:2 0.0019648
3 *313:3 0.000779084
4 *313:4 0.000806997
5 *313:5 0.000247013
6 *313:6 0.000524726
7 *313:7 0.000522028
8 *313:2 *747:3 0.00138594

*RES
1 *313:2 *313:3 13.0425997
2 *1287:Z *313:2 0.327179
3 *313:6 *313:7 2.44867
4 *313:4 *313:6 7.26402
5 *313:4 *313:5 1.51092
6 *313:3 *313:5 3.5335
7 *1761:DA *313:7 1.20543
*END

*D_NET *314 0.00459434

*CONN
*I *1288:Z O *C 149.3 304 *L 0 *D DEL2
*I *1760:DA I *C 142.9 269.2 *L 0.000721 *D DFXQD1

*CAP
1 *1760:DA 7.83452e-05
2 *1288:Z 0.000164601
3 *314:2 0.000402119
4 *314:3 0.000291039
5 *314:4 0.000874084
6 *314:5 2.67602e-05
7 *314:6 0.00275744

*RES
1 *314:5 *314:6 2.1136
2 *314:4 *314:6 21.2514
3 *314:3 *314:4 1.12716
4 *1760:DA *314:5 0.450088
5 *314:2 *314:3 3.05495
6 *1288:Z *314:2 2.95151
*END

*D_NET *315 0.00402726

*CONN
*I *1289:Z O *C 142.9 297.6 *L 0 *D DEL2
*I *1763:DA I *C 143.3 276.4 *L 0.000721 *D DFXQD1

*CAP
1 *1763:DA 0.0015984
2 *315:3 0.000435264
3 *315:4 0.00131413
4 *315:5 0.000679457

*RES
1 *1289:Z *315:4 4.96267
2 *315:3 *315:4 0.159242
3 *315:2 *315:5 2.59194
4 *1763:DA *315:2 6.59260988
5 *315:3 *315:5 1.76394
*END

*D_NET *316 0.00853251

*CONN
*I *1290:Z O *C 145.9 296.8 *L 0 *D DEL2
*I *1756:DA I *C 146.1 247.6 *L 0.000721 *D DFXQD1

*CAP
1 *1756:DA 0.000186809
2 *316:2 0.000369352
3 *316:3 0.000318458
4 *316:4 0.000373209
5 *316:5 0.000942654
6 *316:6 0.00127646008
7 *316:7 0.000385051
8 *316:8 0.000100426
9 *316:9 0.000470733
10 *316:10 0.000188757
11 *316:2 *527:2 0.0018226
12 *316:2 *267:4 0.00209799

*RES
1 *316:9 *316:10 1.47813
2 *316:8 *316:9 13.7875004
3 *316:2 *316:7 4.14471
4 *316:7 *316:8 1.47813
5 *316:6 *316:10 5.65566
6 *316:4 *316:5 3.33453
7 *316:3 *316:2 1.99399
8 *316:3 *316:5 1.00667
9 *1756:DA *316:6 2.4644
10 *1290:Z *316:4 1.19307
*END

*D_NET *317 0.00313632

*CONN
*I *1291:Z O *C 151.7 300.4 *L 0 *D DEL2
*I *1762:DA I *C 146.5 278.4 *L 0.000721 *D DFXQD1

*CAP
1 *317:2 9.01969e-05
2 *317:3 0.000544838
3 *317:4 0.000219015
4 *317:5 0.00228226

*RES
1 *317:3 *317:5 13.4452
2 *317:2 *317:3 2.9239
3 *317:4 *317:5 0.854481
4 *1762:DA *317:4 0.44991
5 *1291:Z *317:2 0.225058
*END

*D_NET *318 0.00797413

*CONN
*I *1292:Z O *C 143.9 290.4 *L 0 *D DEL2
*I *1747:DB I *C 146.3 238.8 *L 0.0011 *D DFXQD1

*CAP
1 *1747:DB 0.000336509
2 *1292:Z 0.000254765
3 *318:2 0.00189362
4 *318:3 0.000479076
5 *318:2 *1754:SA 0.000337107969
6 *1292:Z *319:2 0.000524024023
7 *318:2 *267:3 0.00234208984
8 *318:2 *1296:I 0.00180696

*RES
1 *1747:DB *318:2 2.94144
2 *318:2 *318:3 32.4967003
3 *1292:Z *318:3 1.22924
*END

*D_NET *319 0.00657848

*CONN
*I *1293:Z O *C 151.3 296.8 *L 0 *D DEL2
*I *1746:DB I *C 146.1 235.2 *L 0.0011 *D DFXQD1

*CAP
1 *319:2 0.000691092
2 *319:3 8.13737e-05
3 *319:4 0.000918653
4 *319:5 0.00042533
5 *319:6 9.9469e-05
6 *319:7 0.000151379
7 *319:8 0.0023957
8 *319:4 *749:5 0.000244414004
9 *319:2 *267:5 0.000300693008
10 *319:3 *750:6 0.000207987988
11 *319:2 *1296:I 0.000538365
12 *319:2 *1292:Z 0.000524024023

*RES
1 *319:7 *319:8 1.48412
2 *319:5 *319:7 0.450024
3 *319:4 *319:6 2.85866
4 *319:6 *319:2 1.24953
5 *319:3 *319:4 4.48853
6 *319:2 *319:8 34.8614006
7 *1746:DB *319:5 1.57881
8 *1293:Z *319:3 0.225012
*END

*D_NET *320 0.00684839

*CONN
*I *1294:Z O *C 143.3 171.6 *L 0 *D DEL2
*I *1743:DB I *C 144.1 226 *L 0.0011 *D DFXQD1

*CAP
1 *320:2 0.00215530984
2 *320:3 5.11407e-05
3 *320:4 0.000827855
4 *320:4 *455:12 0.00128879
5 *320:3 *321:2 0.000392103984
6 *320:2 *291:4 0.000580548008
7 *320:2 *232:4 0.00155264

*RES
1 *320:3 *320:2 2.29444
2 *320:4 *320:2 32.9105988
3 *1743:DB *320:4 1.56528
4 *1294:Z *320:3 0.224975
*END

*D_NET *321 0.00760187

*CONN
*I *1295:Z O *C 147.7 174.4 *L 0 *D DEL2
*I *1741:DB I *C 146.5 220.8 *L 0.0011 *D DFXQD1

*CAP
1 *1295:Z 0.000371491
2 *321:2 0.00241094
3 *321:3 7.40186e-05
4 *321:4 6.68816e-05
5 *321:5 0.000832084
6 *321:6 0.000390584
7 *321:5 *352:10 0.00164265
8 *321:2 *232:4 0.00142109
9 *321:2 *320:3 0.000392103984

*RES
1 *321:3 *321:2 3.87982
2 *1295:Z *321:3 1.16107
3 *321:4 *321:5 3.64556
4 *321:2 *321:6 24.8017998
5 *321:5 *321:6 4.48912
6 *1741:DB *321:4 0.449972
*END

*D_NET *322 0.00850539

*CONN
*I *1296:Z O *C 149.1 289.6 *L 0 *D DEL2
*I *1745:DB I *C 146.3 233.2 *L 0.0011 *D DFXQD1

*CAP
1 *1745:DB 0.00064347
2 *322:2 0.000613106
3 *322:3 0.000252036
4 *322:4 0.000229033
5 *322:5 0.000276726
6 *322:6 0.0025125
7 *322:7 1.11181e-06
8 *322:8 0.000563688
9 *322:3 *748:3 0.00169216
10 *322:3 *750:3 0.00172154

*RES
1 *322:7 *322:8 3.74406
2 *322:6 *322:7 0.159404
3 *322:4 *322:5 1.44319
4 *1296:Z *322:3 0.449831
5 *322:4 *322:8 1.6753
6 *322:3 *322:6 25.4797993
7 *322:2 *322:5 2.82068
8 *1745:DB *322:2 3.06717
*END

*D_NET *323 0.00113062

*CONN
*I *1297:Z O *C 148.7 171.6 *L 0 *D DEL2
*I *1732:DB I *C 145.3 170.4 *L 0.0011 *D DFXQD1

*CAP
1 *1297:Z 8.97237e-05
2 *323:2 0.0010409

*RES
1 *1297:Z *323:2 0.707652
2 *1732:DB *323:2 3.78338003
*END

*D_NET *324 0.00898565

*CONN
*I *1298:Z O *C 143.7 181.6 *L 0 *D DEL2
*I *1744:DB I *C 146.5 229.6 *L 0.0011 *D DFXQD1

*CAP
1 *1744:DB 0.000342352
2 *1298:Z 0.000665971
3 *324:2 0.000509444
4 *324:3 0.000369603
5 *324:4 0.000506247
6 *324:6 0.00050997
7 *324:7 0.00127746
8 *324:8 0.000650572
9 *324:10 0.000291378
10 *324:11 0.000232529
11 *324:12 0.000486404
12 *324:13 0.000183291
13 *324:14 2.57305e-06
14 *324:15 0.000450459
15 *324:16 0.000404144
16 *324:2 *1735:DA 0.00120266
17 *1298:Z *355:12 0.000900601016

*RES
1 *324:12 *324:13 1.18651
2 *324:11 *324:12 2.35899
3 *324:4 *324:16 2.44723
4 *324:3 *324:9 3.19558
5 *324:4 *324:6 2.44577
6 *324:2 *324:3 2.39445
7 *324:7 *324:11 1.33396
8 *324:14 *324:15 0.28516
9 *1744:DB *324:16 3.23678
10 *324:13 *324:15 2.24368
11 *1298:Z *324:2 4.54522
12 *324:8 *324:14 3.26629
13 *324:5 *324:6 0.159234
14 *324:8 *324:10 1.63977
15 *324:9 *324:10 0.159234
16 *324:5 *324:7 6.38258982
*END

*D_NET *325 0.00301684

*CONN
*I *1299:Z O *C 144.7 239.2 *L 0 *D DEL2
*I *1742:DB I *C 146.5 224.4 *L 0.0011 *D DFXQD1

*CAP
1 *1742:DB 0.000176643
2 *325:2 0.000502046
3 *325:3 0.000906306
4 *325:4 5.0697e-06
5 *325:5 0.00106488
6 *325:6 4.18575e-05
7 *325:7 0.000320041

*RES
1 *325:6 *325:7 1.20543
2 *1742:DB *325:2 2.96788
3 *325:5 *325:6 4.03592014
4 *325:4 *325:5 0.285869
5 *325:2 *325:3 0.286177
6 *325:3 *325:4 3.13551
7 *1299:Z *325:7 0.225025
*END

*D_NET *326 0.00506424

*CONN
*I *1300:Z O *C 151.7 175.2 *L 0 *D DEL2
*I *1738:DB I *C 146.5 204.4 *L 0.0011 *D DFXQD1

*CAP
1 *326:2 0.000503946
2 *326:3 0.000561474
3 *326:4 0.00068226
4 *326:5 7.66837e-05
5 *326:6 0.000478926
6 *326:7 0.000515086
7 *326:8 0.000805751016
8 *326:9 0.000370902
9 *326:10 0.00035364
10 *326:11 0.000306956
11 *326:2 *208:3 0.000408601992

*RES
1 *326:3 *326:5 2.36537
2 *326:10 *326:11 2.52879
3 *326:8 *326:9 3.62316
4 *326:2 *326:9 1.79834
5 *326:7 *326:2 2.63844
6 *326:8 *326:10 2.52581
7 *326:6 *326:7 2.38385
8 *326:5 *326:6 2.44246
9 *326:4 *326:11 4.06442022
10 *1300:Z *326:4 0.225002
11 *1738:DB *326:3 0.450004
*END

*D_NET *327 0.00350558

*CONN
*I *1301:Z O *C 143.1 185.2 *L 0 *D DEL2
*I *1737:DB I *C 146.5 200.8 *L 0.0011 *D DFXQD1

*CAP
1 *1737:DB 6.85714e-05
2 *1301:Z 0.000650146
3 *327:2 0.000894116016
4 *327:3 0.000237271
5 *327:4 0.000812365
6 *327:5 2.66591e-05
7 *327:6 0.000816431

*RES
1 *327:2 *327:3 1.13561
2 *327:5 *327:6 2.50653
3 *327:4 *327:5 0.285162
4 *327:3 *327:4 3.61842
5 *1737:DB *327:2 3.66726995
6 *1301:Z *327:6 3.01066
*END

*D_NET *328 0.000753635

*CONN
*I *1302:Z O *C 146.7 217.6 *L 0 *D DEL2
*I *1740:DB I *C 146.3 213.6 *L 0.0011 *D DFXQD1

*CAP
1 *1740:DB 0.00045491
2 *1302:Z 0.000298727

*RES
1 *1302:Z *1740:DB 3.36577
*END

*D_NET *329 0.000502577

*CONN
*I *1303:Z O *C 144.9 210.4 *L 0 *D DEL2
*I *1739:DB I *C 146.5 210 *L 0.0011 *D DFXQD1

*CAP
1 *1739:DB 0.000118703
2 *329:2 0.000383875

*RES
1 *1739:DB *329:2 2.07048988
2 *1303:Z *329:2 0.225007
*END

*D_NET *330 0.000669321

*CONN
*I *1304:Z O *C 147.9 196.8 *L 0 *D DEL2
*I *1736:DB I *C 146.7 195.6 *L 0.0011 *D DFXQD1

*CAP
1 *1304:Z 0.000114756
2 *330:2 0.000554569023

*RES
1 *1304:Z *330:2 2.13010001
2 *1736:DB *330:2 0.674985
*END

*D_NET *331 0.000535638

*CONN
*I *1305:Z O *C 143.5 189.6 *L 0 *D DEL2
*I *1735:DB I *C 145.1 190 *L 0.0011 *D DFXQD1

*CAP
1 *1305:Z 0.000444171992
2 *331:2 9.14641e-05

*RES
1 *1735:DB *331:2 0.674999
2 *1305:Z *331:2 1.64168
*END

*D_NET *332 0.00121446

*CONN
*I *1306:Z O *C 147.9 186 *L 0 *D DEL2
*I *1734:DB I *C 144.7 184.8 *L 0.0011 *D DFXQD1

*CAP
1 *1734:DB 0.000345209
2 *1306:Z 0.000138155
3 *332:2 0.000712521016
4 *332:3 1.857e-05

*RES
1 *332:2 *332:3 2.70365
2 *1734:DB *332:2 1.4189
3 *1306:Z *332:3 0.450003
*END

*D_NET *333 0.00131764

*CONN
*I *1307:Z O *C 150.5 178.8 *L 0 *D DEL2
*I *1733:DB I *C 145.3 181.2 *L 0.0011 *D DFXQD1

*CAP
1 *1733:DB 0.000482285
2 *333:2 0.000428357
3 *333:3 0.000407

*RES
1 *333:2 *333:3 1.59328
2 *1733:DB *333:3 3.86502004
3 *1307:Z *333:2 0.224992
*END

*D_NET *334 0.00356155

*CONN
*I *1308:Z O *C 144.5 139.2 *L 0 *D DEL1
*I *1465:A[7] I *C 134.265 148.5 *L 0.00555 *D sram00

*CAP
1 *334:2 9.56692e-05
2 *334:3 0.00122716
3 *334:4 0.00010108
4 *334:5 0.000290896
5 *334:6 0.00184674

*RES
1 *334:4 *334:6 6.78034
2 *334:2 *334:3 5.18852
3 *334:4 *334:5 1.63677
4 *334:3 *334:6 0.350906
5 *1308:Z *334:2 0.225
6 *1308:Z *1465:A[7] 0.0001
*END

*D_NET *335 0.0131675

*CONN
*I *1309:Z O *C 143.7 170.8 *L 0 *D DEL2
*I *1718:DA I *C 146.3 98.4 *L 0.000721 *D DFXQD1

*CAP
1 *1309:Z 5.91669e-06
2 *335:2 0.00127126
3 *335:3 0.00035322
4 *335:4 0.00208468016
5 *335:5 0.000434941
6 *335:6 0.000314857
7 *335:7 0.000170344
8 *335:8 0.000139074
9 *335:9 0.000137165
10 *335:10 0.00011792
11 *335:9 *1313:Z 0.00172359
12 *335:2 *340:3 0.000930728984
13 *1309:Z *355:10 0.00042371
14 *335:9 *890:6 0.0013643
15 *335:2 *804:4 0.000402951016
16 *335:2 *243:3 0.0006996
17 *335:3 *336:5 0.000379946992
18 *335:4 *889:19 0.000925388984
19 *335:5 *8:5 0.00100307
20 *335:6 *297:2 0.000284845

*RES
1 *335:4 *335:10 1.73968
2 *335:9 *335:4 30.7723007
3 *335:5 *335:9 5.28899
4 *1309:Z *335:7 0.807623
5 *335:3 *335:5 2.21627
6 *335:8 *335:2 2.14302
7 *335:6 *335:7 3.09244
8 *335:2 *335:10 6.16141
9 *335:6 *335:3 2.13034
10 *1718:DA *335:8 0.224914
*END

*D_NET *336 0.0113865

*CONN
*I *1310:Z O *C 145.3 164.4 *L 0 *D DEL2
*I *1717:DA I *C 146.3 96.4 *L 0.000721 *D DFXQD1

*CAP
1 *336:2 0.00208123
2 *336:3 0.000147196
3 *336:4 0.000170983
4 *336:5 0.000108579
5 *336:6 0.000336884
6 *336:7 0.00033952
7 *336:8 0.000100227
8 *336:9 0.000109595
9 *336:3 *83:10 0.000691565
10 *336:7 *97:7 0.00139723
11 *336:5 *114:4 0.00155929
12 *336:5 *335:3 0.000379946992
13 *336:2 *32:6 0.0013657
14 *336:3 *483:10 0.000557223984
15 *336:4 *95:2 0.00204135984

*RES
1 *336:7 *336:4 6.80026
2 *336:6 *336:9 0.450041
3 *336:9 *336:2 1.73717
4 *336:8 *336:4 5.31774
5 *336:7 *336:3 1.10668
6 *336:3 *336:2 34.9868011
7 *336:5 *336:8 1.57701
8 *1717:DA *336:6 0.450041
9 *1310:Z *336:5 0.224753
*END

*D_NET *337 0.00631307

*CONN
*I *1311:Z O *C 144.7 163.6 *L 0 *D DEL2
*I *1727:DA I *C 146.3 136 *L 0.000721 *D DFXQD1

*CAP
1 *1727:DA 8.59815e-05
2 *1311:Z 0.00034115
3 *337:3 0.000110016
4 *337:4 0.00022195
5 *337:5 0.000854779
6 *337:6 0.00187514
7 *337:4 *1314:Z 0.00121295
8 *1727:DA *342:3 0.000203625
9 *1727:DA *344:3 0.000290858008
10 *1311:Z *297:2 0.00111662992

*RES
1 *337:5 *337:6 7.71667004
2 *337:4 *337:5 6.24106
3 *1727:DA *337:2 1.90256
4 *337:3 *337:4 2.69664
5 *337:2 *337:6 2.70995
6 *1311:Z *337:3 1.87489
*END

*D_NET *338 0.00880889

*CONN
*I *1312:Z O *C 144.1 160.8 *L 0 *D DEL2
*I *1722:DA I *C 146.3 116.4 *L 0.000721 *D DFXQD1

*CAP
1 *338:2 0.00140667
2 *338:3 0.000431714
3 *338:4 0.000375477
4 *338:5 3.77774e-06
5 *338:6 0.000558225
6 *338:7 0.000394559
7 *338:8 0.000343216
8 *338:3 *17:4 0.000265455996
9 *338:2 *36:10 0.000460403008
10 *338:2 *343:2 0.00116357992
11 *338:3 *114:5 0.00123411
12 *338:2 *1770:A2 0.00158376
13 *338:2 *1330:Z 0.000320392012
14 *338:2 *292:2 0.000267553008

*RES
1 *338:6 *338:7 3.90274
2 *338:7 *338:8 3.86139
3 *338:4 *338:5 3.95373
4 *1722:DA *338:2 0.827774
5 *338:5 *338:6 7.95238
6 *338:2 *338:8 10.1876001
7 *338:3 *338:4 2.83635
8 *1312:Z *338:3 0.224937
*END

*D_NET *339 0.00924248

*CONN
*I *1313:Z O *C 144.1 160 *L 0 *D DEL2
*I *1721:DA I *C 146.1 110.8 *L 0.000721 *D DFXQD1

*CAP
1 *1313:Z 9.96736e-05
2 *339:2 0.00260867
3 *339:3 0.000388783
4 *339:4 3.47106e-05
5 *339:5 0.000173036
6 *339:4 *115:7 0.000597796016
7 *339:2 *340:4 0.000886157969
8 *339:2 *882:5 0.00175257
9 *339:2 *889:11 0.000977469063
10 *1313:Z *335:9 0.00172359

*RES
1 *1721:DA *339:2 1.8885
2 *1313:Z *339:3 0.450022
3 *339:4 *339:5 2.1382
4 *339:3 *339:4 5.65754
5 *339:2 *339:5 26.0997009
*END

*D_NET *340 0.0106944

*CONN
*I *1314:Z O *C 143.9 157.2 *L 0 *D DEL2
*I *1720:DA I *C 146.5 109.2 *L 0.000721 *D DFXQD1

*CAP
1 *1314:Z 9.69545e-05
2 *340:2 0.00069489
3 *340:3 0.00175571
4 *340:4 0.00117875
5 *340:5 0.001249
6 *340:6 0.00123365
7 *340:7 0.000172718
8 *340:8 0.000312912
9 *340:9 0.000303294
10 *340:10 0.000209903
11 *340:2 *1128:I 0.00045676
12 *340:3 *335:2 0.000930728984
13 *1314:Z *337:4 0.00121295
14 *340:4 *339:2 0.000886157969

*RES
1 *340:7 *340:9 0.384768
2 *340:5 *340:10 0.941297
3 *340:4 *340:2 3.2127
4 *340:3 *340:8 3.1289
5 *340:3 *340:7 6.85772
6 *340:5 *340:6 6.44252
7 *340:2 *340:8 2.81201
8 *1720:DA *340:4 2.16264
9 *340:9 *340:10 7.78997993
10 *1314:Z *340:6 6.30677
*END

*D_NET *341 0.00923781

*CONN
*I *1315:Z O *C 151.7 164.4 *L 0 *D DEL2
*I *1716:DA I *C 146.5 94.8 *L 0.000721 *D DFXQD1

*CAP
1 *1315:Z 0.000205022
2 *341:2 0.0020485
3 *341:3 0.000216244
4 *341:4 7.6176e-05
5 *341:5 0.000436707
6 *341:7 0.000622349
7 *341:8 0.000300922
8 *341:9 0.00018461
9 *341:3 *1716:DB 0.000480321992
10 *341:2 *83:8 0.00171046
11 *341:5 *290:2 0.000998271016
12 *341:2 *364:10 0.00146593
13 *341:2 *432:5 0.000492306992

*RES
1 *341:6 *341:7 0.159137
2 *341:2 *341:9 20.9421997
3 *341:4 *341:5 3.24761
4 *341:8 *341:9 0.159137
5 *341:6 *341:8 8.41734
6 *341:5 *341:7 14.5719
7 *341:3 *341:2 1.20567
8 *1315:Z *341:4 1.05293
9 *1716:DA *341:3 0.44993
*END

*D_NET *342 0.00612091

*CONN
*I *1316:Z O *C 145.3 156.4 *L 0 *D DEL2
*I *1726:DA I *C 145.9 130.8 *L 0.000721 *D DFXQD1

*CAP
1 *1726:DA 0.000841832
2 *1316:Z 0.000199664
3 *342:2 0.00134481
4 *342:3 0.000564724
5 *342:4 0.000403022
6 *342:5 1.0568e-05
7 *342:6 0.000153863
8 *342:7 0.000329744
9 *1726:DA *344:2 0.00085429
10 *1316:Z *1767:A2 0.00029919002
11 *342:2 *1731:SA 0.000915552969
12 *342:3 *1727:DA 0.000203625

*RES
1 *342:2 *342:6 7.80170012
2 *342:4 *342:3 4.70142
3 *1726:DA *342:5 3.698
4 *1316:Z *342:7 1.12426
5 *342:6 *342:7 2.85885
6 *342:3 *342:5 0.159282
7 *342:4 *342:2 2.10756
*END

*D_NET *343 0.00682541

*CONN
*I *1317:Z O *C 144.1 153.6 *L 0 *D DEL2
*I *1725:DA I *C 145.9 127.2 *L 0.000721 *D DFXQD1

*CAP
1 *1725:DA 0.000181454
2 *343:2 0.000579075
3 *343:3 0.00012231
4 *343:4 0.000998202969
5 *343:5 2.88791e-05
6 *343:6 0.000175514
7 *343:7 0.000107489
8 *343:4 *97:7 0.00091519
9 *343:4 *115:7 0.000296983008
10 *343:2 *361:5 0.00165385
11 *343:3 *1767:A2 0.000602881016
12 *343:2 *338:2 0.00116357992

*RES
1 *343:5 *343:6 4.52079
2 *343:4 *343:5 1.68106
3 *343:4 *343:7 8.99055004
4 *343:2 *343:6 7.13115
5 *343:3 *343:7 0.953572
6 *1725:DA *343:2 0.907615
7 *1317:Z *343:3 0.224983
*END

*D_NET *344 0.00723136

*CONN
*I *1318:Z O *C 145.3 152.8 *L 0 *D DEL2
*I *1723:DA I *C 146.5 118 *L 0.000721 *D DFXQD1

*CAP
1 *1723:DA 9.46997e-05
2 *1318:Z 0.000143313
3 *344:2 0.00164848
4 *344:3 0.00276074
5 *344:4 2.99096e-06
6 *344:5 0.000631682
7 *344:2 *1330:Z 0.000435027969
8 *344:2 *1726:CP 0.000369276992
9 *344:3 *1727:DA 0.000290858008
10 *344:2 *1726:DA 0.00085429

*RES
1 *1723:DA *344:5 1.24821
2 *344:4 *344:3 14.1993999
3 *344:4 *344:2 8.45906
4 *1318:Z *344:3 0.684663
5 *344:2 *344:5 2.84309
*END

*D_NET *345 0.00371095

*CONN
*I *1319:Z O *C 150.7 156.4 *L 0 *D DEL2
*I *1729:DA I *C 145.5 143.2 *L 0.000721 *D DFXQD1

*CAP
1 *1729:DA 0.000623152
2 *345:2 0.000560871
3 *345:3 0.000251083
4 *345:4 0.000750147
5 *345:5 0.00141133
6 *345:6 0.000114375

*RES
1 *345:2 *345:6 3.04073
2 *1319:Z *345:6 0.449975
3 *345:3 *345:5 5.24912024
4 *345:3 *345:4 0.159229
5 *345:2 *345:4 2.70041
6 *1729:DA *345:5 2.73637
*END

*D_NET *346 0.00234879

*CONN
*I *1320:Z O *C 144.9 149.2 *L 0 *D DEL2
*I *1728:DA I *C 145.5 139.6 *L 0.000721 *D DFXQD1

*CAP
1 *1728:DA 0.000126818
2 *1320:Z 0.000412332
3 *346:2 5.10652e-05
4 *346:3 0.00175857

*RES
1 *1320:Z *346:2 1.53234
2 *1728:DA *346:3 1.94116
3 *346:2 *346:3 5.32017994
*END

*D_NET *347 0.00731016

*CONN
*I *1321:Z O *C 144.5 142 *L 0 *D DEL2
*I *1719:DA I *C 146.5 103.6 *L 0.000721 *D DFXQD1

*CAP
1 *347:2 0.00144594
2 *347:3 0.000642758
3 *347:4 0.00010456
4 *347:5 0.000526835
5 *347:6 0.000579082
6 *347:8 0.000344877
7 *347:2 *1724:DB 0.000382546016
8 *347:5 *91:13 0.000666113984
9 *347:3 *305:7 0.00168896
10 *347:3 *364:9 0.000300572988
11 *347:2 *356:4 0.000627908008

*RES
1 *347:2 *347:7 12.0839996
2 *347:6 *347:8 0.159311
3 *347:5 *347:6 4.32757
4 *347:4 *347:5 5.82719
5 *1719:DA *347:2 0.609953
6 *347:7 *347:8 2.26723
7 *347:3 *347:4 3.57859
8 *1321:Z *347:3 0.224952
*END

*D_NET *348 0.00216194

*CONN
*I *1322:Z O *C 150.7 153.6 *L 0 *D DEL2
*I *1731:DA I *C 145.5 148.8 *L 0.000721 *D DFXQD1

*CAP
1 *1322:Z 7.27545e-05
2 *348:2 0.000338308
3 *348:3 0.000706379
4 *348:4 0.0010059
5 *348:5 3.86029e-05

*RES
1 *348:3 *348:4 1.99923
2 *348:2 *348:5 1.73588
3 *348:2 *348:4 3.59258008
4 *1322:Z *348:5 0.450004
5 *1731:DA *348:3 0.224975
*END

*D_NET *349 0.00223817

*CONN
*I *1323:Z O *C 150.7 152.8 *L 0 *D DEL2
*I *1730:DA I *C 145.5 146.8 *L 0.000721 *D DFXQD1

*CAP
1 *1730:DA 0.000101378
2 *349:2 0.000250093
3 *349:3 0.000900242969
4 *349:4 0.000351278
5 *349:5 0.000635191

*RES
1 *349:2 *349:3 3.74496007
2 *1730:DA *349:3 0.384233
3 *349:2 *349:5 0.493435
4 *1323:Z *349:4 1.45825
5 *349:4 *349:5 2.47694
*END

*D_NET *350 0.00358135

*CONN
*I *1324:Z O *C 145.5 134.8 *L 0 *D DEL2
*I *1724:DA I *C 145.3 120 *L 0.000721 *D DFXQD1

*CAP
1 *1724:DA 0.000777161
2 *1324:Z 0.00172397
3 *350:2 0.00108023

*RES
1 *1324:Z *350:2 7.53467989
2 *1724:DA *350:2 5.40198
*END

*D_NET *351 0.0202056

*CONN
*I *1325:Z O *C 151.3 163.6 *L 0 *D DEL2
*I *1760:SA I *C 143.3 269.2 *L 0.00154 *D DFXQD1
*I *1761:SA I *C 147.1 271.2 *L 0.00154 *D DFXQD1
*I *1763:SA I *C 143.7 276.4 *L 0.00154 *D DFXQD1
*I *1762:SA I *C 146.1 278.4 *L 0.00154 *D DFXQD1
*I *1759:SA I *C 145.9 264 *L 0.00154 *D DFXQD1
*I *1758:SA I *C 145.5 260.4 *L 0.00154 *D DFXQD1
*I *1757:SA I *C 145.5 254.8 *L 0.00154 *D DFXQD1
*I *1756:SA I *C 145.7 247.6 *L 0.00154 *D DFXQD1
*I *1694:I I *C 145.5 164.6 *L 0.00062 *D CKND0

*CAP
1 *1758:SA 6.90622e-05
2 *1762:SA 0.000255552
3 *1763:SA 0.000138383
4 *1761:SA 0.000123294
5 *1760:SA 0.000529883
6 *351:10 0.00241773016
7 *351:11 0.000579392
8 *351:12 0.000485243
9 *351:13 0.000154984
10 *351:14 0.000713311
11 *351:15 0.000471224
12 *351:16 2.50867e-06
13 *351:17 0.000163211
14 *351:18 0.000377702
15 *351:19 0.000106545
16 *351:20 0.000352542
17 *351:21 0.000469343
18 *351:22 0.000381539
19 *351:23 0.000180735
20 *351:24 0.000982033
21 *351:25 8.72132e-05
22 *351:26 0.000150926
23 *351:27 8.95374e-05
24 *351:28 0.000428577
25 *351:29 0.000210876
26 *351:30 0.000302073
27 *351:31 0.000473917
28 *351:32 0.000231499
29 *351:33 0.000233638
30 *351:34 0.000135394
31 *351:35 6.90622e-05
32 *351:36 0.000386999
33 *1760:SA *1754:SA 0.000889060938
34 *1758:SA *474:22 0.000606549023
35 *351:15 *100:6 0.000456936992
36 *351:10 *114:5 0.000796313984
37 *351:11 *1753:DA 0.000512026016
38 *351:12 *83:13 0.00280008
39 *351:11 *1752:DA 0.00239066

*RES
1 *1758:SA *351:15 0.572946
2 *351:19 *351:10 3.49858
3 *351:25 *351:26 2.48244
4 *351:35 *351:36 0.285846
5 *1760:SA *351:23 2.76048
6 *351:11 *351:13 0.897954
7 *351:13 *351:14 0.897954
8 *1761:SA *351:23 1.58741
9 *351:28 *351:29 1.34742
10 *351:34 *351:36 2.51756
11 *351:10 *351:35 9.13368034
12 *351:14 *351:16 2.81581
13 *351:15 *351:18 3.84449
14 *351:31 *351:33 1.19272
15 *351:24 *351:25 1.44316
16 *351:31 *351:32 8.72519
17 *1763:SA *351:21 1.31731
18 *351:15 *351:20 2.97943
19 *351:33 *351:34 3.66889
20 *351:17 *351:22 2.41805
21 *351:16 *351:21 1.52818
22 *351:26 *351:27 1.21195
23 *1694:I *351:10 1.58323
24 *351:30 *351:32 2.43505
25 *351:27 *351:28 6.45459
26 *351:12 *351:17 3.19503
27 *1762:SA *351:21 1.98489
28 *351:11 *351:20 3.71822
29 *351:12 *351:18 2.19562
30 *351:22 *351:24 8.7461
31 *351:29 *351:30 3.65133
32 *1759:SA *351:20 0.224941
33 *1325:Z *351:19 0.224941
34 *1757:SA *351:18 0.224941
35 *1756:SA *351:17 0.224941
36 *351:13 *351:23 0.224941
*END

*D_NET *352 0.0144514

*CONN
*I *1326:Z O *C 150.3 160.8 *L 0 *D DEL2
*I *1747:SA I *C 144.9 238.8 *L 0.00154 *D DFXQD1
*I *1746:SA I *C 144.7 235.2 *L 0.00154 *D DFXQD1
*I *1745:SA I *C 144.9 233.2 *L 0.00154 *D DFXQD1
*I *1744:SA I *C 145.1 229.6 *L 0.00154 *D DFXQD1
*I *1743:SA I *C 142.7 226 *L 0.00154 *D DFXQD1
*I *1742:SA I *C 145.1 224.4 *L 0.00154 *D DFXQD1
*I *1741:SA I *C 145.1 220.8 *L 0.00154 *D DFXQD1
*I *1740:SA I *C 144.9 213.6 *L 0.00154 *D DFXQD1

*CAP
1 *1741:SA 2.16298e-06
2 *1742:SA 7.11565e-05
3 *1743:SA 0.000501923
4 *1747:SA 0.000379603
5 *352:9 0.00181732
6 *352:10 7.22103e-05
7 *352:11 0.000621358
8 *352:12 0.000429352
9 *352:13 0.000309694
10 *352:14 0.000441636
11 *352:15 9.12889e-05
12 *352:16 7.50943e-05
13 *352:17 0.000596678
14 *352:18 0.000356615
15 *352:19 0.000243696
16 *352:20 0.000120739
17 *352:21 5.91492e-05
18 *352:22 0.000196582
19 *352:23 0.000457498
20 *352:24 0.00159952
21 *352:25 0.000346132
22 *352:27 0.000265437
23 *352:28 0.000629677
24 *352:9 *556:2 0.00129054
25 *1743:SA *473:24 0.00183367
26 *352:10 *321:5 0.00164265

*RES
1 *352:24 *352:9 2.59809
2 *352:22 *352:23 2.44093
3 *352:9 *352:26 21.280899
4 *352:23 *352:27 1.12288
5 *1747:SA *352:18 2.81695
6 *352:14 *352:22 0.646194
7 *352:13 *352:10 1.85416
8 *1743:SA *352:11 2.6481
9 *352:15 *352:16 0.537088
10 *352:12 *352:20 1.03066
11 *1741:SA *352:10 0.376676
12 *352:12 *352:21 2.33442
13 *352:13 *352:14 2.73967
14 *352:27 *352:28 8.15634
15 *352:26 *352:28 0.159113
16 *352:19 *352:24 5.76737
17 *352:16 *352:17 2.61075
18 *352:11 *352:15 0.631257
19 *352:21 *352:25 1.02417
20 *352:18 *352:25 1.66582
21 *352:10 *352:17 0.537088
22 *1742:SA *352:15 0.392912
23 *352:11 *352:20 4.01063
24 *1740:SA *352:22 0.225031
25 *1745:SA *352:21 0.225031
26 *1744:SA *352:20 0.225031
27 *1326:Z *352:19 0.225031
28 *1746:SA *352:18 0.450063
*END

*D_NET *353 0.00390618

*CONN
*I *1202:I I *C 149.3 150.4 *L 0.00104 *D DEL0
*I *1327:Z O *C 148.1 132 *L 0 *D DEL1

*CAP
1 *1327:Z 0.000615546
2 *353:2 0.00132175
3 *353:3 0.000388347
4 *353:4 0.000702453
5 *353:5 0.000878101

*RES
1 *353:4 *353:5 2.8864
2 *353:2 *353:3 1.63726
3 *1202:I *353:2 5.16980982
4 *353:3 *353:5 2.9981
5 *1327:Z *353:4 2.73179
*END

*D_NET *354 0.0189466

*CONN
*I *1328:Z O *C 148.7 157.2 *L 0 *D DEL1
*I *1748:SA I *C 144.9 242.4 *L 0.00154 *D DFXQD1
*I *1750:SA I *C 144.9 253.2 *L 0.00154 *D DFXQD1
*I *1754:SA I *C 142.1 271.2 *L 0.00154 *D DFXQD1
*I *1755:SA I *C 146.1 274.8 *L 0.00154 *D DFXQD1
*I *1753:SA I *C 145.5 267.6 *L 0.00154 *D DFXQD1
*I *1752:SA I *C 145.7 265.6 *L 0.00154 *D DFXQD1
*I *1751:SA I *C 145.7 262 *L 0.00154 *D DFXQD1
*I *1749:SA I *C 145.3 249.6 *L 0.00154 *D DFXQD1

*CAP
1 *1755:SA 0.00029515
2 *1754:SA 0.00042975
3 *1328:Z 0.000226701
4 *354:9 0.000273326
5 *354:10 7.24691e-05
6 *354:11 0.00342166
7 *354:12 0.000435285
8 *354:13 0.000536522
9 *354:14 0.000316087
10 *354:15 0.000334517
11 *354:16 0.000205451
12 *354:17 0.000494127
13 *354:18 0.000118624
14 *354:19 0.000379575
15 *354:20 0.000436486
16 *354:21 0.000164517
17 *354:22 0.000645226
18 *354:23 5.65969e-05
19 *354:24 0.00020425
20 *354:25 0.00013152
21 *354:27 0.000149742
22 *354:28 5.92597e-05
23 *354:29 0.000387981
24 *354:30 0.00024769
25 *354:31 0.00010484
26 *354:32 4.78777e-05
27 *354:15 *455:13 0.00236188
28 *354:14 *1533:CPN 0.000384838984
29 *354:9 *760:14 0.00055029
30 *1755:SA *761:10 0.000407255
31 *1755:SA *258:10 0.000811703984
32 *1754:SA *318:2 0.000337107969
33 *354:10 *1329:Z 0.000327245
34 *1754:SA *97:10 0.00157654
35 *354:11 *115:14 0.00112546
36 *1754:SA *1760:SA 0.000889060938

*RES
1 *354:23 *354:24 4.10286
2 *354:22 *354:25 3.18759
3 *354:30 *354:31 0.159214
4 *354:29 *354:32 0.159214
5 *354:27 *354:28 4.94885
6 *354:25 *354:28 2.26654
7 *354:18 *354:20 1.14997
8 *1755:SA *354:9 2.90257
9 *354:13 *354:20 2.21168
10 *354:10 *354:12 2.52103
11 *354:26 *354:29 10.5461
12 *354:17 *354:23 1.46469
13 *354:31 *354:32 3.87559
14 *354:14 *354:21 0.950749
15 *354:26 *354:27 0.159214
16 *354:11 *354:30 27.0317993
17 *354:19 *354:24 2.72397
18 *354:16 *354:21 1.22752
19 *1754:SA *354:9 2.81554
20 *354:15 *354:22 1.99802
21 *354:17 *354:18 3.25853
22 *354:14 *354:19 1.96048
23 *354:15 *354:16 2.01452
24 *354:10 *354:11 3.24657
25 *1328:Z *354:12 0.998183
26 *354:9 *354:13 1.50099
27 *1748:SA *354:22 0.224798
28 *1749:SA *354:21 0.224798
29 *1753:SA *354:20 0.224798
30 *1750:SA *354:19 0.224798
31 *1752:SA *354:18 0.224798
32 *1751:SA *354:17 0.450008
*END

*D_NET *355 0.0107477

*CONN
*I *1329:Z O *C 148.3 160 *L 0 *D DEL1
*I *1739:SA I *C 145.1 210 *L 0.00154 *D DFXQD1
*I *1738:SA I *C 145.1 204.4 *L 0.00154 *D DFXQD1
*I *1737:SA I *C 145.1 200.8 *L 0.00154 *D DFXQD1
*I *1736:SA I *C 145.3 195.6 *L 0.00154 *D DFXQD1
*I *1735:SA I *C 143.7 190 *L 0.00154 *D DFXQD1
*I *1734:SA I *C 143.3 184.8 *L 0.00154 *D DFXQD1
*I *1733:SA I *C 143.9 181.2 *L 0.00154 *D DFXQD1
*I *1732:SA I *C 143.9 170.4 *L 0.00154 *D DFXQD1

*CAP
1 *1739:SA 2.10365e-05
2 *1329:Z 0.000566059
3 *355:9 0.00130182008
4 *355:10 0.0010615
5 *355:11 0.000342047
6 *355:12 0.000339961
7 *355:13 5.5561e-05
8 *355:14 0.000291253
9 *355:15 0.000670387
10 *355:16 0.000418724
11 *355:17 0.00010411
12 *355:18 0.000519198
13 *355:19 0.000275262
14 *355:20 0.00061566
15 *355:21 0.000410063
16 *355:22 0.00028444
17 *1329:Z *354:10 0.000327245
18 *355:9 *492:75 0.000395985977
19 *355:10 *1309:Z 0.00042371
20 *355:11 *1521:CPN 0.00142317
21 *355:12 *1298:Z 0.000900601016

*RES
1 *355:17 *355:9 6.63101006
2 *355:13 *355:10 2.75972
3 *355:12 *355:22 2.69385
4 *355:18 *355:22 0.820681
5 *355:17 *355:18 2.35246
6 *355:14 *355:16 2.55037
7 *355:20 *355:11 3.00306
8 *355:16 *355:21 2.48015
9 *355:15 *355:19 1.06382
10 *355:9 *355:10 4.14307
11 *1739:SA *355:20 4.79265
12 *1329:Z *355:13 3.88586
13 *1733:SA *355:17 0.334303
14 *355:15 *355:11 3.06751
15 *355:12 *355:21 1.54625
16 *355:14 *355:19 0.941896
17 *1734:SA *355:22 0.225027
18 *1735:SA *355:21 0.225027
19 *1737:SA *355:11 0.225027
20 *1738:SA *355:20 0.225027
21 *1732:SA *355:9 0.225027
22 *1736:SA *355:19 0.225027
*END

*D_NET *356 0.00845387

*CONN
*I *1330:Z O *C 145.3 131.2 *L 0 *D DEL2
*I *1768:A1 I *C 145.7 102.2 *L 0.000617 *D CKND2D0
*I *1766:A1 I *C 144.1 102.2 *L 0.000989 *D ND2D1

*CAP
1 *1330:Z 0.000513302
2 *356:3 0.000381359
3 *356:4 0.000427492
4 *356:5 0.000604803
5 *356:6 0.000693744
6 *356:7 0.000341392
7 *356:8 0.000795403984
8 *356:9 0.000353068
9 *356:10 0.00037665
10 *356:11 7.1536e-05
11 *356:12 0.000346368
12 *356:13 0.000293633
13 *356:14 0.000203988
14 *356:4 *292:2 0.000298559004
15 *1330:Z *338:2 0.000320392012
16 *356:4 *347:2 0.000627908008
17 *1330:Z *305:7 0.00096372
18 *1330:Z *344:2 0.000435027969
19 *356:4 *891:9 0.000405511992

*RES
1 *356:3 *356:13 3.24678
2 *356:6 *356:13 3.57364
3 *356:4 *356:11 0.883683
4 *356:6 *356:7 1.6122
5 *1330:Z *356:3 1.79392
6 *356:5 *356:9 2.87835
7 *356:5 *356:8 1.77362
8 *356:8 *356:12 3.04258
9 *356:4 *356:7 3.18211
10 *356:12 *356:14 1.50356
11 *356:9 *356:10 1.45727
12 *356:11 *356:14 5.25813007
13 *1766:A1 *356:10 0.224972
14 *1768:A1 *356:9 0.224972
*END

*D_NET *357 0.00724594

*CONN
*I *1101:I I *C 141.5 40.8 *L 0.000968 *D CKBD1
*I *1331:Z O *C 148.1 6 *L 0 *D DEL1

*CAP
1 *1101:I 0.000256519
2 *1331:Z 0.00042668
3 *357:2 0.000409728
4 *357:3 0.00261404984
5 *357:4 3.90103e-05
6 *357:5 0.00028799
7 *357:6 0.00021707
8 *1331:Z *1484:CDN 0.00038286
9 *357:2 *76:2 0.00156885
10 *357:3 *201:4 0.000392183008
11 *357:3 *249:2 0.000650998008

*RES
1 *357:4 *357:5 2.37057
2 *1331:Z *357:4 1.73601
3 *357:2 *357:3 21.5028
4 *357:5 *357:6 1.32982
5 *1101:I *357:2 2.7771
6 *357:6 *357:3 3.04089
*END

*D_NET *358 0.00483049

*CONN
*I *1332:Z O *C 144.1 127.6 *L 0 *D DEL1
*I *1465:A[8] I *C 134.265 146.91 *L 0.00555 *D sram00

*CAP
1 *358:2 0.000143557
2 *358:3 0.000433584
3 *358:4 4.41201e-05
4 *358:5 0.000300968
5 *358:6 4.78011e-05
6 *358:7 9.07965e-05
7 *358:8 0.000419269
8 *358:9 0.00335042

*RES
1 *358:7 *358:9 13.4566
2 *358:2 *358:3 1.87843
3 *358:7 *358:8 2.2663
4 *358:4 *358:5 1.34987
5 *358:3 *358:4 0.092597
6 *358:6 *358:9 1.2489
7 *358:5 *358:6 0.092597
8 *1332:Z *358:2 0.225
9 *1332:Z *1465:A[8] 0.0001
*END

*D_NET *359 0.00460109

*CONN
*I *1333:Z O *C 147.9 124.8 *L 0 *D DEL1
*I *1770:A1 I *C 144.9 123.8 *L 0.000677 *D ND2D0
*I *1772:A1 I *C 144.9 107 *L 0.000617 *D CKND2D0

*CAP
1 *1772:A1 0.000518101
2 *1770:A1 2.09234e-05
3 *359:3 0.000499875
4 *359:4 0.000171497
5 *359:5 0.00117098
6 *359:6 2.87675e-06
7 *359:7 0.000698836
8 *359:8 0.000150288
9 *359:9 0.000861453
10 *359:10 0.000506254

*RES
1 *359:6 *359:9 0.956646
2 *359:3 *359:10 2.19252
3 *1333:Z *359:3 1.42127
4 *359:5 *359:6 3.83642006
5 *359:4 *359:8 0.311545
6 *359:8 *359:9 2.63338
7 *359:5 *359:7 2.95482
8 *1772:A1 *359:7 2.01591
9 *1770:A1 *359:4 0.525154
10 *359:4 *359:10 0.225024
*END

*D_NET *360 0.00163997

*CONN
*I *1026:Z O *C 138.9 134.8 *L 0 *D CKBD0
*I *1029:I I *C 137.7 130.8 *L 0.000643 *D CKBD0

*CAP
1 *1029:I 0.00013095
2 *360:2 0.00150902

*RES
1 *1026:Z *360:2 3.62036991
2 *1029:I *360:2 2.58966
*END

*D_NET *361 0.0247286

*CONN
*I *1089:I I *C 138.1 177.6 *L 0.00104 *D DEL0
*I *1095:Z O *C 140.5 178.8 *L 0 *D DEL0
*I *1723:DB I *C 147.5 118 *L 0.0011 *D DFXQD1
*I *1715:DB I *C 147.5 89.2 *L 0.0011 *D DFXQD1
*I *1707:DB I *C 147.5 73.2 *L 0.0011 *D DFXQD1

*CAP
1 *1089:I 0.000357917
2 *1095:Z 0.000256861
3 *1723:DB 7.6912e-05
4 *361:5 0.0010699
5 *361:6 0.00371978
6 *361:7 0.00126197
7 *361:8 0.00044762
8 *361:9 0.000392974
9 *361:10 0.00230223
10 *361:11 0.000571947
11 *361:12 0.000609572
12 *361:13 0.00134273
13 *361:14 2.305e-06
14 *361:15 2.1517e-05
15 *361:16 0.000904342
16 *361:17 0.000429992
17 *361:18 0.000632723
18 *361:19 6.3408e-05
19 *361:20 0.000426777
20 *361:21 8.4642e-05
21 *361:22 0.000221597
22 *361:23 0.000291558
23 *361:24 0.00046948
24 *361:25 3.5839e-05
25 *361:26 0.000597441
26 *361:27 4.2e-08
27 *361:28 0.000364923
28 *1095:Z *286:3 0.000183087012
29 *361:19 *114:5 0.000574043984
30 *361:7 *362:9 0.00115438
31 *1089:I *368:2 0.000716416016
32 *361:6 *779:3 0.000305606992
33 *361:6 *780:4 0.000854832031
34 *361:6 *882:5 0.00045632
35 *361:5 *224:5 0.000741918047
36 *361:5 *343:2 0.00165385
37 *1095:Z *88:2 0.000576485977
38 *361:6 *1197:Z 0.000554618008

*RES
1 *1095:Z *361:23 2.87438
2 *361:10 *361:11 2.39676
3 *361:21 *361:23 0.953656
4 *361:19 *361:24 5.40519
5 *361:26 *361:27 5.11894
6 *361:24 *361:27 0.159293
7 *361:21 *361:28 3.42191
8 *361:15 *361:5 2.02718
9 *361:14 *361:16 0.914753
10 *361:25 *361:26 0.159293
11 *361:6 *361:22 17.2268009
12 *361:9 *361:11 1.90574
13 *361:18 *361:20 2.2054
14 *1089:I *361:21 2.01298
15 *361:6 *361:19 5.34053
16 *361:13 *361:20 2.25771
17 *361:5 *361:25 9.29184
18 *361:15 *361:16 3.4369
19 *361:8 *361:10 9.36728
20 *361:9 *361:12 2.59653
21 *361:12 *361:13 5.25957
22 *361:7 *361:14 7.49414
23 *361:7 *361:8 1.5861
24 *1723:DB *361:16 0.718397
25 *361:9 *361:17 1.56875
26 *1707:DB *361:18 0.450017
27 *1715:DB *361:17 0.450017
28 *361:22 *361:28 0.225008
*END

*D_NET *362 0.0170978

*CONN
*I *978:I I *C 151.3 136 *L 0.00182 *D DEL005
*I *991:I I *C 150.5 127.2 *L 0.000643 *D CKBD0
*I *994:I I *C 151.3 82 *L 0.000643 *D CKBD0
*I *1002:Z O *C 151.7 109.6 *L 0 *D CKBD1

*CAP
1 *991:I 0.000122693
2 *1002:Z 0.000216031
3 *362:4 0.000351954
4 *362:5 0.00020277
5 *362:6 0.000535527
6 *362:7 0.000627719
7 *362:8 0.000109221
8 *362:9 0.0004578
9 *362:10 0.000486883
10 *362:11 0.00197511
11 *362:12 3.25493e-06
12 *362:13 0.000807735
13 *362:14 0.000722203
14 *362:15 0.000238635
15 *362:16 0.000288061
16 *362:17 3.40562e-05
17 *362:18 3.91797e-06
18 *362:19 0.00051886
19 *362:20 0.00104287
20 *362:21 0.001159
21 *362:8 *1666:A1 0.000342185
22 *362:6 *789:4 0.00122964
23 *362:4 *503:6 0.000752232031
24 *991:I *392:3 0.000295491992
25 *362:5 *488:78 0.00120053992
26 *362:6 *96:7 0.00152043
27 *362:7 *293:9 0.000431286016
28 *362:8 *1360:I 0.000267311992
29 *362:9 *361:7 0.00115438

*RES
1 *362:4 *362:21 4.65847
2 *362:8 *362:11 6.73186
3 *362:18 *362:7 4.58819
4 *994:I *362:20 2.3513
5 *362:5 *362:20 3.06605
6 *362:9 *362:12 1.9192
7 *362:14 *362:15 1.34463
8 *362:9 *362:19 1.2393
9 *362:13 *362:16 4.39666
10 *362:8 *362:17 1.79511
11 *1002:Z *362:19 3.10375
12 *362:4 *362:19 2.00672
13 *362:10 *362:11 3.13122
14 *362:10 *362:18 1.98247
15 *362:7 *362:21 12.415
16 *362:15 *362:6 3.68551
17 *991:I *362:11 1.85024
18 *362:6 *362:16 1.31451
19 *362:12 *362:14 3.68305
20 *362:5 *362:13 0.944727
21 *978:I *362:17 0.225052
*END

*D_NET *363 0.00483455

*CONN
*I *1091:I I *C 142.9 40.8 *L 0.000968 *D CKBD1
*I *1337:Z O *C 146.5 12.4 *L 0 *D BUFFD2

*CAP
1 *363:2 0.00090139
2 *363:3 0.000485782
3 *363:4 0.000177941
4 *363:6 0.00169447
5 *363:7 0.00157496

*RES
1 *363:5 *363:7 7.40591
2 *363:4 *363:6 8.01706982
3 *1337:Z *363:3 0.701812
4 *363:5 *363:6 0.159275
5 *363:3 *363:7 2.51708
6 *363:2 *363:4 2.79526
7 *1091:I *363:2 1.24924
*END

*D_NET *364 0.0268324

*CONN
*I *1088:I I *C 149.3 182.8 *L 0.00104 *D DEL0
*I *1093:Z O *C 138.7 106 *L 0 *D CKBD1
*I *1720:DB I *C 147.5 109.2 *L 0.0011 *D DFXQD1
*I *1712:DB I *C 147.1 78.4 *L 0.0011 *D DFXQD1
*I *1704:DB I *C 147.3 60.4 *L 0.0011 *D DFXQD1

*CAP
1 *1088:I 0.000215189
2 *1093:Z 0.000898206
3 *1720:DB 8.47195e-05
4 *364:5 0.000608351
5 *364:6 0.00088332
6 *364:7 0.000409841
7 *364:8 0.00201947
8 *364:9 0.00148785
9 *364:10 0.00255386
10 *364:11 7.78998e-05
11 *364:12 0.000923224
12 *364:13 0.000344879
13 *364:15 0.000457423
14 *364:16 0.000783402
15 *364:17 0.000550872
16 *364:18 2.96167e-06
17 *364:19 0.000226334
18 *364:21 0.00170573
19 *364:22 0.000127001
20 *364:23 0.000180311
21 *364:24 0.00027415
22 *364:25 0.000305949
23 *364:26 0.000192197
24 *364:27 0.00119383
25 *364:28 0.000208214
26 *364:29 0.000375587
27 *364:30 0.000474297
28 *364:31 0.000280891
29 *364:32 7.70035e-05
30 *364:16 *36:11 0.00105603
31 *364:22 *1491:CPN 0.000623238984
32 *364:16 *1705:DB 0.000383108984
33 *364:8 *1271:I 0.00170856
34 *364:5 *432:5 0.000740415
35 *364:6 *57:2 0.000473993008
36 *364:7 *84:4 0.000809896016
37 *364:8 *1462:Z 0.00134757
38 *364:9 *347:3 0.000300572988
39 *364:10 *341:2 0.00146593

*RES
1 *364:14 *364:15 0.159186
2 *364:26 *364:28 0.950115
3 *364:24 *364:25 2.35131
4 *364:8 *364:20 19.2835999
5 *364:30 *364:5 11.9619
6 *364:11 *364:12 3.15195
7 *364:14 *364:16 4.37894
8 *364:11 *364:28 0.980422
9 *1720:DB *364:28 0.674997
10 *1093:Z *364:27 4.22711
11 *364:7 *364:23 1.51124
12 *364:12 *364:6 2.81945
13 *364:15 *364:24 2.86594
14 *1088:I *364:29 2.27892
15 *364:19 *364:9 5.9764
16 *364:17 *364:18 2.75648
17 *364:9 *364:30 1.95437
18 *364:23 *364:25 1.88022
19 *364:31 *364:32 6.03466
20 *364:8 *364:19 1.04663
21 *364:5 *364:32 2.53492
22 *364:17 *364:22 0.827709
23 *364:26 *364:27 4.03438
24 *364:26 *364:31 0.702067
25 *364:6 *364:10 11.6588
26 *364:21 *364:29 7.00184
27 *364:13 *364:7 2.06324
28 *364:16 *364:18 0.159186
29 *364:10 *364:13 1.5233
30 *364:20 *364:21 0.286006
31 *1712:DB *364:25 0.4499
32 *1704:DB *364:22 0.4499
*END

*D_NET *365 0.00513088

*CONN
*I *1086:I I *C 151.1 51.6 *L 0.000968 *D CKBD1
*I *1339:Z O *C 145.9 19.6 *L 0 *D BUFFD2

*CAP
1 *365:2 0.000350328
2 *365:3 5.348e-05
3 *365:4 0.0012952
4 *365:5 0.00027827
5 *365:6 0.000272835
6 *365:7 0.000356593
7 *365:8 0.00071609
8 *365:6 *467:11 0.000592355
9 *365:2 *480:5 0.000162937998
10 *365:3 *1490:CPN 0.000210795996
11 *365:4 *800:7 0.000842033047

*RES
1 *365:6 *365:4 12.5270004
2 *365:3 *365:6 2.06706
3 *365:7 *365:8 4.97938
4 *365:4 *365:7 1.44201
5 *365:5 *365:2 1.67865
6 *365:2 *365:8 2.00494
7 *1339:Z *365:5 0.22498
8 *1086:I *365:3 0.44996
*END

*D_NET *366 0.0222396

*CONN
*I *1059:I I *C 149.3 192 *L 0.00104 *D DEL0
*I *1070:I I *C 137.5 145.2 *L 0.00103 *D DEL015
*I *1078:I I *C 149.7 145.2 *L 0.00103 *D DEL015
*I *1094:Z O *C 138.7 99.6 *L 0 *D CKBD1

*CAP
1 *1059:I 8.51509e-06
2 *1070:I 2.32593e-05
3 *1094:Z 2.85741e-06
4 *366:4 0.00160684
5 *366:5 0.00222455
6 *366:6 0.000820877
7 *366:8 0.000859224
8 *366:9 0.00374521
9 *366:10 2.51452e-06
10 *366:11 0.00236948
11 *366:12 0.000311801
12 *366:13 0.000168016
13 *366:14 0.00162832
14 *366:15 5.54338e-06
15 *366:16 0.000193333
16 *366:17 0.000369121
17 *366:18 0.000361863
18 *366:19 0.00238074
19 *366:20 0.000235508
20 *366:21 0.000826935
21 *366:4 *1210:I 0.000843083984
22 *366:4 *479:11 0.00102918992
23 *366:5 *231:3 0.00130223
24 *366:5 *113:6 0.000920711016

*RES
1 *366:16 *366:17 1.67571
2 *366:4 *366:17 2.3221
3 *366:9 *366:10 0.159327
4 *366:18 *366:21 4.07781
5 *366:15 *366:4 11.355
6 *366:12 *366:19 8.99324
7 *366:16 *366:18 2.36221
8 *366:11 *366:13 1.57555
9 *366:6 *366:21 3.85643
10 *366:7 *366:8 0.159327
11 *1070:I *366:5 0.929594
12 *366:10 *366:11 9.13396
13 *366:19 *366:20 0.788881
14 *366:5 *366:20 9.57205
15 *1094:Z *366:6 0.326854
16 *366:5 *366:14 10.6537
17 *366:7 *366:9 14.5225
18 *366:12 *366:13 1.70651
19 *366:14 *366:15 0.159327
20 *1059:I *366:8 3.54664
21 *1078:I *366:19 0.450061
*END

*D_NET *367 0.00982814

*CONN
*I *1092:I I *C 147.3 12 *L 0.00103 *D DEL01
*I *1105:Z O *C 148.9 19.6 *L 0 *D DEL0
*I *1702:DB I *C 144.1 53.2 *L 0.0011 *D DFXQD1

*CAP
1 *1092:I 0.00127426
2 *1105:Z 0.000306981
3 *367:3 0.00172551
4 *367:4 0.00110905
5 *367:5 3.67889e-05
6 *367:6 0.00018222
7 *367:7 0.00075169
8 *367:8 0.00194904
9 *367:5 *467:11 0.00175834
10 *367:3 *1474:CP 0.000734232031

*RES
1 *367:4 *367:5 3.58586
2 *1702:DB *367:7 2.5786
3 *1105:Z *367:6 1.87091
4 *367:5 *367:8 18.3826008
5 *1092:I *367:6 5.25117
6 *367:3 *367:7 6.65674
7 *367:4 *367:3 1.40304
8 *367:6 *367:8 0.224958
*END

*D_NET *368 0.0124413

*CONN
*I *1264:I I *C 146.9 188.4 *L 0.00105 *D DEL1
*I *1465:Q[27] O *C 134.265 121.735 *L 0 *D sram00

*CAP
1 *368:2 0.000239568
2 *368:3 0.00243110984
3 *368:4 0.000752054
4 *368:5 0.000654528
5 *368:6 0.000175095
6 *368:8 3.59835e-06
7 *368:9 0.000448458
8 *368:10 0.000294842
9 *368:11 7.58621e-05
10 *368:12 0.000217644
11 *368:14 5.89832e-05
12 *368:15 0.000188227
13 *368:16 1.37257e-06
14 *368:18 0.000119116
15 *368:19 2.71174e-05
16 *368:20 1.81401e-05
17 *368:22 2.94916e-05
18 *368:23 0.000107542
19 *368:2 *77:4 0.000320356016
20 *368:3 *1197:Z 0.000275216016
21 *368:4 *291:3 0.000535658008
22 *368:2 *1089:I 0.000716416016
23 *368:5 *371:5 0.00189373
24 *368:5 *372:3 0.000377056992
25 *368:3 *485:5 0.000978015
26 *368:3 *781:5 0.000268419004
27 *368:6 *472:10 0.000411341016
28 *368:5 *106:2 0.000822352969

*RES
1 *368:13 *368:15 1.60369
2 *1264:I *368:6 1.06296
3 *368:22 *368:23 0.159222
4 *368:19 *368:21 0.159222
5 *368:14 *368:20 0.440217
6 *368:13 *368:14 0.159222
7 *368:3 *368:23 20.9625
8 *368:8 *368:9 1.74039
9 *368:6 *368:8 0.159222
10 *368:11 *368:12 1.1498
11 *368:3 *368:10 2.18011
12 *368:4 *368:7 2.95154
13 *368:10 *368:11 0.220352
14 *368:4 *368:5 5.98481
15 *368:20 *368:2 0.159222
16 *368:17 *368:18 0.159222
17 *368:5 *368:18 0.963885
18 *368:7 *368:9 0.159222
19 *368:21 *368:2 10.953
20 *368:17 *368:19 0.987514
21 *368:16 *368:22 2.98184
22 *368:15 *368:16 0.159222
23 *1264:I *1465:Q[27] 0.0001
*END

*D_NET *369 0.00825672

*CONN
*I *1222:I I *C 137.9 98.4 *L 0.00104 *D DEL0
*I *1465:Q[11] O *C 134.265 54.535 *L 0 *D sram00

*CAP
1 *1222:I 3.42901e-05
2 *369:2 5.71502e-05
3 *369:3 0.000362209
4 *369:4 4.68151e-05
5 *369:6 0.000875078984
6 *369:7 8.02506e-06
7 *369:8 0.000595257
8 *369:9 0.000607034
9 *369:10 0.000242982
10 *369:11 0.000148163
11 *369:12 1.81732e-05
12 *369:13 4.48389e-05
13 *369:14 0.000154613
14 *369:15 2.02429e-05
15 *369:16 0.000372131
16 *369:17 0.000218893
17 *369:19 1.74388e-05
18 *369:20 0.000200279
19 *369:21 0.000364733
20 *369:22 2.53704e-06
21 *369:10 *397:5 0.00028810998
22 *369:4 *479:4 0.00240577
23 *369:2 *511:2 0.000352585
24 *369:3 *806:4 0.000819398984

*RES
1 *369:21 *369:22 0.159238
2 *369:2 *369:8 5.20758
3 *369:18 *369:20 0.159238
4 *369:12 *369:13 0.092599
5 *369:10 *369:16 2.37267
6 *369:2 *369:7 0.807607
7 *369:15 *369:17 2.98964
8 *369:5 *369:3 2.05042
9 *369:11 *369:22 0.718337
10 *369:8 *369:9 6.36051
11 *369:4 *369:6 6.66199
12 *369:9 *369:10 1.14871
13 *369:13 *369:14 0.96672
14 *369:17 *369:19 0.285194
15 *369:19 *369:20 1.85849
16 *369:3 *369:7 0.159229
17 *1222:I *369:4 0.328406
18 *369:18 *369:21 2.48582
19 *369:15 *369:16 0.285194
20 *369:11 *369:12 0.268467
21 *369:5 *369:6 0.159229
22 *1222:I *1465:Q[11] 0.0001
*END

*D_NET *370 0.00290339

*CONN
*I *1184:I I *C 145.3 94.8 *L 0.00072 *D BUFFD1
*I *1465:Q[18] O *C 134.265 85.545 *L 0 *D sram00

*CAP
1 *370:2 7.18882e-05
2 *370:3 5.96703e-05
3 *370:4 0.000312935
4 *370:5 2.34691e-05
5 *370:6 0.00134798
6 *370:7 7.57551e-05
7 *370:8 0.000174239
8 *370:9 0.000819031
9 *370:10 1.84091e-05

*RES
1 *370:9 *370:10 0.268549
2 *370:2 *370:3 0.290248
3 *370:8 *370:9 5.87633991
4 *370:7 *370:8 0.772112
5 *370:6 *370:7 0.0926248
6 *370:4 *370:5 0.0926248
7 *370:3 *370:4 1.19211
8 *370:5 *370:6 5.71091
9 *1184:I *370:3 0.224972
10 *1184:I *1465:Q[18] 8.96658e-05
*END

*D_NET *371 0.0153546

*CONN
*I *1266:I I *C 141.9 179.2 *L 0.00105 *D DEL1
*I *1465:Q[22] O *C 134.265 102.345 *L 0 *D sram00

*CAP
1 *1266:I 7.4818e-05
2 *371:2 0.000992867
3 *371:3 0.000626761
4 *371:4 0.000943678
5 *371:5 0.000483656
6 *371:6 0.000104982
7 *371:7 0.000781474
8 *371:9 7.22305e-05
9 *371:10 0.000199712
10 *371:11 0.000183841
11 *371:13 0.000186404
12 *371:15 0.00161502
13 *371:16 7.24523e-06
14 *371:17 5.73211e-05
15 *371:18 5.69268e-06
16 *371:19 1.10896e-06
17 *371:5 *106:2 0.000529295039
18 *371:5 *368:5 0.00189373
19 *371:2 *87:2 0.000643890039
20 *371:3 *241:4 0.000596063008
21 *371:2 *89:5 0.000324015996
22 *371:4 *71:5 0.000707202031
23 *371:5 *88:2 0.00432364

*RES
1 *371:6 *371:5 2.4901
2 *371:8 *371:10 1.42227
3 *371:10 *371:12 0.159222
4 *371:14 *371:3 5.64204
5 *371:19 *371:4 10.3827
6 *371:14 *371:15 0.159238
7 *371:5 *371:17 0.718265
8 *371:2 *371:7 3.35531
9 *371:8 *371:9 0.159222
10 *371:2 *371:16 8.4673
11 *371:11 *371:12 2.77094
12 *371:18 *371:4 0.159222
13 *371:13 *371:15 25.3902
14 *1266:I *371:6 0.350921
15 *371:9 *371:18 0.369312
16 *371:11 *371:13 1.20986
17 *371:17 *371:19 0.159222
18 *371:3 *371:16 0.159238
19 *1266:I *1465:Q[22] 0.0001
*END

*D_NET *372 0.0126906

*CONN
*I *1265:I I *C 144.7 182.8 *L 0.00105 *D DEL1
*I *1465:Q[24] O *C 134.265 110.745 *L 0 *D sram00

*CAP
1 *372:2 0.00387414
2 *372:3 0.000550957
3 *372:4 0.000242965
4 *372:5 1.50154e-05
5 *372:6 0.000712225
6 *372:7 0.000174923
7 *372:8 0.000513714
8 *372:10 0.00031349
9 *372:7 *556:3 0.000336611016
10 *372:3 *368:5 0.000377056992
11 *372:8 *781:4 0.000693077969
12 *372:7 *788:8 0.000972751016
13 *372:2 *487:3 0.000763897031
14 *372:3 *489:41 0.00048216
15 *372:2 *995:Z 0.00266769

*RES
1 *372:8 *372:2 34.0836
2 *372:8 *372:10 0.159222
3 *372:7 *372:9 0.159222
4 *372:5 *372:2 0.384238
5 *372:4 *372:3 3.1208
6 *372:9 *372:10 9.29114
7 *372:5 *372:6 3.89178
8 *372:3 *372:7 7.89407
9 *1265:I *372:4 1.0889
10 *1265:I *1465:Q[24] 0.0001
*END

*D_NET *373 0.00752756

*CONN
*I *1271:I I *C 147.1 168.4 *L 0.00105 *D DEL1
*I *1465:Q[30] O *C 134.265 135.945 *L 0 *D sram00

*CAP
1 *373:2 0.00123453
2 *373:3 0.00115956
3 *373:5 0.000167842
4 *373:6 1.47672e-05
5 *373:7 0.00168601
6 *373:8 7.13149e-05
7 *373:9 8.99411e-05
8 *373:6 *106:3 0.000448138008
9 *373:6 *783:4 0.000319716992
10 *1271:I *476:20 0.000329765
11 *373:2 *99:3 0.000297403008
12 *1271:I *364:8 0.00170856

*RES
1 *373:3 *373:4 10.7081
2 *1271:I *373:5 2.32217
3 *373:7 *373:8 0.219084
4 *373:4 *373:5 0.159222
5 *373:3 *373:7 7.67588
6 *373:2 *373:9 0.854528
7 *373:6 *373:8 0.745271
8 *373:6 *373:2 10.1747
9 *1271:I *1465:Q[30] 0.0001
*END

*D_NET *374 0.0019315

*CONN
*I *1277:I I *C 137.5 69.6 *L 0.00104 *D DEL0
*I *1465:Q[16] O *C 134.265 77.145 *L 0 *D sram00

*CAP
1 *374:2 0.000144713
2 *374:4 6.65457e-05
3 *374:5 0.000384139
4 *374:6 7.09281e-05
5 *374:7 0.00126518

*RES
1 *374:2 *374:3 0.183874
2 *374:4 *374:5 2.01453
3 *374:4 *374:7 5.69757986
4 *1277:I *374:3 0.449992
5 *374:3 *374:6 0.224996
6 *374:6 *374:7 0.224996
7 *1277:I *1465:Q[16] 8.69382e-05
*END

*D_NET *375 0.00662748

*CONN
*I *1269:I I *C 138.9 168.4 *L 0.00105 *D DEL1
*I *1465:Q[28] O *C 134.265 127.545 *L 0 *D sram00

*CAP
1 *1269:I 0.000143011
2 *375:2 6.6414e-05
3 *375:3 3.21827e-05
4 *375:4 0.000162131
5 *375:5 3.08764e-06
6 *375:6 5.18665e-05
7 *375:7 0.00021183
8 *375:8 0.000548918
9 *375:9 0.00194566
10 *375:11 1.36569e-06
11 *375:12 0.000909578
12 *375:2 *108:3 0.0022438
13 *375:4 *784:4 0.000307628984

*RES
1 *375:11 *375:12 8.77743
2 *375:4 *375:10 0.712177
3 *375:2 *375:3 0.14481
4 *375:10 *375:12 0.159238
5 *375:9 *375:11 0.159238
6 *375:8 *375:9 18.4187
7 *375:6 *375:7 1.77933
8 *375:4 *375:5 0.268465
9 *1269:I *375:3 1.32761
10 *375:5 *375:6 0.092597
11 *375:3 *375:8 0.225
12 *1269:I *1465:Q[28] 0.0001
*END

*D_NET *376 0.00395079

*CONN
*I *1223:I I *C 142.5 12 *L 0.00104 *D DEL0
*I *1465:Q[6] O *C 134.265 35.145 *L 0 *D sram00

*CAP
1 *1223:I 8.98244e-05
2 *376:2 5.72192e-05
3 *376:3 0.000657746
4 *376:4 4.77945e-05
5 *376:5 0.00199886
6 *376:6 7.47571e-05
7 *376:7 5.70972e-05
8 *376:8 1.16207e-05
9 *376:9 0.000291007
10 *376:10 0.000465714
11 *376:12 0.000172573
12 *376:13 2.65051e-05

*RES
1 *376:6 *376:9 1.28595
2 *376:2 *376:3 2.90579
3 *376:8 *376:10 2.4856
4 *376:10 *376:13 0.285177
5 *376:12 *376:13 0.683048
6 *376:4 *376:5 2.60349
7 *376:6 *376:7 0.377717
8 *376:8 *376:9 0.285177
9 *1223:I *376:2 0.575926
10 *376:5 *376:11 10.6217
11 *376:11 *376:12 0.159233
12 *376:3 *376:4 0.09325
13 *1223:I *1465:Q[6] 0.0001
*END

*D_NET *377 0.00754844

*CONN
*I *1267:I I *C 139.1 174 *L 0.00105 *D DEL1
*I *1465:Q[25] O *C 134.265 113.335 *L 0 *D sram00

*CAP
1 *1267:I 7.83758e-05
2 *377:2 0.00323856
3 *377:3 0.000295663
4 *377:4 9.65119e-05
5 *377:5 2.01128e-05
6 *377:6 8.65296e-05
7 *377:7 0.000208096
8 *377:8 3.45921e-05
9 *377:9 0.000145237
10 *377:9 *207:2 0.000470408008
11 *377:3 *385:2 0.00135829
12 *377:2 *783:3 0.000230660996
13 *377:2 *132:6 0.00025738498
14 *377:3 *70:4 0.000395496016
15 *377:2 *386:2 0.000632511992

*RES
1 *377:7 *377:9 0.159222
2 *377:6 *377:8 0.159222
3 *377:4 *377:3 1.73585
4 *377:8 *377:9 4.63158
5 *377:2 *377:5 1.00724
6 *377:3 *377:6 2.85761
7 *1267:I *377:4 0.861646
8 *377:2 *377:7 31.2811
9 *1267:I *1465:Q[25] 0.0001
*END

*D_NET *378 0.00260265

*CONN
*I *1465:Q[31] O *C 134.265 138.535 *L 0 *D sram00
*I *1352:I I *C 149.1 141.6 *L 0.00287 *D BUFFD8

*CAP
1 *378:2 0.000108299
2 *378:3 5.83173e-05
3 *378:4 0.0019033
4 *378:5 0.000108938
5 *378:6 9.46785e-06
6 *378:8 0.00041432

*RES
1 *378:7 *378:8 0.864545
2 *378:4 *378:5 1.24291
3 *378:5 *378:6 0.268551
4 *378:4 *378:8 9.62263
5 *1352:I *378:2 0.225
6 *378:2 *378:3 0.225
7 *378:3 *378:7 0.225
8 *1352:I *1465:Q[31] 0.0001
*END

*D_NET *379 0.00164358

*CONN
*I *1183:I I *C 140.1 62.4 *L 0.000968 *D CKBD1
*I *1465:Q[12] O *C 134.265 60.345 *L 0 *D sram00

*CAP
1 *379:2 8.97445e-05
2 *379:3 3.59036e-06
3 *379:4 0.000601487
4 *379:5 0.000948767031

*RES
1 *379:2 *379:3 0.159235
2 *379:4 *379:5 4.61548996
3 *379:3 *379:4 1.85328
4 *1183:I *379:2 0.613699
5 *1183:I *1465:Q[12] 7.04268e-05
*END

*D_NET *380 0.0027296

*CONN
*I *1187:I I *C 145.5 82 *L 0.000968 *D CKBD1
*I *1465:Q[17] O *C 134.265 79.735 *L 0 *D sram00

*CAP
1 *380:2 0.000397661
2 *380:3 0.000835823
3 *380:4 0.000179003
4 *380:5 0.0012853
5 *380:6 3.18113e-05

*RES
1 *380:4 *380:6 0.780505
2 *380:2 *380:3 2.63947
3 *380:3 *380:5 6.26852989
4 *380:2 *380:6 1.61276
5 *1187:I *380:4 0.450034
6 *1187:I *1465:Q[17] 9.56502e-05
*END

*D_NET *381 0.00329843

*CONN
*I *1185:I I *C 141.5 96.4 *L 0.00072 *D BUFFD1
*I *1465:Q[19] O *C 134.265 88.135 *L 0 *D sram00

*CAP
1 *381:2 0.00030237
2 *381:3 8.98985e-05
3 *381:4 0.000586377
4 *381:5 0.00141249
5 *381:6 0.000239262
6 *381:7 1.50226e-05
7 *381:8 1.00438e-05
8 *381:9 0.000642954

*RES
1 *381:7 *381:9 0.159277
2 *381:6 *381:8 0.159277
3 *381:2 *381:3 0.704468
4 *381:8 *381:9 2.74495
5 *381:4 *381:5 5.4366498
6 *381:3 *381:6 1.17616
7 *1185:I *381:2 0.644491
8 *381:4 *381:7 2.2653
9 *1185:I *1465:Q[19] 8.29567e-05
*END

*D_NET *382 0.00423117

*CONN
*I *1225:I I *C 143.1 15.6 *L 0.00104 *D DEL0
*I *1465:Q[9] O *C 134.265 46.135 *L 0 *D sram00

*CAP
1 *382:2 8.10389e-05
2 *382:3 8.29118e-05
3 *382:4 1.34643e-05
4 *382:5 5.98807e-05
5 *382:6 3.73559e-05
6 *382:7 0.000324814
7 *382:8 5.00609e-05
8 *382:9 4.80868e-05
9 *382:10 1.33631e-05
10 *382:11 7.44586e-05
11 *382:12 0.000128417
12 *382:13 0.00331723

*RES
1 *382:11 *382:12 1.00725
2 *382:10 *382:13 1.87843
3 *382:9 *382:10 0.092597
4 *382:2 *382:3 0.619371
5 *382:8 *382:9 0.411025
6 *382:7 *382:8 0.092597
7 *382:6 *382:7 1.92189
8 *382:4 *382:5 0.411025
9 *382:3 *382:4 0.092597
10 *382:11 *382:13 19.4945
11 *382:5 *382:6 0.092597
12 *1225:I *382:2 0.45
13 *1225:I *1465:Q[9] 0.0001
*END

*D_NET *383 0.00268471

*CONN
*I *1121:I I *C 148.3 6.4 *L 0.000968 *D CKBD1
*I *1465:Q[0] O *C 134.265 9.945 *L 0 *D sram00

*CAP
1 *1121:I 0.000158093
2 *383:3 0.000165048
3 *383:4 4.15186e-05
4 *383:5 0.000246284
5 *383:6 2.05329e-06
6 *383:7 0.000158375
7 *383:8 6.58561e-05
8 *383:9 0.000304702
9 *383:10 1.02262e-05
10 *383:11 0.000659618047
11 *383:12 5.90219e-05
12 *383:13 0.00024726
13 *383:14 1.68188e-05
14 *383:15 0.000444526
15 *383:16 3.82777e-05
16 *383:17 6.70337e-05

*RES
1 *383:7 *383:8 0.0926081
2 *383:2 *383:3 0.159205
3 *383:12 *383:13 1.29236
4 *383:4 *383:7 1.15875
5 *383:5 *383:6 0.159205
6 *383:10 *383:11 2.77638006
7 *383:8 *383:9 1.67008
8 *383:9 *383:10 0.0926081
9 *383:13 *383:14 0.0926081
10 *383:2 *383:5 0.987552
11 *383:16 *383:17 0.646181
12 *383:15 *383:16 0.450374
13 *1121:I *383:6 0.811147
14 *383:11 *383:12 0.0926081
15 *383:14 *383:15 2.42552
16 *383:3 *383:4 0.361112
17 *1121:I *1465:Q[0] 8.47284e-05
*END

*D_NET *384 0.00734024

*CONN
*I *1197:I I *C 137.5 152.4 *L 0.00104 *D DEL0
*I *1465:Q[23] O *C 134.265 104.935 *L 0 *D sram00

*CAP
1 *1197:I 5.70588e-05
2 *384:2 0.001542
3 *384:3 0.000599576
4 *384:4 0.000553129
5 *384:5 0.000107106
6 *384:6 8.12471e-05
7 *384:7 0.0003624
8 *384:8 0.000250894
9 *384:9 0.000376047
10 *384:10 0.000299412
11 *384:2 *154:8 0.000430718008
12 *384:2 *479:11 0.000702247031
13 *384:3 *223:4 0.00114941
14 *384:4 *231:4 0.000829007969

*RES
1 *384:5 *384:3 3.47215
2 *384:8 *384:9 2.10417
3 *384:7 *384:8 1.65447
4 *384:4 *384:7 2.34985
5 *384:3 *384:6 1.1839
6 *384:2 *384:9 14.9053
7 *1197:I *384:5 0.484272
8 *384:6 *384:4 5.46456
9 *384:2 *384:10 1.86177
10 *1197:I *1465:Q[23] 0.0001
*END

*D_NET *385 0.00724928

*CONN
*I *1268:I I *C 143.1 175.6 *L 0.00105 *D DEL1
*I *1465:Q[26] O *C 134.265 119.145 *L 0 *D sram00

*CAP
1 *1268:I 0.000129896
2 *385:2 0.000290557
3 *385:3 5.27286e-05
4 *385:4 0.000172311
5 *385:5 0.000565595
6 *385:6 4.70903e-05
7 *385:7 0.000208419
8 *385:8 7.72069e-06
9 *385:9 0.00030651
10 *385:11 5.94277e-05
11 *385:12 0.000175435
12 *385:14 0.000901082
13 *385:15 0.00128747
14 *385:17 6.32586e-06
15 *385:18 0.000538504
16 *385:19 0.0006052
17 *385:20 1.49306e-06
18 *385:21 0.000463183
19 *385:22 1.53825e-05
20 *385:23 2.19441e-05
21 *385:24 3.47333e-05
22 *385:2 *377:3 0.00135829

*RES
1 *385:21 *385:22 0.159238
2 *385:8 *385:9 0.863776
3 *385:3 *385:4 0.384844
4 *385:9 *385:11 0.636391
5 *385:12 *385:14 0.159222
6 *385:22 *385:23 0.095606
7 *385:23 *385:24 0.394506
8 *385:6 *385:7 1.29235
9 *385:5 *385:6 0.092595
10 *385:7 *385:8 0.092595
11 *385:15 *385:17 0.159238
12 *385:10 *385:11 0.159222
13 *385:13 *385:14 11.4261
14 *385:16 *385:19 4.1301
15 *385:2 *385:13 0.159222
16 *385:19 *385:20 0.159238
17 *385:17 *385:18 3.11559
18 *1268:I *385:3 1.10896
19 *385:10 *385:2 2.74426
20 *385:20 *385:21 4.50533
21 *385:16 *385:18 0.159238
22 *385:12 *385:15 8.78719
23 *385:4 *385:5 2.6569
24 *1268:I *1465:Q[26] 0.0001
*END

*D_NET *386 0.00620271

*CONN
*I *1270:I I *C 138.9 166.8 *L 0.00105 *D DEL1
*I *1465:Q[29] O *C 134.265 130.135 *L 0 *D sram00

*CAP
1 *1270:I 0.00021324
2 *386:2 0.00334883
3 *386:3 4.43036e-05
4 *386:4 2.81049e-05
5 *386:5 0.000107821
6 *386:6 2.00311e-05
7 *386:7 0.00010082
8 *386:8 0.000395615
9 *1270:I *108:3 0.000386758008
10 *386:6 *207:3 0.000270216992
11 *386:2 *377:2 0.000632511992
12 *386:2 *391:2 0.00030838502
13 *386:3 *70:4 0.000346031016

*RES
1 *386:3 *386:4 0.18382
2 *386:7 *386:8 1.44242
3 *386:6 *386:7 1.6268
4 *386:2 *386:5 1.38496
5 *1270:I *386:4 2.10362
6 *386:2 *386:8 22.8728
7 *386:4 *386:6 0.225
8 *1270:I *1465:Q[29] 0.0001
*END

*D_NET *387 0.000606686

*CONN
*I *1263:I I *C 138.7 188.4 *L 0.00105 *D DEL1
*I *1465:Q[33] O *C 134.195 187.515 *L 0 *D sram00

*CAP
1 *1263:I 0.000193042
2 *387:3 0.0001203
3 *387:4 0.000293343008

*RES
1 *387:2 *387:3 0.58327
2 *387:3 *387:4 2.19218993
3 *1263:I *387:2 1.2775
4 *1263:I *1465:Q[33] 0.00010035
*END

*D_NET *388 0.00360459

*CONN
*I *1221:I I *C 137.5 6.4 *L 0.00104 *D DEL0
*I *1465:Q[7] O *C 134.265 37.735 *L 0 *D sram00

*CAP
1 *1221:I 0.000149171
2 *388:2 4.00654e-05
3 *388:3 3.0124e-05
4 *388:4 3.1223e-05
5 *388:5 8.00808e-05
6 *388:6 0.00327392

*RES
1 *388:2 *388:3 0.329735
2 *388:4 *388:5 0.640123
3 *388:3 *388:4 0.116499
4 *388:2 *388:6 20.2244
5 *1221:I *388:6 1.7956
6 *1221:I *1465:Q[7] 0.0001
*END

*D_NET *389 0.00222734

*CONN
*I *1189:I I *C 150.9 42.4 *L 0.000968 *D CKBD1
*I *1465:Q[8] O *C 134.265 43.545 *L 0 *D sram00

*CAP
1 *389:2 5.40621e-05
2 *389:3 5.82473e-05
3 *389:5 1.82073e-05
4 *389:6 0.000349804
5 *389:7 0.00174702

*RES
1 *389:6 *389:7 10.5611
2 *389:4 *389:5 0.268533
3 *389:4 *389:7 1.00571
4 *1189:I *389:2 0.45
5 *389:2 *389:3 0.225
6 *389:3 *389:6 0.225
7 *1189:I *1465:Q[8] 0.0001
*END

*D_NET *390 0.00121845

*CONN
*I *1278:I I *C 139.9 71.2 *L 0.00104 *D DEL0
*I *1465:Q[15] O *C 134.265 71.335 *L 0 *D sram00

*CAP
1 *1278:I 0.00011887
2 *390:2 5.19539e-05
3 *390:3 0.00104762992

*RES
1 *390:2 *390:3 4.38604021
2 *1278:I *390:2 0.575962
3 *1278:I *1465:Q[15] 6.69257e-05
*END

*D_NET *391 0.00908771

*CONN
*I *1198:I I *C 149.5 132.4 *L 0.00104 *D DEL0
*I *1465:Q[21] O *C 134.265 96.535 *L 0 *D sram00

*CAP
1 *391:2 0.0028041
2 *391:3 7.07711e-05
3 *391:4 7.79594e-05
4 *391:5 0.00014903
5 *391:6 0.00196323
6 *391:2 *386:2 0.00030838502
7 *391:6 *69:3 0.000556753984
8 *391:2 *108:2 0.000399753008
9 *391:2 *511:3 0.0027577

*RES
1 *391:4 *391:6 0.384238
2 *391:3 *391:2 9.55208
3 *391:4 *391:5 1.38497
4 *391:2 *391:6 26.9277
5 *1198:I *391:3 0.45
6 *1198:I *1465:Q[21] 0.0001
*END

*D_NET *392 0.00749845

*CONN
*I *1199:I I *C 149.5 128.8 *L 0.00104 *D DEL0
*I *1465:Q[20] O *C 134.265 93.945 *L 0 *D sram00

*CAP
1 *392:2 0.00204346984
2 *392:3 0.000227749
3 *392:4 0.000306419
4 *392:5 0.000296628
5 *392:6 0.000372305
6 *392:7 0.000261424
7 *392:8 0.00049042
8 *392:9 0.000198407
9 *392:10 0.00016127
10 *392:11 6.42336e-05
11 *392:8 *108:2 0.000335316992
12 *392:3 *991:I 0.000295491992
13 *392:3 *781:3 0.000461353008
14 *392:2 *511:3 0.00125549992
15 *392:2 *242:5 0.000728495

*RES
1 *392:2 *392:11 0.668009
2 *392:8 *392:2 21.2094
3 *392:3 *392:4 1.75252
4 *392:9 *392:11 0.696502
5 *392:9 *392:10 1.25907
6 *392:7 *392:8 1.40162
7 *392:5 *392:6 2.31482
8 *392:4 *392:5 1.34282
9 *1199:I *392:3 1.88881
10 *392:6 *392:7 1.34585
11 *1199:I *1465:Q[20] 0.0001
*END

*D_NET *393 0.000686226

*CONN
*I *1276:I I *C 140.1 226 *L 0.00104 *D DEL0
*I *1465:Q[42] O *C 134.195 226.925 *L 0 *D sram00

*CAP
1 *1276:I 0.00037663
2 *393:2 7.98431e-05
3 *393:4 0.000229754

*RES
1 *393:2 *393:3 0.582076
2 *393:3 *393:4 1.8817
3 *1276:I *393:2 2.67173004
4 *1276:I *1465:Q[42] 8.15347e-05
*END

*D_NET *394 0.000796996

*CONN
*I *1255:I I *C 140.7 236.8 *L 0.00105 *D DEL1
*I *1465:Q[45] O *C 134.195 237.915 *L 0 *D sram00

*CAP
1 *1255:I 0.000186078
2 *394:2 4.83779e-05
3 *394:3 0.000562535

*RES
1 *394:2 *394:3 4.3798399
2 *1255:I *394:2 1.08781
3 *1255:I *1465:Q[45] 6.68311e-05
*END

*D_NET *395 0.00107593

*CONN
*I *1259:I I *C 139.3 197.2 *L 0.00105 *D DEL1
*I *1465:Q[36] O *C 134.195 201.725 *L 0 *D sram00

*CAP
1 *1259:I 0.000469806992
2 *395:2 0.000123296
3 *395:3 4.44322e-05
4 *395:4 0.000387904
5 *395:5 1.07747e-05
6 *395:6 3.9708e-05

*RES
1 *395:2 *395:3 0.183809
2 *395:4 *395:5 3.05726
3 *1259:I *395:3 3.4997499
4 *395:5 *395:6 0.520295
5 *395:3 *395:4 0.224982
6 *1259:I *1465:Q[36] 0.000106804
*END

*D_NET *396 0.00343303

*CONN
*I *1188:I I *C 150.9 35.2 *L 0.000968 *D CKBD1
*I *1465:Q[5] O *C 134.265 29.335 *L 0 *D sram00

*CAP
1 *396:2 0.000334501
2 *396:3 0.000897538984
3 *396:4 4.65101e-05
4 *396:5 0.000102361
5 *396:6 1.21891e-06
6 *396:7 0.000320915
7 *396:8 4.86877e-05
8 *396:9 7.09156e-05
9 *396:10 5.47001e-05
10 *396:11 6.99433e-05
11 *396:12 5.25773e-05
12 *396:13 2.98837e-05
13 *396:14 0.000148542
14 *396:15 0.000612904
15 *396:17 0.000121192
16 *396:18 0.000317833
17 *396:19 1.49282e-06
18 *396:20 0.000175084
19 *396:21 2.62407e-05

*RES
1 *396:7 *396:8 0.0925923
2 *396:2 *396:3 4.29449987
3 *396:18 *396:19 0.159235
4 *396:12 *396:13 0.335966
5 *396:5 *396:6 0.0925923
6 *396:4 *396:5 0.410997
7 *396:6 *396:7 1.54419
8 *396:15 *396:17 0.759021
9 *396:10 *396:11 0.410997
10 *396:8 *396:9 0.410997
11 *396:9 *396:10 0.0925923
12 *396:13 *396:14 0.0931165
13 *396:19 *396:20 0.688512
14 *1188:I *396:2 1.13994
15 *396:16 *396:17 0.159235
16 *396:11 *396:12 0.0932476
17 *396:20 *396:21 0.268537
18 *396:16 *396:18 1.74071
19 *396:14 *396:15 3.41609
20 *396:3 *396:4 0.0925923
21 *1188:I *1465:Q[5] 0.000131058
*END

*D_NET *397 0.00647718

*CONN
*I *1220:I I *C 140.1 103.6 *L 0.00104 *D DEL0
*I *1465:Q[13] O *C 134.265 62.935 *L 0 *D sram00

*CAP
1 *397:2 0.00147529
2 *397:3 0.000411105
3 *397:4 5.96329e-05
4 *397:5 0.000316669
5 *397:6 5.31721e-05
6 *397:7 5.02006e-05
7 *397:9 0.000116992
8 *397:10 0.000129509
9 *397:11 0.000301271
10 *397:13 2.40873e-06
11 *397:14 0.000198821
12 *397:2 *69:3 0.0015538
13 *397:2 *496:8 0.000664151016
14 *397:3 *498:8 0.000301245996
15 *397:4 *112:2 0.000327946992
16 *397:3 *237:7 0.000226910996
17 *397:5 *369:10 0.00028810998

*RES
1 *397:4 *397:3 3.31604
2 *397:2 *397:9 0.159238
3 *397:8 *397:10 0.159238
4 *397:13 *397:5 3.24705
5 *397:3 *397:2 17.8153
6 *397:6 *397:7 0.881347
7 *397:9 *397:10 1.61536
8 *397:12 *397:5 0.159238
9 *397:6 *397:14 0.384238
10 *397:12 *397:14 2.53738
11 *397:11 *397:13 0.159238
12 *397:8 *397:11 2.48582
13 *1220:I *397:4 0.225
14 *1220:I *1465:Q[13] 0.0001
*END

*D_NET *398 0.00300219

*CONN
*I *1234:I I *C 142.5 307.2 *L 0.00105 *D DEL1
*I *1465:Q[56] O *C 134.195 285.725 *L 0 *D sram00

*CAP
1 *398:2 0.000223655
2 *398:3 0.000942446
3 *398:4 0.000128
4 *398:5 0.0017081

*RES
1 *398:2 *398:3 4.86113
2 *398:4 *398:5 1.23223
3 *398:3 *398:5 13.1934
4 *1234:I *398:2 0.953617
5 *1234:I *1465:Q[56] 0.0001
*END

*D_NET *399 0.00184639

*CONN
*I *1240:I I *C 138.5 287.2 *L 0.00105 *D DEL1
*I *1465:Q[59] O *C 134.195 296.715 *L 0 *D sram00

*CAP
1 *1240:I 3.58422e-05
2 *399:2 0.000317906
3 *399:3 4.14873e-05
4 *399:4 2.22823e-05
5 *399:6 0.000333918
6 *399:7 0.000630243008
7 *399:9 0.00044932
8 *399:10 1.5387e-05

*RES
1 *399:9 *399:10 1.98197
2 *399:7 *399:10 0.159196
3 *399:3 *399:7 3.10416007
4 *399:8 *399:9 0.159196
5 *399:4 *399:5 0.116425
6 *399:3 *399:4 0.329618
7 *399:2 *399:8 1.12015
8 *1240:I *399:2 0.327155
9 *399:5 *399:6 2.6567
10 *1240:I *1465:Q[59] 9.47314e-05
*END

*D_NET *400 0.0040028

*CONN
*I *1245:I I *C 141.5 213.6 *L 0.00105 *D DEL1
*I *1465:Q[47] O *C 134.195 246.315 *L 0 *D sram00

*CAP
1 *1245:I 7.5332e-05
2 *400:2 0.000778235
3 *400:3 8.50864e-05
4 *400:4 0.00154037
5 *400:5 3.09085e-05
6 *400:6 5.54942e-05
7 *400:8 5.73276e-05
8 *400:9 0.000518581
9 *400:11 1.73463e-05
10 *400:12 6.84217e-05
11 *400:13 4.86074e-05
12 *400:14 4.1509e-05
13 *400:16 0.000280456
14 *400:17 0.000255635
15 *400:18 1.48079e-06
16 *400:19 0.00014695
17 *400:20 1.0577e-06

*RES
1 *400:7 *400:8 0.159214
2 *400:2 *400:3 3.58454
3 *400:7 *400:9 3.49208
4 *400:10 *400:13 0.349296
5 *400:18 *400:19 0.159214
6 *400:5 *400:6 0.377712
7 *400:15 *400:17 1.2271
8 *400:12 *400:18 0.360048
9 *400:9 *400:10 0.159214
10 *400:13 *400:14 0.159214
11 *400:17 *400:20 0.159214
12 *400:4 *400:14 10.2871
13 *400:19 *400:20 0.471569
14 *400:5 *400:16 1.3356
15 *1245:I *400:2 0.646149
16 *400:15 *400:16 0.159214
17 *400:11 *400:12 0.159214
18 *400:8 *400:11 0.360048
19 *400:3 *400:4 3.75032
20 *1245:I *1465:Q[47] 0.0001
*END

*D_NET *401 0.0024735

*CONN
*I *1251:I I *C 145.5 211.6 *L 0.00105 *D DEL1
*I *1465:Q[40] O *C 134.195 218.525 *L 0 *D sram00

*CAP
1 *401:2 3.51282e-05
2 *401:3 5.01438e-05
3 *401:4 0.000171322
4 *401:5 0.000784102969
5 *401:7 5.57792e-05
6 *401:8 3.36446e-05
7 *401:9 0.000700685
8 *401:10 2.38934e-05
9 *401:11 0.000227185
10 *401:12 1.87845e-05
11 *401:13 5.81721e-05
12 *401:14 0.000314658

*RES
1 *401:11 *401:12 0.0925941
2 *401:10 *401:11 1.41827
3 *401:9 *401:10 0.0925941
4 *401:5 *401:12 2.59962
5 *401:4 *401:6 0.31086
6 *401:2 *401:5 3.75045991
7 *401:2 *401:3 0.620804
8 *401:8 *401:14 1.24304
9 *401:8 *401:9 3.17384
10 *401:7 *401:13 0.343594
11 *1251:I *401:6 0.44998
12 *401:6 *401:13 0.225018
13 *401:13 *401:14 0.225018
14 *1251:I *1465:Q[40] 0.000114455
*END

*D_NET *402 0.00174408

*CONN
*I *1257:I I *C 145.5 206.4 *L 0.00105 *D DEL1
*I *1465:Q[38] O *C 134.195 210.125 *L 0 *D sram00

*CAP
1 *1257:I 5.80282e-05
2 *402:2 0.000159813
3 *402:3 0.000130061
4 *402:4 1.00239e-05
5 *402:6 3.42837e-05
6 *402:7 0.000163812
7 *402:8 1.4396e-06
8 *402:10 2.18605e-05
9 *402:11 0.00116474

*RES
1 *402:9 *402:10 0.268472
2 *402:2 *402:3 0.641004
3 *1257:I *402:4 0.559256
4 *402:8 *402:11 0.586075
5 *402:7 *402:8 0.159216
6 *402:3 *402:4 0.159216
7 *402:6 *402:9 0.303939
8 *402:5 *402:7 0.977174
9 *402:5 *402:6 0.159216
10 *402:2 *402:11 7.36628
11 *1257:I *1465:Q[38] 0.0001
*END

*D_NET *403 0.00155076

*CONN
*I *1261:I I *C 141.9 195.6 *L 0.00105 *D DEL1
*I *1465:Q[34] O *C 134.195 193.325 *L 0 *D sram00

*CAP
1 *1261:I 5.27722e-05
2 *403:2 6.83728e-05
3 *403:3 0.000593720977
4 *403:4 0.00051579
5 *403:5 7.16705e-05
6 *403:6 0.000248423

*RES
1 *403:2 *403:3 2.1119
2 *403:4 *403:5 0.218496
3 *403:3 *403:4 3.13744998
4 *1261:I *403:2 0.490274
5 *403:5 *403:6 1.52751
6 *1261:I *1465:Q[34] 9.57474e-05
*END

*D_NET *404 0.00258264

*CONN
*I *1142:I I *C 151.3 12 *L 0.00182 *D DEL005
*I *1465:Q[1] O *C 134.265 12.535 *L 0 *D sram00

*CAP
1 *404:2 0.000241625
2 *404:3 0.0012018
3 *404:4 0.000415931
4 *404:5 0.000702155
5 *404:7 2.11074e-05

*RES
1 *404:2 *404:3 6.77812
2 *404:6 *404:7 0.268465
3 *404:4 *404:5 3.28876
4 *404:3 *404:4 1.48034
5 *404:5 *404:6 0.430773
6 *1142:I *404:2 0.225
7 *1142:I *1465:Q[1] 0.0001
*END

*D_NET *405 0.000546142

*CONN
*I *1186:I I *C 137.5 20.8 *L 0.000968 *D CKBD1
*I *1465:Q[2] O *C 134.265 18.345 *L 0 *D sram00

*CAP
1 *1186:I 0.000280985
2 *405:2 2.43705e-05
3 *405:3 0.000218129
4 *405:4 2.26597e-05

*RES
1 *405:2 *405:3 1.71944
2 *405:3 *405:4 0.268511
3 *1186:I *405:2 2.19224
4 *1186:I *1465:Q[2] 0.000100353
*END

*D_NET *406 0.00412234

*CONN
*I *1229:I I *C 140.3 49.6 *L 0.00104 *D DEL0
*I *1465:Q[14] O *C 134.265 68.745 *L 0 *D sram00

*CAP
1 *406:2 5.1389e-05
2 *406:3 0.000796427
3 *406:4 9.20975e-05
4 *406:5 0.000456052
5 *406:6 0.00223623984
6 *406:7 2.53191e-05
7 *406:8 0.000378729
8 *406:9 8.6126e-05

*RES
1 *406:4 *406:6 10.2328
2 *406:3 *406:7 1.13364
3 *406:2 *406:3 2.03357
4 *406:8 *406:9 1.98266
5 *406:7 *406:8 0.159238
6 *406:4 *406:5 2.26632
7 *406:6 *406:9 0.159238
8 *1229:I *406:2 0.45
9 *1229:I *1465:Q[14] 0.0001
*END

*D_NET *407 0.00217453

*CONN
*I *1233:I I *C 142.3 308.8 *L 0.00105 *D DEL1
*I *1465:Q[60] O *C 134.195 302.525 *L 0 *D sram00

*CAP
1 *1233:I 0.000171843
2 *407:2 2.84045e-05
3 *407:3 0.00136473
4 *407:4 0.000609531

*RES
1 *407:2 *407:3 5.23424006
2 *407:3 *407:4 4.26496
3 *1233:I *407:2 1.41958
4 *1233:I *1465:Q[60] 7.98682e-05
*END

*D_NET *408 0.00400298

*CONN
*I *1232:I I *C 141.9 310.8 *L 0.00105 *D DEL1
*I *1465:Q[52] O *C 134.195 268.925 *L 0 *D sram00

*CAP
1 *1232:I 0.000671685
2 *408:2 6.647e-05
3 *408:4 0.000347067
4 *408:5 0.00287912
5 *408:6 3.86167e-05

*RES
1 *408:2 *408:3 0.14479
2 *408:4 *408:5 26.5229
3 *1232:I *408:3 5.52219
4 *408:5 *408:6 0.520279
5 *408:3 *408:4 0.225
6 *1232:I *1465:Q[52] 0.0001
*END

*D_NET *409 0.00176154

*CONN
*I *1258:I I *C 141.7 200.8 *L 0.00105 *D DEL1
*I *1465:Q[37] O *C 134.195 204.315 *L 0 *D sram00

*CAP
1 *1258:I 3.92149e-05
2 *409:2 0.000282689
3 *409:3 2.04968e-05
4 *409:4 0.000461866
5 *409:5 4.65799e-05
6 *409:6 0.000910683984

*RES
1 *409:2 *409:3 1.34156
2 *409:4 *409:5 1.33587
3 *409:3 *409:4 0.309187
4 *1258:I *409:2 0.490596
5 *409:5 *409:6 4.71778011
6 *1258:I *1465:Q[37] 7.19876e-05
*END

*D_NET *410 0.00224683

*CONN
*I *1260:I I *C 137.5 193.6 *L 0.00105 *D DEL1
*I *1465:Q[32] O *C 134.195 184.925 *L 0 *D sram00

*CAP
1 *1260:I 0.000208066
2 *410:2 3.0662e-05
3 *410:3 0.000103437
4 *410:4 0.00190468

*RES
1 *410:2 *410:4 7.09829
2 *410:3 *410:4 1.15622
3 *1260:I *410:2 1.57069
4 *1260:I *1465:Q[32] 0.0001
*END

*D_NET *411 0.00192029

*CONN
*I *1262:I I *C 141.5 192 *L 0.00105 *D DEL1
*I *1465:Q[35] O *C 134.195 195.915 *L 0 *D sram00

*CAP
1 *1262:I 0.000773382
2 *411:2 0.000118242
3 *411:3 0.00102866992

*RES
1 *411:2 *411:3 5.34165001
2 *1262:I *411:2 3.18611
3 *1262:I *1465:Q[35] 8.15071e-05
*END

*D_NET *412 0.00430728

*CONN
*I *1227:I I *C 141.5 19.2 *L 0.00104 *D DEL0
*I *1465:Q[10] O *C 134.265 51.945 *L 0 *D sram00

*CAP
1 *412:2 6.87338e-05
2 *412:3 0.000693719
3 *412:4 0.000194597
4 *412:5 0.000224351
5 *412:6 0.000770042
6 *412:8 0.000685865
7 *412:9 4.88097e-05
8 *412:10 0.000824842969
9 *412:12 0.000794913
10 *412:13 1.40967e-06

*RES
1 *412:11 *412:12 0.159259
2 *412:10 *412:13 0.159259
3 *412:7 *412:10 6.01220989
4 *412:4 *412:6 5.37417
5 *412:2 *412:3 3.24674
6 *412:12 *412:13 4.25119
7 *412:8 *412:9 4.25293
8 *412:7 *412:8 0.159259
9 *412:4 *412:5 1.51085
10 *412:6 *412:9 0.159259
11 *412:3 *412:11 1.08995
12 *1227:I *412:2 0.44998
13 *1227:I *1465:Q[10] 9.1739e-05
*END

*D_NET *413 0.00290695

*CONN
*I *1244:I I *C 148.7 298 *L 0.00105 *D DEL1
*I *1465:Q[62] O *C 134.195 310.925 *L 0 *D sram00

*CAP
1 *1244:I 2.93974e-05
2 *413:2 3.92348e-05
3 *413:3 0.000120843
4 *413:4 0.000167772
5 *413:5 1.34355e-05
6 *413:6 2.77132e-05
7 *413:8 0.00250853984

*RES
1 *413:7 *413:8 7.44743
2 *413:4 *413:5 0.092844
3 *413:3 *413:4 1.4875
4 *1244:I *413:2 0.703045
5 *413:5 *413:6 0.268463
6 *413:3 *413:8 8.53492
7 *413:2 *413:7 0.225
8 *1244:I *1465:Q[62] 0.0001
*END

*D_NET *414 0.000704849

*CONN
*I *1238:I I *C 140.1 294.4 *L 0.00105 *D DEL1
*I *1465:Q[58] O *C 134.195 294.125 *L 0 *D sram00

*CAP
1 *414:2 0.000152303
2 *414:3 0.000552546016

*RES
1 *414:2 *414:3 3.96247005
2 *1238:I *414:2 0.609825
3 *1238:I *1465:Q[58] 0.000120925
*END

*D_NET *415 0.00408793

*CONN
*I *1235:I I *C 138.3 307.2 *L 0.00105 *D DEL1
*I *1465:Q[55] O *C 134.195 279.915 *L 0 *D sram00

*CAP
1 *1235:I 6.01306e-05
2 *415:3 8.35264e-05
3 *415:4 0.000344389
4 *415:6 3.52682e-06
5 *415:7 0.00114421
6 *415:8 0.000336201
7 *415:9 0.000389487
8 *415:10 1.78087e-06
9 *415:11 0.000797813
10 *415:12 0.000600939
11 *415:13 0.000325917

*RES
1 *415:2 *415:3 0.159213
2 *415:8 *415:10 0.159213
3 *415:12 *415:13 2.74308
4 *415:3 *415:6 0.350919
5 *415:4 *415:5 0.159213
6 *415:6 *415:7 0.159213
7 *1235:I *415:7 6.62947
8 *415:2 *415:4 1.61468
9 *415:9 *415:10 1.58126
10 *415:5 *415:8 1.47755
11 *415:9 *415:11 3.25862
12 *415:11 *415:12 2.53475
13 *1235:I *1465:Q[55] 0.0001
*END

*D_NET *416 0.00189229

*CONN
*I *1249:I I *C 141.7 224.4 *L 0.00105 *D DEL1
*I *1465:Q[44] O *C 134.195 235.325 *L 0 *D sram00

*CAP
1 *1249:I 0.000125948
2 *416:2 9.44644e-06
3 *416:3 0.000107982
4 *416:4 0.000855072031
5 *416:5 0.000608982
6 *416:6 1.94931e-05
7 *416:8 1.60746e-05
8 *416:9 9.44252e-05
9 *416:10 5.4865e-05

*RES
1 *416:4 *416:6 0.285128
2 *416:3 *416:7 0.297234
3 *416:2 *416:4 6.01034021
4 *416:2 *416:3 0.285128
5 *416:7 *416:8 0.268437
6 *416:5 *416:10 3.87624
7 *1249:I *416:9 1.18123
8 *416:5 *416:6 0.486983
9 *416:9 *416:10 0.224966
10 *1249:I *1465:Q[44] 9.17105e-05
*END

*D_NET *417 0.00232362

*CONN
*I *1252:I I *C 141.5 233.2 *L 0.00105 *D DEL1
*I *1465:Q[46] O *C 134.195 243.725 *L 0 *D sram00

*CAP
1 *1252:I 0.000157242
2 *417:3 8.96827e-05
3 *417:4 0.000284594
4 *417:6 3.61425e-06
5 *417:7 0.000735589063
6 *417:8 4.0273e-05
7 *417:9 0.000243322
8 *417:11 4.8276e-05
9 *417:12 9.60806e-06
10 *417:13 0.000711401

*RES
1 *417:7 *417:8 3.25853
2 *417:2 *417:3 0.159197
3 *417:12 *417:13 4.41147995
4 *417:3 *417:6 0.34458
5 *417:4 *417:5 0.159197
6 *417:6 *417:7 0.159197
7 *417:2 *417:4 1.35173
8 *417:9 *417:10 0.159197
9 *417:5 *417:9 1.1129
10 *1252:I *417:10 0.594516
11 *417:8 *417:11 0.493478
12 *417:11 *417:12 0.0453695
13 *1252:I *1465:Q[46] 6.73138e-05
*END

*D_NET *418 0.00197992

*CONN
*I *1254:I I *C 142.3 208 *L 0.00105 *D DEL1
*I *1465:Q[39] O *C 134.195 212.715 *L 0 *D sram00

*CAP
1 *1254:I 0.000144481
2 *418:2 0.00106628
3 *418:3 4.68262e-05
4 *418:4 6.5228e-05
5 *418:5 8.39552e-06
6 *418:6 0.000103789
7 *418:7 7.02067e-05
8 *418:8 0.000345648
9 *418:10 0.000129073

*RES
1 *418:9 *418:10 0.842808
2 *418:2 *418:3 3.62097001
3 *418:8 *418:9 0.21852
4 *418:7 *418:8 2.29957
5 *418:6 *418:7 0.21852
6 *418:4 *418:5 0.0926017
7 *418:3 *418:4 0.745289
8 *1254:I *418:2 1.11238
9 *418:5 *418:6 0.662854
10 *1254:I *1465:Q[39] 0.000110503
*END

*D_NET *419 0.00240475

*CONN
*I *1256:I I *C 145.5 215.2 *L 0.00105 *D DEL1
*I *1465:Q[41] O *C 134.195 221.115 *L 0 *D sram00

*CAP
1 *1256:I 0.000983798984
2 *419:2 7.56295e-05
3 *419:3 0.000217446
4 *419:4 5.69548e-05
5 *419:5 0.000281652
6 *419:6 4.58461e-05
7 *419:7 0.000149217
8 *419:8 1.92151e-06
9 *419:9 0.000592276

*RES
1 *419:2 *419:3 1.19214
2 *419:8 *419:9 4.54920006
3 *419:7 *419:8 0.345619
4 *419:6 *419:7 0.450019
5 *419:4 *419:5 1.54414
6 *419:3 *419:4 0.0926
7 *1256:I *419:2 4.01082
8 *419:5 *419:6 0.0926
9 *1256:I *1465:Q[41] 6.94153e-05
*END

*D_NET *420 0.00360633

*CONN
*I *1117:I I *C 148.5 31.6 *L 0.00182 *D DEL005
*I *1465:Q[3] O *C 134.265 20.935 *L 0 *D sram00

*CAP
1 *420:2 8.57613e-05
2 *420:3 0.000102138
3 *420:4 0.00172828
4 *420:5 2.46313e-05
5 *420:6 0.000281071
6 *420:7 0.00103602
7 *420:8 3.5813e-05
8 *420:9 0.000312612

*RES
1 *420:8 *420:9 1.13497
2 *420:7 *420:8 0.285177
3 *420:4 *420:9 9.1744
4 *420:3 *420:6 1.11227
5 *420:5 *420:7 5.00448
6 *420:5 *420:6 0.285177
7 *1117:I *420:2 0.225
8 *420:2 *420:3 0.225
9 *1117:I *1465:Q[3] 0.0001
*END

*D_NET *421 0.00238534

*CONN
*I *1250:I I *C 148.7 301.6 *L 0.00105 *D DEL1
*I *1465:Q[63] O *C 134.195 313.515 *L 0 *D sram00

*CAP
1 *421:2 0.00135904
2 *421:3 0.000116193
3 *421:4 2.20856e-05
4 *421:6 1.77099e-05
5 *421:7 0.000870296

*RES
1 *421:2 *421:3 6.89792
2 *421:3 *421:4 0.476816
3 *421:5 *421:7 0.711979
4 *421:5 *421:6 0.26847
5 *421:4 *421:7 9.04531
6 *1250:I *421:2 0.225
7 *1250:I *1465:Q[63] 0.0001
*END

*D_NET *422 0.00370138

*CONN
*I *1247:I I *C 145.5 222.4 *L 0.00105 *D DEL1
*I *1465:Q[49] O *C 134.195 254.715 *L 0 *D sram00

*CAP
1 *1247:I 3.58367e-05
2 *422:2 0.000145861
3 *422:3 0.0001329
4 *422:4 2.28271e-05
5 *422:6 7.47201e-05
6 *422:7 0.000119842
7 *422:8 0.00316944

*RES
1 *422:7 *422:8 5.51297
2 *422:4 *422:5 0.0931
3 *422:3 *422:4 0.268463
4 *422:2 *422:7 0.768591
5 *1247:I *422:2 0.553685
6 *422:5 *422:6 1.2757
7 *422:3 *422:8 19.9923
8 *1247:I *1465:Q[49] 0.0001
*END

*D_NET *423 0.00314296

*CONN
*I *1224:I I *C 143.1 13.6 *L 0.00104 *D DEL0
*I *1465:Q[4] O *C 134.265 26.745 *L 0 *D sram00

*CAP
1 *1224:I 2.21841e-05
2 *423:2 0.000135169
3 *423:3 0.00165021
4 *423:4 7.60706e-05
5 *423:5 0.000286782
6 *423:7 0.000648702
7 *423:8 0.000322866
8 *423:9 1.00722e-06

*RES
1 *423:7 *423:10 3.62326
2 *423:6 *423:8 1.35209
3 *423:4 *423:10 0.384233
4 *423:2 *423:3 4.81290007
5 *423:8 *423:9 0.159216
6 *423:6 *423:7 0.159216
7 *423:4 *423:5 1.63674
8 *423:3 *423:9 3.48431
9 *1224:I *423:2 0.557916
10 *1224:I *1465:Q[4] 7.3439e-05
*END

*D_NET *424 0.00464127

*CONN
*I *1237:I I *C 143.3 305.2 *L 0.00105 *D DEL1
*I *1465:Q[54] O *C 134.195 277.325 *L 0 *D sram00

*CAP
1 *1237:I 0.000115853
2 *424:2 5.39878e-05
3 *424:3 0.000534863
4 *424:4 0.000341612
5 *424:5 2.06365e-06
6 *424:6 5.42541e-05
7 *424:7 0.00145421
8 *424:9 9.11336e-05
9 *424:10 0.00105648
10 *424:11 1.95049e-05
11 *424:12 0.000187526
12 *424:13 2.26558e-05
13 *424:14 0.000707101

*RES
1 *424:8 *424:10 7.39508
2 *424:9 *424:14 0.586061
3 *424:12 *424:13 0.268464
4 *424:6 *424:7 6.63964
5 *424:3 *424:5 1.53021
6 *424:10 *424:11 0.285118
7 *424:8 *424:9 0.285118
8 *424:2 *424:4 1.37899
9 *424:3 *424:14 4.88345
10 *424:5 *424:7 0.285118
11 *1237:I *424:2 0.952618
12 *424:11 *424:12 0.843972
13 *424:4 *424:6 0.285117
14 *1237:I *1465:Q[54] 0.0001
*END

*D_NET *425 0.00276859

*CONN
*I *1248:I I *C 148.7 294.4 *L 0.00105 *D DEL1
*I *1465:Q[61] O *C 134.195 305.115 *L 0 *D sram00

*CAP
1 *1248:I 0.000220127
2 *425:2 6.361e-05
3 *425:3 0.00124030992
4 *425:5 0.000422067
5 *425:6 2.69884e-05
6 *425:7 4.26779e-05
7 *425:8 5.29358e-05
8 *425:9 0.000468814
9 *425:10 9.40618e-05
10 *425:11 0.000136986

*RES
1 *425:9 *425:10 0.092605
2 *425:8 *425:9 2.4255
3 *425:7 *425:8 0.092605
4 *425:4 *425:5 0.159189
5 *425:3 *425:4 3.13096
6 *425:2 *425:7 0.619384
7 *1248:I *425:2 1.0795
8 *425:6 *425:11 1.48404
9 *425:5 *425:6 2.87987
10 *425:3 *425:10 5.15191984
11 *1248:I *1465:Q[61] 7.86121e-05
*END

*D_NET *426 0.00143752

*CONN
*I *1239:I I *C 140.7 292.8 *L 0.00105 *D DEL1
*I *1465:Q[57] O *C 134.195 288.315 *L 0 *D sram00

*CAP
1 *1239:I 4.88581e-05
2 *426:2 0.000775093984
3 *426:3 0.00061357

*RES
1 *426:2 *426:3 4.25393009
2 *1239:I *426:2 3.30956
3 *1239:I *1465:Q[57] 0.00012982
*END

*D_NET *427 0.000432159

*CONN
*I *1243:I I *C 138.7 271.2 *L 0.00105 *D DEL1
*I *1465:Q[53] O *C 134.195 271.515 *L 0 *D sram00

*CAP
1 *1243:I 0.000204959004
2 *427:2 2.46195e-05
3 *427:4 0.000202579

*RES
1 *427:2 *427:3 0.116415
2 *427:3 *427:4 1.88101006
3 *1243:I *427:2 1.58727
4 *1243:I *1465:Q[53] 8.61058e-05
*END

*D_NET *428 0.00205317

*CONN
*I *1242:I I *C 138.9 285.6 *L 0.00105 *D DEL1
*I *1465:Q[51] O *C 134.195 263.115 *L 0 *D sram00

*CAP
1 *1242:I 0.000236738
2 *428:2 5.64018e-05
3 *428:3 2.21454e-05
4 *428:4 0.000160641
5 *428:5 4.79544e-05
6 *428:6 0.00152929

*RES
1 *428:4 *428:6 1.73585
2 *428:2 *428:3 0.144791
3 *1242:I *428:3 1.9477
4 *428:5 *428:6 14.4524
5 *428:3 *428:5 0.225
6 *1242:I *1465:Q[51] 0.0001
*END

*D_NET *429 0.00450767

*CONN
*I *1241:I I *C 140.5 289.2 *L 0.00105 *D DEL1
*I *1465:Q[50] O *C 134.195 260.525 *L 0 *D sram00

*CAP
1 *429:2 0.00401117
2 *429:3 6.46341e-05
3 *429:4 0.000431873

*RES
1 *429:2 *429:3 0.159213
2 *429:3 *429:4 4.00212
3 *1241:I *429:2 18.8137
4 *1241:I *1465:Q[50] 0.0001
*END

*D_NET *430 0.00483697

*CONN
*I *1246:I I *C 141.7 220.8 *L 0.00105 *D DEL1
*I *1465:Q[48] O *C 134.195 252.125 *L 0 *D sram00

*CAP
1 *1246:I 9.75906e-05
2 *430:2 0.000743235
3 *430:3 5.74723e-05
4 *430:4 0.00100733992
5 *430:5 3.59682e-06
6 *430:6 0.000544995
7 *430:7 2.8836e-05
8 *430:8 0.000599516
9 *430:9 7.47032e-06
10 *430:10 0.000113054
11 *430:11 0.000398002
12 *430:13 0.000731461
13 *430:14 1.43258e-05
14 *430:15 0.000448665
15 *430:16 3.99647e-07
16 *430:17 7.5318e-07
17 *430:18 4.02721e-05

*RES
1 *430:12 *430:13 0.159192
2 *430:4 *430:7 0.285147
3 *430:5 *430:6 0.285147
4 *430:6 *430:7 2.35899
5 *430:10 *430:17 0.297166
6 *430:9 *430:10 0.285147
7 *430:13 *430:14 4.00315
8 *430:11 *430:14 0.285147
9 *430:17 *430:18 0.268467
10 *1246:I *430:2 0.84011
11 *430:8 *430:16 0.715504
12 *430:2 *430:5 3.07443
13 *430:15 *430:16 0.159192
14 *430:9 *430:11 2.98846
15 *430:12 *430:15 3.11435
16 *430:3 *430:8 4.00211
17 *430:3 *430:4 4.01878977
18 *1246:I *1465:Q[48] 0.000122644
*END

*D_NET *431 0.000954281

*CONN
*I *1253:I I *C 141.7 229.6 *L 0.00105 *D DEL1
*I *1465:Q[43] O *C 134.195 229.515 *L 0 *D sram00

*CAP
1 *1253:I 0.00017174
2 *431:2 6.6782e-05
3 *431:3 5.16474e-05
4 *431:4 0.0002652
5 *431:5 2.17869e-05
6 *431:6 0.000377126992

*RES
1 *431:2 *431:3 0.367576
2 *431:4 *431:5 0.0926044
3 *431:3 *431:4 1.31761
4 *1253:I *431:2 1.26658
5 *431:5 *431:6 2.66064
6 *1253:I *1465:Q[43] 8.11963e-05
*END

*D_NET *432 0.00885436

*CONN
*I *1406:Z O *C 151.5 121.2 *L 0 *D DEL2
*I *1701:DA I *C 146.3 49.6 *L 0.000721 *D DFXQD1

*CAP
1 *432:2 0.000228282
2 *432:3 7.42735e-05
3 *432:4 6.84709e-05
4 *432:5 0.000680477
5 *432:6 0.00223691016
6 *432:7 8.09977e-05
7 *432:8 7.13722e-05
8 *432:9 7.953e-05
9 *432:10 0.000233334
10 *432:11 0.000297401
11 *432:6 *83:8 0.000376176016
12 *432:6 *196:2 0.000749483984
13 *432:6 *216:3 0.0017653
14 *432:5 *341:2 0.000492306992
15 *432:5 *364:5 0.000740415
16 *432:6 *434:3 0.00029166498
17 *432:2 *195:2 0.000388025

*RES
1 *432:4 *432:5 3.501
2 *432:10 *432:11 2.61353
3 *432:7 *432:8 0.159188
4 *432:6 *432:7 37.2591019
5 *432:9 *432:11 0.910215
6 *1406:Z *432:3 0.450275
7 *432:2 *432:6 0.450275
8 *432:8 *432:9 3.12463
9 *1701:DA *432:2 0.450275
10 *432:5 *432:10 2.30197
11 *432:3 *432:4 0.225137
*END

*D_NET *433 0.00994436

*CONN
*I *1407:Z O *C 145.5 110.4 *L 0 *D DEL2
*I *1702:DA I *C 143.1 53.2 *L 0.000721 *D DFXQD1

*CAP
1 *433:2 0.000132752
2 *433:3 0.000217834
3 *433:4 0.000379649
4 *433:5 0.000526382
5 *433:6 0.000267708
6 *433:7 0.000290405
7 *433:8 0.00143682
8 *433:9 0.000354112
9 *433:10 0.00160456
10 *433:11 0.000549274
11 *433:10 *576:2 0.00102603992
12 *433:6 *789:3 0.000361481016
13 *433:2 *503:6 0.00129365
14 *433:3 *218:2 0.00150368

*RES
1 *433:7 *433:10 18.4227009
2 *433:2 *433:4 2.49708
3 *1702:DA *433:5 0.827582
4 *433:10 *433:11 1.63745
5 *433:3 *433:9 1.6383
6 *433:3 *433:7 1.25965
7 *433:6 *433:9 2.38829
8 *433:4 *433:8 7.35885
9 *433:6 *433:8 3.73565
10 *433:5 *433:11 2.17971
11 *1407:Z *433:2 0.224886
*END

*D_NET *434 0.00818524

*CONN
*I *1408:Z O *C 145.3 106 *L 0 *D DEL2
*I *1704:DA I *C 146.3 60.4 *L 0.000721 *D DFXQD1

*CAP
1 *434:2 0.000943466
2 *434:3 0.00176179
3 *434:4 0.000784263
4 *434:5 4.52175e-05
5 *434:6 0.000194419
6 *434:7 0.00042419
7 *434:3 *305:8 0.00185226
8 *434:2 *195:3 0.00188796
9 *434:3 *432:6 0.00029166498

*RES
1 *434:2 *434:5 7.48306
2 *434:3 *434:6 10.6147003
3 *434:2 *434:3 6.39043
4 *1704:DA *434:7 2.27726
5 *434:6 *434:7 2.14202
6 *434:4 *434:5 1.81857
7 *1408:Z *434:4 1.24909
*END

*D_NET *435 0.00522006

*CONN
*I *1409:Z O *C 151.9 23.2 *L 0 *D DEL2
*I *1703:DA I *C 144.1 56.8 *L 0.000721 *D DFXQD1

*CAP
1 *1703:DA 0.000310819
2 *435:2 0.000792403984
3 *435:3 7.77229e-05
4 *435:4 0.000109451
5 *435:5 0.000615968
6 *435:6 0.000660814
7 *435:5 *250:2 0.000314691992
8 *1703:DA *253:3 0.00123304
9 *1703:DA *803:5 0.000415376016
10 *435:2 *483:3 0.00031490002
11 *435:3 *804:9 0.000215895996
12 *435:2 *482:6 0.000158974004

*RES
1 *435:4 *435:5 5.20437
2 *435:2 *435:7 16.7315998
3 *435:3 *435:6 5.50129
4 *1409:Z *435:4 0.450101
5 *1703:DA *435:3 1.31456
6 *435:5 *435:2 0.224923
7 *435:6 *435:7 0.224923
*END

*D_NET *436 0.00747762

*CONN
*I *1410:Z O *C 149.1 34 *L 0 *D DEL2
*I *1706:DA I *C 145.9 69.6 *L 0.000721 *D DFXQD1

*CAP
1 *1706:DA 0.000219069
2 *436:2 0.000611306
3 *436:3 0.000387461
4 *436:4 0.000832833
5 *436:5 0.00132052
6 *436:6 0.000106935
7 *436:2 *488:120 0.000241759004
8 *436:3 *1073:Z 0.000224598008
9 *436:4 *484:2 0.000263924004
10 *436:5 *800:7 0.00108841
11 *436:5 *118:3 0.00218079

*RES
1 *436:7 *436:2 5.13738
2 *1706:DA *436:4 0.602843
3 *436:2 *436:3 2.60509
4 *436:4 *436:7 3.37522
5 *436:6 *436:3 2.36475
6 *436:5 *436:6 16.3390999
7 *1410:Z *436:5 0.450013
*END

*D_NET *437 0.0058866

*CONN
*I *1411:Z O *C 145.7 98.8 *L 0 *D DEL2
*I *1707:DA I *C 146.5 73.2 *L 0.000721 *D DFXQD1

*CAP
1 *437:2 0.00202115016
2 *437:3 0.000695089
3 *437:4 0.000223626
4 *437:5 7.59608e-05
5 *437:6 0.000158892
6 *437:7 0.000559143
7 *437:4 *36:8 0.000197706992
8 *437:2 *471:21 0.000231855
9 *437:2 *795:3 0.000574785
10 *437:2 *84:3 0.000398871992
11 *437:2 *192:4 0.000528522031
12 *437:2 *1712:SA 0.000220998008

*RES
1 *437:6 *437:7 0.838881
2 *437:4 *437:7 4.66065
3 *437:2 *437:6 9.67562962
4 *437:2 *437:5 2.1006
5 *437:3 *437:5 4.03023
6 *1411:Z *437:4 0.59262
7 *1707:DA *437:3 0.225001
*END

*D_NET *438 0.00768083

*CONN
*I *1412:Z O *C 143.7 38.4 *L 0 *D DEL2
*I *1708:DA I *C 146.1 66 *L 0.000721 *D DFXQD1

*CAP
1 *1708:DA 0.000169692
2 *1412:Z 0.000120423
3 *438:2 0.000622312
4 *438:3 0.00213123016
5 *438:4 0.000362994
6 *438:5 0.000316977
7 *438:2 *487:2 0.00031997002
8 *438:2 *301:50 0.00026442998
9 *438:3 *76:3 0.00246486
10 *438:3 *201:2 0.000907918984

*RES
1 *438:6 *438:3 2.75462
2 *438:4 *438:5 1.33615
3 *438:2 *438:3 20.8292007
4 *438:5 *438:2 1.98484
5 *1708:DA *438:4 2.3977
6 *1412:Z *438:6 0.450045
*END

*D_NET *439 0.00461567

*CONN
*I *1413:Z O *C 145.9 42 *L 0 *D DEL2
*I *1705:DA I *C 146.3 64 *L 0.000721 *D DFXQD1

*CAP
1 *1413:Z 0.000140765
2 *439:2 0.000552765
3 *439:3 0.000910353
4 *439:4 0.00301176

*RES
1 *439:2 *439:3 1.44786
2 *439:3 *439:4 11.7289
3 *1705:DA *439:2 3.79593
4 *1413:Z *439:4 0.762049
*END

*D_NET *440 0.00436216

*CONN
*I *1414:Z O *C 151.5 99.6 *L 0 *D DEL2
*I *1711:DA I *C 146.3 76.8 *L 0.000721 *D DFXQD1

*CAP
1 *1711:DA 0.000314373
2 *1414:Z 0.000498089
3 *440:2 0.000614706
4 *440:3 0.00225508
5 *440:4 0.000677195
6 *440:5 2.75283e-06

*RES
1 *440:3 *440:5 11.1239996
2 *440:2 *440:3 2.62484
3 *1711:DA *440:2 0.827137
4 *1414:Z *440:4 3.80537
5 *440:4 *440:5 1.8914
*END

*D_NET *441 0.00242276

*CONN
*I *1415:Z O *C 145.5 78 *L 0 *D DEL2
*I *1709:DA I *C 146.1 67.6 *L 0.000721 *D DFXQD1

*CAP
1 *1709:DA 0.000126541
2 *1415:Z 0.000440353
3 *441:2 0.000697302
4 *441:3 0.000319458
5 *441:4 0.000839106016

*RES
1 *441:3 *441:4 1.77459
2 *1709:DA *441:4 2.16313
3 *441:2 *441:3 3.7188499
4 *1415:Z *441:2 1.47571
*END

*D_NET *442 0.000245166

*CONN
*I *1416:Z O *C 145.9 88.8 *L 0 *D DEL2
*I *1715:DA I *C 146.5 89.2 *L 0.000721 *D DFXQD1

*CAP
1 *1715:DA 0.000130622002
2 *1416:Z 0.000114543

*RES
1 *1715:DA *1416:Z 1.3998
*END

*D_NET *443 0.00280583

*CONN
*I *1417:Z O *C 151.9 91.6 *L 0 *D DEL2
*I *1713:DA I *C 146.7 82 *L 0.000721 *D DFXQD1

*CAP
1 *1713:DA 0.000469692
2 *1417:Z 4.90394e-06
3 *443:2 3.56587e-05
4 *443:3 0.00229556984

*RES
1 *443:2 *443:3 5.96662998
2 *1417:Z *443:2 0.320655
3 *1713:DA *443:3 5.78709
*END

*D_NET *444 0.000516088

*CONN
*I *1418:Z O *C 145.3 70 *L 0 *D DEL2
*I *1710:DA I *C 146.1 71.2 *L 0.000721 *D DFXQD1

*CAP
1 *1710:DA 0.000278988008
2 *1418:Z 0.000237098

*RES
1 *1710:DA *1418:Z 1.76018
*END

*D_NET *445 0.00167468

*CONN
*I *1419:Z O *C 151.3 74.4 *L 0 *D DEL2
*I *1712:DA I *C 146.1 78.4 *L 0.000721 *D DFXQD1

*CAP
1 *1712:DA 0.000517008
2 *1419:Z 4.80012e-05
3 *445:2 0.00103479
4 *445:3 7.48756e-05

*RES
1 *445:2 *445:3 3.44158006
2 *1712:DA *445:2 2.87301
3 *1419:Z *445:3 0.449995
*END

*D_NET *446 0.00124929

*CONN
*I *1420:Z O *C 149.1 85.2 *L 0 *D DEL2
*I *1714:DA I *C 146.1 84 *L 0.000721 *D DFXQD1

*CAP
1 *1714:DA 0.00109359
2 *1420:Z 0.000155707

*RES
1 *1420:Z *1714:DA 4.5788
*END

*D_NET *447 0.00191666

*CONN
*I *1421:Z O *C 144.9 279.6 *L 0 *D DEL2
*I *1754:DB I *C 143.5 271.2 *L 0.0011 *D DFXQD1

*CAP
1 *1754:DB 0.000126357
2 *1421:Z 0.000198119
3 *447:2 0.000634605
4 *447:3 0.00072164
5 *447:4 0.000235933

*RES
1 *1421:Z *447:4 1.87598
2 *1754:DB *447:3 0.760875
3 *447:2 *447:4 2.70837
4 *447:2 *447:3 3.12024999
*END

*D_NET *448 0.000664506

*CONN
*I *1422:Z O *C 145.3 268 *L 0 *D DEL2
*I *1753:DB I *C 146.9 267.6 *L 0.0011 *D DFXQD1

*CAP
1 *1753:DB 0.000206752
2 *448:2 0.000457751992

*RES
1 *1753:DB *448:2 2.20448995
2 *1422:Z *448:2 0.225004
*END

*D_NET *449 0.000872512

*CONN
*I *1423:Z O *C 145.3 254.4 *L 0 *D DEL2
*I *1750:DB I *C 146.3 253.2 *L 0.0011 *D DFXQD1

*CAP
1 *1423:Z 0.000307782
2 *449:2 0.00056473

*RES
1 *1423:Z *449:2 1.49482
2 *1750:DB *449:2 1.52007997
*END

*D_NET *450 0.00106707

*CONN
*I *1424:Z O *C 151.9 272.4 *L 0 *D DEL2
*I *1755:DB I *C 147.5 274.8 *L 0.0011 *D DFXQD1

*CAP
1 *1424:Z 0.000105188
2 *450:2 0.000940702031
3 *450:3 2.11724e-05

*RES
1 *450:2 *450:3 3.19478989
2 *1755:DB *450:2 1.20541
3 *1424:Z *450:3 0.449999
*END

*D_NET *451 0.00127977

*CONN
*I *1425:Z O *C 151.9 258 *L 0 *D DEL2
*I *1751:DB I *C 147.1 262 *L 0.0011 *D DFXQD1

*CAP
1 *1425:Z 0.000342519
2 *451:2 0.000913182969
3 *451:3 2.40784e-05

*RES
1 *451:2 *451:3 3.75031996
2 *1751:DB *451:2 0.934146
3 *1425:Z *451:3 2.40261
*END

*D_NET *452 0.00117366

*CONN
*I *1426:Z O *C 151.9 268.8 *L 0 *D DEL2
*I *1752:DB I *C 147.1 265.6 *L 0.0011 *D DFXQD1

*CAP
1 *1426:Z 3.8546e-05
2 *452:2 0.000357135
3 *452:3 0.000777983047

*RES
1 *1426:Z *452:2 2.4458
2 *452:2 *452:3 3.49850988
3 *1752:DB *452:3 0.674975
*END

*D_NET *453 0.000591801

*CONN
*I *1427:Z O *C 145.1 250 *L 0 *D DEL2
*I *1749:DB I *C 146.7 249.6 *L 0.0011 *D DFXQD1

*CAP
1 *1749:DB 9.81748e-05
2 *453:2 0.000493623008

*RES
1 *1749:DB *453:2 2.23885989
2 *1427:Z *453:2 0.224993
*END

*D_NET *454 0.00136426

*CONN
*I *1428:Z O *C 151.5 246.4 *L 0 *D DEL2
*I *1748:DB I *C 146.3 242.4 *L 0.0011 *D DFXQD1

*CAP
1 *1748:DB 0.000544271992
2 *454:2 0.000334777
3 *454:3 0.000485215

*RES
1 *454:2 *454:3 3.89693999
2 *1748:DB *454:2 2.31583
3 *1428:Z *454:3 0.225006
*END

*D_NET *455 0.0279726

*CONN
*I *1429:Z O *C 143.3 246.4 *L 0 *D DEL1
*I *1777:CDN I *C 143.5 166.8 *L 0.00167 *D DFCND1
*I *1464:I I *C 147.3 28 *L 0.000968 *D CKBD1
*I *1473:CDN I *C 141.5 44.4 *L 0.00163 *D DFCNQD1
*I *1474:CDN I *C 139.5 48 *L 0.00163 *D DFCNQD1

*CAP
1 *1474:CDN 0.000693569
2 *1473:CDN 0.000361675
3 *1464:I 0.000651773
4 *1777:CDN 0.000104978
5 *455:5 0.00111084
6 *455:6 0.000166838
7 *455:7 0.00376766
8 *455:8 0.000182936
9 *455:9 0.000249913
10 *455:10 0.000324536
11 *455:11 0.000259916
12 *455:12 0.00286431
13 *455:13 0.000337644
14 *455:14 0.00032718
15 *455:15 0.00145498
16 *455:16 0.000193342
17 *455:17 0.000338793
18 *455:19 6.8989e-07
19 *455:21 0.000128205
20 *455:22 0.000206392
21 *455:23 0.000513738
22 *455:25 9.50323e-05
23 *455:26 9.16403e-05
24 *455:27 0.000183051
25 *455:5 *805:5 0.000572505
26 *455:6 *267:3 0.000287681016
27 *455:7 *4:2 0.00283182
28 *455:8 *193:6 0.000889478984
29 *455:9 *482:6 0.0032303
30 *455:10 *291:6 0.000993359063
31 *455:7 *785:8 0.000288933984
32 *455:11 *232:7 0.000618233008
33 *455:12 *320:4 0.00128879
34 *455:13 *354:15 0.00236188

*RES
1 *455:11 *455:27 4.87458
2 *455:18 *455:12 0.159142
3 *1777:CDN *455:10 0.449749
4 *455:14 *455:5 3.0064
5 *455:24 *455:25 4.5044
6 *455:21 *455:6 2.49322
7 *1464:I *455:9 2.66447
8 *455:16 *455:17 1.03269
9 *455:26 *455:7 32.9908
10 *455:23 *455:25 0.159142
11 *455:12 *455:23 29.6863
12 *455:13 *455:21 1.36712
13 *455:20 *455:22 3.11422
14 *455:8 *455:19 0.159142
15 *455:14 *455:15 0.159142
16 *455:17 *455:26 1.58335
17 *1473:CDN *455:16 1.46226
18 *455:22 *455:24 0.159142
19 *455:7 *455:27 37.7881012
20 *455:20 *455:6 0.159142
21 *455:10 *455:11 0.704606
22 *1474:CDN *455:17 2.76019
23 *455:18 *455:8 5.76428
24 *455:10 *455:19 3.38292
25 *455:9 *455:5 4.35218
26 *455:15 *455:16 5.97416
27 *1429:Z *455:13 0.224874
*END

*D_NET *456 0.00105153

*CONN
*I *1430:Z O *C 141.3 13.2 *L 0 *D DEL1
*I *1466:D I *C 139.1 12 *L 0.000971 *D DFCNQD1

*CAP
1 *1466:D 8.19595e-05
2 *1430:Z 0.000479539
3 *456:2 0.00049003

*RES
1 *1466:D *456:2 0.449986
2 *1430:Z *456:2 3.18744993
*END

*D_NET *457 0.00147975

*CONN
*I *1431:Z O *C 142.9 16.8 *L 0 *D DEL1
*I *1467:D I *C 139.7 15.6 *L 0.000971 *D DFCNQD1

*CAP
1 *1431:Z 0.000132869
2 *457:2 0.00134688

*RES
1 *1431:Z *457:2 1.03122
2 *1467:D *457:2 4.00225019
*END

*D_NET *458 0.00142147

*CONN
*I *1432:Z O *C 146.5 20.4 *L 0 *D DEL1
*I *1468:D I *C 139.9 20.8 *L 0.000971 *D DFCNQD1

*CAP
1 *458:2 0.000602922031
2 *458:3 0.000137126
3 *458:4 0.000370751
4 *458:5 0.000310666

*RES
1 *458:2 *458:5 1.92351997
2 *458:4 *458:5 1.31728
3 *458:3 *458:4 1.62661
4 *1432:Z *458:3 0.225002
5 *1468:D *458:2 0.225002
*END

*D_NET *459 0.000986754

*CONN
*I *1433:Z O *C 142.3 24 *L 0 *D DEL1
*I *1469:D I *C 139.1 26.4 *L 0.000971 *D DFCNQD1

*CAP
1 *1469:D 0.00087479
2 *459:2 0.000111967

*RES
1 *1469:D *459:2 3.76309991
2 *1433:Z *459:2 0.224973
*END

*D_NET *460 0.00126123

*CONN
*I *1434:Z O *C 143.9 31.2 *L 0 *D DEL1
*I *1470:D I *C 139.5 30 *L 0.000971 *D DFCNQD1

*CAP
1 *1470:D 0.000501013
2 *1434:Z 8.08821e-05
3 *460:2 0.000649983008
4 *460:3 2.93576e-05

*RES
1 *460:2 *460:3 2.99492002
2 *1470:D *460:2 1.69264
3 *1434:Z *460:3 0.449997
*END

*D_NET *461 0.0149332

*CONN
*I *1191:I I *C 137.7 17.2 *L 0.00103 *D DEL01
*I *1435:Z O *C 151.9 6 *L 0 *D DEL0
*I *1556:B1 I *C 151.9 26.4 *L 0.000689 *D MOAI22D0
*I *1556:A1 I *C 150.9 26.4 *L 0.000721 *D MOAI22D0
*I *1552:A1 I *C 151.3 37.2 *L 0.000721 *D MOAI22D0
*I *1549:A1 I *C 149.9 46 *L 0.000721 *D MOAI22D0
*I *1549:B1 I *C 150.9 46 *L 0.000689 *D MOAI22D0
*I *1552:B1 I *C 150.3 37.2 *L 0.000689 *D MOAI22D0
*I *1548:A1 I *C 150.3 33.6 *L 0.000721 *D MOAI22D0
*I *1548:B1 I *C 149.3 33.6 *L 0.000689 *D MOAI22D0
*I *1550:A1 I *C 143.9 49.6 *L 0.000721 *D MOAI22D0
*I *1550:B1 I *C 142.9 49.6 *L 0.000689 *D MOAI22D0
*I *1555:B1 I *C 149.3 31.6 *L 0.000689 *D MOAI22D0
*I *1555:A1 I *C 150.3 31.6 *L 0.000721 *D MOAI22D0
*I *1551:B1 I *C 150.7 19.2 *L 0.000689 *D MOAI22D0
*I *1551:A1 I *C 149.7 19.2 *L 0.000721 *D MOAI22D0

*CAP
1 *1191:I 0.000139745
2 *1551:A1 6.03496e-06
3 *1555:A1 0.000405056
4 *1550:B1 0.000487047
5 *1548:A1 0.000302235
6 *1549:B1 0.000190263
7 *1549:A1 5.67805e-06
8 *1552:A1 0.000191951
9 *1556:A1 0.000109084
10 *1435:Z 1.07396e-05
11 *461:16 0.000380462
12 *461:17 0.000311352
13 *461:19 0.000574197
14 *461:20 0.000675429
15 *461:21 0.000439254
16 *461:22 0.00212635
17 *461:23 0.000570174
18 *461:24 0.000234779
19 *461:25 0.000326537
20 *461:26 0.000695124
21 *461:27 0.000336011
22 *461:28 0.000572802
23 *461:29 0.00109051
24 *461:30 0.000420825
25 *461:31 0.000607195
26 *461:32 0.00117857
27 *461:33 0.000139064
28 *461:34 0.000422901
29 *461:35 0.00100099
30 *461:19 *168:3 0.000651428984
31 *1548:A1 *516:2 0.000331391016

*RES
1 *461:28 *461:35 3.76267
2 *461:23 *461:34 3.31778
3 *461:18 *461:35 1.72886
4 *1549:A1 *461:31 0.805528
5 *461:21 *461:32 6.68411016
6 *1548:A1 *461:20 2.83404
7 *461:18 *461:19 1.3111
8 *461:33 *461:35 4.15034
9 *1550:B1 *461:25 2.5298
10 *461:16 *461:33 0.971264
11 *1551:A1 *461:19 0.575334
12 *1555:A1 *461:24 1.84686
13 *1435:Z *461:26 0.536067
14 *461:22 *461:25 2.44402
15 *461:26 *461:28 4.7629
16 *461:16 *461:17 1.1474
17 *1549:B1 *461:31 1.40922
18 *461:19 *461:21 2.8987
19 *1556:A1 *461:17 0.85122
20 *461:31 *461:34 3.73962
21 *1191:I *461:32 0.827762
22 *461:22 *461:31 5.81351
23 *461:20 *461:27 1.40493
24 *461:20 *461:30 2.04115
25 *461:24 *461:29 3.12135
26 *461:23 *461:30 0.532905
27 *1552:A1 *461:30 1.78087
28 *461:17 *461:29 2.05125
29 *461:24 *461:27 1.05561
30 *1548:B1 *461:27 0.224993
31 *1551:B1 *461:18 0.224993
32 *1556:B1 *461:16 0.224993
33 *1550:A1 *461:25 0.449986
34 *1555:B1 *461:24 0.449986
35 *1552:B1 *461:23 0.449986
*END

*D_NET *462 0.0148652

*CONN
*I *1436:Z O *C 144.1 8.8 *L 0 *D DEL1
*I *1699:A1 I *C 140.9 96.2 *L 0.000617 *D CKND2D0
*I *1775:A1 I *C 140.7 94.8 *L 0.00069 *D INR2D0

*CAP
1 *1699:A1 0.000300578
2 *462:3 0.000150587
3 *462:4 0.000289123
4 *462:5 0.000846785
5 *462:6 0.000103275
6 *462:7 0.000125112
7 *462:8 0.00390996
8 *462:10 0.000457251
9 *462:11 0.000435057
10 *462:12 0.000928642
11 *462:14 0.0001025
12 *462:15 0.0007947
13 *462:16 2.62514e-06
14 *462:12 *576:2 0.00102728
15 *462:8 *1221:Z 0.000798752031
16 *462:5 *802:5 0.000741617031
17 *462:3 *112:5 0.00385143

*RES
1 *462:11 *462:14 2.90619
2 *462:14 *462:15 5.01204
3 *462:3 *462:9 2.70731
4 *462:15 *462:16 0.159253
5 *1699:A1 *462:7 1.28255
6 *462:8 *462:16 24.2716999
7 *462:10 *462:13 0.159253
8 *462:4 *462:7 1.2381
9 *462:4 *462:5 1.7292
10 *462:12 *462:13 18.2123
11 *462:5 *462:3 1.54439
12 *462:6 *462:8 1.93363
13 *462:9 *462:10 4.34614
14 *462:11 *462:12 0.159253
15 *1775:A1 *462:7 0.225177
16 *1436:Z *462:6 0.225177
*END

*D_NET *463 0.0143094

*CONN
*I *1437:Z O *C 140.7 8.8 *L 0 *D DEL1
*I *1699:A2 I *C 141.3 96.4 *L 0.000606 *D CKND2D0
*I *1775:B1 I *C 141.3 94.8 *L 0.000651 *D INR2D0

*CAP
1 *1699:A2 8.70804e-05
2 *1437:Z 0.000710794
3 *463:3 0.000593085
4 *463:4 0.000410991
5 *463:5 0.000246938
6 *463:6 0.000554866
7 *463:7 0.000435822
8 *463:8 0.00119002
9 *463:9 0.0024997
10 *463:10 2.55558e-06
11 *463:11 0.00115951
12 *463:12 0.000190028
13 *463:8 *131:2 0.00223331
14 *463:9 *201:2 0.000595624023
15 *463:5 *802:5 0.00234126
16 *463:3 *246:3 0.000645174961
17 *463:4 *248:4 0.000412649023

*RES
1 *463:4 *463:9 28.7586002
2 *463:10 *463:11 10.2241
3 *463:8 *463:12 6.54283
4 *463:5 *463:7 1.43626
5 *1699:A2 *463:7 1.65743
6 *463:11 *463:12 2.04842
7 *463:9 *463:10 0.159292
8 *463:3 *463:4 2.81987
9 *463:6 *463:8 2.5614
10 *463:5 *463:3 2.18314
11 *1437:Z *463:6 3.31968
12 *1775:B1 *463:7 0.225115
*END

*D_NET *464 0.0180848

*CONN
*I *1279:I I *C 140.1 53.2 *L 0.00104 *D DEL0
*I *1438:Z O *C 146.9 55.6 *L 0 *D DEL0
*I *1695:B1 I *C 145.7 163.2 *L 0.000972 *D IND2D1
*I *1773:A2 I *C 144.3 161.2 *L 0.000883 *D NR2XD0
*I *1765:A2 I *C 144.3 159.6 *L 0.000996 *D NR2D1

*CAP
1 *1765:A2 6.86923e-05
2 *1773:A2 1.21166e-05
3 *1438:Z 0.000260363
4 *464:5 0.00625243
5 *464:6 0.000505842
6 *464:7 0.000981918
7 *464:8 0.000105137
8 *464:9 0.000113151
9 *464:10 0.000105805
10 *464:11 0.000285836
11 *464:12 0.000107236
12 *464:13 7.04096e-05
13 *464:14 0.00222477
14 *464:15 0.00024443
15 *464:16 0.000229738
16 *464:17 0.0011962
17 *464:17 *21:3 0.00178623
18 *464:6 *249:2 0.000535651016
19 *464:6 *485:3 0.000846363984
20 *464:5 *111:2 0.000434500977
21 *464:6 *1061:Z 0.00102267
22 *464:5 *89:5 0.000695252031

*RES
1 *1695:B1 *464:7 3.27494
2 *464:10 *464:12 1.76776
3 *464:10 *464:11 1.47861
4 *464:13 *464:5 1.60068
5 *1765:A2 *464:8 0.350608
6 *1438:Z *464:9 1.11848
7 *464:6 *464:14 2.73561
8 *1773:A2 *464:7 0.702081
9 *464:8 *464:15 0.954
10 *464:17 *464:5 56.7344017
11 *464:15 *464:16 3.64199
12 *1279:I *464:6 1.30461
13 *464:12 *464:13 4.78558
14 *464:16 *464:17 0.23547
15 *464:11 *464:14 4.3813
16 *464:7 *464:8 0.520285
17 *464:9 *464:14 5.93176
*END

*D_NET *465 0.000448963

*CONN
*I *1449:I I *C 141.9 312.2 *L 0.00267 *D CKND3
*I *1450:ZN O *C 139.9 312.2 *L 0 *D CKND1

*CAP
1 *1450:ZN 3.95219e-05
2 *1449:I 6.01383e-05
3 *465:2 0.000349301016

*RES
1 *1450:ZN *465:2 0.449998
2 *1449:I *465:2 1.72261
*END

*D_NET *466 0.00449221

*CONN
*I *1448:I I *C 146.7 276.2 *L 0.0054 *D CKND6
*I *1449:ZN O *C 142.3 312 *L 0 *D CKND3

*CAP
1 *1449:ZN 0.000121696
2 *1448:I 5.93568e-05
3 *466:2 0.000451579
4 *466:3 2.71345e-05
5 *466:4 0.00383246

*RES
1 *466:2 *466:4 22.7623005
2 *466:3 *466:4 3.23846
3 *1449:ZN *466:2 0.450133
4 *1448:I *466:3 0.450133
*END

*D_NET *467 0.0383745

*CONN
*I *1447:I I *C 146.7 150.4 *L 0.00178 *D CKND2
*I *1448:ZN O *C 147.7 276 *L 0 *D CKND6
*I *1446:I I *C 145.3 276.4 *L 0.00178 *D CKND2
*I *1445:I I *C 145.5 262 *L 0.00178 *D CKND2
*I *1444:I I *C 145.5 231.6 *L 0.00178 *D CKND2
*I *1443:I I *C 145.7 192.2 *L 0.00267 *D CKND3
*I *1442:I I *C 146.3 114.4 *L 0.00178 *D CKND2
*I *1441:I I *C 146.3 80.4 *L 0.00178 *D CKND2
*I *1440:I I *C 146.1 51.6 *L 0.00178 *D CKND2
*I *1439:I I *C 146.1 28 *L 0.00178 *D CKND2

*CAP
1 *1446:I 0.000569136
2 *467:10 0.000356201
3 *467:11 0.0019796
4 *467:12 0.000110483
5 *467:13 0.00227333
6 *467:14 0.00289157
7 *467:15 0.00282049
8 *467:16 0.00051491
9 *467:17 0.0016283
10 *467:18 0.000419385
11 *467:19 0.000261823
12 *467:20 0.00256078
13 *467:21 0.000412016
14 *467:22 0.000520116
15 *467:23 0.00058608
16 *467:24 0.00106719
17 *467:25 0.00252972
18 *467:10 *84:4 0.000215472988
19 *467:11 *480:5 0.000671672969
20 *1446:I *310:5 0.000539486992
21 *467:12 *312:2 0.000369908008
22 *467:13 *104:6 3.412e-06
23 *467:14 *104:8 0.000102869
24 *467:15 *104:8 0.000156779
25 *467:15 *104:9 8.748e-06
26 *467:14 *104:10 0.000128241
27 *467:15 *104:10 6.3652e-05
28 *467:13 *104:11 3.438e-06
29 *467:14 *104:11 0.000110794
30 *467:10 *104:12 2.0172e-05
31 *467:14 *104:12 0.000383946
32 *467:15 *104:12 5.1752e-05
33 *467:14 *104:13 3.5073e-05
34 *467:15 *104:13 8.0986e-05
35 *467:16 *104:3 1.2103e-05
36 *467:13 *104:3 0.00356989
37 *467:17 *104:3 0.000723053
38 *467:14 *104:3 0.000662460974
39 *467:13 *236:3 0.00130486
40 *467:18 *294:2 0.00105089
41 *467:19 *472:20 0.000278712012
42 *467:19 *1071:I 0.000753911016
43 *467:13 *290:6 0.000569281992
44 *467:14 *109:9 0.000235200996
45 *467:11 *365:6 0.000592355
46 *467:11 *367:5 0.00175834
47 *467:13 *1724:DB 0.00114066008
48 *467:20 *91:11 0.00127515992

*RES
1 *467:14 *467:15 18.447
2 *467:24 *467:20 19.1376
3 *467:13 *467:14 23.3254
4 *467:23 *467:20 1.81054
5 *467:20 *467:25 24.8042
6 *467:13 *467:17 28.3052006
7 *467:12 *467:24 9.03844
8 *467:11 *467:15 17.6631
9 *467:18 *467:17 1.21408
10 *1439:I *467:11 1.74662
11 *467:22 *467:24 1.69004
12 *467:10 *467:14 1.33199
13 *467:25 *467:17 26.3867
14 *467:21 *467:15 1.45724
15 *467:19 *467:25 1.70904
16 *1446:I *467:12 2.59012
17 *1448:ZN *467:12 0.609415
18 *467:16 *467:13 2.0144
19 *1444:I *467:23 0.900086
20 *1445:I *467:22 0.675065
21 *1443:I *467:19 0.225022
22 *1440:I *467:21 0.450043
23 *1441:I *467:10 0.450043
24 *1442:I *467:16 0.450043
25 *1447:I *467:18 0.225022
*END

*D_NET *468 0.0118035

*CONN
*I *1487:CPN I *C 138.7 28 *L 0.000701 *D DFNCND1
*I *1439:ZN O *C 146.37 28.295 *L 0 *D CKND2
*I *1486:CPN I *C 146.5 22.8 *L 0.000701 *D DFNCND1
*I *1485:CPN I *C 150.3 15.6 *L 0.000701 *D DFNCND1
*I *1484:CPN I *C 150.5 8.4 *L 0.000701 *D DFNCND1
*I *1479:CPN I *C 146.1 30 *L 0.000701 *D DFNCND1
*I *1478:CPN I *C 144.5 26.4 *L 0.000701 *D DFNCND1
*I *1477:CPN I *C 143.5 17.2 *L 0.000701 *D DFNCND1
*I *1476:CPN I *C 146.1 10 *L 0.000701 *D DFNCND1
*I *1475:CPN I *C 138.9 10 *L 0.000701 *D DFNCND1
*I *1470:CP I *C 138.5 30 *L 0.000642 *D DFCNQD1
*I *1469:CP I *C 138.1 26.4 *L 0.000642 *D DFCNQD1
*I *1468:CP I *C 138.9 20.8 *L 0.000642 *D DFCNQD1
*I *1467:CP I *C 138.7 15.6 *L 0.000642 *D DFCNQD1
*I *1466:CP I *C 138.1 12 *L 0.000642 *D DFCNQD1

*CAP
1 *1468:CP 6.19144e-05
2 *1469:CP 0.000337331
3 *1470:CP 0.000141911
4 *1475:CPN 0.000431946
5 *1476:CPN 4.31392e-05
6 *1477:CPN 6.82883e-05
7 *1478:CPN 0.000323959
8 *1479:CPN 0.000273384
9 *1486:CPN 0.000116139
10 *1439:ZN 9.36683e-05
11 *468:15 6.26996e-05
12 *468:16 8.48465e-05
13 *468:17 0.000643115
14 *468:18 0.000878741
15 *468:19 0.000198399
16 *468:20 0.000865624
17 *468:21 0.00151345
18 *468:22 0.000528316
19 *468:23 0.000122489
20 *468:24 0.000154174
21 *468:25 9.53542e-05
22 *468:26 0.00100172
23 *468:27 0.000302852
24 *468:28 0.000544366
25 *468:29 0.000732419
26 *468:30 0.000381186
27 *468:31 0.000301512
28 *468:32 0.000773526
29 *1470:CP *76:2 0.00033969
30 *1476:CPN *490:17 0.000387346016

*RES
1 *468:16 *468:17 2.98983
2 *1476:CPN *468:20 0.384268
3 *1477:CPN *468:31 0.674965
4 *468:15 *468:30 1.44795
5 *1478:CPN *468:30 1.66922
6 *1469:CP *468:32 2.08652
7 *468:22 *468:26 2.26667
8 *468:18 *468:31 1.98769
9 *1486:CPN *468:17 0.526576
10 *468:21 *468:24 5.94789982
11 *1468:CP *468:21 0.74376
12 *468:25 *468:28 2.81186
13 *468:18 *468:19 1.00741
14 *468:17 *468:18 3.91856
15 *468:30 *468:32 3.87118
16 *468:23 *468:29 2.89808
17 *1439:ZN *468:16 0.518681
18 *468:20 *468:29 1.40938
19 *468:21 *468:26 3.69511
20 *468:15 *468:16 0.645288
21 *468:22 *468:27 0.92945
22 *468:19 *468:20 3.75002
23 *1475:CPN *468:22 1.67457
24 *1470:CP *468:24 1.45448
25 *1479:CPN *468:15 1.56584
26 *1466:CP *468:27 0.224988
27 *1467:CP *468:26 0.224988
28 *1485:CPN *468:25 0.224988
29 *1487:CPN *468:24 0.449977
30 *1484:CPN *468:23 0.224988
31 *468:19 *468:28 0.224988
32 *468:24 *468:32 0.224988
*END

*D_NET *469 0.0119116

*CONN
*I *1701:CP I *C 147.5 49.6 *L 0.000659 *D DFXQD1
*I *1440:ZN O *C 145.83 51.305 *L 0 *D CKND2
*I *1700:CP I *C 147.5 48 *L 0.000659 *D DFXQD1
*I *1490:CPN I *C 150.9 51.6 *L 0.000701 *D DFNCND1
*I *1489:CPN I *C 150.7 42.4 *L 0.000701 *D DFNCND1
*I *1488:CPN I *C 148.5 37.2 *L 0.000701 *D DFNCND1
*I *1483:CPN I *C 139.3 51.6 *L 0.000701 *D DFNCND1
*I *1482:CPN I *C 144.5 44.4 *L 0.000701 *D DFNCND1
*I *1481:CPN I *C 146.3 38.8 *L 0.000701 *D DFNCND1
*I *1480:CPN I *C 146.1 35.2 *L 0.000701 *D DFNCND1
*I *1474:CP I *C 142.9 48 *L 0.000642 *D DFCNQD1
*I *1473:CP I *C 138.1 44.4 *L 0.000642 *D DFCNQD1
*I *1472:CP I *C 138.1 37.2 *L 0.000642 *D DFCNQD1
*I *1471:CP I *C 138.1 33.6 *L 0.000642 *D DFCNQD1

*CAP
1 *1471:CP 0.000656471
2 *1474:CP 4.75063e-05
3 *1480:CPN 0.000166786
4 *1481:CPN 0.000281452
5 *1483:CPN 1.91139e-05
6 *1488:CPN 3.59822e-05
7 *1490:CPN 8.72138e-05
8 *1700:CP 0.000275289
9 *469:14 0.000644477
10 *469:15 0.000409783
11 *469:16 0.000527339
12 *469:17 0.000323266
13 *469:18 0.000126869
14 *469:19 0.000286343
15 *469:20 0.000200957
16 *469:21 0.00035312
17 *469:22 0.00114083008
18 *469:23 0.000141091
19 *469:24 0.000138828
20 *469:25 0.00054238
21 *469:26 0.000243746
22 *469:27 0.000212412
23 *469:28 0.000419183
24 *469:29 0.000457011
25 *469:30 0.000288258
26 *469:31 0.00103222
27 *469:32 0.000540378
28 *469:33 0.000418713
29 *1490:CPN *365:3 0.000210795996
30 *1474:CP *367:3 0.000734232031
31 *1474:CP *801:5 0.00020849
32 *1481:CPN *1488:CDN 0.000378781992
33 *1480:CPN *1208:I 0.000362225

*RES
1 *469:15 *469:16 0.629624
2 *469:14 *469:18 2.33718
3 *469:20 *469:29 1.14756
4 *469:16 *469:21 1.33132
5 *469:22 *469:27 1.48419
6 *469:29 *469:30 1.13317
7 *1483:CPN *469:31 0.80091
8 *469:14 *469:16 2.14075
9 *1480:CPN *469:17 0.997197
10 *469:19 *469:31 1.04913
11 *469:23 *469:32 1.20545
12 *469:25 *469:33 4.30335
13 *1440:ZN *469:18 0.384838
14 *1488:CPN *469:26 1.20545
15 *1490:CPN *469:29 3.01724
16 *469:19 *469:22 4.69484997
17 *469:17 *469:26 1.71974
18 *469:27 *469:32 4.00333
19 *469:30 *469:31 4.16645
20 *1481:CPN *469:17 1.96552
21 *1700:CP *469:20 1.6481
22 *1471:CP *469:23 2.88199
23 *469:14 *469:28 2.1136
24 *469:15 *469:25 1.62661
25 *1474:CP *469:28 0.450028
26 *469:24 *469:25 2.43418
27 *1489:CPN *469:24 0.225014
28 *1472:CP *469:23 0.225014
29 *1473:CP *469:22 0.225014
30 *1482:CPN *469:21 0.225014
31 *1701:CP *469:20 0.450028
32 *469:18 *469:30 0.225014
33 *469:26 *469:33 0.225014
*END

*D_NET *470 0.0140135

*CONN
*I *1713:CP I *C 147.9 82 *L 0.000659 *D DFXQD1
*I *1441:ZN O *C 146.03 80.105 *L 0 *D CKND2
*I *1712:CP I *C 147.3 78.4 *L 0.000659 *D DFXQD1
*I *1711:CP I *C 147.5 76.8 *L 0.000659 *D DFXQD1
*I *1710:CP I *C 147.3 71.2 *L 0.000659 *D DFXQD1
*I *1709:CP I *C 147.3 67.6 *L 0.000659 *D DFXQD1
*I *1708:CP I *C 147.3 66 *L 0.000659 *D DFXQD1
*I *1707:CP I *C 147.7 73.2 *L 0.000659 *D DFXQD1
*I *1706:CP I *C 147.1 69.6 *L 0.000659 *D DFXQD1
*I *1705:CP I *C 147.5 64 *L 0.000659 *D DFXQD1
*I *1704:CP I *C 147.5 60.4 *L 0.000659 *D DFXQD1
*I *1703:CP I *C 145.3 56.8 *L 0.000659 *D DFXQD1
*I *1702:CP I *C 144.3 53.2 *L 0.000659 *D DFXQD1
*I *1498:CPN I *C 145.5 84 *L 0.000701 *D DFNCND1
*I *1497:CPN I *C 145.5 80.4 *L 0.000701 *D DFNCND1
*I *1496:CPN I *C 143.7 76.8 *L 0.000701 *D DFNCND1
*I *1495:CPN I *C 143.7 73.2 *L 0.000701 *D DFNCND1
*I *1494:CPN I *C 143.3 67.6 *L 0.000701 *D DFNCND1
*I *1493:CPN I *C 143.5 64 *L 0.000701 *D DFNCND1
*I *1492:CPN I *C 143.7 60.4 *L 0.000701 *D DFNCND1
*I *1491:CPN I *C 147.3 58.8 *L 0.000701 *D DFNCND1

*CAP
1 *1491:CPN 0.000300142
2 *1492:CPN 0.000104271
3 *1494:CPN 4.13593e-05
4 *1495:CPN 4.90778e-05
5 *1496:CPN 0.000187926
6 *1497:CPN 4.59706e-06
7 *1708:CP 0.00025752
8 *1710:CP 1.65437e-05
9 *1441:ZN 1.66856e-05
10 *470:21 0.000676846
11 *470:22 0.000307833
12 *470:23 0.00092984
13 *470:24 0.000596057
14 *470:25 0.000781698
15 *470:26 2.3794e-05
16 *470:27 0.00079102
17 *470:28 0.000655748
18 *470:29 9.81273e-05
19 *470:30 0.000291927
20 *470:31 4.14586e-05
21 *470:32 0.000141657
22 *470:33 0.000175724
23 *470:34 0.000225908
24 *470:35 0.000227115
25 *470:36 0.000450909
26 *470:37 0.000261592
27 *470:38 0.000844724
28 *470:39 0.000150866
29 *470:40 0.000110741
30 *470:41 0.000253562
31 *470:42 0.000327129
32 *470:43 0.000354087
33 *470:44 0.000285301
34 *470:45 0.00025525
35 *470:46 0.000378477
36 *1708:CP *20:4 0.000211446992
37 *470:21 *1704:SA 0.000858718984
38 *1494:CPN *192:5 0.000618978984
39 *1441:ZN *887:13 0.000327466992
40 *1495:CPN *488:177 0.000758048984
41 *1491:CPN *364:22 0.000623238984

*RES
1 *470:44 *470:46 0.476799
2 *470:23 *470:24 2.26683
3 *470:21 *470:41 3.78069997
4 *1707:CP *470:38 0.865737
5 *470:40 *470:46 3.26283
6 *470:28 *470:29 3.12333
7 *470:22 *470:39 0.377228
8 *470:32 *470:43 1.34404
9 *1494:CPN *470:29 0.384208
10 *470:41 *470:45 1.63681
11 *470:25 *470:38 2.99025
12 *1492:CPN *470:42 0.449973
13 *1495:CPN *470:26 0.384208
14 *1708:CP *470:33 1.68255
15 *1491:CPN *470:36 1.52633
16 *1706:CP *470:39 0.449973
17 *470:25 *470:26 0.136896
18 *470:27 *470:37 2.10028
19 *470:24 *470:34 0.953655
20 *1713:CP *470:43 2.31206
21 *470:30 *470:38 3.07078
22 *470:22 *470:33 1.23258
23 *470:21 *470:42 1.73586
24 *470:21 *470:24 2.37424
25 *470:23 *470:35 1.7467
26 *1496:CPN *470:25 2.86898
27 *1441:ZN *1497:CPN 0.35346
28 *470:43 *470:44 0.881371
29 *1498:CPN *470:40 0.675018
30 *1710:CP *470:22 1.50787
31 *470:30 *470:32 1.41563
32 *470:37 *470:39 0.772108
33 *470:31 *470:36 2.25737
34 *1441:ZN *470:44 0.609887
35 *470:31 *470:41 1.10636
36 *470:27 *470:29 0.764378
37 *470:26 *470:27 2.82751
38 *1493:CPN *470:28 0.224987
39 *1704:CP *470:36 0.224987
40 *1702:CP *470:35 0.449973
41 *1703:CP *470:34 0.449973
42 *1709:CP *470:33 0.449973
43 *1712:CP *470:32 0.449973
44 *1705:CP *470:31 0.449973
45 *1711:CP *470:30 0.449973
46 *470:28 *470:45 0.224987
*END

*D_NET *471 0.0154526

*CONN
*I *1724:CP I *C 146.5 120 *L 0.000659 *D DFXQD1
*I *1442:ZN O *C 146.57 114.695 *L 0 *D CKND2
*I *1723:CP I *C 147.7 118 *L 0.000659 *D DFXQD1
*I *1722:CP I *C 147.5 116.4 *L 0.000659 *D DFXQD1
*I *1721:CP I *C 147.3 110.8 *L 0.000659 *D DFXQD1
*I *1720:CP I *C 147.7 109.2 *L 0.000659 *D DFXQD1
*I *1719:CP I *C 147.7 103.6 *L 0.000659 *D DFXQD1
*I *1718:CP I *C 147.5 98.4 *L 0.000659 *D DFXQD1
*I *1717:CP I *C 147.5 96.4 *L 0.000659 *D DFXQD1
*I *1716:CP I *C 147.7 94.8 *L 0.000659 *D DFXQD1
*I *1715:CP I *C 147.7 89.2 *L 0.000659 *D DFXQD1
*I *1714:CP I *C 147.3 84 *L 0.000659 *D DFXQD1
*I *1507:CPN I *C 143.5 116.4 *L 0.000701 *D DFNCND1
*I *1506:CPN I *C 143.7 114.4 *L 0.000701 *D DFNCND1
*I *1505:CPN I *C 145.1 112.8 *L 0.000701 *D DFNCND1
*I *1504:CPN I *C 150.1 105.6 *L 0.000701 *D DFNCND1
*I *1503:CPN I *C 143.9 100 *L 0.000701 *D DFNCND1
*I *1502:CPN I *C 143.3 92.8 *L 0.000701 *D DFNCND1
*I *1501:CPN I *C 145.1 91.2 *L 0.000701 *D DFNCND1
*I *1500:CPN I *C 150.9 87.6 *L 0.000701 *D DFNCND1
*I *1499:CPN I *C 143.7 85.6 *L 0.000701 *D DFNCND1

*CAP
1 *1502:CPN 8.53639e-05
2 *1505:CPN 0.000328512
3 *1507:CPN 0.000245939
4 *1714:CP 0.000307914
5 *1715:CP 9.58099e-06
6 *1716:CP 0.000259503
7 *1719:CP 0.000238627
8 *1720:CP 0.000232931
9 *1724:CP 0.000281831
10 *471:21 0.000321461
11 *471:22 7.19146e-05
12 *471:23 0.000641486
13 *471:24 0.000790081
14 *471:25 0.0007205
15 *471:26 0.00106965992
16 *471:27 0.000370133
17 *471:28 0.000601987
18 *471:30 0.000335074
19 *471:31 0.000220314
20 *471:32 0.000203665
21 *471:33 3.52228e-05
22 *471:34 5.21813e-05
23 *471:35 0.00055387
24 *471:36 0.000424861
25 *471:37 0.000575415
26 *471:38 0.000544272
27 *471:39 0.000667568
28 *471:40 0.000595017
29 *471:41 0.000458892
30 *471:42 0.000379535
31 *471:43 7.513e-05
32 *471:44 0.000419066
33 *471:45 0.000248551
34 *1719:CP *96:2 0.000687021016
35 *471:23 *1345:I 0.00039714
36 *1720:CP *488:74 0.000542899023
37 *1719:CP *50:2 0.000256555996
38 *1716:CP *57:2 0.000725266016
39 *1505:CPN *891:10 0.000245832988
40 *471:21 *437:2 0.000231855

*RES
1 *471:42 *471:45 1.19706
2 *471:24 *471:25 3.74968
3 *471:26 *471:27 1.19662
4 *1714:CP *471:44 2.07359
5 *1715:CP *471:39 1.94653
6 *471:29 *471:35 2.78197
7 *471:22 *471:23 0.413301
8 *1719:CP *471:41 1.80849
9 *471:30 *471:42 2.09019
10 *1720:CP *471:22 1.69144
11 *471:23 *471:35 2.93463
12 *471:38 *471:44 2.11359
13 *471:37 *471:43 2.05641
14 *1505:CPN *471:45 1.54566
15 *471:27 *471:28 2.26829
16 *1723:CP *471:30 1.91026
17 *471:36 *471:45 1.10633
18 *471:25 *471:26 4.79145002
19 *471:31 *471:43 1.97957
20 *471:28 *471:39 1.02415
21 *471:23 *471:24 3.44013
22 *1724:CP *471:29 1.35037
23 *471:31 *471:32 1.21936
24 *471:27 *471:21 1.60831
25 *471:24 *471:41 0.85453
26 *471:28 *471:44 1.48439
27 *471:33 *471:39 2.30755
28 *1502:CPN *471:40 0.450003
29 *1716:CP *471:32 2.02571
30 *471:34 *471:41 2.10723
31 *1507:CPN *471:36 1.36324
32 *1721:CP *471:22 0.559305
33 *471:26 *471:40 2.43411
34 *1499:CPN *471:38 0.224965
35 *1503:CPN *471:37 0.224965
36 *1501:CPN *471:21 0.224965
37 *1506:CPN *471:36 0.224965
38 *1442:ZN *471:35 0.224965
39 *1504:CPN *471:34 0.224965
40 *1500:CPN *471:33 0.224965
41 *1717:CP *471:32 0.450003
42 *1718:CP *471:31 0.450003
43 *1722:CP *471:30 0.450003
44 *471:25 *471:43 0.224965
45 *471:35 *471:42 0.224965
*END

*D_NET *472 0.00665497

*CONN
*I *1735:CP I *C 145.3 190 *L 0.000659 *D DFXQD1
*I *1443:ZN O *C 145.3 192.4 *L 0 *D CKND3
*I *1734:CP I *C 144.9 184.8 *L 0.000659 *D DFXQD1
*I *1733:CP I *C 145.5 181.2 *L 0.000659 *D DFXQD1
*I *1519:CPN I *C 145.5 193.6 *L 0.000701 *D DFNCND1
*I *1518:CPN I *C 146.7 188.4 *L 0.000701 *D DFNCND1
*I *1517:CPN I *C 144.5 182.8 *L 0.000701 *D DFNCND1
*I *1516:CPN I *C 148.5 177.6 *L 0.000701 *D DFNCND1
*I *1465:CLK I *C 134.195 180.925 *L 0.031 *D sram00

*CAP
1 *472:9 6.76321e-05
2 *472:10 2.38201e-05
3 *472:11 5.85687e-05
4 *472:12 6.13171e-05
5 *472:13 2.86463e-05
6 *472:14 0.000319706
7 *472:15 0.000533842
8 *472:16 5.67036e-05
9 *472:18 0.000189285
10 *472:19 7.35217e-05
11 *472:20 0.000245579
12 *472:21 4.99142e-05
13 *472:22 0.000316189
14 *472:23 4.86054e-05
15 *472:24 3.7677e-05
16 *472:25 6.95953e-05
17 *472:26 2.48017e-05
18 *472:27 0.000103264
19 *472:28 0.000226569
20 *472:29 0.00107215
21 *472:30 4.53498e-05
22 *472:32 2.80901e-05
23 *472:33 3.85604e-05
24 *472:34 0.000313277
25 *472:35 8.47773e-05
26 *472:29 *1733:DA 0.00023309
27 *472:15 *1734:DA 0.00031713
28 *472:14 *97:8 0.00057896
29 *472:29 *115:8 0.000200248008
30 *472:20 *467:19 0.000278712012
31 *472:11 *107:9 0.000518063008
32 *472:10 *368:6 0.000411341016

*RES
1 *472:28 *472:29 6.97967
2 *472:14 *472:15 2.67101
3 *472:31 *472:34 0.980425
4 *472:25 *472:34 2.36568
5 *472:32 *472:35 1.66361
6 *472:25 *472:27 1.09261
7 *472:13 *472:20 0.722323
8 *472:16 *472:23 0.327161
9 *472:9 *472:19 0.343664
10 *472:12 *472:13 0.159222
11 *472:17 *472:18 0.423586
12 *1519:CPN *472:12 0.339648
13 *472:33 *472:35 0.544644
14 *472:28 *472:35 1.82345
15 *472:11 *472:21 0.330842
16 *472:26 *472:27 0.125904
17 *472:14 *472:30 1.10633
18 *472:15 *472:32 0.585444
19 *472:20 *472:22 1.5521
20 *472:14 *472:22 1.28396
21 *472:27 *472:28 0.55463
22 *472:10 *472:24 0.270731
23 *1517:CPN *472:18 0.225
24 *1518:CPN *472:24 0.225
25 *1734:CP *472:23 0.45
26 *1735:CP *472:22 0.45
27 *1733:CP *472:21 0.45
28 *1443:ZN *472:20 0.225
29 *1516:CPN *472:19 0.225
30 *472:18 *472:33 0.225
31 *472:19 *472:31 0.225
32 *472:21 *472:26 0.225
33 *472:23 *472:32 0.225
34 *472:24 *472:30 0.225
35 *1443:ZN *1465:CLK 0.0001
*END

*D_NET *473 0.0143684

*CONN
*I *1745:CP I *C 146.5 233.2 *L 0.000659 *D DFXQD1
*I *1444:ZN O *C 145.23 231.305 *L 0 *D CKND2
*I *1744:CP I *C 146.7 229.6 *L 0.000659 *D DFXQD1
*I *1743:CP I *C 144.3 226 *L 0.000659 *D DFXQD1
*I *1742:CP I *C 146.7 224.4 *L 0.000659 *D DFXQD1
*I *1741:CP I *C 146.7 220.8 *L 0.000659 *D DFXQD1
*I *1740:CP I *C 146.5 213.6 *L 0.000659 *D DFXQD1
*I *1739:CP I *C 146.7 210 *L 0.000659 *D DFXQD1
*I *1738:CP I *C 146.7 204.4 *L 0.000659 *D DFXQD1
*I *1737:CP I *C 146.7 200.8 *L 0.000659 *D DFXQD1
*I *1736:CP I *C 146.9 195.6 *L 0.000659 *D DFXQD1
*I *1529:CPN I *C 144.5 235.2 *L 0.000701 *D DFNCND1
*I *1528:CPN I *C 144.7 231.6 *L 0.000701 *D DFNCND1
*I *1527:CPN I *C 144.5 228 *L 0.000701 *D DFNCND1
*I *1526:CPN I *C 144.7 222.4 *L 0.000701 *D DFNCND1
*I *1525:CPN I *C 145.3 218.8 *L 0.000701 *D DFNCND1
*I *1524:CPN I *C 144.9 215.2 *L 0.000701 *D DFNCND1
*I *1523:CPN I *C 144.7 211.6 *L 0.000701 *D DFNCND1
*I *1522:CPN I *C 144.7 206.4 *L 0.000701 *D DFNCND1
*I *1521:CPN I *C 144.7 202.8 *L 0.000701 *D DFNCND1
*I *1520:CPN I *C 146.9 199.2 *L 0.000701 *D DFNCND1

*CAP
1 *1521:CPN 2.60582e-05
2 *1524:CPN 3.45499e-05
3 *1527:CPN 0.000273658
4 *1528:CPN 1.52032e-05
5 *1529:CPN 3.09579e-05
6 *1736:CP 0.000545914
7 *1737:CP 0.000540447
8 *1740:CP 4.29156e-05
9 *1741:CP 0.000260566
10 *1742:CP 1.88741e-05
11 *1744:CP 0.000276525
12 *1444:ZN 1.284e-05
13 *1745:CP 6.03403e-06
14 *473:21 0.000340631
15 *473:22 0.000363286
16 *473:23 0.000420223
17 *473:24 0.000793167
18 *473:25 0.000658197
19 *473:26 0.00103248
20 *473:27 0.000522077
21 *473:28 0.000259416
22 *473:29 7.02027e-05
23 *473:30 0.000152143
24 *473:31 0.000123185
25 *473:32 0.000122477
26 *473:33 5.2006e-05
27 *473:34 0.000772781
28 *473:35 0.000113591
29 *473:36 7.64888e-05
30 *473:37 0.000449842
31 *473:38 0.000445777
32 *473:39 0.000427707
33 *473:40 0.000569609
34 *473:41 0.000356386
35 *473:42 0.000773222
36 *473:43 0.000132103
37 *473:24 *1743:SA 0.00183367
38 *1521:CPN *355:11 0.00142317

*RES
1 *473:36 *473:42 1.23226
2 *1740:CP *473:26 2.70367
3 *1524:CPN *473:43 0.450017
4 *473:25 *473:37 2.63529
5 *1744:CP *473:22 1.81164
6 *1736:CP *473:36 2.7183
7 *473:24 *473:25 3.01112
8 *473:23 *473:40 1.5237
9 *473:22 *473:23 0.205366
10 *473:28 *473:39 3.07937
11 *1741:CP *473:21 1.46302
12 *473:26 *473:43 0.47679
13 *473:24 *473:35 1.0795
14 *473:29 *473:40 0.396783
15 *473:28 *473:32 0.929497
16 *473:33 *473:34 3.48985
17 *473:30 *473:40 3.18846
18 *473:39 *473:42 3.58068
19 *1742:CP *473:21 1.58319
20 *1526:CPN *473:41 0.827721
21 *473:26 *473:37 2.43725
22 *473:21 *473:41 1.10634
23 *1527:CPN *473:35 1.76316
24 *473:31 *473:43 1.71925
25 *473:27 *473:38 1.83091
26 *1521:CPN *473:39 0.69498
27 *473:31 *473:38 1.50512
28 *1745:CP *473:22 1.60596
29 *1444:ZN *1528:CPN 0.355372
30 *473:27 *473:28 3.07999
31 *1529:CPN *473:30 0.601649
32 *1737:CP *473:34 2.78067
33 *473:27 *473:33 1.33135
34 *473:24 *473:29 4.0995698
35 *1444:ZN *473:40 0.225008
36 *1523:CPN *473:38 0.225008
37 *1525:CPN *473:37 0.225008
38 *1520:CPN *473:36 0.225008
39 *1743:CP *473:35 0.450017
40 *1738:CP *473:34 0.450017
41 *1739:CP *473:33 0.450017
42 *1522:CPN *473:32 0.225008
43 *473:25 *473:41 0.225008
*END

*D_NET *474 0.0128267

*CONN
*I *1760:CP I *C 141.7 269.2 *L 0.000659 *D DFXQD1
*I *1445:ZN O *C 145.23 262.295 *L 0 *D CKND2
*I *1759:CP I *C 147.5 264 *L 0.000659 *D DFXQD1
*I *1758:CP I *C 147.1 260.4 *L 0.000659 *D DFXQD1
*I *1757:CP I *C 147.1 254.8 *L 0.000659 *D DFXQD1
*I *1756:CP I *C 147.3 247.6 *L 0.000659 *D DFXQD1
*I *1753:CP I *C 147.1 267.6 *L 0.000659 *D DFXQD1
*I *1752:CP I *C 147.3 265.6 *L 0.000659 *D DFXQD1
*I *1751:CP I *C 147.3 262 *L 0.000659 *D DFXQD1
*I *1750:CP I *C 146.5 253.2 *L 0.000659 *D DFXQD1
*I *1749:CP I *C 146.9 249.6 *L 0.000659 *D DFXQD1
*I *1748:CP I *C 146.5 242.4 *L 0.000659 *D DFXQD1
*I *1747:CP I *C 146.5 238.8 *L 0.000659 *D DFXQD1
*I *1746:CP I *C 146.3 235.2 *L 0.000659 *D DFXQD1
*I *1536:CPN I *C 143.3 265.6 *L 0.000701 *D DFNCND1
*I *1535:CPN I *C 143.3 262 *L 0.000701 *D DFNCND1
*I *1534:CPN I *C 144.9 258.4 *L 0.000701 *D DFNCND1
*I *1533:CPN I *C 144.9 251.2 *L 0.000701 *D DFNCND1
*I *1532:CPN I *C 143.5 247.6 *L 0.000701 *D DFNCND1
*I *1531:CPN I *C 144.7 244 *L 0.000701 *D DFNCND1
*I *1530:CPN I *C 144.7 240.4 *L 0.000701 *D DFNCND1

*CAP
1 *1530:CPN 3.14486e-05
2 *1531:CPN 2.06024e-05
3 *1532:CPN 4.97603e-05
4 *1533:CPN 0.000163411
5 *1534:CPN 1.61866e-05
6 *1535:CPN 6.68025e-05
7 *1746:CP 0.000167786
8 *1747:CP 8.53763e-05
9 *1748:CP 2.0009e-06
10 *1753:CP 0.000229717
11 *1757:CP 3.18764e-06
12 *1758:CP 0.000249712
13 *1759:CP 0.000131549
14 *1445:ZN 5.99856e-05
15 *474:21 0.000421238
16 *474:22 3.6996e-05
17 *474:23 0.000184
18 *474:24 0.000178839
19 *474:25 0.000868957
20 *474:26 8.95299e-05
21 *474:27 0.000506476
22 *474:28 4.87806e-05
23 *474:29 0.000702882
24 *474:30 0.000623522
25 *474:31 0.000676111
26 *474:32 0.000358023
27 *474:33 0.000147197
28 *474:34 3.88037e-05
29 *474:35 0.000105399
30 *474:36 6.63471e-05
31 *474:37 0.000904337969
32 *474:38 0.000335627
33 *474:39 0.000718917
34 *474:40 0.00029071
35 *474:41 0.00054085
36 *474:42 4.20327e-05
37 *474:43 0.000431822
38 *474:44 0.000244565
39 *474:45 0.000319813
40 *474:46 0.000241681
41 *474:47 0.000263553
42 *474:48 0.000248208
43 *474:21 *760:3 0.000396193008
44 *1757:CP *1757:DB 0.000526336016
45 *474:22 *1758:SA 0.000606549023
46 *1533:CPN *354:14 0.000384838984

*RES
1 *474:24 *474:29 3.31266999
2 *1532:CPN *474:45 1.58314
3 *1758:CP *474:36 1.7127
4 *474:25 *474:34 3.26086
5 *474:44 *474:46 1.2651
6 *474:43 *474:48 1.98767
7 *474:38 *474:45 2.49138
8 *474:22 *474:44 0.336696
9 *474:30 *474:32 1.45723
10 *474:26 *474:28 0.412264
11 *1531:CPN *474:38 0.694975
12 *1445:ZN *474:22 0.38421
13 *474:22 *474:37 3.01247
14 *1746:CP *474:39 0.913997
15 *474:31 *474:46 1.23224
16 *1757:CP *474:24 0.832868
17 *474:21 *474:28 2.00799
18 *1753:CP *474:33 1.78346
19 *1748:CP *474:28 0.559256
20 *1759:CP *474:23 1.24943
21 *474:34 *474:40 1.23224
22 *1533:CPN *474:48 1.40137
23 *474:23 *474:36 0.128491
24 *1530:CPN *474:21 0.469989
25 *474:26 *474:27 2.33508
26 *474:27 *474:39 2.97678
27 *474:29 *474:37 1.6026
28 *474:42 *474:44 1.37322
29 *474:33 *474:41 0.980416
30 *1750:CP *474:43 0.675009
31 *1534:CPN *474:37 0.540503
32 *474:30 *474:31 2.01446
33 *474:40 *474:47 1.48407
34 *474:35 *474:47 1.35487
35 *474:47 *474:48 0.881343
36 *474:25 *474:26 0.428439
37 *1747:CP *474:27 0.970307
38 *474:40 *474:45 0.251827
39 *474:24 *474:43 1.50338
40 *474:41 *474:42 1.70906
41 *1535:CPN *474:46 0.575886
42 *1760:CP *474:30 2.93023
43 *1751:CP *474:36 0.224986
44 *1749:CP *474:35 0.450023
45 *1756:CP *474:34 0.450023
46 *1752:CP *474:33 0.450023
47 *1536:CPN *474:32 0.224986
48 *474:23 *474:42 0.224986
*END

*D_NET *475 0.00998787

*CONN
*I *1763:CP I *C 142.1 276.4 *L 0.000659 *D DFXQD1
*I *1446:ZN O *C 145.57 276.695 *L 0 *D CKND2
*I *1762:CP I *C 147.7 278.4 *L 0.000659 *D DFXQD1
*I *1761:CP I *C 148.7 271.2 *L 0.000659 *D DFXQD1
*I *1755:CP I *C 147.7 274.8 *L 0.000659 *D DFXQD1
*I *1754:CP I *C 143.7 271.2 *L 0.000659 *D DFXQD1
*I *1547:CPN I *C 143.9 303.6 *L 0.000701 *D DFNCND1
*I *1546:CPN I *C 147.7 301.6 *L 0.000701 *D DFNCND1
*I *1545:CPN I *C 147.7 298 *L 0.000701 *D DFNCND1
*I *1544:CPN I *C 144.3 300 *L 0.000701 *D DFNCND1
*I *1543:CPN I *C 148.1 294.4 *L 0.000701 *D DFNCND1
*I *1542:CPN I *C 148.7 292.8 *L 0.000701 *D DFNCND1
*I *1541:CPN I *C 148.7 290.8 *L 0.000701 *D DFNCND1
*I *1540:CPN I *C 147.1 283.6 *L 0.000701 *D DFNCND1
*I *1539:CPN I *C 149.9 282 *L 0.000701 *D DFNCND1
*I *1538:CPN I *C 144.9 278.4 *L 0.000701 *D DFNCND1
*I *1537:CPN I *C 143.7 274.8 *L 0.000701 *D DFNCND1

*CAP
1 *1547:CPN 0.000157845
2 *1755:CP 0.000362771
3 *1446:ZN 3.52217e-05
4 *475:17 0.000401737
5 *475:18 0.00019122
6 *475:19 0.00111027
7 *475:20 0.000274404
8 *475:21 0.000272743
9 *475:22 0.000131637
10 *475:23 0.000213312
11 *475:24 0.000169687
12 *475:25 0.000474993
13 *475:26 0.000122759
14 *475:27 0.000561293
15 *475:28 0.000534051
16 *475:29 0.000142564
17 *475:30 0.000261088
18 *475:31 0.000527834
19 *475:32 9.87697e-06
20 *475:33 0.000279571
21 *475:34 0.000211364
22 *475:35 0.000965758
23 *475:36 0.000139074
24 *475:37 5.36372e-05
25 *475:38 0.000342221
26 *475:39 0.000307609
27 *475:40 0.000172974
28 *475:41 0.000659775
29 *475:42 0.000186578
30 *475:35 *258:2 0.00031288
31 *1446:ZN *264:2 0.000191211992
32 *1755:CP *312:2 0.000209919004

*RES
1 *475:36 *475:39 0.503586
2 *475:21 *475:39 1.48406
3 *475:20 *475:25 2.26631
4 *475:17 *475:28 2.45627
5 *475:19 *475:20 1.08637
6 *475:18 *475:19 4.54523993
7 *475:28 *475:32 2.14501
8 *1543:CPN *475:34 0.638828
9 *1755:CP *475:21 2.09951
10 *475:21 *475:25 1.23355
11 *475:22 *475:38 1.60993
12 *475:30 *475:31 1.13312
13 *475:23 *475:42 1.20539
14 *475:30 *475:34 1.96434
15 *475:29 *475:41 1.45728
16 *475:37 *475:41 2.36535
17 *475:40 *475:42 1.13319
18 *1754:CP *475:35 1.43044
19 *1446:ZN *475:39 0.675031
20 *475:27 *475:36 1.98764
21 *475:18 *475:31 1.41782
22 *475:26 *475:40 1.45728
23 *475:24 *475:35 2.61717
24 *475:19 *475:33 0.914374
25 *475:35 *475:42 2.4913
26 *1547:CPN *475:41 2.05998
27 *1540:CPN *475:33 0.224987
28 *1546:CPN *475:32 0.224987
29 *1541:CPN *475:31 0.224987
30 *1542:CPN *475:30 0.224987
31 *1544:CPN *475:29 0.224987
32 *1545:CPN *475:28 0.224987
33 *1763:CP *475:27 0.449974
34 *1538:CPN *475:26 0.449974
35 *1762:CP *475:25 0.449974
36 *1761:CP *475:24 0.449974
37 *1537:CPN *475:23 0.224987
38 *1539:CPN *475:22 0.224987
39 *475:17 *475:34 0.224987
40 *475:20 *475:38 0.224987
41 *475:32 *475:37 0.224987
42 *475:36 *475:40 0.224987
*END

*D_NET *476 0.0130093

*CONN
*I *1777:CP I *C 146.9 166.8 *L 0.000688 *D DFCND1
*I *1447:ZN O *C 146.97 150.695 *L 0 *D CKND2
*I *1764:CPN I *C 146.9 168.4 *L 0.000674 *D DFNSND1
*I *1732:CP I *C 145.5 170.4 *L 0.000659 *D DFXQD1
*I *1731:CP I *C 146.7 148.8 *L 0.000659 *D DFXQD1
*I *1730:CP I *C 146.7 146.8 *L 0.000659 *D DFXQD1
*I *1729:CP I *C 146.7 143.2 *L 0.000659 *D DFXQD1
*I *1728:CP I *C 146.7 139.6 *L 0.000659 *D DFXQD1
*I *1727:CP I *C 147.5 136 *L 0.000659 *D DFXQD1
*I *1726:CP I *C 147.1 130.8 *L 0.000659 *D DFXQD1
*I *1725:CP I *C 147.1 127.2 *L 0.000659 *D DFXQD1
*I *1515:CPN I *C 145.1 150.4 *L 0.000701 *D DFNCND1
*I *1514:CPN I *C 144.5 145.2 *L 0.000701 *D DFNCND1
*I *1513:CPN I *C 144.3 138 *L 0.000701 *D DFNCND1
*I *1512:CPN I *C 143.5 136 *L 0.000701 *D DFNCND1
*I *1511:CPN I *C 144.5 132.4 *L 0.000701 *D DFNCND1
*I *1510:CPN I *C 144.5 128.8 *L 0.000701 *D DFNCND1
*I *1509:CPN I *C 144.5 125.2 *L 0.000701 *D DFNCND1
*I *1508:CPN I *C 144.7 120 *L 0.000701 *D DFNCND1

*CAP
1 *1508:CPN 4.1049e-05
2 *1509:CPN 0.000673441
3 *1513:CPN 0.00021157
4 *1514:CPN 7.92174e-05
5 *1726:CP 9.29943e-05
6 *1728:CP 2.63327e-05
7 *1729:CP 4.21449e-05
8 *1730:CP 3.7229e-05
9 *1731:CP 4.7186e-05
10 *1732:CP 5.25715e-05
11 *476:19 0.000418318
12 *476:20 0.00205198
13 *476:21 0.000247797
14 *476:22 1.20861e-05
15 *476:23 0.000597293
16 *476:24 0.000495375
17 *476:25 0.00076822
18 *476:26 0.000274443
19 *476:27 0.000266615
20 *476:28 0.000304721
21 *476:29 0.00027056
22 *476:30 0.000529285
23 *476:31 6.20588e-05
24 *476:32 0.000263985
25 *476:33 0.00022231
26 *476:34 0.000170928
27 *476:35 0.000587148
28 *476:36 0.000450161
29 *476:37 0.000515821
30 *476:38 0.00046303
31 *476:39 0.000235304
32 *476:40 0.000359327
33 *476:41 0.000377269
34 *476:42 0.000616142
35 *1509:CPN *1725:SA 0.00044624
36 *1726:CP *344:2 0.000369276992
37 *476:20 *1271:I 0.000329765

*RES
1 *476:29 *476:30 2.27398
2 *476:39 *476:42 1.7342
3 *1732:CP *476:40 0.674986
4 *476:36 *476:37 2.26689
5 *476:27 *476:28 1.42543
6 *1728:CP *476:30 0.609227
7 *476:33 *476:40 2.23963
8 *1729:CP *476:29 0.609227
9 *1512:CPN *476:42 1.16548
10 *1730:CP *476:28 0.609227
11 *1508:CPN *476:38 0.674986
12 *476:33 *476:34 1.13329
13 *476:21 *476:29 1.25988
14 *476:25 *476:38 1.74745
15 *476:20 *476:27 1.21815
16 *1514:CPN *476:41 0.44999
17 *476:19 *476:22 1.87712
18 *476:26 *476:32 1.41003
19 *476:25 *476:26 3.26513
20 *1509:CPN *476:37 2.74969
21 *476:20 *476:35 1.67153
22 *476:24 *476:30 2.37962
23 *476:20 *476:34 10.0925999
24 *1727:CP *476:39 1.05275
25 *476:22 *476:23 0.159237
26 *1731:CP *476:27 0.743824
27 *476:31 *476:36 2.14092
28 *476:23 *476:24 3.13715
29 *1726:CP *476:22 0.384848
30 *476:19 *476:32 0.99192
31 *476:21 *476:41 1.7359
32 *476:21 *476:28 1.03566
33 *1513:CPN *476:31 1.70987
34 *1447:ZN *476:20 0.224995
35 *1510:CPN *476:37 0.224995
36 *1511:CPN *476:36 0.224995
37 *1515:CPN *476:35 0.224995
38 *1777:CP *476:34 0.224995
39 *1764:CPN *476:33 0.224995
40 *1725:CP *476:32 0.224995
41 *476:24 *476:39 0.224995
42 *476:31 *476:42 0.224995
*END

*D_NET *477 0.00184287

*CONN
*I *1451:ZN O *C 137.9 175.2 *L 0 *D TIEL
*I *1465:EMA[0] I *C 134.195 170.78 *L 0.00755 *D sram00
*I *1465:EMA[2] I *C 134.195 179.915 *L 0.00755 *D sram00

*CAP
1 *477:4 0.000218806
2 *477:6 6.51076e-05
3 *477:7 0.000254565
4 *477:8 1.94767e-05
5 *477:9 2.05558e-05
6 *477:10 0.000133121
7 *477:11 0.000337322
8 *477:12 1.41027e-06
9 *477:13 2.41349e-05
10 *477:14 5.40604e-06
11 *477:15 4.4306e-05
12 *477:16 1.84938e-05
13 *477:17 0.000700168047

*RES
1 *477:3 *477:4 0.728684
2 *477:7 *477:9 0.286491
3 *477:8 *477:10 0.159346
4 *477:13 *477:14 0.3944
5 *477:4 *477:17 2.46235991
6 *477:11 *477:17 2.00608
7 *477:5 *477:6 0.159233
8 *477:8 *477:17 0.414163
9 *477:11 *477:12 0.159233
10 *477:9 *477:10 0.5563
11 *477:12 *477:15 0.21856
12 *477:6 *477:14 0.352882
13 *477:5 *477:7 2.1159
14 *477:15 *477:16 0.268494
15 *1451:ZN *477:3 0.224985
16 *1451:ZN *1465:EMA[2] 0.000112718
17 *1465:EMA[2] *1465:EMA[0] 0.000112718
*END

*D_NET *478 0.00199733

*CONN
*I *1452:Z O *C 137.9 173.8 *L 0 *D TIEH
*I *1465:RETN I *C 134.195 178.555 *L 0.00453 *D sram00
*I *1465:EMA[1] I *C 134.195 169.62 *L 0.00755 *D sram00

*CAP
1 *1452:Z 3.11704e-06
2 *478:4 5.58589e-05
3 *478:5 0.000854708047
4 *478:6 2.53797e-05
5 *478:8 0.000488436
6 *478:9 6.21973e-05
7 *478:10 0.000310165
8 *478:11 1.7998e-06
9 *478:12 1.3042e-05
10 *478:13 9.66413e-06
11 *478:14 5.01465e-05
12 *478:15 2.26801e-05
13 *478:16 6.53926e-05
14 *478:17 3.4757e-05

*RES
1 *478:7 *478:10 1.61489
2 *478:8 *478:9 0.48702
3 *478:3 *478:4 0.285127
4 *478:7 *478:9 0.159231
5 *478:11 *478:14 0.20597
6 *478:4 *478:13 0.190221
7 *478:5 *478:6 0.285127
8 *478:8 *478:17 2.49127
9 *478:3 *478:5 3.34037995
10 *478:10 *478:11 0.159231
11 *478:14 *478:15 0.268511
12 *478:6 *478:8 0.361124
13 *478:12 *478:13 0.268511
14 *1452:Z *478:16 0.551701
15 *478:16 *478:17 0.224982
16 *1452:Z *1465:EMA[1] 0.00010194
17 *1465:EMA[1] *1465:RETN 0.00010194
*END

*D_NET *479 0.0216651

*CONN
*I *1206:I I *C 140.1 121.6 *L 0.00104 *D DEL0
*I *1453:Z O *C 140.1 6 *L 0 *D CKBD1

*CAP
1 *1453:Z 0.000589331
2 *479:2 0.000188645
3 *479:3 0.000480772
4 *479:4 0.000298728
5 *479:5 6.40183e-05
6 *479:6 0.00237701984
7 *479:7 0.000455419
8 *479:9 0.0012306
9 *479:10 0.00191536
10 *479:11 0.000761872
11 *479:12 0.000146063
12 *479:13 0.000322123
13 *479:14 0.000316464
14 *479:15 0.000238155
15 *479:16 0.000167608
16 *479:17 0.000240368
17 *479:18 0.000293469
18 *479:20 0.000653857
19 *479:21 0.000299018
20 *479:22 0.000512509
21 *479:23 8.41487e-06
22 *479:24 0.000345771
23 *479:25 5.44065e-07
24 *479:26 0.000327128
25 *479:27 0.000456761
26 *479:28 0.000665355
27 *479:18 *1035:I 0.000193911992
28 *479:9 *1137:I 0.0007025
29 *479:11 *366:4 0.00102918992
30 *479:11 *384:2 0.000702247031
31 *479:2 *1098:I 0.000969787031
32 *479:3 *1131:I 0.00107901
33 *479:2 *239:4 0.00122735
34 *479:4 *369:4 0.00240577

*RES
1 *479:22 *479:25 0.159199
2 *479:6 *479:7 1.92232
3 *479:19 *479:22 3.06622
4 *479:19 *479:20 0.159199
5 *479:16 *479:18 1.63909
6 *479:13 *479:14 2.51201
7 *479:11 *479:28 4.92134
8 *479:2 *479:14 1.88558
9 *479:2 *479:4 3.40158
10 *479:16 *479:17 1.5945
11 *479:7 *479:17 2.0341
12 *479:24 *479:25 2.56194
13 *479:20 *479:21 4.19946
14 *479:18 *479:26 2.38924
15 *479:10 *479:23 7.91723
16 *479:9 *479:21 1.33482
17 *1206:I *479:28 3.189
18 *479:23 *479:24 0.159199
19 *479:8 *479:9 5.39674
20 *1453:Z *479:5 2.14086
21 *479:12 *479:13 3.13405
22 *479:26 *479:27 4.49681
23 *479:11 *479:12 2.13647
24 *479:8 *479:3 0.159199
25 *479:4 *479:15 2.93874
26 *479:5 *479:10 2.62285
27 *479:6 *479:15 20.5783997
28 *479:3 *479:27 2.82476
*END

*D_NET *480 0.0119024

*CONN
*I *1205:I I *C 149.5 125.2 *L 0.00104 *D DEL0
*I *1454:Z O *C 147.3 20.4 *L 0 *D CKBD1

*CAP
1 *1454:Z 0.000427273
2 *480:2 0.00232569
3 *480:3 0.000472448
4 *480:4 2.0299e-05
5 *480:5 0.00169181
6 *480:7 5.12798e-05
7 *480:8 0.000343876
8 *480:9 0.000506588
9 *480:10 0.000372763
10 *480:2 *83:8 0.00178788
11 *480:3 *145:2 0.000519900039
12 *480:5 *196:2 0.000577286016
13 *480:5 *467:11 0.000671672969
14 *480:5 *365:2 0.000162937998
15 *480:5 *484:2 0.000589950977
16 *480:2 *28:4 0.00138073

*RES
1 *480:5 *480:10 18.8572
2 *480:9 *480:10 0.15939
3 *480:3 *480:4 1.54278
4 *1454:Z *480:5 3.11713
5 *480:7 *480:8 5.65233
6 *480:6 *480:9 5.64181
7 *480:6 *480:8 0.15939
8 *480:2 *480:7 2.05102
9 *480:4 *480:2 32.8484001
10 *1205:I *480:3 0.675153
*END

*D_NET *481 0.0139615

*CONN
*I *1280:I I *C 148.7 159.6 *L 0.00105 *D DEL1
*I *1455:Z O *C 150.1 20.4 *L 0 *D CKBD1

*CAP
1 *481:2 0.000503014
2 *481:3 0.000107055
3 *481:4 0.000472182
4 *481:5 0.000381685
5 *481:6 0.00935443
6 *481:6 *290:2 0.000276201016
7 *481:4 *484:2 0.002867

*RES
1 *481:5 *481:6 50.0014
2 *481:4 *481:6 37.778
3 *1280:I *481:3 0.67522
4 *481:2 *481:5 1.24897
5 *481:3 *481:4 0.827812
6 *1455:Z *481:2 0.225073
*END

*D_NET *482 0.0130479

*CONN
*I *1281:I I *C 141.7 146.8 *L 0.00105 *D DEL1
*I *1456:Z O *C 151.5 31.2 *L 0 *D CKBD1

*CAP
1 *1281:I 0.000135207
2 *482:2 0.005765
3 *482:3 6.01703e-05
4 *482:4 0.000160102
5 *482:5 0.000208925
6 *482:6 0.00107172
7 *482:7 9.48298e-05
8 *482:6 *576:2 0.000199183008
9 *482:6 *435:2 0.000158974004
10 *482:6 *455:9 0.0032303
11 *482:2 *123:4 0.00196342

*RES
1 *482:7 *482:2 29.7142
2 *482:5 *482:6 6.32291
3 *482:4 *482:7 0.450185
4 *482:6 *482:2 42.9452019
5 *482:3 *482:5 0.450185
6 *1281:I *482:4 0.674951
7 *1456:Z *482:3 0.224765
*END

*D_NET *483 0.0116654

*CONN
*I *1327:I I *C 144.9 132.4 *L 0.00105 *D DEL1
*I *1457:Z O *C 147.9 31.2 *L 0 *D CKBD1

*CAP
1 *1457:Z 0.000294928
2 *483:2 0.000286159
3 *483:3 0.00442089
4 *483:4 0.00051572
5 *483:5 0.000433286
6 *483:7 0.000865829
7 *483:8 0.000164936
8 *483:9 5.07288e-05
9 *483:10 0.000208716
10 *483:11 0.000186388
11 *483:11 *91:8 0.000788296016
12 *483:10 *336:3 0.000557223984
13 *483:3 *435:2 0.00031490002
14 *483:3 *804:3 0.000369735
15 *483:3 *216:3 0.000436628984
16 *483:2 *3:3 0.00151154
17 *483:3 *32:4 0.00025953502

*RES
1 *483:2 *483:11 0.159315
2 *483:4 *483:5 2.01449
3 *483:10 *483:11 10.1787
4 *483:9 *483:10 2.20106
5 *483:8 *483:3 2.11581
6 *483:6 *483:7 2.42326
7 *483:4 *483:8 1.88453
8 *483:3 *483:2 45.7932014
9 *483:7 *483:9 0.449994
10 *1457:Z *483:5 1.19766
11 *1327:I *483:6 0.449994
*END

*D_NET *484 0.0120986

*CONN
*I *1283:I I *C 145.1 138 *L 0.00105 *D DEL1
*I *1458:Z O *C 148.7 41.2 *L 0 *D CKBD1

*CAP
1 *1458:Z 0.000610548
2 *484:2 0.00354373
3 *484:3 0.000230787
4 *484:4 0.000700256
5 *484:6 0.000178876
6 *484:7 0.000403283
7 *484:2 *436:4 0.000263924004
8 *484:2 *28:5 0.000211579004
9 *484:2 *480:5 0.000589950977
10 *484:3 *145:7 0.00195526
11 *484:4 *889:10 0.000543385977
12 *484:2 *481:4 0.002867

*RES
1 *484:2 *484:3 56.6828995
2 *484:6 *484:2 0.449754
3 *484:5 *484:4 3.42246
4 *1458:Z *484:6 2.71237
5 *484:7 *484:3 0.716147
6 *484:4 *484:7 2.6129
7 *1283:I *484:5 0.449754
*END

*D_NET *485 0.0173327

*CONN
*I *1282:I I *C 140.7 143.2 *L 0.00105 *D DEL1
*I *1459:Z O *C 139.5 41.2 *L 0 *D CKBD1

*CAP
1 *1459:Z 0.000113954
2 *485:2 0.00159693
3 *485:3 0.00279489
4 *485:4 0.000363653
5 *485:5 0.000359858
6 *485:6 0.000858618
7 *485:7 0.000235157
8 *485:8 1.07898e-05
9 *485:9 0.00155799
10 *485:3 *76:3 0.00228022
11 *485:3 *249:2 0.000303131992
12 *485:5 *368:3 0.000978015
13 *485:5 *781:4 0.00062668
14 *485:2 *515:2 0.000661757969
15 *485:3 *111:4 0.000388598008
16 *485:4 *487:3 0.0027598
17 *485:5 *119:3 0.000261453008
18 *485:3 *464:6 0.000846363984
19 *485:6 *77:3 0.000334791992

*RES
1 *485:8 *485:9 11.4289
2 *485:2 *485:8 0.159383
3 *485:5 *485:6 10.1809
4 *1282:I *485:5 1.53259
5 *1459:Z *485:3 0.449884
6 *485:7 *485:9 0.159383
7 *485:4 *485:2 22.2665
8 *485:6 *485:4 1.60757
9 *485:3 *485:7 25.7273998
*END

*D_NET *486 0.00391434

*CONN
*I *1097:I I *C 138.5 78.4 *L 0.00072 *D BUFFD1
*I *1460:Z O *C 141.3 55.6 *L 0 *D CKBD1

*CAP
1 *1097:I 0.000110979
2 *486:2 0.000265878
3 *486:3 0.000533238
4 *486:4 0.000514355
5 *486:5 0.00248990016

*RES
1 *486:5 *486:6 13.9448996
2 *486:4 *486:6 1.35606
3 *1460:Z *486:2 0.450035
4 *1097:I *486:3 0.450035
5 *486:3 *486:4 2.18825
6 *486:2 *486:5 1.20584
*END

*D_NET *487 0.0108395

*CONN
*I *1332:I I *C 140.9 127.2 *L 0.00105 *D DEL1
*I *1461:Z O *C 139.3 62.8 *L 0 *D CKBD1

*CAP
1 *487:2 0.000411815
2 *487:3 0.000316574
3 *487:4 0.000923128
4 *487:5 0.000336485
5 *487:6 0.00044169
6 *487:7 0.00118728992
7 *487:8 0.000215482
8 *487:9 0.000414279
9 *487:10 0.00021166
10 *487:4 *1507:CDN 0.00116743008
11 *487:4 *119:2 0.000203803008
12 *487:3 *372:2 0.000763897031
13 *487:2 *438:2 0.00031997002
14 *487:3 *485:4 0.0027598
15 *487:2 *248:4 0.00116617

*RES
1 *487:6 *487:10 3.77874
2 *487:5 *487:7 13.0724001
3 *487:4 *487:5 2.66451
4 *487:2 *487:10 3.59264
5 *487:7 *487:8 0.159176
6 *487:6 *487:9 3.56391
7 *1461:Z *487:2 0.701732
8 *487:8 *487:9 6.40216
9 *487:3 *487:4 11.3857
10 *1332:I *487:3 1.31989
*END

*D_NET *488 0.0768268

*CONN
*I *1652:A2 I *C 148.5 174 *L 0.000585 *D CKAN2D0
*I *1693:A2 I *C 148.7 182.8 *L 0.000585 *D CKAN2D0
*I *1642:A2 I *C 148.7 150.4 *L 0.000585 *D CKAN2D0
*I *1658:A2 I *C 148.7 186.4 *L 0.000585 *D CKAN2D0
*I *1624:A2 I *C 149.1 145.2 *L 0.000585 *D CKAN2D0
*I *1662:A2 I *C 145.3 141.6 *L 0.000585 *D CKAN2D0
*I *1656:A2 I *C 148.7 192 *L 0.000585 *D CKAN2D0
*I *1645:A2 I *C 149.1 138 *L 0.000585 *D CKAN2D0
*I *1666:A2 I *C 148.9 132.4 *L 0.000585 *D CKAN2D0
*I *1654:A2 I *C 148.7 197.2 *L 0.000585 *D CKAN2D0
*I *1664:A2 I *C 148.9 128.8 *L 0.000585 *D CKAN2D0
*I *1655:A2 I *C 149.5 202.8 *L 0.000585 *D CKAN2D0
*I *1660:A2 I *C 148.9 125.2 *L 0.000585 *D CKAN2D0
*I *1653:A2 I *C 149.5 206.4 *L 0.000585 *D CKAN2D0
*I *1670:A2 I *C 150.5 120 *L 0.000585 *D CKAN2D0
*I *1644:A2 I *C 149.5 211.6 *L 0.000585 *D CKAN2D0
*I *1669:A2 I *C 144.1 118 *L 0.000585 *D CKAN2D0
*I *1661:A2 I *C 149.5 215.2 *L 0.000585 *D CKAN2D0
*I *1672:A2 I *C 147.7 114.4 *L 0.000585 *D CKAN2D0
*I *1651:A2 I *C 147.5 217.2 *L 0.000585 *D CKAN2D0
*I *1673:A2 I *C 149.9 112.8 *L 0.000585 *D CKAN2D0
*I *1650:A2 I *C 149.5 222.4 *L 0.000585 *D CKAN2D0
*I *1671:A2 I *C 150.1 107.2 *L 0.000585 *D CKAN2D0
*I *1667:A2 I *C 150.1 102 *L 0.000585 *D CKAN2D0
*I *1621:A2 I *C 149.5 228 *L 0.000585 *D CKAN2D0
*I *1648:A2 I *C 149.5 231.6 *L 0.000585 *D CKAN2D0
*I *1649:A2 I *C 145.1 92.8 *L 0.000585 *D CKAN2D0
*I *1646:A2 I *C 149.7 92.8 *L 0.000585 *D CKAN2D0
*I *1663:A2 I *C 144.7 94.8 *L 0.000585 *D CKAN2D0
*I *1626:A2 I *C 150.3 235.2 *L 0.000585 *D CKAN2D0
*I *1675:A2 I *C 144.1 87.6 *L 0.000585 *D CKAN2D0
*I *1634:A2 I *C 149.5 240.4 *L 0.000585 *D CKAN2D0
*I *1676:A2 I *C 149.9 85.6 *L 0.000585 *D CKAN2D0
*I *1635:A2 I *C 149.5 244 *L 0.000585 *D CKAN2D0
*I *1674:A2 I *C 143.7 82 *L 0.000585 *D CKAN2D0
*I *1665:A2 I *C 146.5 244 *L 0.000585 *D CKAN2D0
*I *1643:A2 I *C 149.7 80.4 *L 0.000585 *D CKAN2D0
*I *1637:A2 I *C 149.5 251.2 *L 0.000585 *D CKAN2D0
*I *1659:A2 I *C 143.9 74.8 *L 0.000585 *D CKAN2D0
*I *1668:A2 I *C 148.5 256.8 *L 0.000585 *D CKAN2D0
*I *1639:A2 I *C 143.1 71.2 *L 0.000585 *D CKAN2D0
*I *1630:A2 I *C 143.9 256.8 *L 0.000585 *D CKAN2D0
*I *1677:A2 I *C 143.1 66 *L 0.000585 *D CKAN2D0
*I *1633:A2 I *C 143.5 260.4 *L 0.000585 *D CKAN2D0
*I *1632:A2 I *C 144.5 264 *L 0.000585 *D CKAN2D0
*I *1682:A2 I *C 149.3 62.4 *L 0.000585 *D CKAN2D0
*I *1681:A2 I *C 150.5 56.8 *L 0.000585 *D CKAN2D0
*I *1622:A2 I *C 144.5 272.8 *L 0.000585 *D CKAN2D0
*I *1640:A2 I *C 144.7 62.4 *L 0.000585 *D CKAN2D0
*I *1680:A2 I *C 150.1 58.8 *L 0.000585 *D CKAN2D0
*I *1628:A2 I *C 145.7 280 *L 0.000585 *D CKAN2D0
*I *1687:A1 I *C 139.5 46 *L 0.000556 *D CKAN2D0
*I *1629:A2 I *C 149.1 280 *L 0.000585 *D CKAN2D0
*I *1685:A1 I *C 144.7 46 *L 0.000556 *D CKAN2D0
*I *1638:A2 I *C 146.3 40.8 *L 0.000585 *D CKAN2D0
*I *1678:A2 I *C 149.9 289.2 *L 0.000585 *D CKAN2D0
*I *1647:A2 I *C 142.7 285.6 *L 0.000585 *D CKAN2D0
*I *1684:A2 I *C 144.1 40.8 *L 0.000585 *D CKAN2D0
*I *1689:A2 I *C 149.9 287.2 *L 0.000585 *D CKAN2D0
*I *1625:A2 I *C 142.3 287.2 *L 0.000585 *D CKAN2D0
*I *1679:A1 I *C 144.1 38.8 *L 0.000556 *D CKAN2D0
*I *1641:A2 I *C 145.9 285.6 *L 0.000585 *D CKAN2D0
*I *1683:A2 I *C 144.5 31.6 *L 0.000585 *D CKAN2D0
*I *1627:A2 I *C 147.9 287.2 *L 0.000585 *D CKAN2D0
*I *1623:A2 I *C 145.7 287.2 *L 0.000585 *D CKAN2D0
*I *1690:A1 I *C 144.3 35.2 *L 0.000556 *D CKAN2D0
*I *1688:A1 I *C 145.1 30 *L 0.000556 *D CKAN2D0
*I *1686:A2 I *C 149.5 24.4 *L 0.000585 *D CKAN2D0
*I *1657:A1 I *C 144.9 19.2 *L 0.000556 *D CKAN2D0
*I *1692:A1 I *C 144.9 24.4 *L 0.000556 *D CKAN2D0
*I *1636:A2 I *C 149.9 13.6 *L 0.000585 *D CKAN2D0
*I *1691:A1 I *C 142.3 13.6 *L 0.000556 *D CKAN2D0
*I *1631:A1 I *C 145.9 13.6 *L 0.000556 *D CKAN2D0
*I *1462:Z O *C 148.7 167.2 *L 0 *D BUFFD2

*CAP
1 *1462:Z 8.83232e-05
2 *1631:A1 0.000186911
3 *1691:A1 0.000518177
4 *1636:A2 0.000125686
5 *1686:A2 0.000164764
6 *1688:A1 1.10615e-05
7 *1690:A1 0.000128125
8 *1623:A2 3.71938e-05
9 *1625:A2 0.000214927
10 *1647:A2 4.48258e-05
11 *1678:A2 0.00044734
12 *1638:A2 0.000214009
13 *1687:A1 9.65832e-05
14 *1680:A2 0.000245769
15 *1640:A2 9.49891e-05
16 *1630:A2 6.84221e-05
17 *1643:A2 0.000136289
18 *1665:A2 0.000498518
19 *1674:A2 4.2e-05
20 *1675:A2 0.000340323
21 *1663:A2 0.000109046
22 *1673:A2 0.000235649
23 *1662:A2 0.000115373
24 *1624:A2 0.000123392
25 *488:74 0.000781263
26 *488:75 0.000212681
27 *488:76 0.000284364
28 *488:77 4.88592e-05
29 *488:78 0.000290377
30 *488:79 0.000160175
31 *488:80 0.000214686
32 *488:81 0.00035607
33 *488:82 0.000503252
34 *488:83 0.000197127
35 *488:84 0.000502962
36 *488:85 0.000190606
37 *488:86 0.000606211
38 *488:87 0.000202851
39 *488:88 8.38793e-05
40 *488:89 7.09581e-05
41 *488:90 0.000618842
42 *488:91 0.000615678
43 *488:92 0.000561482
44 *488:93 0.000438694
45 *488:94 0.000182105
46 *488:95 0.000198963
47 *488:96 0.000235553
48 *488:97 0.000919653
49 *488:98 0.000273809
50 *488:99 4.87142e-05
51 *488:100 0.000845121
52 *488:101 0.000705064
53 *488:102 0.000688013
54 *488:103 0.000222994
55 *488:104 0.000244875
56 *488:105 0.000244875
57 *488:106 0.000608578
58 *488:107 1.82346e-05
59 *488:108 4.09132e-05
60 *488:109 0.000544092
61 *488:110 3.35469e-05
62 *488:111 0.00123191
63 *488:112 0.000325398
64 *488:113 0.000485307
65 *488:114 0.000385946
66 *488:115 0.00158279
67 *488:116 0.000340951
68 *488:117 9.47235e-05
69 *488:118 0.000235021
70 *488:119 0.000123657
71 *488:120 0.00117182
72 *488:121 0.000531171
73 *488:122 0.000224998
74 *488:123 0.0002755
75 *488:124 0.000366287
76 *488:125 7.06924e-05
77 *488:126 0.00105362
78 *488:127 0.000627634
79 *488:128 0.000578171
80 *488:129 7.48707e-05
81 *488:130 0.000759285
82 *488:131 0.000349211
83 *488:132 0.000324093
84 *488:133 5.48246e-05
85 *488:134 0.00141945
86 *488:135 7.52088e-05
87 *488:136 3.88361e-05
88 *488:137 0.000106292
89 *488:138 0.000173893
90 *488:139 0.000528997
91 *488:140 0.000175149
92 *488:141 0.000391477
93 *488:142 0.000514506
94 *488:143 0.000489727
95 *488:144 0.000349791
96 *488:145 0.000686226
97 *488:146 0.000206015
98 *488:147 0.000849806
99 *488:148 0.00011605
100 *488:149 0.000603482
101 *488:150 0.000801309
102 *488:151 0.000182709
103 *488:152 0.000825944
104 *488:153 0.00100834
105 *488:154 0.00106128
106 *488:155 0.000410171
107 *488:156 0.000904462
108 *488:157 0.000774477
109 *488:158 0.000502092
110 *488:159 7.42427e-05
111 *488:160 0.000998799
112 *488:161 0.000579402
113 *488:162 0.00103237
114 *488:163 0.000264994
115 *488:164 0.000143558
116 *488:165 0.000237533
117 *488:166 0.000583387
118 *488:167 0.000320929
119 *488:168 0.000750615
120 *488:169 0.000161334
121 *488:170 0.00147476
122 *488:171 0.000437921
123 *488:172 0.000569355
124 *488:173 0.000746919
125 *488:174 0.000205605
126 *488:175 0.000980033
127 *488:176 0.0012529
128 *488:177 0.000844614
129 *488:178 0.000620098
130 *488:180 0.000626885
131 *488:181 0.000200219
132 *488:182 0.000545711
133 *488:183 0.000451398
134 *488:184 0.000268351
135 *488:185 0.000609689
136 *488:186 0.00046729
137 *488:187 0.000195968
138 *488:188 0.000538731
139 *488:189 0.000418044
140 *488:190 0.000570056
141 *488:191 0.000493808
142 *488:192 0.000454948
143 *488:193 0.000497479
144 *488:194 0.000304385
145 *488:195 0.000464923
146 *488:196 0.000486853
147 *488:197 0.000447461
148 *488:198 0.00102341
149 *488:199 0.000659441
150 *488:200 0.000543344
151 *488:201 0.000510859
152 *488:76 *1177:I 0.000198569004
153 *488:177 *1170:I 0.000231240996
154 *488:177 *1495:CPN 0.000758048984
155 *1623:A2 *745:3 0.000200979004
156 *1647:A2 *746:4 0.000344161992
157 *488:87 *750:4 0.000652973008
158 *1665:A2 *760:3 0.000793091016
159 *1630:A2 *761:3 0.000314828984
160 *488:76 *1681:A1 0.000254494004
161 *1691:A1 *199:3 0.000493963984
162 *488:92 *1358:I 0.000571623984
163 *1691:A1 *1223:Z 0.000301221016
164 *1690:A1 *250:3 0.000187279004
165 *1625:A2 *259:2 0.00017847
166 *488:98 *1360:I 0.000300074004
167 *488:78 *362:5 0.00120053992
168 *1462:Z *364:8 0.00134757
169 *488:120 *436:2 0.000241759004
170 *1665:A2 *759:3 0.000457578008
171 *488:100 *769:3 0.000159378008
172 *488:98 *1666:A1 0.000269515
173 *1673:A2 *787:4 0.000472858984
174 *1680:A2 *801:4 0.000378886992
175 *488:74 *1720:CP 0.000542899023
176 *1675:A2 *795:3 0.000556599961
177 *488:75 *1058:Z 0.000246202012
178 *1663:A2 *887:21 0.00036588

*RES
1 *488:101 *488:153 2.39976
2 *488:85 *488:86 2.14548
3 *488:161 *488:192 2.67457
4 *488:90 *488:91 2.94983
5 *1690:A1 *488:125 0.88764
6 *488:88 *488:171 0.125895
7 *488:151 *488:152 3.40609
8 *488:129 *488:178 1.88925
9 *1680:A2 *488:186 2.93819
10 *488:89 *488:143 2.03567
11 *488:75 *488:141 0.587878
12 *488:125 *488:160 2.38137
13 *488:118 *488:156 0.158801
14 *488:76 *488:182 2.76626
15 *488:108 *488:154 3.85282
16 *1689:A2 *488:79 0.578912
17 *488:81 *488:139 1.23685
18 *488:75 *488:198 4.26988
19 *488:172 *488:173 3.39952
20 *488:162 *488:194 1.35813
21 *488:136 *488:201 1.43411
22 *488:92 *488:95 3.05946
23 *1462:Z *488:109 0.511066
24 *488:164 *488:192 1.98769
25 *488:107 *488:109 2.82292
26 *488:167 *488:168 3.72119
27 *488:95 *488:150 1.0751
28 *488:130 *488:131 1.99703
29 *488:124 *488:158 1.65013
30 *488:138 *488:185 2.73548
31 *488:93 *488:188 1.35351
32 *1647:A2 *488:133 0.835877
33 *488:82 *488:139 1.58736
34 *488:78 *488:140 0.324997
35 *488:144 *488:172 2.51346
36 *1691:A1 *488:199 3.22187
37 *488:80 *488:81 2.10176
38 *1662:A2 *488:197 0.449967
39 *488:78 *488:84 3.12453
40 *488:145 *488:187 1.63691
41 *1678:A2 *488:79 2.13919
42 *488:99 *488:164 0.503578
43 *488:102 *488:103 2.00895
44 *488:89 *488:91 0.159171
45 *488:186 *488:201 2.69278
46 *488:126 *488:188 3.1995
47 *1630:A2 *488:129 0.953638
48 *488:88 *488:142 2.46428
49 *488:116 *488:193 1.48402
50 *488:114 *488:115 4.45133
51 *488:165 *488:188 2.45513
52 *488:146 *488:186 1.4195
53 *1669:A2 *488:126 0.911303
54 *1625:A2 *488:133 1.73424
55 *1685:A1 *488:121 0.701849
56 *488:77 *488:190 2.99725
57 *488:134 *488:191 5.02173
58 *488:101 *488:102 2.52076
59 *488:76 *488:136 1.42107
60 *488:87 *488:171 3.59049
61 *488:96 *488:97 2.87616
62 *488:122 *488:174 1.02694
63 *1638:A2 *488:183 2.33395
64 *488:80 *488:138 0.743629
65 *488:118 *488:157 3.15615
66 *488:117 *488:184 2.6228
67 *488:108 *488:111 2.17857
68 *488:100 *488:187 3.34101
69 *488:132 *488:178 1.65345
70 *1623:A2 *488:116 1.13074
71 *488:75 *488:85 0.967318
72 *488:104 *488:197 2.18227
73 *488:94 *488:142 2.14446
74 *488:113 *488:166 2.29078
75 *488:152 *488:153 4.01254
76 *488:96 *488:154 0.520401
77 *488:149 *488:150 2.50754
78 *488:169 *488:198 0.854641
79 *488:119 *488:120 2.1537
80 *1663:A2 *488:169 1.79266
81 *1686:A2 *488:180 1.75494
82 *488:163 *488:196 2.51484
83 *488:145 *488:173 2.14049
84 *488:132 *488:176 1.2424
85 *488:112 *488:165 1.40194
86 *1687:A1 *488:134 0.872019
87 *488:86 *488:140 1.55427
88 *488:98 *488:147 2.90972
89 *488:118 *488:180 2.72642
90 *488:106 *488:155 1.15098
91 *1631:A1 *488:190 1.07556
92 *488:117 *488:167 0.125895
93 *488:84 *488:181 1.78582
94 *1688:A1 *488:174 0.488512
95 *488:92 *488:93 2.23819
96 *488:74 *488:185 2.77855
97 *488:110 *488:111 6.0577302
98 *1640:A2 *488:120 0.769695
99 *1648:A2 *488:89 0.356701
100 *488:98 *488:148 2.34569
101 *1675:A2 *488:127 1.50935
102 *488:105 *488:147 2.30511
103 *488:123 *488:175 4.0314
104 *488:119 *488:170 1.88749
105 *488:115 *488:191 3.11603
106 *1624:A2 *488:97 0.886901
107 *488:128 *488:159 0.125895
108 *488:109 *488:110 0.287006
109 *1673:A2 *488:195 2.57576
110 *488:123 *488:168 1.90524
111 *488:116 *488:117 0.503578
112 *488:148 *488:149 2.66754
113 *488:103 *488:155 2.03141
114 *488:82 *488:83 2.51993
115 *1627:A2 *488:193 0.934319
116 *1665:A2 *488:88 3.50693
117 *1643:A2 *488:84 0.95373
118 *1674:A2 *488:130 1.15191
119 *488:83 *488:141 2.87589
120 *488:175 *488:176 5.93572
121 *488:131 *488:177 3.24359
122 *1636:A2 *488:77 0.723108
123 *488:144 *488:189 2.85685
124 *488:112 *488:74 0.61302
125 *488:158 *488:174 1.15117
126 *488:130 *488:181 2.508
127 *488:120 *488:146 3.81048
128 *488:190 *488:199 0.713218
129 *488:143 *488:162 3.67969
130 *488:87 *488:161 1.76188
131 *488:106 *488:107 1.61657
132 *488:170 *488:179 4.46168
133 *488:122 *488:156 3.35229
134 *488:114 *488:182 1.1923
135 *488:100 *488:151 0.453572
136 *488:92 *488:135 1.20552
137 *488:177 *488:179 3.60787
138 *488:90 *488:94 2.44746
139 *488:79 *488:193 1.75254
140 *488:99 *488:200 3.12084
141 *488:127 *488:198 3.91521
142 *488:121 *488:128 3.80494
143 *488:159 *488:160 1.51665
144 *488:157 *488:199 3.93435
145 *488:124 *488:125 1.89535
146 *488:90 *488:137 1.34999
147 *488:104 *488:105 0.933672
148 *488:97 *488:104 2.90852
149 *488:113 *488:194 1.94259
150 *1639:A2 *488:179 0.224983
151 *1633:A2 *488:178 0.224983
152 *1659:A2 *488:177 0.224983
153 *1632:A2 *488:176 0.224983
154 *1622:A2 *488:175 0.224983
155 *1653:A2 *488:173 0.224983
156 *1644:A2 *488:172 0.224983
157 *1635:A2 *488:171 0.224983
158 *1677:A2 *488:170 0.224983
159 *1649:A2 *488:169 0.224983
160 *1628:A2 *488:168 0.224983
161 *1641:A2 *488:167 0.224983
162 *1651:A2 *488:166 0.224983
163 *1672:A2 *488:165 0.224983
164 *1668:A2 *488:164 0.224983
165 *1629:A2 *488:163 0.224983
166 *1650:A2 *488:162 0.224983
167 *1637:A2 *488:161 0.224983
168 *1679:A1 *488:160 0.449967
169 *1684:A2 *488:159 0.449967
170 *1683:A2 *488:158 0.449967
171 *1657:A1 *488:157 0.449967
172 *1692:A1 *488:156 0.449967
173 *1652:A2 *488:155 0.449967
174 *1642:A2 *488:154 0.449967
175 *1693:A2 *488:101 0.449967
176 *1658:A2 *488:153 0.449967
177 *1656:A2 *488:152 0.449967
178 *1654:A2 *488:151 0.449967
179 *1660:A2 *488:150 0.449967
180 *1664:A2 *488:149 0.449967
181 *1666:A2 *488:148 0.449967
182 *1645:A2 *488:147 0.449967
183 *1682:A2 *488:146 0.449967
184 *1655:A2 *488:145 0.449967
185 *1661:A2 *488:144 0.449967
186 *1621:A2 *488:143 0.449967
187 *1634:A2 *488:142 0.449967
188 *1646:A2 *488:141 0.449967
189 *1676:A2 *488:140 0.449967
190 *1667:A2 *488:139 0.449967
191 *1671:A2 *488:138 0.449967
192 *1626:A2 *488:137 0.449967
193 *1681:A2 *488:136 0.449967
194 *1670:A2 *488:135 0.449967
195 *488:112 *488:195 0.224983
196 *488:121 *488:191 0.224983
197 *488:128 *488:183 0.224983
198 *488:129 *488:200 0.224983
199 *488:133 *488:184 0.224983
200 *488:166 *488:189 0.224983
201 *488:168 *488:196 0.224983
*END

*D_NET *489 0.0280977

*CONN
*I *1611:A1 I *C 140.3 143.2 *L 0.000647 *D NR2D0
*I *1610:A1 I *C 140.3 146.8 *L 0.000647 *D NR2D0
*I *1697:A2 I *C 140.9 175.6 *L 0.00069 *D OR2D0
*I *1698:B1 I *C 140.9 177.6 *L 0.000651 *D INR2D0
*I *1608:A1 I *C 140.9 179.2 *L 0.000647 *D NR2D0
*I *1607:A1 I *C 140.7 186.4 *L 0.000647 *D NR2D0
*I *1589:A1 I *C 140.7 192 *L 0.000647 *D NR2D0
*I *1604:A1 I *C 140.5 195.6 *L 0.000647 *D NR2D0
*I *1602:A1 I *C 140.3 200.8 *L 0.000647 *D NR2D0
*I *1601:A1 I *C 140.5 204.4 *L 0.000647 *D NR2D0
*I *1599:A1 I *C 140.5 208 *L 0.000647 *D NR2D0
*I *1598:A1 I *C 139.7 213.6 *L 0.000647 *D NR2D0
*I *1596:A1 I *C 139.7 217.2 *L 0.000647 *D NR2D0
*I *1595:A1 I *C 139.7 220.8 *L 0.000647 *D NR2D0
*I *1594:A1 I *C 139.7 224.4 *L 0.000647 *D NR2D0
*I *1593:A1 I *C 139.7 229.6 *L 0.000647 *D NR2D0
*I *1590:A1 I *C 139.7 233.2 *L 0.000647 *D NR2D0
*I *1587:A1 I *C 140.3 236.8 *L 0.000647 *D NR2D0
*I *1584:A1 I *C 140.3 242.4 *L 0.000647 *D NR2D0
*I *1581:A1 I *C 139.5 246 *L 0.000647 *D NR2D0
*I *1578:A1 I *C 139.5 249.6 *L 0.000647 *D NR2D0
*I *1575:A1 I *C 139.7 253.2 *L 0.000647 *D NR2D0
*I *1572:A1 I *C 139.7 256.8 *L 0.000647 *D NR2D0
*I *1569:A1 I *C 139.1 264 *L 0.000647 *D NR2D0
*I *1566:A1 I *C 139.1 267.6 *L 0.000647 *D NR2D0
*I *1563:A1 I *C 138.9 272.8 *L 0.000647 *D NR2D0
*I *1560:A1 I *C 139.1 278.4 *L 0.000647 *D NR2D0
*I *1573:A1 I *C 139.1 282 *L 0.000647 *D NR2D0
*I *1618:A1 I *C 139.1 283.6 *L 0.000647 *D NR2D0
*I *1615:A1 I *C 139.7 289.2 *L 0.000647 *D NR2D0
*I *1612:A1 I *C 139.7 292.8 *L 0.000647 *D NR2D0
*I *1609:A1 I *C 139.3 294.4 *L 0.000647 *D NR2D0
*I *1606:A1 I *C 139.3 301.6 *L 0.000647 *D NR2D0
*I *1597:A1 I *C 139.7 305.2 *L 0.000647 *D NR2D0
*I *1600:A1 I *C 141.9 307.2 *L 0.000647 *D NR2D0
*I *1603:A1 I *C 141.1 305.2 *L 0.000647 *D NR2D0
*I *1463:Z O *C 140.1 139.2 *L 0 *D CKBD1

*CAP
1 *1603:A1 9.52903e-05
2 *1612:A1 0.000132046
3 *1615:A1 0.000288104
4 *1604:A1 0.000135836
5 *489:37 0.000454304
6 *489:38 0.000366287
7 *489:39 0.000171752
8 *489:40 0.000812867
9 *489:41 0.00063796
10 *489:42 0.00037356
11 *489:43 6.15259e-05
12 *489:44 0.000607022
13 *489:45 0.000419146
14 *489:46 1.24773e-05
15 *489:47 0.000228381
16 *489:48 0.00134269
17 *489:49 0.000120921
18 *489:50 0.000403125
19 *489:51 0.000389848
20 *489:52 0.00045877
21 *489:53 0.000402285
22 *489:54 3.29654e-05
23 *489:55 0.000587784
24 *489:56 0.00016245
25 *489:57 0.00046465
26 *489:58 0.000511712
27 *489:59 7.43719e-06
28 *489:60 0.00018845
29 *489:62 0.000252434
30 *489:63 0.000147105
31 *489:64 5.91697e-05
32 *489:65 0.00050829
33 *489:66 0.000478439
34 *489:67 0.00066191
35 *489:68 0.000100761
36 *489:69 0.000171547
37 *489:70 0.000644249
38 *489:71 0.000691823
39 *489:72 0.000831327
40 *489:73 0.000278864
41 *489:74 0.00068037
42 *489:75 0.000586227
43 *489:76 0.00060147
44 *489:77 0.000789019
45 *489:78 0.000808032
46 *489:79 0.0004701
47 *489:80 0.000574692
48 *489:81 0.000522058
49 *489:82 0.000144175
50 *489:83 6.47425e-06
51 *489:84 0.00042097
52 *489:85 0.000356166
53 *489:86 0.000269747
54 *489:87 0.000859068
55 *489:88 5.24701e-05
56 *489:89 0.000528819
57 *489:90 0.000176731
58 *489:91 0.000381202
59 *489:92 0.000494153
60 *489:50 *556:2 0.000281426992
61 *489:39 *286:2 0.000679777969
62 *489:53 *762:3 0.00034691
63 *489:41 *372:3 0.00048216
64 *489:55 *759:5 0.00147126
65 *489:37 *1532:CDN 0.00141859

*RES
1 *489:80 *489:81 2.26625
2 *489:74 *489:84 2.14047
3 *489:57 *489:58 1.79599
4 *489:43 *489:44 0.159219
5 *489:55 *489:85 1.87201
6 *1612:A1 *489:56 0.997134
7 *489:43 *489:48 7.23118019
8 *489:48 *489:49 0.412337
9 *489:41 *489:68 0.27651
10 *489:54 *489:76 2.45593
11 *489:51 *489:82 1.14984
12 *489:38 *489:39 1.27221
13 *489:55 *489:64 1.00254
14 *1604:A1 *489:47 0.919235
15 *489:52 *489:73 2.76786
16 *489:37 *489:85 2.26636
17 *489:65 *489:77 2.75539
18 *489:59 *489:67 1.94307
19 *489:57 *489:88 3.13959
20 *489:72 *489:82 2.37968
21 *489:66 *489:67 2.34967
22 *489:60 *489:90 1.02086
23 *489:53 *489:73 1.87201
24 *489:47 *489:50 2.67153
25 *489:88 *489:89 1.13318
26 *489:50 *489:65 0.92111
27 *489:40 *489:63 0.726362
28 *489:76 *489:77 2.37339
29 *489:56 *489:87 0.612823
30 *489:44 *489:45 4.25523
31 *1603:A1 *489:92 0.449963
32 *489:39 *489:42 1.88934
33 *489:53 *489:83 0.841666
34 *489:63 *489:75 3.8462
35 *489:51 *489:78 1.49421
36 *1615:A1 *489:58 1.87841
37 *489:62 *489:69 1.0074
38 *489:46 *489:47 0.412337
39 *1610:A1 *489:49 0.72239
40 *489:56 *489:58 1.63887
41 *489:49 *489:70 1.90578
42 *489:64 *489:78 3.76035
43 *489:42 *489:45 2.52301
44 *489:40 *489:46 3.11586
45 *489:54 *489:74 1.78187
46 *489:61 *489:66 2.99946
47 *489:59 *489:80 3.00508
48 *489:60 *489:91 2.98566
49 *489:83 *489:84 2.26636
50 *1600:A1 *489:92 2.18582
51 *489:41 *489:75 4.41433
52 *489:79 *489:92 1.10637
53 *489:62 *489:68 1.48218
54 *489:89 *489:90 2.52974
55 *489:79 *489:86 2.51893
56 *489:61 *489:91 0.653097
57 *489:70 *489:71 3.85282
58 *489:38 *489:69 2.28325
59 *489:86 *489:87 4.53262
60 *489:37 *489:81 2.73895
61 *489:52 *489:72 1.26989
62 *1563:A1 *489:91 0.224981
63 *1560:A1 *489:90 0.224981
64 *1573:A1 *489:89 0.224981
65 *1618:A1 *489:88 0.224981
66 *1609:A1 *489:87 0.224981
67 *1606:A1 *489:86 0.224981
68 *1581:A1 *489:85 0.224981
69 *1596:A1 *489:84 0.224981
70 *1595:A1 *489:83 0.224981
71 *1590:A1 *489:82 0.224981
72 *1575:A1 *489:81 0.224981
73 *1572:A1 *489:80 0.224981
74 *1597:A1 *489:79 0.224981
75 *1587:A1 *489:78 0.224981
76 *1601:A1 *489:77 0.224981
77 *1599:A1 *489:76 0.224981
78 *1607:A1 *489:75 0.224981
79 *1598:A1 *489:74 0.224981
80 *1594:A1 *489:73 0.224981
81 *1593:A1 *489:72 0.224981
82 *1463:Z *489:71 0.224981
83 *1611:A1 *489:70 0.224981
84 *1697:A2 *489:69 0.224981
85 *1608:A1 *489:68 0.224981
86 *1569:A1 *489:67 0.449963
87 *1566:A1 *489:66 0.449963
88 *1578:A1 *489:37 0.449963
89 *1602:A1 *489:65 0.449963
90 *1584:A1 *489:64 0.449963
91 *1589:A1 *489:63 0.449963
92 *1698:B1 *489:62 0.449963
*END

*D_NET *490 0.0111531

*CONN
*I *1472:CDN I *C 141.5 37.2 *L 0.00163 *D DFCNQD1
*I *1471:CDN I *C 141.5 33.6 *L 0.00163 *D DFCNQD1
*I *1470:CDN I *C 141.9 30 *L 0.00163 *D DFCNQD1
*I *1487:CDN I *C 142.1 28 *L 0.00168 *D DFNCND1
*I *1479:CDN I *C 149.5 30 *L 0.00168 *D DFNCND1
*I *1469:CDN I *C 141.5 26.4 *L 0.00163 *D DFCNQD1
*I *1478:CDN I *C 147.9 26.4 *L 0.00168 *D DFNCND1
*I *1468:CDN I *C 142.3 20.8 *L 0.00163 *D DFCNQD1
*I *1486:CDN I *C 143.1 22.8 *L 0.00168 *D DFNCND1
*I *1477:CDN I *C 146.9 17.2 *L 0.00168 *D DFNCND1
*I *1485:CDN I *C 146.9 15.6 *L 0.00168 *D DFNCND1
*I *1467:CDN I *C 142.1 15.6 *L 0.00163 *D DFCNQD1
*I *1466:CDN I *C 141.5 12 *L 0.00163 *D DFCNQD1
*I *1475:CDN I *C 142.3 10 *L 0.00168 *D DFNCND1
*I *1484:CDN I *C 147.1 8.4 *L 0.00168 *D DFNCND1
*I *1476:CDN I *C 149.5 10 *L 0.00168 *D DFNCND1
*I *1464:Z O *C 147.9 27.6 *L 0 *D CKBD1

*CAP
1 *1484:CDN 0.000181012
2 *1466:CDN 0.000169283
3 *1485:CDN 0.000229353
4 *1478:CDN 0.000101686
5 *1469:CDN 0.000334416
6 *1470:CDN 4.72293e-05
7 *1472:CDN 4.56293e-05
8 *490:17 0.000258561
9 *490:18 0.000311906
10 *490:19 3.7995e-05
11 *490:20 0.000888652031
12 *490:21 8.69058e-05
13 *490:22 8.98347e-05
14 *490:23 0.000412847
15 *490:24 0.000435505
16 *490:25 0.000650675
17 *490:26 0.00051155
18 *490:27 0.000455276
19 *490:28 0.000558508
20 *490:29 0.000108276
21 *490:30 0.000179859
22 *490:31 0.000548853
23 *490:32 0.000831293
24 *490:33 0.00080614
25 *490:34 6.18199e-05
26 *490:35 0.000108005
27 *490:36 0.000268175
28 *490:37 0.000600937
29 *490:38 0.00079338
30 *490:39 0.000269369
31 *490:17 *1476:CPN 0.000387346016
32 *1484:CDN *1331:Z 0.00038286

*RES
1 *490:25 *490:36 1.01541
2 *490:27 *490:34 0.95361
3 *1470:CDN *490:26 0.619409
4 *490:26 *490:27 1.33155
5 *490:23 *490:28 1.52777
6 *490:20 *490:21 0.537006
7 *490:19 *490:20 3.95918989
8 *1484:CDN *490:39 1.20553
9 *490:19 *490:31 0.113273
10 *490:26 *490:37 2.37596
11 *1478:CDN *490:19 0.998678
12 *1469:CDN *490:27 1.34394
13 *490:18 *490:31 1.81606
14 *1466:CDN *490:28 0.661818
15 *1472:CDN *490:37 2.49165
16 *490:33 *490:35 1.76296
17 *490:24 *490:34 0.864804
18 *490:24 *490:33 2.71361
19 *1485:CDN *490:32 1.40586
20 *490:18 *490:29 1.58317
21 *490:28 *490:36 2.70424
22 *490:25 *490:35 2.51853
23 *490:21 *490:32 3.30982
24 *490:22 *490:32 0.168007
25 *490:17 *490:39 0.897971
26 *490:30 *490:39 2.19019
27 *490:23 *490:17 2.35977
28 *490:22 *490:38 3.82435
29 *1471:CDN *490:37 0.224976
30 *1467:CDN *490:36 0.224976
31 *1468:CDN *490:35 0.224976
32 *1487:CDN *490:34 0.224976
33 *1486:CDN *490:33 0.224976
34 *1477:CDN *490:32 0.224976
35 *1464:Z *490:31 0.224976
36 *1476:CDN *490:30 0.224976
37 *1479:CDN *490:29 0.224976
38 *1475:CDN *490:23 0.224976
39 *490:25 *490:38 0.224976
*END

*D_NET *491 0.00952934

*CONN
*I *1450:I I *C 139.5 312.2 *L 0.000942 *D CKND1
*P *491 I *C 10 324 *L 0.5

*CAP
1 *1450:I 0.000991603
2 *491 4.42576e-05
3 *491:2 2.41288e-05
4 *491:3 0.00845604062
5 *491:4 1.34192e-05

*RES
1 *491:2 *491:3 25.0908
2 *491:3 *491:4 56.4679985
3 *1450:I *491:2 7.14983
4 *491 *491:4 0.557477
*END

*D_NET *492 0.0753325

*CONN
*I *1429:I I *C 140.1 246 *L 0.00105 *D DEL1
*P *492 I *C 15 324 *L 0.5
*I *1764:SDN I *C 143.7 168.4 *L 0.00167 *D DFNSND1
*I *1547:CDN I *C 140.5 303.6 *L 0.00168 *D DFNCND1
*I *1546:CDN I *C 144.3 301.6 *L 0.00168 *D DFNCND1
*I *1545:CDN I *C 144.3 298 *L 0.00168 *D DFNCND1
*I *1544:CDN I *C 140.9 300 *L 0.00168 *D DFNCND1
*I *1543:CDN I *C 144.7 294.4 *L 0.00168 *D DFNCND1
*I *1542:CDN I *C 145.3 292.8 *L 0.00168 *D DFNCND1
*I *1541:CDN I *C 145.3 290.8 *L 0.00168 *D DFNCND1
*I *1540:CDN I *C 143.7 283.6 *L 0.00168 *D DFNCND1
*I *1539:CDN I *C 146.5 282 *L 0.00168 *D DFNCND1
*I *1538:CDN I *C 141.5 278.4 *L 0.00168 *D DFNCND1
*I *1537:CDN I *C 140.3 274.8 *L 0.00168 *D DFNCND1
*I *1536:CDN I *C 139.9 265.6 *L 0.00168 *D DFNCND1
*I *1535:CDN I *C 139.9 262 *L 0.00168 *D DFNCND1
*I *1534:CDN I *C 141.5 258.4 *L 0.00168 *D DFNCND1
*I *1533:CDN I *C 141.5 251.2 *L 0.00168 *D DFNCND1
*I *1532:CDN I *C 140.1 247.6 *L 0.00168 *D DFNCND1
*I *1531:CDN I *C 141.3 244 *L 0.00168 *D DFNCND1
*I *1530:CDN I *C 141.3 240.4 *L 0.00168 *D DFNCND1
*I *1529:CDN I *C 141.1 235.2 *L 0.00168 *D DFNCND1
*I *1528:CDN I *C 141.3 231.6 *L 0.00168 *D DFNCND1
*I *1527:CDN I *C 141.1 228 *L 0.00168 *D DFNCND1
*I *1526:CDN I *C 141.3 222.4 *L 0.00168 *D DFNCND1
*I *1525:CDN I *C 141.9 218.8 *L 0.00168 *D DFNCND1
*I *1524:CDN I *C 141.5 215.2 *L 0.00168 *D DFNCND1
*I *1523:CDN I *C 141.3 211.6 *L 0.00168 *D DFNCND1
*I *1522:CDN I *C 141.3 206.4 *L 0.00168 *D DFNCND1
*I *1521:CDN I *C 141.3 202.8 *L 0.00168 *D DFNCND1
*I *1520:CDN I *C 143.5 199.2 *L 0.00168 *D DFNCND1
*I *1519:CDN I *C 142.1 193.6 *L 0.00168 *D DFNCND1
*I *1518:CDN I *C 143.3 188.4 *L 0.00168 *D DFNCND1
*I *1517:CDN I *C 141.1 182.8 *L 0.00168 *D DFNCND1
*I *1516:CDN I *C 145.1 177.6 *L 0.00168 *D DFNCND1
*I *1515:CDN I *C 141.7 150.4 *L 0.00168 *D DFNCND1
*I *1514:CDN I *C 141.1 145.2 *L 0.00168 *D DFNCND1
*I *1513:CDN I *C 140.9 138 *L 0.00168 *D DFNCND1
*I *1512:CDN I *C 140.1 136 *L 0.00168 *D DFNCND1
*I *1511:CDN I *C 141.1 132.4 *L 0.00168 *D DFNCND1
*I *1510:CDN I *C 141.1 128.8 *L 0.00168 *D DFNCND1
*I *1509:CDN I *C 141.1 125.2 *L 0.00168 *D DFNCND1
*I *1508:CDN I *C 141.3 120 *L 0.00168 *D DFNCND1
*I *1507:CDN I *C 140.1 116.4 *L 0.00168 *D DFNCND1
*I *1506:CDN I *C 140.3 114.4 *L 0.00168 *D DFNCND1
*I *1505:CDN I *C 141.7 112.8 *L 0.00168 *D DFNCND1
*I *1504:CDN I *C 146.7 105.6 *L 0.00168 *D DFNCND1
*I *1503:CDN I *C 140.5 100 *L 0.00168 *D DFNCND1
*I *1502:CDN I *C 139.9 92.8 *L 0.00168 *D DFNCND1
*I *1501:CDN I *C 141.7 91.2 *L 0.00168 *D DFNCND1
*I *1500:CDN I *C 147.5 87.6 *L 0.00168 *D DFNCND1
*I *1499:CDN I *C 140.3 85.6 *L 0.00168 *D DFNCND1
*I *1498:CDN I *C 142.1 84 *L 0.00168 *D DFNCND1
*I *1497:CDN I *C 142.1 80.4 *L 0.00168 *D DFNCND1
*I *1496:CDN I *C 140.3 76.8 *L 0.00168 *D DFNCND1
*I *1495:CDN I *C 140.3 73.2 *L 0.00168 *D DFNCND1
*I *1494:CDN I *C 139.9 67.6 *L 0.00168 *D DFNCND1
*I *1493:CDN I *C 140.1 64 *L 0.00168 *D DFNCND1
*I *1492:CDN I *C 140.3 60.4 *L 0.00168 *D DFNCND1
*I *1491:CDN I *C 143.9 58.8 *L 0.00168 *D DFNCND1
*I *1490:CDN I *C 147.5 51.6 *L 0.00168 *D DFNCND1
*I *1489:CDN I *C 147.3 42.4 *L 0.00168 *D DFNCND1
*I *1488:CDN I *C 145.1 37.2 *L 0.00168 *D DFNCND1
*I *1483:CDN I *C 142.7 51.6 *L 0.00168 *D DFNCND1
*I *1482:CDN I *C 147.9 44.4 *L 0.00168 *D DFNCND1
*I *1481:CDN I *C 149.7 38.8 *L 0.00168 *D DFNCND1
*I *1480:CDN I *C 149.5 35.2 *L 0.00168 *D DFNCND1

*CAP
1 *1546:CDN 2.33218e-06
2 *1544:CDN 5.32285e-05
3 *1541:CDN 0.000250778
4 *1540:CDN 0.000100284
5 *1539:CDN 0.00033501
6 *1532:CDN 8.5879e-05
7 *1529:CDN 0.00012388
8 *1525:CDN 0.000116883
9 *1524:CDN 0.000145418
10 *1514:CDN 8.86227e-05
11 *1512:CDN 0.000251052
12 *1510:CDN 6.32431e-05
13 *1507:CDN 0.000233629
14 *1504:CDN 0.000119627
15 *1500:CDN 9.6168e-05
16 *1498:CDN 0.000144046
17 *1488:CDN 0.000700202
18 *1483:CDN 0.000198372
19 *1481:CDN 0.000250229
20 *1480:CDN 0.000119353
21 *492 0.000390982
22 *492:67 0.000688815
23 *492:68 0.000462594
24 *492:69 7.73734e-05
25 *492:70 6.17341e-05
26 *492:71 0.000103439
27 *492:72 0.000947961
28 *492:73 0.000494284
29 *492:74 0.000127858
30 *492:75 0.000296872
31 *492:76 0.000816536
32 *492:77 4.28023e-05
33 *492:78 0.000282468
34 *492:79 8.5193e-05
35 *492:80 0.000551628
36 *492:81 0.000278078
37 *492:82 1.53649e-05
38 *492:83 0.00128681
39 *492:84 0.000719819
40 *492:85 0.000637233
41 *492:86 0.000607463
42 *492:87 0.00048715
43 *492:88 0.000142811
44 *492:89 0.000836702
45 *492:90 0.000473295
46 *492:91 6.84562e-05
47 *492:92 0.000555744
48 *492:93 0.000385632
49 *492:94 0.000332541
50 *492:95 0.000152003
51 *492:96 0.000389199
52 *492:97 0.000325544
53 *492:98 0.000466161
54 *492:99 0.000698418
55 *492:100 0.000568777
56 *492:101 0.00033748
57 *492:102 0.000583181
58 *492:103 0.000186025
59 *492:104 0.00036917
60 *492:105 0.000392217
61 *492:106 0.000270807
62 *492:107 0.000579752
63 *492:108 0.000573304
64 *492:109 0.000273413
65 *492:110 0.00036039
66 *492:111 0.000721466
67 *492:112 0.00100284
68 *492:113 0.000383437
69 *492:114 0.00047837
70 *492:115 0.000286035
71 *492:116 0.000667414
72 *492:117 0.000226633
73 *492:118 0.000291522
74 *492:119 0.000117981
75 *492:120 0.000385907
76 *492:121 0.00064519
77 *492:122 0.00086853
78 *492:123 0.00061199
79 *492:124 0.000365191
80 *492:125 0.000118529
81 *492:126 0.000176285
82 *492:127 0.000602113
83 *492:128 0.00100146
84 *492:129 0.000435294
85 *492:130 0.000333227
86 *492:131 0.000571658
87 *492:132 0.000592647
88 *492:133 0.00109667
89 *492:134 0.000145555
90 *492:135 0.000896379
91 *492:136 0.000116746
92 *492:137 0.000467396
93 *492:138 0.000497439
94 *492:139 0.000536812
95 *492:140 0.000226633
96 *492:141 4.3351e-05
97 *492:142 0.00019069
98 *492:143 0.000732029
99 *492:144 0.000811049
100 *492:145 0.000425554
101 *492:146 0.000594431
102 *492:147 0.00013019
103 *492:148 3.34736e-05
104 *492:149 0.000536126
105 *492:150 0.000293717
106 *492:151 0.000545592
107 *492:152 0.000345436
108 *492:153 0.000243095
109 *492:154 0.00041842
110 *492:155 0.000488248
111 *492:156 0.000438861
112 *492:157 0.000204546
113 *492:158 0.000476861
114 *492:159 0.000147613
115 *492:160 0.000484955
116 *492:161 0.000427063
117 *492:162 0.00114853
118 *492:163 0.000331718
119 *492:164 0.000300988
120 *492:165 0.000276569
121 *492:166 0.00899053938
122 *492:167 0.000395921
123 *492:168 0.000348455
124 *492:169 0.00156283
125 *492:170 3.58058e-05
126 *492:171 0.000394961
127 *492:172 0.0006076
128 *492:173 0.00112013
129 *492:174 0.000440233
130 *492:175 0.00073587
131 *492:176 2.89464e-05
132 *492:177 0.00166929
133 *492:178 0.000193571
134 *492:179 0.00040621
135 *492:180 6.85934e-07
136 *492:181 0.000456558
137 *492:182 0.000137736
138 *492:94 *532:2 0.000930329062
139 *1544:CDN *260:2 0.000190595
140 *492:88 *1389:I 0.000176388984
141 *492:88 *268:2 0.000156832988
142 *1488:CDN *1481:CPN 0.000378781992
143 *1546:CDN *746:3 0.00118025008
144 *492:83 *255:2 0.00022389
145 *1512:CDN *295:2 0.00113760992
146 *492:75 *355:9 0.000395985977
147 *1532:CDN *489:37 0.00141859
148 *492:75 *1295:I 0.000508098008
149 *492:68 *801:3 0.000456966992
150 *492:67 *246:3 0.000432691992
151 *492:67 *248:8 0.000761851016
152 *1507:CDN *487:4 0.00116743008
153 *1500:CDN *57:3 0.000715228047
154 *1510:CDN *888:6 0.000377271992

*RES
1 *492:113 *492:162 2.38142
2 *492:100 *492:138 2.66944
3 *1524:CDN *492:99 1.27004
4 *492:70 *492:147 0.387276
5 *492:82 *492:83 0.41087
6 *492:116 *492:119 0.663088
7 *492:136 *492:137 2.2667
8 *492:110 *492:111 2.45139
9 *492:166 *492:170 53.3204002
10 *492:83 *492:174 4.94021
11 *1532:CDN *492:125 1.35791
12 *492:81 *492:150 1.42218
13 *492:85 *492:164 1.58327
14 *492:167 *492:182 6.01173
15 *492:114 *492:128 1.27085
16 *492:100 *492:157 1.02189
17 *1546:CDN *492:79 0.704582
18 *492:86 *492:67 1.63697
19 *492:128 *492:174 2.49777
20 *492:97 *492:104 1.94452
21 *1504:CDN *492:74 0.384835
22 *492:143 *492:165 2.80043
23 *492:117 *492:153 2.1048
24 *492:95 *492:135 1.02351
25 *492:104 *492:155 2.22602
26 *492:88 *492:145 1.45717
27 *492:112 *492:115 7.48354
28 *492:121 *492:165 1.04223
29 *492:118 *492:161 1.23749
30 *492:129 *492:146 1.91441
31 *492:108 *492:109 1.55724
32 *492:103 *492:106 2.0812
33 *1539:CDN *492:177 2.81507
34 *492:96 *492:125 1.58327
35 *492:133 *492:150 4.38858
36 *492 *492:180 3.05671
37 *1541:CDN *492:148 1.48401
38 *492:99 *492:138 1.84444
39 *492:117 *492:163 1.62233
40 *492:85 *492:151 2.47987
41 *1502:CDN *492:168 0.800587
42 *492:112 *492:166 25.5944
43 *492:72 *492:73 2.02343
44 *492:169 *492:181 4.17786
45 *492:105 *492:160 2.06656
46 *492:122 *492:169 3.40331
47 *492:79 *492:131 1.92418
48 *492:69 *492:175 5.09072
49 *492:67 *492:87 1.24726
50 *492:144 *492:145 2.29518
51 *492:105 *492:156 1.8721
52 *1488:CDN *492:172 2.69385
53 *492:107 *492:140 2.69954
54 *1505:CDN *492:171 1.33106
55 *1507:CDN *492:119 1.00399
56 *492:142 *492:171 1.1065
57 *492:103 *492:134 1.40754
58 *492:71 *492:73 2.22846
59 *492:79 *492:113 2.69954
60 *492:135 *492:154 5.28192
61 *492:89 *492:179 6.25255
62 *492:141 *492:167 1.37987
63 *492:111 *492:140 0.773738
64 *492:67 *492:126 1.27411
65 *492:98 *492:156 1.99821
66 *492:89 *492:91 0.787569
67 *1483:CDN *492:82 1.0528
68 *492:74 *492:169 4.19657
69 *492:122 *492:123 2.7028
70 *1510:CDN *492:110 0.367749
71 *492:123 *492:171 2.41152
72 *492:68 *492:147 3.77024
73 *1540:CDN *492:178 0.449923
74 *1480:CDN *492:176 0.449923
75 *492:101 *492:124 1.99821
76 *492:157 *492:158 2.20894
77 *492:72 *492:176 2.29599
78 *492:120 *492:163 2.04378
79 *492:78 *492:130 1.15613
80 *1514:CDN *492:106 0.682614
81 *492:80 *492:84 1.41079
82 *492:75 *492:149 1.84932
83 *492:92 *492:93 2.61248
84 *492:82 *492:173 0.363681
85 *492:130 *492:131 2.51811
86 *492:115 *492:162 2.8704
87 *492:93 *492:178 2.14059
88 *492:92 *492:153 0.361241
89 *492:90 *492:134 0.91856
90 *492:84 *492:158 3.42772
91 *492:86 *492:152 2.31796
92 *492:170 *492:180 0.447483
93 *492:110 *492:139 2.17721
94 *492:120 *492:144 4.4854
95 *492:84 *492:133 3.02173
96 *492:78 *492:177 7.83908
97 *1500:CDN *492:69 0.371817
98 *492:76 *492:132 2.7451
99 *492:106 *492:108 2.80694
100 *492:96 *492:136 0.62973
101 *492:90 *492:91 3.6238
102 *492:94 *492:95 2.27565
103 *1525:CDN *492:98 0.745262
104 *1520:CDN *492:80 0.864048
105 *492:114 *492:143 2.13327
106 *492:127 *492:164 2.86552
107 *492:132 *492:179 2.44081
108 *492:116 *492:159 3.0917
109 *492:102 *492:124 2.02181
110 *492:109 *492:161 1.46286
111 *492:94 *492:96 0.990971
112 *492:68 *492:146 2.39688
113 *492:87 *492:151 2.47499
114 *492:141 *492:181 0.449923
115 *1544:CDN *492:113 0.493858
116 *492:76 *492:77 4.26492
117 *492:152 *492:168 1.98926
118 *492:118 *492:139 2.53601
119 *1529:CDN *492:104 0.581727
120 *1498:CDN *492:87 0.926696
121 *492:71 *492:129 0.646002
122 *492:77 *492:149 0.477586
123 *492:78 *492:148 0.827436
124 *492:177 *492:178 0.62973
125 *492:88 *492:154 2.85738
126 *1491:CDN *492:174 1.49541
127 *492:98 *492:99 3.38866
128 *492:70 *492:173 4.12823
129 *492:97 *492:137 1.79725
130 *492:121 *492:127 3.21781
131 *492:119 *492:142 0.613458
132 *1481:CDN *492:172 3.08112
133 *492:155 *492:160 2.3562
134 *492:81 *492:101 2.23497
135 *1512:CDN *492:118 1.00724
136 *492:107 *492:159 1.15044
137 *492:75 *492:102 2.96803
138 *1494:CDN *492:165 0.225369
139 *1496:CDN *492:164 0.225369
140 *1537:CDN *492:163 0.225369
141 *1547:CDN *492:162 0.225369
142 *1513:CDN *492:161 0.225369
143 *1527:CDN *492:160 0.225369
144 *1508:CDN *492:159 0.225369
145 *1521:CDN *492:158 0.225369
146 *1522:CDN *492:157 0.225369
147 *1526:CDN *492:156 0.225369
148 *1528:CDN *492:155 0.225369
149 *1534:CDN *492:154 0.225369
150 *1538:CDN *492:153 0.225369
151 *1501:CDN *492:152 0.225369
152 *1497:CDN *492:151 0.225369
153 *1518:CDN *492:150 0.225369
154 *1516:CDN *492:149 0.225369
155 *1542:CDN *492:148 0.225369
156 *1490:CDN *492:147 0.225369
157 *1482:CDN *492:146 0.225369
158 *1535:CDN *492:145 0.225369
159 *1536:CDN *492:144 0.225369
160 *1493:CDN *492:143 0.225369
161 *1506:CDN *492:142 0.225369
162 *1503:CDN *492:141 0.225369
163 *1509:CDN *492:140 0.225369
164 *1511:CDN *492:139 0.225369
165 *1523:CDN *492:138 0.225369
166 *1530:CDN *492:137 0.225369
167 *1531:CDN *492:136 0.225369
168 *1533:CDN *492:135 0.225369
169 *1515:CDN *492:134 0.225369
170 *1519:CDN *492:133 0.225369
171 *1764:SDN *492:132 0.225369
172 *1545:CDN *492:131 0.225369
173 *1543:CDN *492:130 0.225369
174 *1489:CDN *492:129 0.225369
175 *1492:CDN *492:128 0.449923
176 *1495:CDN *492:127 0.449923
177 *1499:CDN *492:126 0.449923
178 *1429:I *492:125 0.449923
179 *1517:CDN *492:124 0.449923
180 *492:73 *492:172 0.225369
181 *492:86 *492:175 0.225369
182 *492:168 *492:182 0.225369
*END

*D_NET *493 0.0108931

*CONN
*I *1436:I I *C 140.9 8.4 *L 0.00105 *D DEL1
*P *493 I *C 0 5 *L 0.5

*CAP
1 *493 6.7847e-05
2 *493:2 0.00060376
3 *493:3 0.0102215006

*RES
1 *493:2 *493:3 25.9724
2 *1436:I *493:2 2.69403
3 *493 *493:3 62.9882011
*END

*D_NET *494 0.0162773

*CONN
*I *1098:I I *C 137.5 92.8 *L 0.00072 *D BUFFD1
*P *494 I *C 0 48.2 *L 0.5

*CAP
1 *1098:I 0.000108683
2 *494 0.00053436
3 *494:2 0.000354662
4 *494:3 5.16658e-05
5 *494:4 0.000258535
6 *494:5 2.67592e-06
7 *494:6 0.00165362
8 *494:7 6.89564e-05
9 *494:8 0.00674486
10 *494 *498:2 0.000699943984
11 *494 *499:2 0.00424462
12 *1098:I *239:2 0.000584955977
13 *1098:I *479:2 0.000969787031

*RES
1 *494:7 *494:8 23.6027
2 *494:5 *494:6 21.6559
3 *494:3 *494:4 6.79703
4 *494:2 *494:3 1.18515
5 *1098:I *494:2 2.47804
6 *494:5 *494:8 61.3991013
7 *494 *494:6 2.47991
8 *494:4 *494:7 0.22485
*END

*D_NET *495 0.00898772

*CONN
*I *1178:I I *C 137.5 38.8 *L 0.000643 *D CKBD0
*P *495 I *C 0 44.6 *L 0.5

*CAP
1 *1178:I 0.000342442
2 *495 5.0775e-05
3 *495:2 0.000405157
4 *495:3 5.01954e-05
5 *495:4 2.1562e-05
6 *495:5 0.00759713
7 *495:6 1.86639e-05
8 *1178:I *504:3 0.000501661016

*RES
1 *495:2 *495:3 4.27625
2 *495:4 *495:5 22.094
3 *1178:I *495:2 2.49736
4 *495:5 *495:6 62.9488983
5 *495 *495:6 0.224763
6 *495:3 *495:4 0.224763
*END

*D_NET *496 0.0166709

*CONN
*I *1099:I I *C 151.3 87.6 *L 0.000968 *D CKBD1
*P *496 I *C 0 41 *L 0.5

*CAP
1 *1099:I 0.000109276
2 *496 2.03943e-05
3 *496:2 0.000384931
4 *496:3 0.000964224
5 *496:4 5.59658e-06
6 *496:5 0.000736661
7 *496:6 0.000111932
8 *496:7 0.000620936
9 *496:8 0.00051166
10 *496:9 0.000183644
11 *496:10 0.00071124
12 *496:11 0.000317487
13 *496:12 0.00208714
14 *496:13 0.000300318
15 *496:14 0.000390432
16 *496:15 0.00621647
17 *496 *513:2 0.00208146
18 *496:8 *240:2 0.000252685996
19 *496:8 *397:2 0.000664151016

*RES
1 *496:5 *496:6 0.218039
2 *496:10 *496:11 2.0488
3 *496:15 *496:16 62.9488983
4 *496:9 *496:10 6.01576
5 *496:11 *496:12 17.5968
6 *496:3 *496:4 0.218039
7 *496:2 *496:3 3.60677
8 *496:4 *496:5 3.18126
9 *1099:I *496:2 1.9489
10 *496:8 *496:9 2.05936
11 *496:6 *496:7 2.70003
12 *496:14 *496:15 22.3466
13 *496:13 *496:14 1.27173
14 *496:12 *496:13 1.92201
15 *496:7 *496:8 2.7106
16 *496 *496:16 0.224763
*END

*D_NET *497 0.0107595

*CONN
*I *1107:I I *C 151.1 38.8 *L 0.00072 *D BUFFD1
*P *497 I *C 0 37.4 *L 0.5

*CAP
1 *1107:I 1.73634e-05
2 *497 7.18307e-05
3 *497:2 0.000224484
4 *497:3 3.48301e-05
5 *497:4 0.00677327
6 *497:5 0.00116428
7 *497:6 3.72073e-06
8 *497 *513:3 0.00207738
9 *497:2 *515 0.000392363008

*RES
1 *497:4 *497:6 25.3823
2 *1107:I *497:3 0.450232
3 *497:5 *497:6 0.126027
4 *497:3 *497:2 0.981275
5 *497 *497:4 63.0479012
6 *497:2 *497:5 7.32397
*END

*D_NET *498 0.0189126

*CONN
*I *1096:I I *C 143.7 107.2 *L 0.000968 *D CKBD1
*P *498 I *C 0 33.8 *L 0.5

*CAP
1 *1096:I 0.000284706
2 *498 0.000181644
3 *498:2 0.00420847
4 *498:3 3.86809e-05
5 *498:4 0.00155647
6 *498:5 0.000275297
7 *498:6 0.000268763
8 *498:7 0.000341769
9 *498:8 0.000306311
10 *498:9 9.55698e-05
11 *498:10 0.00018356
12 *498:11 6.56879e-05
13 *498:13 0.000110293
14 *498:14 0.00570936
15 *498 *503:5 0.00428488031
16 *498:8 *397:3 0.000301245996
17 *498:2 *494 0.000699943984

*RES
1 *498:6 *498:7 1.88903
2 *498 *498:13 0.504548
3 *498:3 *498:4 6.51731
4 *498:7 *498:8 1.89182
5 *498:4 *498:6 1.3213
6 *498:2 *498:5 2.13991
7 *498:9 *498:10 2.30996
8 *498:2 *498:12 34.2191
9 *498:5 *498:13 1.97359
10 *498:10 *498:11 0.486893
11 *1096:I *498:3 1.25254
12 *498:12 *498:14 60.8950996
13 *498:11 *498:14 22.3423
14 *498:8 *498:9 4.00572
*END

*D_NET *499 0.0180373

*CONN
*I *1100:I I *C 139.7 94.8 *L 0.000968 *D CKBD1
*P *499 I *C 0 30.2 *L 0.5

*CAP
1 *1100:I 5.38737e-05
2 *499 0.00027122
3 *499:2 0.00276017
4 *499:3 0.000201564
5 *499:4 0.000601252
6 *499:5 9.00247e-05
7 *499:6 0.000407977
8 *499:8 9.78721e-05
9 *499:9 0.000287444
10 *499:10 1.14625e-06
11 *499:11 0.000205355
12 *499:12 0.00577842
13 *499:2 *500:2 0.000569448008
14 *499 *503:5 0.00129779008
15 *499:4 *511:2 0.00116923
16 *499:2 *494 0.00424462

*RES
1 *499 *499:11 2.41845
2 *499:6 *499:7 4.95166
3 *499:5 *499:11 3.68268
4 *499:2 *499:5 0.629745
5 *499:2 *499:10 27.5466
6 *499:8 *499:9 3.11553
7 *499:3 *499:4 2.60624
8 *499:4 *499:8 1.02808
9 *1100:I *499:3 0.993935
10 *499:7 *499:9 0.159333
11 *499:6 *499:12 23.3508
12 *499:10 *499:12 62.1551018
*END

*D_NET *500 0.0135806

*CONN
*I *1175:I I *C 147.7 58.8 *L 0.00103 *D DEL01
*P *500 I *C 0 26.6 *L 0.5

*CAP
1 *500 0.000461137
2 *500:2 0.000164262
3 *500:3 0.00130706
4 *500:4 0.000464468
5 *500:5 0.00606474
6 *500:6 0.000394784
7 *500:2 *512:2 0.00207626016
8 *500:2 *499:2 0.000569448008
9 *500:2 *511:5 0.0020783

*RES
1 *500 *500:3 2.82699
2 *500:5 *500:6 28.8138
3 *500:2 *500:3 18.1299
4 *1175:I *500:4 1.80893
5 *500:4 *500:6 1.74201
6 *500:2 *500:5 61.7770996
*END

*D_NET *501 0.0110744

*CONN
*I *1176:I I *C 142.7 24.4 *L 0.00103 *D DEL01
*P *501 I *C 0 23 *L 0.5

*CAP
1 *501 9.90007e-05
2 *501:2 0.000150399
3 *501:3 1.84665e-06
4 *501:4 5.64253e-05
5 *501:5 0.00672333
6 *501:6 0.000121058
7 *501 *502 0.00392237

*RES
1 *501:5 *501:7 24.3737
2 *501:3 *501:5 63.1739006
3 *501:6 *501:7 0.126278
4 *1176:I *501:2 0.450168
5 *501:4 *501:6 2.7627
6 *501 *501:3 0.738391
7 *501:2 *501:4 0.224602
*END

*D_NET *502 0.0116459

*CONN
*I *1145:I I *C 141.1 22.8 *L 0.000968 *D CKBD1
*P *502 I *C 0 19.4 *L 0.5

*CAP
1 *1145:I 0.000130941
2 *502 0.000590638
3 *502:2 0.000283532
4 *502:3 3.44793e-06
5 *502:4 6.17419e-06
6 *502:5 0.00525488
7 *502:3 *504:2 0.00145386
8 *502 *501 0.00392237

*RES
1 *1145:I *502:2 0.674564
2 *502:3 *502:5 26.1279
3 *502:2 *502:3 1.61071
4 *502 *502:4 3.81263
5 *502:4 *502:5 62.7957993
*END

*D_NET *503 0.0250033

*CONN
*I *1001:I I *C 150.7 110.8 *L 0.000968 *D CKBD1
*I *1102:I I *C 143.1 102 *L 0.000643 *D CKBD0
*P *503 I *C 0 15.8 *L 0.5
*I *1771:B1 I *C 142.7 102 *L 0.000651 *D INR2D0
*I *1696:B1 I *C 143.5 109.2 *L 0.000658 *D IND2D0

*CAP
1 *1102:I 0.000125388
2 *503 7.4641e-05
3 *503:5 0.000393043
4 *503:6 0.000479522
5 *503:7 0.000573672
6 *503:8 0.000523254
7 *503:9 5.98443e-05
8 *503:10 0.000293193
9 *503:11 3.1895e-05
10 *503:12 0.000882758
11 *503:13 0.000212086
12 *503:14 0.00024124
13 *503:15 0.000211866
14 *503:17 3.69369e-05
15 *503:18 0.00214004
16 *503:19 0.000475466
17 *503:20 2.1373e-05
18 *503:21 1.61119e-05
19 *503:22 0.000639326
20 *503:23 0.000381864
21 *503:24 0.000692374
22 *503:25 0.000291111
23 *503:26 0.00718296
24 *503:18 *513 0.000479888008
25 *503:6 *362:4 0.000752232031
26 *503:6 *433:2 0.00129365
27 *503:7 *799:3 0.00038778
28 *503:6 *890:3 0.000527122969
29 *503:5 *498 0.00428488031
30 *503:5 *499 0.00129779008

*RES
1 *503:5 *503:21 0.284918
2 *503:20 *503:5 2.98877
3 *503:6 *503:8 1.59382
4 *503:19 *503:20 0.907341
5 *503:16 *503:19 6.39919
6 *503:7 *503:13 3.25648
7 *503:6 *503:11 4.84839
8 *503:10 *503:11 0.0927419
9 *503 *503:24 0.256235
10 *503:8 *503:12 5.35322
11 *503:9 *503:25 0.450324
12 *503:23 *503:24 4.12176
13 *503:21 *503:22 4.87708
14 *503:22 *503:23 2.18374
15 *503:17 *503:18 26.0452
16 *503:14 *503:15 2.2478
17 *1102:I *503:7 0.970443
18 *503:17 *503:26 62.6590996
19 *503:16 *503:18 0.159669
20 *503:13 *503:14 2.91324
21 *503:7 *503:9 0.108996
22 *503:15 *503:26 27.1313
23 *503:12 *503:25 1.98391
24 *1001:I *503:10 2.483
25 *1771:B1 *503:9 0.224684
26 *1696:B1 *503:8 0.224684
*END

*D_NET *504 0.0153227

*CONN
*I *1438:I I *C 144.5 55.2 *L 0.00104 *D DEL0
*P *504 I *C 0 12.2 *L 0.5

*CAP
1 *504 0.000120502
2 *504:2 0.00638406
3 *504:3 0.000252888
4 *504:4 0.000508114
5 *504:5 0.00120434
6 *504:7 0.000351569
7 *504:8 0.00145868
8 *504:9 0.001507
9 *504:10 5.69875e-05
10 *504:11 8.28023e-06
11 *504:12 0.000259707
12 *504:13 0.000869327
13 *504:14 7.19893e-05
14 *504:4 *184:2 0.000313705
15 *504:2 *502:3 0.00145386
16 *504:3 *1178:I 0.000501661016

*RES
1 *504:10 *504:12 2.52642
2 *504 *504:13 0.633981
3 *504:3 *504:5 2.30305
4 *504:6 *504:8 4.96634
5 *504:12 *504:13 6.1364
6 *504:10 *504:11 1.1501
7 *504:3 *504:7 2.02646
8 *504:14 *504:2 22.2207
9 *504:11 *504:2 62.2916985
10 *504:5 *504:9 7.6705
11 *504:8 *504:14 1.55976
12 *1438:I *504:4 2.84959
13 *504:4 *504:9 6.76278
14 *504:6 *504:7 0.159683
*END

*D_NET *505 0.00802846

*CONN
*I *1437:I I *C 137.5 8.4 *L 0.00105 *D DEL1
*P *505 I *C 0 8.6 *L 0.5

*CAP
1 *1437:I 0.000147234
2 *505 0.000863483
3 *505:2 0.000279272
4 *505:3 0.0067287
5 *505:4 9.85664e-06

*RES
1 *1437:I *505:2 2.37647
2 *505:4 *505:5 0.092757
3 *505:2 *505:3 22.7246
4 *505:3 *505:4 56.2863007
5 *505 *505:5 6.79445
*END

*D_NET *506 0.00965011

*CONN
*I *1216:I I *C 137.5 76.8 *L 0.000968 *D CKBD1
*P *506 I *C 0 77 *L 0.5

*CAP
1 *1216:I 0.000292601
2 *506 5.23419e-05
3 *506:2 0.000111663
4 *506:3 5.51129e-05
5 *506:4 2.29894e-05
6 *506:5 0.00672593
7 *506:3 *507 0.00211207016
8 *506:2 *240:10 0.000277400996

*RES
1 *506:3 *506:5 63.0371017
2 *506:2 *506:4 1.88911
3 *1216:I *506:2 2.26232
4 *506:4 *506:5 22.2163
5 *506 *506:3 1.24274
*END

*D_NET *507 0.00875846

*CONN
*I *1211:I I *C 137.5 73.2 *L 0.000968 *D CKBD1
*P *507 I *C 0 73.4 *L 0.5

*CAP
1 *1211:I 0.000291408
2 *507 0.000838153
3 *507:2 9.93343e-05
4 *507:3 8.15029e-05
5 *507:4 0.00533596
6 *507 *506:3 0.00211207016

*RES
1 *507:2 *507:3 0.449966
2 *507:5 *507:6 0.0927411
3 *507:3 *507:4 22.2167
4 *1211:I *507:2 2.26271
5 *507:4 *507:5 56.2766991
6 *507 *507:6 6.79329
*END

*D_NET *508 0.00874953

*CONN
*I *1215:I I *C 137.5 67.6 *L 0.000968 *D CKBD1
*P *508 I *C 0 69.8 *L 0.5

*CAP
1 *1215:I 0.000295808
2 *508 7.67209e-05
3 *508:2 0.000265466
4 *508:3 5.4916e-05
5 *508:4 0.000139021
6 *508:5 0.00756076
7 *508:2 *240:10 0.000356925

*RES
1 *508:2 *508:3 1.98338
2 *1215:I *508:2 2.26232
3 *508 *508:5 63.0371017
4 *508:4 *508:5 22.2163
5 *508:3 *508:4 0.225078
*END

*D_NET *509 0.00820601

*CONN
*I *1214:I I *C 137.5 66 *L 0.000968 *D CKBD1
*P *509 I *C 0 66.2 *L 0.5

*CAP
1 *1214:I 0.000296196
2 *509 6.13614e-05
3 *509:2 6.23995e-05
4 *509:3 0.000227106
5 *509:4 0.00755887

*RES
1 *509:2 *509:3 0.609825
2 *509 *509:4 63.0371017
3 *509:3 *509:4 22.2163
4 *1214:I *509:2 2.26232
*END

*D_NET *510 0.00809444

*CONN
*I *1213:I I *C 137.5 62.4 *L 0.000968 *D CKBD1
*P *510 I *C 0 62.6 *L 0.5

*CAP
1 *1213:I 0.00029041
2 *510 0.000932158
3 *510:2 7.26024e-05
4 *510:3 7.85417e-05
5 *510:4 0.00671086
6 *510:5 9.83051e-06

*RES
1 *510:2 *510:3 0.449966
2 *510:5 *510:6 0.0927411
3 *510:3 *510:4 22.0904
4 *1213:I *510:2 2.41728
5 *510:4 *510:5 56.2766991
6 *510 *510:6 6.79329
*END

*D_NET *511 0.0190157

*CONN
*I *1044:I I *C 137.7 118 *L 0.000968 *D CKBD1
*P *511 I *C 0 59 *L 0.5

*CAP
1 *1044:I 6.03628e-05
2 *511 1.29421e-05
3 *511:2 0.00385442
4 *511:3 0.0003916
5 *511:4 0.000375321
6 *511:5 0.00662626
7 *511:6 8.14949e-05
8 *511:5 *500:2 0.0020783
9 *511:2 *369:2 0.000352585
10 *511:3 *391:2 0.0027577
11 *511:3 *392:2 0.00125549992
12 *511:2 *499:4 0.00116923

*RES
1 *511:3 *511:4 18.3506
2 *1044:I *511:3 1.71982
3 *511 *511:5 63.0371017
4 *511:2 *511:6 24.5873
5 *511:2 *511:5 23.4773
6 *511:4 *511:6 0.871454
*END

*D_NET *512 0.0124707

*CONN
*I *1208:I I *C 145.3 35.2 *L 0.00072 *D BUFFD1
*P *512 I *C 0 55.4 *L 0.5

*CAP
1 *1208:I 1.39056e-05
2 *512 1.28831e-05
3 *512:2 0.00670075
4 *512:3 7.75031e-05
5 *512:4 0.000360523
6 *512:5 0.000757547
7 *512:6 0.000221467
8 *512:7 0.000250198
9 *512:8 0.000423098
10 *512:9 0.000621968
11 *512:10 0.000170241
12 *512:11 7.87301e-06
13 *512:12 0.000407249
14 *512:13 7.15728e-06
15 *1208:I *1480:CPN 0.000362225
16 *512:2 *500:2 0.00207626016

*RES
1 *512:3 *512:4 2.88561
2 *512:5 *512:7 2.98949
3 *512:11 *512:12 0.15967
4 *512:7 *512:8 0.15967
5 *512:9 *512:13 0.917624
6 *512:12 *512:13 2.61917
7 *512 *512:2 63.0371017
8 *1208:I *512:3 0.57616
9 *512:6 *512:10 0.535761
10 *512:4 *512:5 2.57012
11 *512:9 *512:10 3.50121
12 *512:6 *512:2 23.8553
13 *512:8 *512:11 2.69708
*END

*D_NET *513 0.0128584

*CONN
*I *1209:I I *C 145.9 31.6 *L 0.00072 *D BUFFD1
*P *513 I *C 0 51.8 *L 0.5

*CAP
1 *513 0.00044348
2 *513:2 8.9638e-06
3 *513:3 0.00497833
4 *513:4 6.06196e-05
5 *513:5 0.00046156
6 *513:6 0.000498251
7 *513:7 4.56546e-05
8 *513:9 2.46884e-05
9 *513:10 0.000130811
10 *513:11 0.00125835
11 *513:4 *247:3 0.000309017988
12 *513:2 *496 0.00208146
13 *513 *503:18 0.000479888008
14 *513:3 *497 0.00207738

*RES
1 *513:2 *513:10 1.83301
2 *513:8 *513:3 22.0939
3 *513:7 *513:11 2.69059
4 *513:6 *513:8 1.10671
5 *513 *513:9 4.5236
6 *513:9 *513:10 2.57273
7 *513:2 *513:3 62.7957993
8 *513:4 *513:5 2.37535
9 *1209:I *513:7 0.450348
10 *513:5 *513:6 2.53441
11 *513:4 *513:11 4.00331
*END

*D_NET *514 0.000765464

*CONN
*I *1435:I I *C 149.5 6.4 *L 0.00104 *D DEL0
*P *514 I *C 155 5 *L 0.5

*CAP
1 *514 7.20362e-05
2 *514:2 0.000693432969

*RES
1 *1435:I *514:2 1.33151
2 *514 *514:2 3.49914002
*END

*D_NET *515 0.0114286

*CONN
*I *1217:I I *C 137.9 112.8 *L 0.00104 *D DEL0
*P *515 I *C 155 37.4 *L 0.5

*CAP
1 *515 0.000449606
2 *515:2 0.000509487
3 *515:3 0.00205019
4 *515:4 0.0011523
5 *515:5 0.00074646
6 *515:6 0.00309733
7 *515 *497:2 0.000392363008
8 *515:3 *111:2 0.00049366
9 *515:3 *123:2 0.0003896
10 *515:3 *248:2 0.000304861016
11 *515:2 *87:2 0.001181
12 *515:2 *485:2 0.000661757969

*RES
1 *515:4 *515:6 7.76455
2 *515:3 *515:5 1.34477
3 *515:5 *515:6 35.2102013
4 *515:2 *515:3 15.0547
5 *1217:I *515:2 1.30448
6 *515 *515:4 2.47787
*END

*D_NET *516 0.00529555

*CONN
*I *1177:I I *C 148.1 55.2 *L 0.000643 *D CKBD0
*P *516 I *C 155 33.8 *L 0.5

*CAP
1 *1177:I 0.000318427
2 *516 7.10483e-05
3 *516:2 0.00162575
4 *516:3 0.000144627
5 *516:4 0.000619018
6 *516:2 *1548:A1 0.000331391016
7 *1177:I *118:2 0.00198673
8 *1177:I *488:76 0.000198569004

*RES
1 *516:3 *516:4 3.68802
2 *1177:I *516:3 2.04472
3 *516:2 *516:4 13.0556002
4 *516 *516:2 3.56949
*END

*D_NET *517 0.00129473

*CONN
*P *517 I *C 155 30.2 *L 0.5
*I *1552:B2 I *C 150.7 37.4 *L 0.000739 *D MOAI22D0

*CAP
1 *517 7.20344e-05
2 *517:2 0.000267307
3 *517:3 0.000279265
4 *517:4 0.000676135

*RES
1 *1552:B2 *517:3 1.45746
2 *517:3 *517:4 4.6448102
3 *517 *517:2 1.7362
4 *517:2 *517:4 0.225026
*END

*D_NET *518 0.00256298

*CONN
*P *518 I *C 155 26.6 *L 0.5
*I *1548:B2 I *C 149.7 33.8 *L 0.000739 *D MOAI22D0

*CAP
1 *518 0.000341308
2 *518:2 0.00076504
3 *518:3 0.000257578
4 *518:4 0.000325147
5 *518:5 0.000873907031

*RES
1 *518:4 *518:5 3.35231996
2 *518:2 *518:5 2.14732
3 *1548:B2 *518:3 0.449987
4 *518 *518:2 2.76929
5 *518:3 *518:4 1.44899
*END

*D_NET *519 0.00248625

*CONN
*P *519 I *C 155 23 *L 0.5
*I *1555:B2 I *C 149.7 31.4 *L 0.000739 *D MOAI22D0

*CAP
1 *519 0.000304829
2 *519:2 0.00131488
3 *519:3 0.000814028
4 *519:4 5.25069e-05

*RES
1 *519:2 *519:4 3.61880994
2 *519:2 *519:3 2.48628
3 *1555:B2 *519:3 2.74669
4 *519 *519:4 1.97721
*END

*D_NET *520 0.00145801

*CONN
*P *520 I *C 155 19.4 *L 0.5
*I *1556:B2 I *C 151.5 26.6 *L 0.000739 *D MOAI22D0

*CAP
1 *520 6.90037e-05
2 *520:2 4.94797e-05
3 *520:3 0.000625923
4 *520:4 0.000713612031

*RES
1 *520:2 *520:4 2.83313
2 *520:2 *520:3 4.64308023
3 *1556:B2 *520:4 0.450025
4 *520 *520:3 0.225013
*END

*D_NET *521 0.00111751

*CONN
*P *521 I *C 155 15.8 *L 0.5
*I *1551:B2 I *C 150.3 19.4 *L 0.000739 *D MOAI22D0

*CAP
1 *521 0.000286715
2 *521:2 0.000780052031
3 *521:3 5.07418e-05

*RES
1 *521:2 *521:3 3.57512999
2 *521 *521:3 2.22927
3 *1551:B2 *521:2 0.360099
*END

*D_NET *522 0.000874806

*CONN
*P *522 I *C 155 12.2 *L 0.5
*I *1554:B2 I *C 149.7 12.2 *L 0.000739 *D MOAI22D0

*CAP
1 *522 6.11901e-05
2 *522:2 0.00079962
3 *522:3 1.3995e-05

*RES
1 *522:2 *522:3 3.49712992
2 *522 *522:3 0.224974
3 *1554:B2 *522:2 0.224974
*END

*D_NET *523 0.00128399

*CONN
*P *523 I *C 155 8.6 *L 0.5
*I *1553:B2 I *C 144.3 6.2 *L 0.000739 *D MOAI22D0

*CAP
1 *1553:B2 0.000167438
2 *523 4.4473e-05
3 *523:2 0.000906261953
4 *523:3 0.00016582

*RES
1 *523:2 *523:3 6.77268982
2 *523 *523:3 1.4685
3 *1553:B2 *523:2 0.350953
*END

*D_NET *524 0.00310288

*CONN
*I *1395:Z O *C 150.7 290.4 *L 0 *D BUFFD8
*P *524 O *C 155 267.8 *L 0.5

*CAP
1 *524 6.40877e-05
2 *524:2 3.00852e-05
3 *524:3 0.000106082
4 *524:4 0.000335364
5 *524:6 0.00256723

*RES
1 *524:5 *524:6 4.38122
2 *524:3 *524:4 1.86213
3 *1395:Z *524:2 0.450035
4 *524:4 *524:6 14.4575996
5 *524 *524:5 0.225018
6 *524:2 *524:3 0.225018
*END

*D_NET *525 0.00332121

*CONN
*I *1387:Z O *C 150.1 286 *L 0 *D CKBD12
*P *525 O *C 155 264.2 *L 0.5

*CAP
1 *525 6.473e-05
2 *525:2 0.000203755
3 *525:3 0.000346614
4 *525:4 4.16416e-06
5 *525:5 0.00270196

*RES
1 *525:4 *525:5 3.87749
2 *525:2 *525:3 1.60105
3 *1387:Z *525:2 0.449921
4 *525:3 *525:5 13.3240004
5 *525 *525:4 0.225062
*END

*D_NET *526 0.00315543

*CONN
*I *1399:Z O *C 150.1 283.2 *L 0 *D CKBD12
*P *526 O *C 155 260.6 *L 0.5

*CAP
1 *526 5.64783e-05
2 *526:2 9.75302e-05
3 *526:3 0.000216394
4 *526:5 0.00278503

*RES
1 *526:4 *526:5 3.49969
2 *526:2 *526:3 1.20561
3 *1399:Z *526:2 0.450035
4 *526:3 *526:5 14.4575996
5 *526 *526:4 0.225018
*END

*D_NET *527 0.00548225

*CONN
*I *1381:Z O *C 143.3 282.4 *L 0 *D CKBD12
*P *527 O *C 155 257 *L 0.5

*CAP
1 *527 7.09284e-05
2 *527:2 0.000289596
3 *527:3 8.55802e-05
4 *527:4 0.000306635
5 *527:5 7.38698e-05
6 *527:6 0.000341322
7 *527:7 0.00181858
8 *527:4 *97:9 0.000673123984
9 *527:2 *316:2 0.0018226

*RES
1 *527:6 *527:7 10.2258997
2 *527:5 *527:6 2.35893
3 *527 *527:7 7.65569
4 *527:4 *527:5 0.764571
5 *527:3 *527:4 2.61218
6 *527:2 *527:3 1.01485
7 *1381:Z *527:2 1.20537
*END

*D_NET *528 0.00485403

*CONN
*I *1373:Z O *C 141.9 272.4 *L 0 *D CKBD12
*P *528 O *C 155 253.4 *L 0.5

*CAP
1 *528 0.000228539
2 *528:2 0.00406329
3 *528:3 0.00053086
4 *528:4 3.13729e-05

*RES
1 *528:2 *528:3 10.2840996
2 *528:2 *528:4 8.03822
3 *1373:Z *528:3 2.15643
4 *528 *528:4 1.47225
*END

*D_NET *529 0.00279384

*CONN
*I *975:Z O *C 142.1 257.2 *L 0 *D BUFFD8
*P *529 O *C 155 249.8 *L 0.5

*CAP
1 *529 0.000297639
2 *529:2 0.00184766
3 *529:3 2.35979e-05
4 *529:4 0.000579968
5 *529:5 4.49686e-05

*RES
1 *529:2 *529:5 4.64830017
2 *529 *529:3 1.47224
3 *529:4 *529:5 0.0925603
4 *529:3 *529:4 3.7322
5 *975:Z *529:2 3.28926
*END

*D_NET *530 0.0043737

*CONN
*I *1400:Z O *C 145.3 268.8 *L 0 *D BUFFD8
*P *530 O *C 155 246.2 *L 0.5

*CAP
1 *530 0.000311932
2 *530:2 0.000567561
3 *530:3 0.000567592
4 *530:4 0.00093996
5 *530:5 4.4954e-05
6 *530:6 0.000988942969
7 *530:7 0.000160983
8 *530:8 0.0007904
9 *530:9 1.38831e-06

*RES
1 *530:8 *530:9 4.38025
2 *530:7 *530:8 0.159192
3 *530 *530:3 2.22787
4 *530:6 *530:9 0.159192
5 *530:5 *530:6 4.05159
6 *530:3 *530:4 4.15488
7 *530:2 *530:5 2.11354
8 *530:4 *530:7 4.48916006
9 *1400:Z *530:2 0.22502
*END

*D_NET *531 0.00577165

*CONN
*I *1372:Z O *C 141.9 264.4 *L 0 *D CKBD12
*P *531 O *C 155 242.6 *L 0.5

*CAP
1 *531 7.20333e-05
2 *531:2 0.00079675
3 *531:3 0.00028741
4 *531:4 0.00079078
5 *531:6 0.000283248
6 *531:7 0.000625017
7 *531:8 0.000871929
8 *531:9 0.000912037031
9 *531:10 0.000302342
10 *531:2 *1389:Z 0.000472393008
11 *531:9 *36:12 0.000357711992

*RES
1 *531:5 *531:6 0.159167
2 *531:3 *531:7 2.86613
3 *531:9 *531:10 0.0926386
4 *531:8 *531:10 4.40753
5 *531:7 *531:8 2.39225
6 *531:4 *531:6 1.3854
7 *531:2 *531:3 1.41829
8 *1372:Z *531:4 2.81316
9 *531:2 *531:5 3.10818
10 *531 *531:9 6.08942986
*END

*D_NET *532 0.00540704

*CONN
*I *1389:Z O *C 140.9 260.8 *L 0 *D CKBD12
*P *532 O *C 155 239 *L 0.5

*CAP
1 *532 6.5299e-05
2 *532:2 0.000122757
3 *532:3 0.00109335008
4 *532:4 0.000155156
5 *532:5 0.000378614
6 *532:6 0.000739361
7 *532:7 0.000881003
8 *532:8 0.000355207
9 *532:3 *268:4 0.000213575996
10 *532:2 *492:94 0.000930329062
11 *1389:Z *531:2 0.000472393008

*RES
1 *532:7 *532:8 0.0933331
2 *532:4 *532:5 2.4012
3 *532:3 *532:8 3.58401
4 *532:2 *532:5 1.90094
5 *1389:Z *532:4 1.65461
6 *532:2 *532:6 4.87886
7 *532:3 *532:6 4.42853
8 *532 *532:7 5.02603006
*END

*D_NET *533 0.00220021

*CONN
*I *976:Z O *C 147.5 232 *L 0 *D BUFFD8
*P *533 O *C 155 235.4 *L 0.5

*CAP
1 *976:Z 0.000106613
2 *533 7.20313e-05
3 *533:2 0.00100531
4 *533:3 0.00101627008

*RES
1 *533:2 *533:3 3.61997
2 *976:Z *533:2 0.384179
3 *533 *533:3 5.09357977
*END

*D_NET *534 0.00392145

*CONN
*I *1401:Z O *C 147.5 250.8 *L 0 *D BUFFD8
*P *534 O *C 155 231.8 *L 0.5

*CAP
1 *534 7.20045e-05
2 *534:2 0.00013262
3 *534:3 0.00348767
4 *534:4 0.000229105

*RES
1 *534:2 *534:4 0.728689
2 *534:2 *534:3 12.3367004
3 *534 *534:3 4.32263
4 *1401:Z *534:4 0.450089
*END

*D_NET *535 0.00445157

*CONN
*I *1382:Z O *C 142.9 253.6 *L 0 *D CKBD12
*P *535 O *C 155 228.2 *L 0.5

*CAP
1 *1382:Z 0.000344373
2 *535 7.10582e-05
3 *535:2 0.00191323
4 *535:3 0.000389623
5 *535:4 0.00035351
6 *535:5 0.0013798

*RES
1 *535:3 *535:5 7.64449
2 *535:3 *535:4 1.49419
3 *1382:Z *535:4 2.85885
4 *535:2 *535:5 8.4300499
5 *535 *535:2 3.49854
*END

*D_NET *536 0.00391695

*CONN
*I *1402:Z O *C 143.5 242.8 *L 0 *D BUFFD8
*P *536 O *C 155 224.6 *L 0.5

*CAP
1 *536 7.20274e-05
2 *536:2 0.000590859
3 *536:3 0.000990067
4 *536:4 0.000131985
5 *536:5 0.00213203

*RES
1 *536:2 *536:4 2.45129
2 *536:4 *536:5 11.0761003
3 *536:3 *536:5 0.384155
4 *536 *536:3 5.1566
5 *1402:Z *536:2 0.224949
*END

*D_NET *537 0.00375807

*CONN
*I *1403:Z O *C 147.5 240 *L 0 *D BUFFD8
*P *537 O *C 155 221 *L 0.5

*CAP
1 *537 0.000380164
2 *537:2 0.000248779
3 *537:3 0.000410697
4 *537:4 0.00167029
5 *537:5 0.000238762
6 *537:6 0.00080939

*RES
1 *537:5 *537:6 3.2495
2 *537:3 *537:5 1.01482
3 *1403:Z *537:3 1.33137
4 *537:4 *537:6 8.07520008
5 *537:2 *537:4 2.54358
6 *537 *537:2 1.84506
*END

*D_NET *538 0.00422543

*CONN
*I *1396:Z O *C 146.9 236.4 *L 0 *D CKBD12
*P *538 O *C 155 217.4 *L 0.5

*CAP
1 *538 0.000307196
2 *538:2 0.000942872
3 *538:3 0.00168879
4 *538:4 0.000484256
5 *538:5 0.000548654
6 *538:6 0.000222621
7 *538:7 3.1052e-05

*RES
1 *538 *538:6 2.22794
2 *538:3 *538:4 2.15035
3 *538:2 *538:5 1.11073
4 *1396:Z *538:3 6.33257008
5 *538:6 *538:7 1.74606
6 *538:4 *538:5 2.26591
7 *538:2 *538:7 3.458
*END

*D_NET *539 0.00331778

*CONN
*I *1404:Z O *C 150.7 236.4 *L 0 *D BUFFD8
*P *539 O *C 155 213.8 *L 0.5

*CAP
1 *539 0.00028147
2 *539:2 0.00014902
3 *539:3 3.23156e-05
4 *539:4 0.00037946
5 *539:5 0.000430847
6 *539:6 0.000243823
7 *539:7 0.00180085

*RES
1 *539:3 *539:7 3.4373
2 *539:6 *539:7 7.32551003
3 *539:5 *539:6 1.67042
4 *539:4 *539:5 2.36691
5 *539:2 *539:4 2.14302
6 *1404:Z *539:2 0.953582
7 *539 *539:3 1.75023
*END

*D_NET *540 0.00366043

*CONN
*I *1374:Z O *C 147.5 228.4 *L 0 *D BUFFD8
*P *540 O *C 155 210.2 *L 0.5

*CAP
1 *1374:Z 1.41882e-05
2 *540 0.000741354
3 *540:3 0.00075642
4 *540:4 0.00119823
5 *540:5 0.000947413
6 *540:6 2.83399e-06

*RES
1 *540:4 *540:6 0.159203
2 *540:2 *540:4 4.74924
3 *540:2 *540:3 0.159203
4 *1374:Z *540:3 2.97961
5 *540:5 *540:6 3.7405
6 *540 *540:5 4.98257017
*END

*D_NET *541 0.00338687

*CONN
*I *1391:Z O *C 150.7 225.6 *L 0 *D BUFFD8
*P *541 O *C 155 206.6 *L 0.5

*CAP
1 *541 5.64881e-05
2 *541:2 7.09722e-05
3 *541:3 0.000197451
4 *541:4 0.00306199

*RES
1 *541 *541:4 3.62472
2 *541:3 *541:4 12.4698
3 *541:2 *541:3 1.10625
4 *1391:Z *541:2 0.449998
*END

*D_NET *542 0.00361913

*CONN
*I *1368:Z O *C 147.5 218.4 *L 0 *D BUFFD8
*P *542 O *C 155 203 *L 0.5

*CAP
1 *542 7.10466e-05
2 *542:2 0.000425984
3 *542:3 0.000223865
4 *542:4 0.000570081
5 *542:5 0.000835822
6 *542:6 0.00149232

*RES
1 *542:2 *542:3 1.11643
2 *1368:Z *542:4 2.00982
3 *542 *542:6 4.63167
4 *542:4 *542:5 3.49213
5 *542:3 *542:6 2.85246
6 *542:2 *542:5 2.02014
*END

*D_NET *543 0.00361739

*CONN
*I *1390:Z O *C 150.7 218.4 *L 0 *D BUFFD8
*P *543 O *C 155 199.4 *L 0.5

*CAP
1 *543 6.04307e-05
2 *543:2 0.000325123
3 *543:3 0.00139252
4 *543:4 0.00127504
5 *543:5 0.000564275

*RES
1 *543:3 *543:5 4.14489
2 *543:2 *543:4 6.66288996
3 *1390:Z *543:2 1.58317
4 *543 *543:3 3.87638
5 *543:4 *543:5 1.69968
*END

*D_NET *544 0.00372812

*CONN
*I *1405:Z O *C 150.7 217.6 *L 0 *D BUFFD8
*P *544 O *C 155 195.8 *L 0.5

*CAP
1 *544 7.10533e-05
2 *544:2 0.000707275
3 *544:3 0.000485786
4 *544:4 0.000406879
5 *544:5 0.000422869
6 *544:6 0.000379749
7 *544:7 0.00097477
8 *544:8 0.000279751

*RES
1 *544:7 *544:8 2.35647
2 *544:6 *544:7 2.92598
3 *544:4 *544:5 2.53387
4 *1405:Z *544:3 1.95849
5 *544 *544:2 3.37280011
6 *544:5 *544:6 2.30017
7 *544:3 *544:4 2.52044
8 *544:2 *544:8 1.12312
*END

*D_NET *545 0.00368478

*CONN
*I *1367:Z O *C 147.5 207.6 *L 0 *D BUFFD8
*P *545 O *C 155 192.2 *L 0.5

*CAP
1 *1367:Z 1.14557e-05
2 *545 7.75566e-05
3 *545:2 0.000784618
4 *545:4 0.000597409
5 *545:5 5.63898e-05
6 *545:6 0.00215733

*RES
1 *545:2 *545:5 0.159197
2 *545 *545:6 4.2541
3 *545:4 *545:5 2.6186
4 *545:3 *545:4 0.159197
5 *1367:Z *545:2 3.29769
6 *545:3 *545:6 5.7167902
*END

*D_NET *546 0.00431888

*CONN
*I *1393:Z O *C 150.7 207.6 *L 0 *D BUFFD8
*P *546 O *C 155 188.6 *L 0.5

*CAP
1 *546 7.10551e-05
2 *546:2 0.00187539
3 *546:3 0.000118444
4 *546:4 0.000580746
5 *546:5 0.00107453
6 *546:6 3.74878e-06
7 *546:7 6.8966e-06
8 *546:8 0.000588071

*RES
1 *546:7 *546:8 2.86292
2 *546:6 *546:8 0.413322
3 *546:5 *546:7 0.159216
4 *1393:Z *546:3 1.45726
5 *546:3 *546:4 1.58523
6 *546:4 *546:5 4.45462
7 *546:2 *546:6 4.99491978
8 *546 *546:2 3.37281
*END

*D_NET *547 0.00369146

*CONN
*I *1375:Z O *C 147.5 203.2 *L 0 *D BUFFD8
*P *547 O *C 155 185 *L 0.5

*CAP
1 *1375:Z 4.01654e-06
2 *547 6.80069e-05
3 *547:2 0.000616079
4 *547:3 0.000833207
5 *547:4 0.000247576
6 *547:5 0.000287643
7 *547:6 0.000350909
8 *547:7 0.00128401992

*RES
1 *547:5 *547:6 1.44179
2 *547:3 *547:4 1.29703
3 *547:3 *547:6 3.90357
4 *547:2 *547:5 1.27518
5 *547:4 *547:7 1.67032
6 *1375:Z *547:2 2.40755
7 *547 *547:7 4.75775003
*END

*D_NET *548 0.00225106

*CONN
*I *1392:Z O *C 150.7 199.6 *L 0 *D BUFFD8
*P *548 O *C 155 181.4 *L 0.5

*CAP
1 *548 7.10487e-05
2 *548:2 0.000240022
3 *548:3 0.000292366
4 *548:4 0.00164762

*RES
1 *1392:Z *548:3 1.37062
2 *548:3 *548:4 11.0798998
3 *548 *548:2 1.73597
4 *548:2 *548:4 0.225027
*END

*D_NET *549 0.00364575

*CONN
*I *1376:Z O *C 150.7 193.2 *L 0 *D BUFFD8
*P *549 O *C 155 177.8 *L 0.5

*CAP
1 *549 0.00101588
2 *549:2 0.000273682
3 *549:3 0.000324282
4 *549:4 0.00203192

*RES
1 *549:2 *549:3 1.33855
2 *549 *549:4 5.13207
3 *549:3 *549:4 8.48388958
4 *1376:Z *549:2 1.3313
*END

*D_NET *550 0.00326453

*CONN
*I *1383:Z O *C 150.7 189.6 *L 0 *D BUFFD8
*P *550 O *C 155 174.2 *L 0.5

*CAP
1 *550 0.000273868
2 *550:2 7.33138e-05
3 *550:3 0.000303007
4 *550:4 6.81465e-05
5 *550:5 0.00254617

*RES
1 *550:2 *550:3 1.73592
2 *550:4 *550:5 4.78911
3 *550:3 *550:5 8.15812016
4 *550 *550:4 1.97592
5 *1383:Z *550:2 0.224941
*END

*D_NET *551 0.00335473

*CONN
*I *1369:Z O *C 150.7 185.2 *L 0 *D BUFFD8
*P *551 O *C 155 170.6 *L 0.5

*CAP
1 *1369:Z 6.84166e-05
2 *551 7.44704e-05
3 *551:2 0.000316703
4 *551:3 0.000351901
5 *551:4 0.00254321

*RES
1 *551 *551:4 3.24687
2 *551:3 *551:4 8.17467022
3 *551:2 *551:3 1.63765
4 *1369:Z *551:2 1.72572
*END

*D_NET *552 0.00245774

*CONN
*I *1385:Z O *C 150.7 181.6 *L 0 *D BUFFD8
*P *552 O *C 155 167 *L 0.5

*CAP
1 *552 6.28816e-05
2 *552:2 0.000748991016
3 *552:3 0.000296362
4 *552:4 0.000623193
5 *552:5 0.000263595
6 *552:6 0.000462721

*RES
1 *1385:Z *552:3 1.37061
2 *552:5 *552:6 2.53955
3 *552:3 *552:4 3.37837005
4 *552:4 *552:5 1.63769
5 *552:2 *552:6 2.47558
6 *552 *552:2 1.73594
*END

*D_NET *553 0.00263811

*CONN
*I *1377:Z O *C 150.7 178 *L 0 *D BUFFD8
*P *553 O *C 155 163.4 *L 0.5

*CAP
1 *553 8.7895e-05
2 *553:2 0.00113793
3 *553:3 0.000456318
4 *553:4 0.000497765
5 *553:5 0.000458193

*RES
1 *1377:Z *553:3 1.72866
2 *553:4 *553:5 2.38162
3 *553:3 *553:4 2.47187
4 *553:2 *553:5 5.26218987
5 *553 *553:2 1.61007
*END

*D_NET *554 0.00170434

*CONN
*I *1361:Z O *C 150.7 171.6 *L 0 *D BUFFD8
*P *554 O *C 155 159.8 *L 0.5

*CAP
1 *554 0.000309527
2 *554:2 2.45145e-05
3 *554:3 0.000845555
4 *554:4 0.000524738

*RES
1 *554:2 *554:4 2.81138
2 *554:2 *554:3 5.65502977
3 *1361:Z *554:4 0.449997
4 *554 *554:3 2.22789
*END

*D_NET *555 0.00236139

*CONN
*I *1384:Z O *C 150.7 170.8 *L 0 *D BUFFD8
*P *555 O *C 155 156.2 *L 0.5

*CAP
1 *555 4.92108e-05
2 *555:2 4.16853e-05
3 *555:3 0.000449144
4 *555:4 0.000209656
5 *555:5 0.00161171

*RES
1 *555:3 *555:5 0.401271
2 *555 *555:2 0.460256
3 *555:2 *555:3 2.89596
4 *555:4 *555:5 9.29246998
5 *1384:Z *555:4 0.971274
*END

*D_NET *556 0.00761445

*CONN
*I *1182:Z O *C 140.3 199.6 *L 0 *D CKBD12
*P *556 O *C 155 152.6 *L 0.5

*CAP
1 *556 0.000634372
2 *556:2 9.09071e-05
3 *556:3 0.00112372
4 *556:4 0.000717121
5 *556:5 7.30676e-05
6 *556:7 0.00135001
7 *556:3 *286:2 0.000378603984
8 *556:2 *352:9 0.00129054
9 *556:2 *489:50 0.000281426992
10 *556:3 *372:7 0.000336611016
11 *556:3 *788:7 0.00101187
12 *556:3 *1310:I 0.000326210996

*RES
1 *556:3 *556:6 11.9757
2 *556:5 *556:3 2.54113
3 *1182:Z *556:2 0.701858
4 *556:6 *556:7 0.159179
5 *556:4 *556:5 2.23286
6 *556:2 *556:7 17.8628998
7 *556 *556:4 4.77427
*END

*D_NET *557 0.00136882

*CONN
*I *1347:Z O *C 147.1 145.6 *L 0 *D BUFFD8
*P *557 O *C 155 149 *L 0.5

*CAP
1 *1347:Z 0.000237617
2 *557 4.44785e-05
3 *557:2 0.000880633984
4 *557:3 0.000206093

*RES
1 *557:2 *557:3 4.95225
2 *557 *557:3 1.84697
3 *1347:Z *557:2 0.728752
*END

*D_NET *558 0.00168292

*CONN
*I *1360:Z O *C 150.7 134.8 *L 0 *D BUFFD8
*P *558 O *C 155 145.4 *L 0.5

*CAP
1 *558 0.000157414
2 *558:2 0.000167727
3 *558:3 0.000371164
4 *558:4 0.000986625

*RES
1 *558:2 *558:4 6.15944004
2 *558:3 *558:4 1.34399
3 *1360:Z *558:3 0.450003
4 *558 *558:2 2.47586
*END

*D_NET *559 0.00197521

*CONN
*I *1349:Z O *C 147.5 134.8 *L 0 *D BUFFD8
*P *559 O *C 155 141.8 *L 0.5

*CAP
1 *1349:Z 0.000175721
2 *559 4.44715e-05
3 *559:2 0.00104348
4 *559:3 0.000554755
5 *559:4 0.000156789

*RES
1 *559 *559:4 1.46882
2 *559:2 *559:3 2.13146
3 *1349:Z *559:3 1.87603
4 *559:2 *559:4 4.57511997
*END

*D_NET *560 0.00268489

*CONN
*I *1342:Z O *C 146.9 128.4 *L 0 *D BUFFD8
*P *560 O *C 155 138.2 *L 0.5

*CAP
1 *1342:Z 5.63318e-05
2 *560 2.46662e-05
3 *560:2 0.000189245
4 *560:3 0.00116758
5 *560:4 2.05677e-05
6 *560:5 0.00122648

*RES
1 *560:3 *560:5 4.427
2 *560:2 *560:3 5.9974699
3 *560:2 *560:4 1.61028
4 *1342:Z *560:5 0.449975
5 *560 *560:4 0.225033
*END

*D_NET *561 0.00284603

*CONN
*I *1359:Z O *C 150.7 124 *L 0 *D BUFFD8
*P *561 O *C 155 134.6 *L 0.5

*CAP
1 *1359:Z 0.000291424
2 *561 9.88355e-05
3 *561:2 0.00158599
4 *561:3 0.000869796

*RES
1 *561:2 *561:3 5.96752024
2 *1359:Z *561:2 1.89563
3 *561 *561:3 4.12716
*END

*D_NET *562 0.00243357

*CONN
*I *1351:Z O *C 147.5 124 *L 0 *D BUFFD8
*P *562 O *C 155 131 *L 0.5

*CAP
1 *562 7.20263e-05
2 *562:2 0.00128652
3 *562:3 0.00107502

*RES
1 *562:2 *562:3 4.8435
2 *562 *562:3 4.98185015
3 *1351:Z *562:2 0.22501
*END

*D_NET *563 0.00223588

*CONN
*I *1346:Z O *C 144.9 121.2 *L 0 *D BUFFD8
*P *563 O *C 155 127.4 *L 0.5

*CAP
1 *1346:Z 0.000449494
2 *563 0.000422898
3 *563:2 0.000217628
4 *563:3 0.000606673008
5 *563:4 0.000539188

*RES
1 *563 *563:2 3.96625996
2 *563:3 *563:4 0.218478
3 *563:2 *563:3 3.1033
4 *1346:Z *563:4 3.80933
*END

*D_NET *564 0.00148907

*CONN
*I *1358:Z O *C 150.7 114 *L 0 *D BUFFD8
*P *564 O *C 155 123.8 *L 0.5

*CAP
1 *564 0.000156402
2 *564:2 0.00113395
3 *564:3 0.000198707

*RES
1 *1358:Z *564:2 1.37077
2 *564 *564:3 2.19667
3 *564:2 *564:3 5.53271008
*END

*D_NET *565 0.00251812

*CONN
*I *1345:Z O *C 147.9 113.2 *L 0 *D BUFFD8
*P *565 O *C 155 120.2 *L 0.5

*CAP
1 *1345:Z 0.000460187
2 *565 4.44736e-05
3 *565:2 8.57874e-05
4 *565:3 0.000668315
5 *565:4 0.000347117
6 *565:5 0.000912231016

*RES
1 *565:3 *565:4 1.29936
2 *565 *565:2 0.712573
3 *565:4 *565:5 2.01128
4 *565:2 *565:3 3.5903101
5 *1345:Z *565:5 2.7908
*END

*D_NET *566 0.00283804

*CONN
*I *1365:Z O *C 148.1 106.8 *L 0 *D BUFFD8
*P *566 O *C 155 116.6 *L 0.5

*CAP
1 *1365:Z 0.00038044
2 *566 7.20263e-05
3 *566:2 0.000508797
4 *566:3 0.000808605
5 *566:4 0.00106816992

*RES
1 *566:2 *566:4 2.01698
2 *566:2 *566:3 2.77382
3 *1365:Z *566:3 1.52261
4 *566 *566:4 4.99904013
*END

*D_NET *567 0.00315432

*CONN
*I *1366:Z O *C 148.1 102.4 *L 0 *D BUFFD8
*P *567 O *C 155 113 *L 0.5

*CAP
1 *1366:Z 0.000830432
2 *567 6.04284e-05
3 *567:2 0.00133519
4 *567:3 4.75115e-05
5 *567:4 0.000880755

*RES
1 *567:2 *567:3 2.26199
2 *567 *567:4 4.35301018
3 *567:2 *567:4 2.82113
4 *1366:Z *567:3 3.07353
*END

*D_NET *568 0.00393722

*CONN
*I *1355:Z O *C 144.5 96 *L 0 *D BUFFD8
*P *568 O *C 155 109.4 *L 0.5

*CAP
1 *568 4.44826e-05
2 *568:2 0.000132395
3 *568:3 0.00168215
4 *568:4 0.000687619
5 *568:5 0.000231936
6 *568:6 0.000671577
7 *568:7 0.00048705

*RES
1 *568 *568:2 1.21668
2 *568:5 *568:6 2.40797
3 *568:3 *568:7 3.46245
4 *568:2 *568:3 6.0704999
5 *568:5 *568:7 0.809295
6 *568:4 *568:6 1.56561
7 *1355:Z *568:4 1.20547
*END

*D_NET *569 0.00439652

*CONN
*I *1344:Z O *C 139.3 96 *L 0 *D BUFFD8
*P *569 O *C 155 105.8 *L 0.5

*CAP
1 *1344:Z 0.00189411
2 *569 4.73997e-05
3 *569:2 0.000556802
4 *569:4 0.000467581
5 *569:5 0.00055186
6 *569:6 0.000878773

*RES
1 *569 *569:3 0.586477
2 *569:4 *569:5 0.109223
3 *569:3 *569:4 3.58533
4 *569:2 *569:6 5.40971
5 *1344:Z *569:2 7.12953997
6 *569:5 *569:6 1.95732
*END

*D_NET *570 0.0051241

*CONN
*I *1354:Z O *C 142.1 88 *L 0 *D BUFFD8
*P *570 O *C 155 102.2 *L 0.5

*CAP
1 *1354:Z 0.000471444
2 *570 6.48553e-05
3 *570:2 0.00134121
4 *570:3 0.000546267
5 *570:4 0.0010015
6 *570:5 2.47633e-05
7 *570:6 0.00113807
8 *570:7 0.000535993

*RES
1 *570:2 *570:4 1.81769
2 *570:2 *570:3 5.01276
3 *1354:Z *570:4 4.07146
4 *570:6 *570:7 0.092958
5 *570:5 *570:6 5.56864023
6 *570:3 *570:7 3.56206
7 *570 *570:5 0.225002
*END

*D_NET *571 0.00428857

*CONN
*I *1348:Z O *C 139.3 88.8 *L 0 *D BUFFD8
*P *571 O *C 155 98.6 *L 0.5

*CAP
1 *1348:Z 0.000314914
2 *571 0.000670169
3 *571:2 0.00151504
4 *571:3 0.00115567
5 *571:4 0.000621181
6 *571:5 1.16053e-05

*RES
1 *571:2 *571:3 4.57423
2 *1348:Z *571:4 3.311
3 *571:3 *571:4 0.310523
4 *571:2 *571:5 6.10207987
5 *571 *571:5 3.6381
*END

*D_NET *572 0.00110856

*CONN
*I *1364:Z O *C 147.9 92.4 *L 0 *D BUFFD8
*P *572 O *C 155 95 *L 0.5

*CAP
1 *572 4.44785e-05
2 *572:2 0.000923898984
3 *572:3 0.000140188

*RES
1 *572:2 *572:3 4.44497013
2 *572 *572:3 1.21671
3 *1364:Z *572:2 0.224975
*END

*D_NET *573 0.00368753

*CONN
*I *1380:Z O *C 141.9 81.6 *L 0 *D BUFFD8
*P *573 O *C 155 91.4 *L 0.5

*CAP
1 *1380:Z 0.000711065
2 *573 4.4478e-05
3 *573:2 0.000734037969
4 *573:3 0.000711155
5 *573:4 0.000200235
6 *573:5 0.000648218
7 *573:6 0.000617842
8 *573:7 2.05085e-05

*RES
1 *573:2 *573:3 1.12721
2 *573:6 *573:7 2.26631
3 *573:5 *573:6 0.0926239
4 *573:4 *573:5 3.43507
5 *1380:Z *573:2 4.05762005
6 *573:3 *573:7 3.17503
7 *573 *573:4 1.72085
*END

*D_NET *574 0.00419725

*CONN
*I *1371:Z O *C 141.9 74.4 *L 0 *D BUFFD8
*P *574 O *C 155 87.8 *L 0.5

*CAP
1 *1371:Z 0.000271313
2 *574 4.44807e-05
3 *574:2 0.000572058
4 *574:3 0.0012146
5 *574:4 0.000161298
6 *574:5 0.000890929
7 *574:6 1.28438e-05
8 *574:7 0.00102973

*RES
1 *574:2 *574:3 4.45764
2 *1371:Z *574:3 1.13438
3 *574 *574:4 1.34272
4 *574:6 *574:7 3.37269
5 *574:5 *574:6 0.0926176
6 *574:2 *574:7 2.85881
7 *574:4 *574:5 4.49280977
*END

*D_NET *575 0.00299955

*CONN
*I *1353:Z O *C 139.5 80.8 *L 0 *D BUFFD8
*P *575 O *C 155 84.2 *L 0.5

*CAP
1 *1353:Z 0.000358423
2 *575 4.44771e-05
3 *575:2 0.00122884
4 *575:3 0.000190022
5 *575:4 0.000709984
6 *575:5 0.000346273
7 *575:6 0.000121525

*RES
1 *575 *575:3 1.8469
2 *575:4 *575:5 0.0925615
3 *575:3 *575:4 3.42245
4 *575:2 *575:6 5.07200003
5 *1353:Z *575:2 1.06376
6 *575:5 *575:6 1.80255
*END

*D_NET *576 0.0053436

*CONN
*I *1343:Z O *C 140.7 59.2 *L 0 *D CKBD12
*P *576 O *C 155 80.6 *L 0.5

*CAP
1 *576 0.000433891
2 *576:2 0.00130066
3 *576:3 7.7859e-05
4 *576:4 0.00127869
5 *576:2 *433:10 0.00102603992
6 *576:2 *462:12 0.00102728
7 *576:2 *482:6 0.000199183008

*RES
1 *576:3 *576:4 6.92553
2 *576:2 *576:3 13.7021999
3 *1343:Z *576:2 1.0893
4 *576 *576:4 1.97308
*END

*D_NET *577 0.00400262

*CONN
*I *1386:Z O *C 147.3 62.8 *L 0 *D BUFFD8
*P *577 O *C 155 77 *L 0.5

*CAP
1 *577 8.90301e-05
2 *577:2 0.00187547
3 *577:3 0.000866291
4 *577:4 0.000731272
5 *577:5 0.000440543

*RES
1 *577:2 *577:3 0.1592
2 *577:3 *577:4 3.33027
3 *577:2 *577:5 8.39367962
4 *577 *577:4 4.12883
5 *1386:Z *577:5 0.450064
*END

*D_NET *578 0.00350846

*CONN
*I *1356:Z O *C 142.7 62.8 *L 0 *D BUFFD8
*P *578 O *C 155 73.4 *L 0.5

*CAP
1 *1356:Z 0.00033789
2 *578 4.44843e-05
3 *578:2 0.000555665
4 *578:3 0.000894021
5 *578:4 0.000402245
6 *578:5 0.00127416

*RES
1 *578:2 *578:5 7.94597006
2 *578:2 *578:3 3.43308
3 *1356:Z *578:4 1.627
4 *578 *578:5 1.84694
5 *578:3 *578:4 1.46223
*END

*D_NET *579 0.00192552

*CONN
*I *1363:Z O *C 150.7 55.6 *L 0 *D BUFFD8
*P *579 O *C 155 69.8 *L 0.5

*CAP
1 *579 0.000182763
2 *579:2 0.000190612
3 *579:3 0.000269487
4 *579:4 0.00128265

*RES
1 *579:2 *579:4 8.2645998
2 *579:3 *579:4 1.21593
3 *1363:Z *579:3 0.449953
4 *579 *579:2 2.72796
*END

*D_NET *580 0.00518656

*CONN
*I *1362:Z O *C 143.1 45.6 *L 0 *D BUFFD8
*P *580 O *C 155 66.2 *L 0.5

*CAP
1 *580 5.64858e-05
2 *580:2 0.000399367
3 *580:3 0.000437017
4 *580:4 0.00142049
5 *580:5 1.80122e-05
6 *580:6 0.00108097
7 *580:3 *199:2 0.000818106016
8 *580:2 *1272:I 0.000251509004
9 *580:2 *805:5 0.000704576016

*RES
1 *580:2 *580:5 3.1278
2 *580:3 *580:2 1.69587
3 *580:4 *580:6 6.38519001
4 *580:4 *580:5 4.60056
5 *580 *580:6 5.89677
6 *1362:Z *580:3 0.224966
*END

*D_NET *581 0.00284792

*CONN
*I *1350:Z O *C 142.3 56.4 *L 0 *D BUFFD8
*P *581 O *C 155 62.6 *L 0.5

*CAP
1 *1350:Z 0.000615336
2 *581 4.44812e-05
3 *581:2 0.000962388984
4 *581:3 0.000652621
5 *581:4 0.000491335
6 *581:5 8.1752e-05

*RES
1 *581 *581:3 1.84688
2 *581:3 *581:4 2.4443
3 *581:2 *581:5 4.26501989
4 *1350:Z *581:2 2.14338
5 *581:4 *581:5 2.18685
*END

*D_NET *582 0.00196994

*CONN
*I *1370:Z O *C 150.7 52.8 *L 0 *D BUFFD8
*P *582 O *C 155 59 *L 0.5

*CAP
1 *582 0.00114391008
2 *582:2 0.000298061
3 *582:3 0.000527977

*RES
1 *1370:Z *582:3 2.09637
2 *582:2 *582:3 1.64004
3 *582 *582:2 5.31851006
*END

*D_NET *583 0.00263909

*CONN
*I *1397:Z O *C 148.1 45.6 *L 0 *D BUFFD8
*P *583 O *C 155 55.4 *L 0.5

*CAP
1 *1397:Z 0.000516167
2 *583 4.44687e-05
3 *583:2 0.00186931
4 *583:3 0.000209137

*RES
1 *583:2 *583:3 4.78211021
2 *583 *583:3 1.84692
3 *1397:Z *583:2 4.58502
*END

*D_NET *584 0.00422218

*CONN
*I *1394:Z O *C 150.7 27.6 *L 0 *D BUFFD8
*P *584 O *C 155 51.8 *L 0.5

*CAP
1 *584 6.47026e-05
2 *584:2 0.000216485
3 *584:3 0.000777553
4 *584:4 0.000101842
5 *584:5 0.00306158

*RES
1 *584 *584:3 4.13233
2 *584:4 *584:5 1.6292
3 *584:2 *584:4 0.449989
4 *1394:Z *584:2 0.449989
5 *584:3 *584:5 14.8416996
*END

*D_NET *585 0.00342512

*CONN
*I *1379:Z O *C 142.7 34.8 *L 0 *D BUFFD8
*P *585 O *C 155 48.2 *L 0.5

*CAP
1 *1379:Z 0.00118031
2 *585 0.000424584
3 *585:2 0.00165203
4 *585:3 0.00016819

*RES
1 *585:2 *585:3 7.73522997
2 *585 *585:3 3.46135
3 *1379:Z *585:2 5.33072
*END

*D_NET *586 0.00440055

*CONN
*I *1378:Z O *C 147.7 24 *L 0 *D BUFFD8
*P *586 O *C 155 44.6 *L 0.5

*CAP
1 *1378:Z 0.000329076
2 *586 9.44143e-05
3 *586:2 0.000799384
4 *586:3 0.000110634
5 *586:4 0.000801718
6 *586:5 0.000101597
7 *586:6 0.00084969
8 *586:7 0.000578557
9 *586:8 0.000735464

*RES
1 *586:5 *586:6 3.03603
2 *586:2 *586:4 0.159217
3 *1378:Z *586:6 1.19225
4 *586:7 *586:8 2.06637
5 *586:2 *586:5 3.78529
6 *586 *586:7 1.84657
7 *586:3 *586:8 3.90365005
8 *586:3 *586:4 3.17172
*END

*D_NET *587 0.00391867

*CONN
*I *1357:Z O *C 150.7 16.8 *L 0 *D BUFFD8
*P *587 O *C 155 41 *L 0.5

*CAP
1 *587 6.41144e-05
2 *587:2 0.000170203
3 *587:3 0.000775985
4 *587:4 5.78074e-05
5 *587:5 0.00285057

*RES
1 *587 *587:3 3.88093
2 *587:4 *587:5 1.37713
3 *587:2 *587:4 0.449986
4 *1357:Z *587:2 0.449986
5 *587:3 *587:5 14.8416004
*END

*D_NET *588 0.00366287

*CONN
*I *1461:I I *C 139.9 62.4 *L 0.000968 *D CKBD1
*I *1550:ZN O *C 143.7 50.2 *L 0 *D MOAI22D0

*CAP
1 *1550:ZN 0.000363098
2 *588:2 9.68799e-05
3 *588:3 0.000643597
4 *588:4 0.00120296
5 *588:5 0.00135634

*RES
1 *588:2 *588:3 2.22113
2 *1461:I *588:4 4.73932981
3 *1550:ZN *588:3 1.34198
4 *588:4 *588:5 2.21831
5 *588:2 *588:5 2.96476
*END

*D_NET *589 0.00310016

*CONN
*I *1460:I I *C 141.9 55.2 *L 0.000968 *D CKBD1
*I *1549:ZN O *C 150.1 46.6 *L 0 *D MOAI22D0

*CAP
1 *1460:I 0.000334721
2 *1549:ZN 0.000593409
3 *589:2 0.000187156
4 *589:3 0.000756364
5 *589:4 0.00122849

*RES
1 *589:3 *589:4 2.9076
2 *589:2 *589:4 4.55115986
3 *1549:ZN *589:2 2.41836
4 *1460:I *589:3 2.67433
*END

*D_NET *590 0.00302341

*CONN
*I *1459:I I *C 140.1 40.8 *L 0.000968 *D CKBD1
*I *1552:ZN O *C 151.1 36.6 *L 0 *D MOAI22D0

*CAP
1 *1459:I 0.000714481
2 *1552:ZN 0.0005045
3 *590:2 0.000302625
4 *590:3 4.15345e-05
5 *590:4 0.000945127031
6 *590:5 0.000515129

*RES
1 *1552:ZN *590:2 2.33231
2 *590:4 *590:5 0.0925732
3 *590:3 *590:4 3.84203
4 *1459:I *590:5 5.16769981
5 *590:2 *590:3 1.40595
*END

*D_NET *591 0.00215635

*CONN
*I *1458:I I *C 149.3 40.8 *L 0.000968 *D CKBD1
*I *1548:ZN O *C 150.1 33 *L 0 *D MOAI22D0

*CAP
1 *1458:I 2.5189e-05
2 *1548:ZN 6.12162e-05
3 *591:2 0.00140371
4 *591:3 0.000666224

*RES
1 *591:2 *591:3 2.3134
2 *1548:ZN *591:3 0.637367
3 *1458:I *591:2 5.64847994
*END

*D_NET *592 0.000741857

*CONN
*I *1457:I I *C 147.3 31.6 *L 0.000968 *D CKBD1
*I *1555:ZN O *C 150.1 32.2 *L 0 *D MOAI22D0

*CAP
1 *1457:I 0.000666436016
2 *1555:ZN 7.54247e-05

*RES
1 *1457:I *592:2 2.68341994
2 *1555:ZN *592:2 0.449994
*END

*D_NET *593 0.00160471

*CONN
*I *1456:I I *C 150.9 31.6 *L 0.000968 *D CKBD1
*I *1556:ZN O *C 151.1 25.8 *L 0 *D MOAI22D0

*CAP
1 *1556:ZN 0.000104464
2 *593:2 0.000228436
3 *593:3 0.000270978
4 *593:4 0.000236172
5 *593:5 0.000764662969

*RES
1 *593:2 *593:4 2.13419
2 *593:2 *593:3 1.67218
3 *1556:ZN *593:5 0.449992
4 *593:3 *593:5 2.90691996
5 *1456:I *593:4 0.675011
*END

*D_NET *594 0.000405918

*CONN
*I *1455:I I *C 149.5 20.8 *L 0.000968 *D CKBD1
*I *1551:ZN O *C 149.9 18.6 *L 0 *D MOAI22D0

*CAP
1 *1551:ZN 0.000405918008

*RES
1 *1551:ZN *1455:I 1.90247
*END

*D_NET *595 0.00196786

*CONN
*I *1454:I I *C 147.9 20.8 *L 0.000968 *D CKBD1
*I *1554:ZN O *C 150.1 11.4 *L 0 *D MOAI22D0

*CAP
1 *1554:ZN 0.000361548
2 *595:2 0.00096829
3 *595:3 0.000638021

*RES
1 *1554:ZN *595:2 1.23563
2 *595:2 *595:3 4.74666977
3 *1454:I *595:3 2.7672
*END

*D_NET *596 0.000796614

*CONN
*I *1453:I I *C 140.7 6.4 *L 0.000968 *D CKBD1
*I *1553:ZN O *C 143.9 7 *L 0 *D MOAI22D0

*CAP
1 *1453:I 0.000679715
2 *1553:ZN 8.5225e-05
3 *596:2 3.16754e-05

*RES
1 *1453:I *596:2 3.26241994
2 *1553:ZN *596:2 0.450016
*END

*D_NET *597 0.0016682

*CONN
*I *1597:ZN O *C 139.7 305 *L 0 *D NR2D0
*I *1465:D[63] I *C 134.195 314.185 *L 0.00183 *D sram00

*CAP
1 *1597:ZN 0.000177515
2 *597:2 3.56026e-05
3 *597:3 0.000388805
4 *597:5 0.00010345
5 *597:6 0.000271828
6 *597:7 1.19842e-06
7 *597:8 0.000262805
8 *597:9 1.60422e-05
9 *597:10 0.000126956
10 *597:11 1.00264e-06
11 *597:12 0.000277898
12 *597:13 5.09626e-06

*RES
1 *597:6 *597:9 0.15924
2 *597:2 *597:10 0.711978
3 *597:7 *597:8 0.15924
4 *597:2 *597:3 3.72180009
5 *597:10 *597:13 0.15924
6 *597:12 *597:13 1.10451
7 *597:4 *597:5 0.15924
8 *1597:ZN *597:4 0.714931
9 *597:6 *597:11 1.22962
10 *597:8 *597:9 1.60347
11 *597:5 *597:7 0.346022
12 *597:11 *597:12 0.536951
13 *597:13 *1465:D[63] 0.00011358
*END

*D_NET *598 0.00125812

*CONN
*I *1600:ZN O *C 141.9 307.4 *L 0 *D NR2D0
*I *1465:D[62] I *C 134.195 310.255 *L 0.00183 *D sram00

*CAP
1 *1600:ZN 0.000541347
2 *598:2 5.01575e-05
3 *598:3 0.000666613984

*RES
1 *598:2 *598:3 4.88345003
2 *1600:ZN *598:2 2.55082
3 *598:3 *1465:D[62] 7.45155e-05
*END

*D_NET *599 0.000883744

*CONN
*I *1603:ZN O *C 141.1 305 *L 0 *D NR2D0
*I *1465:D[61] I *C 134.195 305.785 *L 0.00183 *D sram00

*CAP
1 *1603:ZN 9.8313e-05
2 *599:2 4.91599e-05
3 *599:3 0.000253303
4 *599:4 3.22552e-05
5 *599:5 0.000450713008

*RES
1 *599:2 *599:3 1.62659
2 *599:4 *599:5 3.03835011
3 *599:3 *599:4 0.092584
4 *1603:ZN *599:2 0.476828
5 *599:5 *1465:D[61] 9.27231e-05
*END

*D_NET *600 0.000472145

*CONN
*I *1606:ZN O *C 139.3 301.4 *L 0 *D NR2D0
*I *1465:D[60] I *C 134.195 301.855 *L 0.00183 *D sram00

*CAP
1 *1606:ZN 0.000160522
2 *600:3 2.14897e-05
3 *600:4 0.000290136992

*RES
1 *600:2 *600:3 0.0736786
2 *600:3 *600:4 2.50057006
3 *1606:ZN *600:2 1.25998
4 *600:4 *1465:D[60] 0.000114467
*END

*D_NET *601 0.000707266

*CONN
*I *1609:ZN O *C 139.3 294.2 *L 0 *D NR2D0
*I *1465:D[59] I *C 134.195 297.385 *L 0.00183 *D sram00

*CAP
1 *1609:ZN 0.000406873984
2 *601:2 0.000254412
3 *601:3 9.44934e-06
4 *601:4 3.6537e-05

*RES
1 *601:2 *601:3 1.83569
2 *601:3 *601:4 0.394361
3 *1609:ZN *601:2 3.25788999
4 *601:4 *1465:D[59] 9.94229e-05
*END

*D_NET *602 0.000560913

*CONN
*I *1612:ZN O *C 139.7 293 *L 0 *D NR2D0
*I *1465:D[58] I *C 134.195 293.455 *L 0.00183 *D sram00

*CAP
1 *1612:ZN 0.000266862988
2 *602:2 5.64429e-05
3 *602:4 0.000237609

*RES
1 *602:2 *602:3 0.272139
2 *602:3 *602:4 2.1912899
3 *1612:ZN *602:2 1.90153
4 *602:4 *1465:D[58] 0.000100309
*END

*D_NET *603 0.000561607

*CONN
*I *1615:ZN O *C 139.7 289.4 *L 0 *D NR2D0
*I *1465:D[57] I *C 134.195 288.985 *L 0.00183 *D sram00

*CAP
1 *603:2 0.000561606992

*RES
1 *1615:ZN *603:2 4.03357983
2 *603:2 *1465:D[57] 0.000123095
*END

*D_NET *604 0.000569527

*CONN
*I *1618:ZN O *C 139.1 283.4 *L 0 *D NR2D0
*I *1465:D[56] I *C 134.195 285.055 *L 0.00183 *D sram00

*CAP
1 *1618:ZN 0.000424755977
2 *604:2 0.000117611
3 *604:4 2.71569e-05

*RES
1 *604:2 *604:3 0.736951
2 *604:3 *604:4 0.329645
3 *1618:ZN *604:2 3.27725005
4 *604:4 *1465:D[56] 0.000100014
*END

*D_NET *605 0.000553937

*CONN
*I *1573:ZN O *C 139.1 282.2 *L 0 *D NR2D0
*I *1465:D[55] I *C 134.195 280.585 *L 0.00183 *D sram00

*CAP
1 *1573:ZN 0.000424521016
2 *605:3 0.000107751
3 *605:4 2.16617e-05

*RES
1 *605:2 *605:3 0.736951
2 *605:3 *605:4 0.329645
3 *1573:ZN *605:2 3.27725005
4 *605:4 *1465:D[55] 0.000100014
*END

*D_NET *606 0.000620842

*CONN
*I *1560:ZN O *C 139.1 278.6 *L 0 *D NR2D0
*I *1465:D[54] I *C 134.195 276.655 *L 0.00183 *D sram00

*CAP
1 *1560:ZN 0.00036638
2 *606:2 3.20285e-05
3 *606:3 0.000185899
4 *606:4 3.65346e-05

*RES
1 *606:2 *606:3 1.16524
2 *606:3 *606:4 0.394377
3 *1560:ZN *606:2 3.10275006
4 *606:4 *1465:D[54] 9.46884e-05
*END

*D_NET *607 0.000435523

*CONN
*I *1563:ZN O *C 138.9 272.6 *L 0 *D NR2D0
*I *1465:D[53] I *C 134.195 272.185 *L 0.00183 *D sram00

*CAP
1 *1563:ZN 0.000194843
2 *607:3 3.83382e-05
3 *607:4 0.000202343008

*RES
1 *607:2 *607:3 0.271549
2 *607:3 *607:4 1.88101006
3 *1563:ZN *607:2 1.58248
4 *607:4 *1465:D[53] 8.61058e-05
*END

*D_NET *608 0.000621696

*CONN
*I *1566:ZN O *C 139.1 267.8 *L 0 *D NR2D0
*I *1465:D[52] I *C 134.195 268.255 *L 0.00183 *D sram00

*CAP
1 *1566:ZN 0.000208335
2 *608:2 4.26005e-05
3 *608:3 0.00037076

*RES
1 *608:2 *608:3 3.37260008
2 *1566:ZN *608:2 0.544672
3 *608:3 *1465:D[52] 0.000102924
*END

*D_NET *609 0.000640128

*CONN
*I *1569:ZN O *C 139.1 264.2 *L 0 *D NR2D0
*I *1465:D[51] I *C 134.195 263.785 *L 0.00183 *D sram00

*CAP
1 *1569:ZN 1.28468e-05
2 *609:2 0.000152699
3 *609:3 0.000474585

*RES
1 *609:2 *609:3 3.37260008
2 *1569:ZN *609:2 0.384831
3 *609:3 *1465:D[51] 0.000102924
*END

*D_NET *610 0.000684564

*CONN
*I *1572:ZN O *C 139.7 257 *L 0 *D NR2D0
*I *1465:D[50] I *C 134.195 259.855 *L 0.00183 *D sram00

*CAP
1 *1572:ZN 2.44711e-05
2 *610:3 1.25894e-05
3 *610:4 0.000182519
4 *610:6 0.000259122988
5 *610:8 4.71273e-05
6 *610:9 0.000135423
7 *610:10 1.44715e-06
8 *610:12 2.18654e-05

*RES
1 *610:11 *610:12 0.268478
2 *610:9 *610:10 0.15921
3 *610:7 *610:9 0.977444
4 *610:2 *610:3 0.116415
5 *610:8 *610:11 0.218508
6 *610:7 *610:8 0.15921
7 *610:4 *610:5 0.116415
8 *610:3 *610:4 1.43495
9 *1572:ZN *610:2 0.505298
10 *610:6 *610:10 0.719012
11 *610:5 *610:6 1.88101006
12 *610:12 *1465:D[50] 8.61058e-05
*END

*D_NET *611 0.000622818

*CONN
*I *1575:ZN O *C 139.7 253.4 *L 0 *D NR2D0
*I *1465:D[49] I *C 134.195 255.385 *L 0.00183 *D sram00

*CAP
1 *1575:ZN 2.44712e-05
2 *611:3 2.86409e-05
3 *611:4 0.000193349
4 *611:6 0.000341145
5 *611:8 3.52103e-05

*RES
1 *611:2 *611:3 0.116426
2 *611:7 *611:8 0.394364
3 *611:6 *611:7 1.45795
4 *611:4 *611:5 0.116426
5 *611:3 *611:4 1.43496
6 *1575:ZN *611:2 0.505287
7 *611:5 *611:6 1.72588003
8 *611:8 *1465:D[49] 0.000105339
*END

*D_NET *612 0.00096383

*CONN
*I *1578:ZN O *C 139.5 249.8 *L 0 *D NR2D0
*I *1465:D[48] I *C 134.195 251.455 *L 0.00183 *D sram00

*CAP
1 *612:2 5.50216e-05
2 *612:3 0.000475266016
3 *612:4 0.000433545

*RES
1 *612:2 *612:4 1.5036
2 *612:2 *612:3 4.18872023
3 *1578:ZN *612:4 0.22498
4 *612:4 *1465:D[48] 0.00012783
*END

*D_NET *613 0.000548131

*CONN
*I *1581:ZN O *C 139.5 246.2 *L 0 *D NR2D0
*I *1465:D[47] I *C 134.195 246.985 *L 0.00183 *D sram00

*CAP
1 *1581:ZN 3.05519e-05
2 *613:3 4.43976e-05
3 *613:4 0.000166162
4 *613:6 0.000279365996
5 *613:8 2.76531e-05

*RES
1 *613:2 *613:3 0.116494
2 *613:7 *613:8 0.329729
3 *613:6 *613:7 0.570434
4 *613:4 *613:5 0.116494
5 *613:3 *613:4 1.28025
6 *1581:ZN *613:2 0.495913
7 *613:5 *613:6 1.90103996
8 *613:8 *1465:D[47] 8.70227e-05
*END

*D_NET *614 0.000709772

*CONN
*I *1584:ZN O *C 140.3 242.6 *L 0 *D NR2D0
*I *1465:D[46] I *C 134.195 243.055 *L 0.00183 *D sram00

*CAP
1 *1584:ZN 0.00013976
2 *614:2 3.6046e-05
3 *614:3 0.000533967969

*RES
1 *614:2 *614:3 4.12802982
2 *1584:ZN *614:2 0.476825
3 *614:3 *1465:D[46] 0.000125977
*END

*D_NET *615 0.000908425

*CONN
*I *1587:ZN O *C 140.3 236.6 *L 0 *D NR2D0
*I *1465:D[45] I *C 134.195 238.585 *L 0.00183 *D sram00

*CAP
1 *1587:ZN 0.000338962
2 *615:2 4.92544e-05
3 *615:3 0.000520206992

*RES
1 *615:2 *615:3 4.12802982
2 *1587:ZN *615:2 1.3438
3 *615:3 *1465:D[45] 0.000125977
*END

*D_NET *616 0.00056602

*CONN
*I *1590:ZN O *C 139.7 233 *L 0 *D NR2D0
*I *1465:D[44] I *C 134.195 234.655 *L 0.00183 *D sram00

*CAP
1 *1590:ZN 4.10452e-05
2 *616:3 2.02317e-05
3 *616:4 0.000163774
4 *616:6 0.000310003008
5 *616:8 3.09648e-05

*RES
1 *616:2 *616:3 0.116494
2 *616:7 *616:8 0.329729
3 *616:6 *616:7 0.737285
4 *616:4 *616:5 0.116494
5 *616:3 *616:4 1.43544
6 *1590:ZN *616:2 0.48492
7 *616:5 *616:6 1.90103996
8 *616:8 *1465:D[44] 8.70227e-05
*END

*D_NET *617 0.00071905

*CONN
*I *1593:ZN O *C 139.7 229.4 *L 0 *D NR2D0
*I *1465:D[43] I *C 134.195 230.185 *L 0.00183 *D sram00

*CAP
1 *1593:ZN 5.88121e-05
2 *617:2 4.0085e-05
3 *617:3 0.000620153008

*RES
1 *617:2 *617:3 3.75031996
2 *1593:ZN *617:2 0.406014
3 *617:3 *1465:D[43] 0.000114451
*END

*D_NET *618 0.000750264

*CONN
*I *1594:ZN O *C 139.7 224.6 *L 0 *D NR2D0
*I *1465:D[42] I *C 134.195 226.255 *L 0.00183 *D sram00

*CAP
1 *1594:ZN 4.16128e-05
2 *618:3 3.82323e-05
3 *618:4 0.000206013
4 *618:6 2.42132e-05
5 *618:7 0.000126837
6 *618:8 0.000313350996

*RES
1 *618:6 *618:8 1.23228
2 *618:2 *618:3 0.116503
3 *618:6 *618:7 1.08638
4 *618:4 *618:5 0.116503
5 *618:3 *618:4 1.43544996
6 *1594:ZN *618:2 0.505461
7 *618:5 *618:8 1.33071
8 *618:8 *1465:D[42] 0.000109516
*END

*D_NET *619 0.000602036

*CONN
*I *1595:ZN O *C 139.7 221 *L 0 *D NR2D0
*I *1465:D[41] I *C 134.195 221.785 *L 0.00183 *D sram00

*CAP
1 *1595:ZN 4.15613e-05
2 *619:3 3.80742e-05
3 *619:4 0.000204124
4 *619:6 0.00029112
5 *619:8 2.71596e-05

*RES
1 *619:2 *619:3 0.116494
2 *619:7 *619:8 0.329729
3 *619:6 *619:7 0.570434
4 *619:4 *619:5 0.116494
5 *619:3 *619:4 1.43544
6 *1595:ZN *619:2 0.505457
7 *619:5 *619:6 1.90103996
8 *619:8 *1465:D[41] 8.70227e-05
*END

*D_NET *620 0.000574188

*CONN
*I *1596:ZN O *C 139.7 217.4 *L 0 *D NR2D0
*I *1465:D[40] I *C 134.195 217.855 *L 0.00183 *D sram00

*CAP
1 *1596:ZN 4.15192e-05
2 *620:3 3.82181e-05
3 *620:4 0.000248944004
4 *620:6 0.000245506

*RES
1 *620:2 *620:3 0.116507
2 *620:4 *620:5 0.428019
3 *620:3 *620:4 1.43546
4 *1596:ZN *620:2 0.505446
5 *620:5 *620:6 2.19283009
6 *620:6 *1465:D[40] 0.00010038
*END

*D_NET *621 0.000531389

*CONN
*I *1598:ZN O *C 139.7 213.8 *L 0 *D NR2D0
*I *1465:D[39] I *C 134.195 213.385 *L 0.00183 *D sram00

*CAP
1 *621:2 0.000531388984

*RES
1 *1598:ZN *621:2 4.03507996
2 *621:2 *1465:D[39] 0.000123141
*END

*D_NET *622 0.000898273

*CONN
*I *1599:ZN O *C 140.5 207.8 *L 0 *D NR2D0
*I *1465:D[38] I *C 134.195 209.455 *L 0.00183 *D sram00

*CAP
1 *1599:ZN 0.0003396
2 *622:2 9.60999e-05
3 *622:3 0.000462570977

*RES
1 *622:2 *622:3 4.25393009
2 *1599:ZN *622:2 1.27321
3 *622:3 *1465:D[38] 0.00012982
*END

*D_NET *623 0.000786562

*CONN
*I *1601:ZN O *C 140.5 204.2 *L 0 *D NR2D0
*I *1465:D[37] I *C 134.195 204.985 *L 0.00183 *D sram00

*CAP
1 *1601:ZN 3.91243e-05
2 *623:2 7.00309e-05
3 *623:3 0.000677412969

*RES
1 *623:2 *623:3 4.25393009
2 *1601:ZN *623:2 0.393029
3 *623:3 *1465:D[37] 0.00012982
*END

*D_NET *624 0.00100506

*CONN
*I *1602:ZN O *C 140.3 200.6 *L 0 *D NR2D0
*I *1465:D[36] I *C 134.195 201.055 *L 0.00183 *D sram00

*CAP
1 *624:3 0.000171508
2 *624:4 0.000190624
3 *624:5 0.000219982
4 *624:6 0.000422946016

*RES
1 *624:4 *624:6 0.544673
2 *624:2 *624:4 0.558737
3 *624:2 *624:3 1.42482
4 *624:5 *624:6 2.7430799
5 *1602:ZN *624:5 0.225018
6 *624:6 *1465:D[36] 8.37122e-05
*END

*D_NET *625 0.00141777

*CONN
*I *1604:ZN O *C 140.5 195.8 *L 0 *D NR2D0
*I *1465:D[35] I *C 134.195 196.585 *L 0.00183 *D sram00

*CAP
1 *1604:ZN 0.000217038
2 *625:2 2.26939e-06
3 *625:3 0.00028489
4 *625:4 8.27993e-05
5 *625:5 0.00020324
6 *625:6 0.000627529961

*RES
1 *625:4 *625:6 2.78215003
2 *625:2 *625:5 0.663401
3 *625:2 *625:3 2.19219
4 *1604:ZN *625:4 0.38483
5 *625:5 *625:6 0.224997
6 *625:6 *1465:D[35] 8.49045e-05
*END

*D_NET *626 0.00103841

*CONN
*I *1589:ZN O *C 140.7 192.2 *L 0 *D NR2D0
*I *1465:D[34] I *C 134.195 192.655 *L 0.00183 *D sram00

*CAP
1 *626:2 0.000289074
2 *626:3 8.33577e-05
3 *626:4 0.000461856992
4 *626:5 8.94326e-05
5 *626:6 8.38651e-05
6 *626:7 3.08116e-05

*RES
1 *626:2 *626:4 2.39784002
2 *626:6 *626:7 0.377699
3 *626:3 *626:5 0.365991
4 *626:4 *626:7 2.25613
5 *1589:ZN *626:5 0.225017
6 *626:5 *626:6 0.225017
7 *626:7 *1465:D[34] 0.000109764
*END

*D_NET *627 0.00107124

*CONN
*I *1607:ZN O *C 140.7 186.2 *L 0 *D NR2D0
*I *1465:D[33] I *C 134.195 188.185 *L 0.00183 *D sram00

*CAP
1 *1607:ZN 0.000364856
2 *627:2 9.89627e-05
3 *627:3 0.000607429023

*RES
1 *627:2 *627:3 4.3798399
2 *1607:ZN *627:2 1.34391
3 *627:3 *1465:D[33] 6.68311e-05
*END

*D_NET *628 0.00136192

*CONN
*I *1608:ZN O *C 140.9 179 *L 0 *D NR2D0
*I *1465:D[32] I *C 134.195 184.255 *L 0.00183 *D sram00

*CAP
1 *1608:ZN 0.000153728
2 *628:3 7.97579e-05
3 *628:4 5.68385e-05
4 *628:5 0.000246856
5 *628:6 7.07259e-05
6 *628:7 0.00075403

*RES
1 *628:2 *628:3 0.159214
2 *628:6 *628:7 2.18227
3 *628:4 *628:5 2.01449
4 *1608:ZN *628:2 0.773399
5 *628:4 *628:7 3.12122011
6 *628:3 *628:6 0.224985
7 *628:7 *1465:D[32] 9.52521e-05
*END

*D_NET *629 0.00316753

*CONN
*I *1610:ZN O *C 140.3 146.6 *L 0 *D NR2D0
*I *1465:D[31] I *C 134.265 139.205 *L 0.00183 *D sram00

*CAP
1 *629:2 0.000191718
2 *629:4 6.27552e-05
3 *629:5 7.17244e-05
4 *629:6 0.000148789
5 *629:7 0.000683226
6 *629:8 7.57665e-05
7 *629:9 0.00193355

*RES
1 *629:2 *629:3 0.422185
2 *629:8 *629:9 7.14816
3 *629:6 *629:7 3.34989
4 *629:5 *629:9 0.619371
5 *629:5 *629:6 0.215356
6 *629:4 *629:8 0.343621
7 *1610:ZN *629:3 0.225
8 *629:3 *629:8 0.225
9 *629:9 *1465:D[31] 0.0001
*END

*D_NET *630 0.00260468

*CONN
*I *1611:ZN O *C 140.3 143 *L 0 *D NR2D0
*I *1465:D[30] I *C 134.265 135.275 *L 0.00183 *D sram00

*CAP
1 *630:2 0.000565004
2 *630:4 2.12093e-06
3 *630:5 0.000583121
4 *630:6 0.000186898
5 *630:7 0.000146991
6 *630:8 0.000388989
7 *630:9 0.000731552031

*RES
1 *630:2 *630:4 0.159222
2 *630:8 *630:9 3.62444997
3 *630:7 *630:8 1.07723
4 *630:6 *630:7 0.706241
5 *630:4 *630:5 2.12912
6 *630:3 *630:6 0.463288
7 *630:3 *630:5 0.159222
8 *1611:ZN *630:2 2.45238
9 *630:9 *1465:D[30] 0.000110609
*END

*D_NET *631 0.00129648

*CONN
*I *1613:ZN O *C 137.9 134.6 *L 0 *D NR2D0
*I *1465:D[29] I *C 134.265 130.805 *L 0.00183 *D sram00

*CAP
1 *631:2 2.44239e-05
2 *631:3 0.000249773
3 *631:4 0.000359236
4 *631:5 0.000663057031

*RES
1 *631:2 *631:4 0.535485
2 *631:4 *631:5 1.86224
3 *631:3 *631:5 2.83400989
4 *1613:ZN *631:3 0.602815
5 *631:5 *1465:D[29] 8.64871e-05
*END

*D_NET *632 0.00209616

*CONN
*I *1614:ZN O *C 139.5 134.6 *L 0 *D NR2D0
*I *1465:D[28] I *C 134.265 126.875 *L 0.00183 *D sram00

*CAP
1 *632:2 0.000432886
2 *632:3 0.00014057
3 *632:4 5.42753e-06
4 *632:5 0.000701565
5 *632:6 8.3629e-05
6 *632:7 8.7986e-05
7 *632:8 0.000596033
8 *632:9 1.80597e-05
9 *632:10 1.33494e-05
10 *632:11 1.66573e-05

*RES
1 *632:10 *632:11 0.268534
2 *632:9 *632:10 0.0487816
3 *632:2 *632:3 0.619373
4 *632:8 *632:9 0.159247
5 *632:7 *632:8 3.86104989
6 *632:6 *632:7 0.394377
7 *632:4 *632:5 2.76164
8 *632:3 *632:4 0.218516
9 *1614:ZN *632:2 1.18419
10 *632:5 *632:6 0.218516
11 *632:11 *1465:D[28] 0.00011783
*END

*D_NET *633 0.00225266

*CONN
*I *1616:ZN O *C 139.5 131 *L 0 *D NR2D0
*I *1465:D[27] I *C 134.265 122.405 *L 0.00183 *D sram00

*CAP
1 *633:2 0.000190447
2 *633:3 7.3095e-05
3 *633:5 0.000324702
4 *633:6 0.000256561
5 *633:7 0.000121042
6 *633:8 0.000391668
7 *633:9 4.95343e-05
8 *633:10 0.000845592031

*RES
1 *633:9 *633:10 3.28599
2 *633:2 *633:3 0.498795
3 *633:8 *633:9 0.28595
4 *633:7 *633:8 1.52597
5 *633:6 *633:7 0.599426
6 *633:4 *633:5 2.19263
7 *633:3 *633:4 0.117128
8 *633:2 *633:10 0.510177
9 *1616:ZN *633:6 1.01444
10 *633:10 *1465:D[27] 0.00010028
*END

*D_NET *634 0.00205754

*CONN
*I *1617:ZN O *C 139.5 123.8 *L 0 *D NR2D0
*I *1465:D[26] I *C 134.265 118.475 *L 0.00183 *D sram00

*CAP
1 *634:2 2.42487e-05
2 *634:3 0.000175298
3 *634:4 0.000467515
4 *634:5 0.000522537
5 *634:6 0.000556811992
6 *634:7 0.00031113

*RES
1 *634:4 *634:6 2.86901999
2 *634:3 *634:7 0.866143
3 *634:2 *634:5 0.53549
4 *1617:ZN *634:3 0.644365
5 *634:5 *634:6 2.30328
6 *634:4 *634:7 1.5292
7 *634:7 *1465:D[26] 8.75555e-05
*END

*D_NET *635 0.00279388

*CONN
*I *1619:ZN O *C 139.5 121.4 *L 0 *D NR2D0
*I *1465:D[25] I *C 134.265 114.005 *L 0.00183 *D sram00

*CAP
1 *635:2 6.76982e-05
2 *635:3 0.000581521
3 *635:4 0.00158904
4 *635:5 0.000555624

*RES
1 *635:2 *635:4 0.845912
2 *635:4 *635:5 6.28188992
3 *635:3 *635:5 2.86901
4 *1619:ZN *635:3 1.69767
5 *635:5 *1465:D[25] 9.5854e-05
*END

*D_NET *636 0.00237678

*CONN
*I *1620:ZN O *C 139.5 117.8 *L 0 *D NR2D0
*I *1465:D[24] I *C 134.265 110.075 *L 0.00183 *D sram00

*CAP
1 *636:2 0.00101947
2 *636:3 0.000176251
3 *636:4 8.39252e-05
4 *636:6 0.000145232
5 *636:7 0.000204127
6 *636:8 8.74409e-05
7 *636:9 0.000648114
8 *636:10 1.2196e-05

*RES
1 *636:9 *636:10 0.0926093
2 *636:2 *636:5 5.12605
3 *636:2 *636:3 1.39712
4 *636:8 *636:9 2.56318
5 *636:6 *636:7 0.582093
6 *636:6 *636:10 0.814008
7 *636:5 *636:7 0.159954
8 *636:4 *636:8 0.380058
9 *1620:ZN *636:8 0.225031
10 *636:10 *1465:D[24] 7.82173e-05
*END

*D_NET *637 0.00173626

*CONN
*I *1558:ZN O *C 139.3 109.4 *L 0 *D NR2D0
*I *1465:D[23] I *C 134.265 105.605 *L 0.00183 *D sram00

*CAP
1 *637:2 0.000806421016
2 *637:3 0.000290895
3 *637:4 0.000162662
4 *637:5 0.000476285

*RES
1 *637:2 *637:3 1.47391
2 *637:4 *637:5 2.28296
3 *637:3 *637:4 0.343713
4 *1558:ZN *637:2 2.62291002
5 *637:5 *1465:D[23] 8.00449e-05
*END

*D_NET *638 0.00222747

*CONN
*I *1559:ZN O *C 139.5 110.6 *L 0 *D NR2D0
*I *1465:D[22] I *C 134.265 101.675 *L 0.00183 *D sram00

*CAP
1 *638:2 0.000685665
2 *638:3 0.00076293
3 *638:5 0.000186335
4 *638:6 0.000511787
5 *638:7 1.26893e-06
6 *638:8 5.93138e-05
7 *638:9 2.01748e-05

*RES
1 *638:4 *638:6 2.98961
2 *638:2 *638:3 3.53754997
3 *638:8 *638:9 0.268544
4 *638:7 *638:8 0.303846
5 *638:6 *638:7 0.159237
6 *638:4 *638:5 0.159237
7 *638:3 *638:5 1.3458
8 *1559:ZN *638:2 2.06172
9 *638:9 *1465:D[22] 0.000107957
*END

*D_NET *639 0.00283755

*CONN
*I *1561:ZN O *C 139.3 105.8 *L 0 *D NR2D0
*I *1465:D[21] I *C 134.265 97.205 *L 0.00183 *D sram00

*CAP
1 *639:2 0.000393262
2 *639:3 0.00176802
3 *639:4 0.000266977
4 *639:5 0.000409287

*RES
1 *639:2 *639:5 0.728609
2 *639:3 *639:5 6.09524012
3 *639:3 *639:4 2.74312
4 *1561:ZN *639:2 1.27344
5 *639:5 *1465:D[21] 9.3006e-05
*END

*D_NET *640 0.00277595

*CONN
*I *1562:ZN O *C 139.1 103.4 *L 0 *D NR2D0
*I *1465:D[20] I *C 134.265 93.275 *L 0.00183 *D sram00

*CAP
1 *640:2 0.000350393
2 *640:3 0.000207647
3 *640:4 0.000543427
4 *640:6 0.000958588984
5 *640:7 0.00071591

*RES
1 *640:2 *640:5 1.34417
2 *640:2 *640:3 1.55223
3 *1562:ZN *640:4 1.68972
4 *640:6 *640:7 4.86802006
5 *640:5 *640:6 0.159257
6 *640:4 *640:7 2.45956
7 *640:7 *1465:D[20] 7.42801e-05
*END

*D_NET *641 0.00220751

*CONN
*I *1564:ZN O *C 139.1 95 *L 0 *D NR2D0
*I *1465:D[19] I *C 134.265 88.805 *L 0.00183 *D sram00

*CAP
1 *641:2 0.000319902
2 *641:3 0.000338466
3 *641:4 0.000402471
4 *641:5 0.00114668

*RES
1 *641:2 *641:3 1.46123
2 *641:4 *641:5 1.98771
3 *641:3 *641:5 4.22216988
4 *1564:ZN *641:2 0.85402
5 *641:5 *1465:D[19] 0.00012885
*END

*D_NET *642 0.00235418

*CONN
*I *1565:ZN O *C 139.1 91.4 *L 0 *D NR2D0
*I *1465:D[18] I *C 134.265 84.875 *L 0.00183 *D sram00

*CAP
1 *642:2 0.000381937
2 *642:3 1.64292e-05
3 *642:4 0.00123332
4 *642:5 0.00072249

*RES
1 *642:2 *642:5 3.62445
2 *642:2 *642:3 1.02404
3 *1565:ZN *642:4 4.48216009
4 *642:3 *642:4 0.308928
5 *642:5 *1465:D[18] 6.83923e-05
*END

*D_NET *643 0.00146496

*CONN
*I *1567:ZN O *C 139.5 84.2 *L 0 *D NR2D0
*I *1465:D[17] I *C 134.265 80.405 *L 0.00183 *D sram00

*CAP
1 *1567:ZN 0.000175682
2 *643:2 7.29389e-05
3 *643:3 8.96569e-05
4 *643:4 0.000432827
5 *643:5 0.000693867031

*RES
1 *643:2 *643:4 0.845911
2 *643:4 *643:5 2.3659
3 *643:3 *643:5 2.95494008
4 *1567:ZN *643:3 0.434701
5 *643:5 *1465:D[17] 9.01776e-05
*END

*D_NET *644 0.00272383

*CONN
*I *1568:ZN O *C 139.1 87.8 *L 0 *D NR2D0
*I *1465:D[16] I *C 134.265 76.475 *L 0.00183 *D sram00

*CAP
1 *644:2 0.000655435
2 *644:4 0.000275222
3 *644:5 0.000415863
4 *644:6 8.77129e-07
5 *644:7 4.60378e-05
6 *644:8 0.000756351016
7 *644:9 0.000574047

*RES
1 *644:6 *644:8 0.159243
2 *644:4 *644:6 1.10051
3 *644:2 *644:3 2.38193
4 *644:7 *644:8 2.82585
5 *644:3 *644:4 0.159243
6 *644:5 *644:7 0.303533
7 *644:2 *644:9 3.1208601
8 *1568:ZN *644:5 1.46205
9 *644:9 *1465:D[16] 9.52411e-05
*END

*D_NET *645 0.00325485

*CONN
*I *1570:ZN O *C 139.5 81.8 *L 0 *D NR2D0
*I *1465:D[15] I *C 134.265 72.005 *L 0.00183 *D sram00

*CAP
1 *645:3 0.000108921
2 *645:4 0.00013012
3 *645:5 0.000513939
4 *645:6 0.00172794
5 *645:7 0.000773915

*RES
1 *645:3 *645:7 1.12297
2 *645:6 *645:7 2.61647
3 *645:4 *645:5 2.53476
4 *645:3 *645:4 0.215344
5 *645:2 *645:6 6.19796991
6 *1570:ZN *645:2 0.22499
7 *645:7 *1465:D[15] 9.45735e-05
*END

*D_NET *646 0.00232092

*CONN
*I *1571:ZN O *C 139.5 78.2 *L 0 *D NR2D0
*I *1465:D[14] I *C 134.265 68.075 *L 0.00183 *D sram00

*CAP
1 *646:2 9.65629e-05
2 *646:3 0.00040202
3 *646:4 0.000371724
4 *646:5 0.000253078
5 *646:6 0.00119604
6 *646:7 1.47828e-06

*RES
1 *646:2 *646:3 1.98766
2 *646:6 *646:7 0.159216
3 *646:4 *646:5 1.25906
4 *646:3 *646:6 5.82600021
5 *646:4 *646:7 1.33604
6 *1571:ZN *646:2 0.45
7 *646:7 *1465:D[14] 8.88977e-05
*END

*D_NET *647 0.00275807

*CONN
*I *1557:ZN O *C 139.5 74.6 *L 0 *D NR2D0
*I *1465:D[13] I *C 134.265 63.605 *L 0.00183 *D sram00

*CAP
1 *1557:ZN 0.000417169
2 *647:2 2.69272e-05
3 *647:3 0.000108113
4 *647:4 0.00220584016

*RES
1 *647:2 *647:4 8.63939
2 *647:3 *647:4 1.15635
3 *1557:ZN *647:2 2.96026
4 *647:4 *1465:D[13] 0.0001
*END

*D_NET *648 0.00251877

*CONN
*I *1574:ZN O *C 139.1 71 *L 0 *D NR2D0
*I *1465:D[12] I *C 134.265 59.675 *L 0.00183 *D sram00

*CAP
1 *648:2 0.00157554
2 *648:3 0.000139054
3 *648:4 0.000213245
4 *648:5 0.000409037
5 *648:6 0.000162494
6 *648:7 1.94253e-05

*RES
1 *648:4 *648:6 0.939907
2 *648:2 *648:5 7.30465
3 *648:2 *648:3 1.2418
4 *1574:ZN *648:4 0.817377
5 *648:6 *648:7 0.09294
6 *648:5 *648:7 1.60053
7 *648:7 *1465:D[12] 0.0001
*END

*D_NET *649 0.003249

*CONN
*I *1576:ZN O *C 139.1 66.2 *L 0 *D NR2D0
*I *1465:D[11] I *C 134.265 55.205 *L 0.00183 *D sram00

*CAP
1 *649:3 0.000563881
2 *649:4 0.000207829
3 *649:5 1.96495e-05
4 *649:6 0.000475081
5 *649:7 0.000529725
6 *649:8 0.000289725
7 *649:9 0.000915881016
8 *649:10 0.000236772
9 *649:11 1.04397e-05

*RES
1 *649:10 *649:11 0.159237
2 *649:9 *649:10 0.799424
3 *649:8 *649:9 3.31504989
4 *649:7 *649:8 1.1441
5 *649:4 *649:5 0.219735
6 *649:3 *649:4 0.683992
7 *649:2 *649:7 1.6423
8 *649:5 *649:6 2.34319
9 *649:3 *649:11 1.73603
10 *1576:ZN *649:2 0.224996
11 *649:11 *1465:D[11] 0.000101167
*END

*D_NET *650 0.00142083

*CONN
*I *1577:ZN O *C 139.3 55.4 *L 0 *D NR2D0
*I *1465:D[10] I *C 134.265 51.275 *L 0.00183 *D sram00

*CAP
1 *650:2 0.000283626
2 *650:3 0.000483163
3 *650:4 2.266e-05
4 *650:5 0.000631386992

*RES
1 *650:2 *650:5 3.24675989
2 *650:3 *650:5 2.33069
3 *650:3 *650:4 0.268516
4 *1577:ZN *650:2 0.704581
5 *650:5 *1465:D[10] 9.90832e-05
*END

*D_NET *651 0.00186382

*CONN
*I *1579:ZN O *C 139.3 53 *L 0 *D NR2D0
*I *1465:D[9] I *C 134.265 46.805 *L 0.00183 *D sram00

*CAP
1 *651:2 0.000310053
2 *651:3 8.25175e-05
3 *651:4 0.000967402969
4 *651:5 0.000503844

*RES
1 *651:2 *651:3 0.413299
2 *651:4 *651:5 3.12082
3 *651:3 *651:4 3.45705009
4 *1579:ZN *651:2 1.01756
5 *651:5 *1465:D[9] 0.000105501
*END

*D_NET *652 0.00272256

*CONN
*I *1580:ZN O *C 139.3 56.6 *L 0 *D NR2D0
*I *1465:D[8] I *C 134.265 42.875 *L 0.00183 *D sram00

*CAP
1 *652:2 0.000339435
2 *652:3 8.05695e-05
3 *652:4 0.000175646
4 *652:5 8.2916e-05
5 *652:6 0.000396443
6 *652:7 0.000904595
7 *652:8 1.48385e-05
8 *652:9 0.000146894
9 *652:10 0.000581227

*RES
1 *652:9 *652:10 3.13239
2 *652:2 *652:3 0.620796
3 *652:7 *652:8 0.285144
4 *652:4 *652:9 0.411455
5 *652:2 *652:8 1.3358
6 *652:6 *652:10 2.60118
7 *652:5 *652:7 5.5075798
8 *652:5 *652:6 0.285144
9 *1580:ZN *652:9 0.224972
10 *652:10 *1465:D[8] 8.4039e-05
*END

*D_NET *653 0.00280158

*CONN
*I *1582:ZN O *C 139.7 49.4 *L 0 *D NR2D0
*I *1465:D[7] I *C 134.265 38.405 *L 0.00183 *D sram00

*CAP
1 *653:2 0.00184733
2 *653:3 0.000377979
3 *653:4 0.000477428
4 *653:5 9.88287e-05

*RES
1 *653:4 *653:6 1.97638
2 *653:2 *653:4 8.15389
3 *653:2 *653:3 2.25289
4 *1582:ZN *653:5 0.225
5 *653:5 *653:6 0.225
6 *653:6 *1465:D[7] 0.0001
*END

*D_NET *654 0.00196425

*CONN
*I *1583:ZN O *C 139.1 42.2 *L 0 *D NR2D0
*I *1465:D[6] I *C 134.265 34.475 *L 0.00183 *D sram00

*CAP
1 *654:2 0.000102064
2 *654:3 8.33859e-05
3 *654:4 0.000530140977
4 *654:5 9.35947e-06
5 *654:6 0.00044326
6 *654:7 0.000373691
7 *654:8 2.27798e-05
8 *654:9 0.000107096
9 *654:10 8.17033e-06
10 *654:11 0.000253507
11 *654:12 3.07884e-05

*RES
1 *654:11 *654:12 0.268543
2 *654:10 *654:11 1.06739
3 *654:9 *654:10 0.159221
4 *654:4 *654:6 1.9418
5 *654:2 *654:3 0.183848
6 *654:8 *654:9 0.598398
7 *654:7 *654:8 0.28519
8 *654:3 *654:4 2.81183004
9 *654:5 *654:7 2.10776
10 *654:5 *654:6 0.28519
11 *1583:ZN *654:3 0.224994
12 *654:12 *1465:D[6] 8.58102e-05
*END

*D_NET *655 0.00149625

*CONN
*I *1585:ZN O *C 139.1 35 *L 0 *D NR2D0
*I *1465:D[5] I *C 134.265 30.005 *L 0.00183 *D sram00

*CAP
1 *1585:ZN 0.000154092
2 *655:2 0.000104209
3 *655:3 0.000627463984
4 *655:4 2.46639e-05
5 *655:5 0.000585815

*RES
1 *655:2 *655:5 2.9549
2 *655:3 *655:5 3.98298001
3 *655:3 *655:4 0.268506
4 *1585:ZN *655:2 0.54467
5 *655:5 *1465:D[5] 0.000121551
*END

*D_NET *656 0.00207135

*CONN
*I *1586:ZN O *C 140.1 31.4 *L 0 *D NR2D0
*I *1465:D[4] I *C 134.265 26.075 *L 0.00183 *D sram00

*CAP
1 *656:2 0.000793827031
2 *656:3 0.000466872
3 *656:4 2.26635e-05
4 *656:5 0.000788001

*RES
1 *656:2 *656:5 3.80778003
2 *656:3 *656:5 2.55963
3 *656:3 *656:4 0.26849
4 *1586:ZN *656:2 2.40746
5 *656:5 *1465:D[4] 0.000116204
*END

*D_NET *657 0.000947586

*CONN
*I *1588:ZN O *C 140.3 23 *L 0 *D NR2D0
*I *1465:D[3] I *C 134.265 21.605 *L 0.00183 *D sram00

*CAP
1 *657:2 0.00022913
2 *657:3 0.000672851953
3 *657:4 1.79058e-05
4 *657:5 2.77005e-05

*RES
1 *657:2 *657:3 3.70983005
2 *657:4 *657:5 0.268489
3 *657:3 *657:4 0.0926099
4 *1588:ZN *657:2 0.704537
5 *657:5 *1465:D[3] 0.000113215
*END

*D_NET *658 0.00103462

*CONN
*I *1605:ZN O *C 140.3 19.4 *L 0 *D NR2D0
*I *1465:D[2] I *C 134.265 17.675 *L 0.00183 *D sram00

*CAP
1 *658:2 0.000385093984
2 *658:3 2.63898e-05
3 *658:4 5.57412e-05
4 *658:5 0.000224175
5 *658:6 5.74571e-05
6 *658:7 0.000252305
7 *658:8 3.3453e-05

*RES
1 *658:2 *658:3 0.619383
2 *658:7 *658:8 0.394363
3 *658:6 *658:7 1.54418004
4 *658:4 *658:5 1.41826
5 *658:3 *658:4 0.0925999
6 *1605:ZN *658:2 1.1841
7 *658:5 *658:6 0.0925999
8 *658:8 *1465:D[2] 9.42493e-05
*END

*D_NET *659 0.00190175

*CONN
*I *1591:ZN O *C 145.3 12.2 *L 0 *D NR2D0
*I *1465:D[1] I *C 134.265 13.205 *L 0.00183 *D sram00

*CAP
1 *1591:ZN 0.000268519
2 *659:2 6.9794e-05
3 *659:3 0.000167043
4 *659:4 4.76518e-05
5 *659:5 0.000233815
6 *659:6 2.48346e-05
7 *659:7 0.000526709961
8 *659:8 4.57872e-05
9 *659:9 0.000273984
10 *659:10 3.18751e-05
11 *659:11 0.000211729

*RES
1 *659:10 *659:11 1.52753
2 *659:9 *659:10 0.0925808
3 *659:2 *659:3 1.19211
4 *659:8 *659:9 1.67008
5 *659:7 *659:8 0.0925808
6 *659:6 *659:7 2.17859006
7 *659:4 *659:5 1.16645
8 *659:3 *659:4 0.0925808
9 *1591:ZN *659:2 1.32582
10 *659:5 *659:6 0.0925808
11 *659:11 *1465:D[1] 9.97279e-05
*END

*D_NET *660 0.00147638

*CONN
*I *1592:ZN O *C 144.5 8.6 *L 0 *D NR2D0
*I *1465:D[0] I *C 134.265 9.275 *L 0.00183 *D sram00

*CAP
1 *1592:ZN 0.000246698
2 *660:2 3.19111e-05
3 *660:3 0.00018079
4 *660:4 5.6991e-05
5 *660:5 0.000454036992
6 *660:6 3.38025e-05
7 *660:7 0.00040087
8 *660:8 2.72277e-05
9 *660:9 4.40562e-05

*RES
1 *660:2 *660:3 1.16666
2 *660:8 *660:9 0.520259
3 *660:7 *660:8 0.36854
4 *660:6 *660:7 2.29961
5 *660:4 *660:5 2.80323005
6 *660:3 *660:4 0.0926055
7 *1592:ZN *660:2 0.727156
8 *660:5 *660:6 0.0926055
9 *660:9 *1465:D[0] 8.55478e-05
*END

*D_NET *661 0.000543778

*CONN
*I *1687:A2 I *C 139.7 46 *L 0.000585 *D CKAN2D0
*I *1474:Q O *C 138.7 48.4 *L 0 *D DFCNQD1

*CAP
1 *1687:A2 0.000101621
2 *1474:Q 0.000442155

*RES
1 *1474:Q *1687:A2 2.25511
*END

*D_NET *662 0.00122542

*CONN
*I *1685:A2 I *C 144.9 46 *L 0.000585 *D CKAN2D0
*I *1473:Q O *C 142.3 44.8 *L 0 *D DFCNQD1

*CAP
1 *1685:A2 0.000407719
2 *1473:Q 0.000179276
3 *662:2 0.000638421016

*RES
1 *1473:Q *662:2 0.827753
2 *1685:A2 *662:2 3.86958003
*END

*D_NET *663 0.000862172

*CONN
*I *1679:A2 I *C 144.3 38.8 *L 0.000585 *D CKAN2D0
*I *1472:Q O *C 142.3 37.6 *L 0 *D DFCNQD1

*CAP
1 *1679:A2 0.000440271992
2 *1472:Q 0.000107188
3 *663:2 0.000314717

*RES
1 *1679:A2 *663:2 3.14339995
2 *1472:Q *663:2 0.450003
*END

*D_NET *664 0.000998509

*CONN
*I *1690:A2 I *C 144.5 35.2 *L 0.000585 *D CKAN2D0
*I *1471:Q O *C 142.3 34 *L 0 *D DFCNQD1

*CAP
1 *1690:A2 0.000424575
2 *1471:Q 0.000112773
3 *664:2 0.00046116

*RES
1 *1690:A2 *664:2 3.55463004
2 *1471:Q *664:2 0.450024
*END

*D_NET *665 0.000666731

*CONN
*I *1688:A2 I *C 145.3 30 *L 0.000585 *D CKAN2D0
*I *1470:Q O *C 142.7 30.4 *L 0 *D DFCNQD1

*CAP
1 *1470:Q 7.4991e-05
2 *665:2 0.000216873
3 *665:3 0.000374868984

*RES
1 *1470:Q *665:3 0.449988
2 *665:2 *665:3 1.86177003
3 *1688:A2 *665:2 0.224994
*END

*D_NET *666 0.000892251

*CONN
*I *1692:A2 I *C 145.1 24.4 *L 0.000585 *D CKAN2D0
*I *1469:Q O *C 142.3 26.8 *L 0 *D DFCNQD1

*CAP
1 *1692:A2 0.000340826
2 *666:2 0.000551425977

*RES
1 *1692:A2 *666:2 3.66945004
2 *1469:Q *666:2 0.224973
*END

*D_NET *667 0.000854999

*CONN
*I *1657:A2 I *C 144.7 19.2 *L 0.000585 *D CKAN2D0
*I *1468:Q O *C 143.1 20.4 *L 0 *D DFCNQD1

*CAP
1 *1657:A2 0.000680228984
2 *1468:Q 0.000174772

*RES
1 *1468:Q *1657:A2 3.29423
*END

*D_NET *668 0.00128632

*CONN
*I *1631:A2 I *C 146.1 13.6 *L 0.000585 *D CKAN2D0
*I *1467:Q O *C 142.9 16 *L 0 *D DFCNQD1

*CAP
1 *1631:A2 0.000334177
2 *668:2 0.000952144063

*RES
1 *1631:A2 *668:2 3.78165007
2 *1467:Q *668:2 0.829082
*END

*D_NET *669 0.000426852

*CONN
*I *1691:A2 I *C 142.1 13.6 *L 0.000585 *D CKAN2D0
*I *1466:Q O *C 142.3 12.4 *L 0 *D DFCNQD1

*CAP
1 *1466:Q 0.000426851992

*RES
1 *1466:Q *1691:A2 1.94542
*END

*D_NET *670 0.000516422

*CONN
*I *1550:A2 I *C 144.1 49.6 *L 0.000697 *D MOAI22D0
*I *1483:QN O *C 143.9 52 *L 0 *D DFNCND1

*CAP
1 *1550:A2 0.000427011992
2 *1483:QN 8.94096e-05

*RES
1 *1483:QN *1550:A2 2.01058
*END

*D_NET *671 0.00056048

*CONN
*I *1549:A2 I *C 149.7 46 *L 0.000697 *D MOAI22D0
*I *1482:QN O *C 149.1 44.8 *L 0 *D DFNCND1

*CAP
1 *1482:QN 0.00056048

*RES
1 *1482:QN *1549:A2 2.17231
*END

*D_NET *672 0.000494857

*CONN
*I *1552:A2 I *C 151.5 37.2 *L 0.000697 *D MOAI22D0
*I *1481:QN O *C 150.9 38.4 *L 0 *D DFNCND1

*CAP
1 *1552:A2 0.000244716
2 *1481:QN 0.00025014002

*RES
1 *1481:QN *1552:A2 2.09691
*END

*D_NET *673 0.000475942

*CONN
*I *1548:A2 I *C 150.5 33.6 *L 0.000697 *D MOAI22D0
*I *1480:QN O *C 150.7 34.8 *L 0 *D DFNCND1

*CAP
1 *1548:A2 0.000310303984
2 *1480:QN 0.000165638

*RES
1 *1480:QN *1548:A2 1.91669
*END

*D_NET *674 0.000340221

*CONN
*I *1555:A2 I *C 150.5 31.6 *L 0.000697 *D MOAI22D0
*I *1479:QN O *C 150.7 30.4 *L 0 *D DFNCND1

*CAP
1 *1479:QN 0.000340220977

*RES
1 *1479:QN *1555:A2 1.75751
*END

*D_NET *675 0.000511116

*CONN
*I *1556:A2 I *C 150.7 26.4 *L 0.000697 *D MOAI22D0
*I *1478:QN O *C 149.1 26.8 *L 0 *D DFNCND1

*CAP
1 *1478:QN 0.000125191
2 *675:2 0.000385926992

*RES
1 *1556:A2 *675:2 1.68233001
2 *1478:QN *675:2 0.450001
*END

*D_NET *676 0.000596047

*CONN
*I *1551:A2 I *C 149.5 19.2 *L 0.000697 *D MOAI22D0
*I *1477:QN O *C 148.1 16.8 *L 0 *D DFNCND1

*CAP
1 *1477:QN 0.000596046992

*RES
1 *1477:QN *1551:A2 2.61378
*END

*D_NET *677 0.000945973

*CONN
*I *1554:A2 I *C 150.5 12 *L 0.000697 *D MOAI22D0
*I *1476:QN O *C 150.7 9.6 *L 0 *D DFNCND1

*CAP
1 *1554:A2 0.000502611992
2 *1476:QN 0.00010165
3 *677:2 0.000341716

*RES
1 *1476:QN *677:2 0.449994
2 *1554:A2 *677:2 3.28186011
*END

*D_NET *678 0.000586704

*CONN
*I *1553:A2 I *C 143.5 6.4 *L 0.000697 *D MOAI22D0
*I *1475:QN O *C 143.5 9.6 *L 0 *D DFNCND1

*CAP
1 *1553:A2 0.000586704023

*RES
1 *1553:A2 *678:2 2.33889008
2 *1475:QN *678:2 0.225017
*END

*D_NET *679 0.000278052

*CONN
*I *1597:A2 I *C 139.3 305.2 *L 0.000664 *D NR2D0
*I *1547:QN O *C 139.3 304 *L 0 *D DFNCND1

*CAP
1 *1547:QN 0.000278052012

*RES
1 *1597:A2 *1547:QN 1.20542
*END

*D_NET *680 0.00116778

*CONN
*I *1600:A2 I *C 142.3 307.2 *L 0.000664 *D NR2D0
*I *1546:QN O *C 143.1 301.2 *L 0 *D DFNCND1

*CAP
1 *1600:A2 6.30829e-06
2 *1546:QN 2.8828e-05
3 *680:2 0.00113264

*RES
1 *1546:QN *680:2 0.489621
2 *1600:A2 *680:2 4.26075983
*END

*D_NET *681 0.00182446

*CONN
*I *1603:A2 I *C 140.7 305.2 *L 0.000664 *D NR2D0
*I *1545:QN O *C 143.1 297.6 *L 0 *D DFNCND1

*CAP
1 *1545:QN 0.000502406
2 *681:2 0.000443645
3 *681:3 0.000878403047

*RES
1 *681:2 *681:3 2.86931
2 *1545:QN *681:2 3.61448002
3 *1603:A2 *681:3 1.13554
*END

*D_NET *682 0.000278385

*CONN
*I *1606:A2 I *C 139.7 301.6 *L 0.000664 *D NR2D0
*I *1544:QN O *C 139.7 300.4 *L 0 *D DFNCND1

*CAP
1 *1544:QN 0.00027838502

*RES
1 *1606:A2 *1544:QN 1.20542
*END

*D_NET *683 0.000772706

*CONN
*I *1609:A2 I *C 139.7 294.4 *L 0.000664 *D NR2D0
*I *1543:QN O *C 143.5 294 *L 0 *D DFNCND1

*CAP
1 *1609:A2 0.000114702
2 *683:2 0.00018651
3 *683:3 0.000471491992

*RES
1 *1609:A2 *683:3 0.449989
2 *683:2 *683:3 2.71901989
3 *1543:QN *683:2 0.224995
*END

*D_NET *684 0.000773226

*CONN
*I *1612:A2 I *C 140.1 292.8 *L 0.000664 *D NR2D0
*I *1542:QN O *C 144.1 293.2 *L 0 *D DFNCND1

*CAP
1 *1542:QN 0.000168107
2 *684:2 0.000605122969

*RES
1 *1542:QN *684:2 3.6047101
2 *1612:A2 *684:2 0.225019
*END

*D_NET *685 0.00097112

*CONN
*I *1615:A2 I *C 140.1 289.2 *L 0.000664 *D NR2D0
*I *1541:QN O *C 144.1 290.4 *L 0 *D DFNCND1

*CAP
1 *685:2 0.00097112

*RES
1 *1541:QN *685:2 0.704451
2 *1615:A2 *685:2 3.57080007
*END

*D_NET *686 0.000337264

*CONN
*I *1618:A2 I *C 139.5 283.6 *L 0.000664 *D NR2D0
*I *1540:QN O *C 142.5 283.2 *L 0 *D DFNCND1

*CAP
1 *1618:A2 0.000337263984

*RES
1 *1618:A2 *1540:QN 2.32707
*END

*D_NET *687 0.000989775

*CONN
*I *1573:A2 I *C 139.5 282 *L 0.000664 *D NR2D0
*I *1539:QN O *C 145.3 282.4 *L 0 *D DFNCND1

*CAP
1 *1573:A2 0.000305112
2 *687:2 0.000684660938

*RES
1 *1573:A2 *687:2 4.74559021
2 *1539:QN *687:2 0.224984
*END

*D_NET *688 6.4462e-05

*CONN
*I *1560:A2 I *C 139.5 278.4 *L 0.000664 *D NR2D0
*I *1538:QN O *C 140.3 278.8 *L 0 *D DFNCND1

*CAP
1 *1560:A2 6.44619971e-05

*RES
1 *1560:A2 *1538:QN 0.624029
*END

*D_NET *689 0.000389105

*CONN
*I *1563:A2 I *C 139.3 272.8 *L 0.000664 *D NR2D0
*I *1537:QN O *C 139.1 275.2 *L 0 *D DFNCND1

*CAP
1 *1563:A2 0.000240995996
2 *1537:QN 0.000148109

*RES
1 *1537:QN *1563:A2 1.39719
*END

*D_NET *690 0.000288236

*CONN
*I *1566:A2 I *C 138.7 267.6 *L 0.000664 *D NR2D0
*I *1536:QN O *C 138.7 265.2 *L 0 *D DFNCND1

*CAP
1 *1566:A2 4.59193e-05
2 *1536:QN 0.000242315996

*RES
1 *1536:QN *1566:A2 1.84688
*END

*D_NET *691 0.000316852

*CONN
*I *1569:A2 I *C 138.7 264 *L 0.000664 *D NR2D0
*I *1535:QN O *C 138.7 261.6 *L 0 *D DFNCND1

*CAP
1 *1569:A2 5.11905e-05
2 *1535:QN 0.000265660996

*RES
1 *1535:QN *1569:A2 1.84688
*END

*D_NET *692 0.000308812

*CONN
*I *1572:A2 I *C 140.1 256.8 *L 0.000664 *D NR2D0
*I *1534:QN O *C 140.3 258 *L 0 *D DFNCND1

*CAP
1 *1572:A2 6.15213e-05
2 *1534:QN 0.000247289004

*RES
1 *1572:A2 *1534:QN 1.59385
*END

*D_NET *693 0.000268451

*CONN
*I *1575:A2 I *C 140.1 253.2 *L 0.000664 *D NR2D0
*I *1533:QN O *C 140.3 250.8 *L 0 *D DFNCND1

*CAP
1 *1575:A2 0.000194211016
2 *1533:QN 7.42409e-05

*RES
1 *1575:A2 *1533:QN 1.33398
*END

*D_NET *694 0.000307631

*CONN
*I *1578:A2 I *C 139.1 249.6 *L 0.000664 *D NR2D0
*I *1532:QN O *C 138.9 247.2 *L 0 *D DFNCND1

*CAP
1 *1578:A2 0.000212285996
2 *1532:QN 9.53449e-05

*RES
1 *1578:A2 *1532:QN 1.33774
*END

*D_NET *695 0.000312327

*CONN
*I *1581:A2 I *C 139.9 246 *L 0.000664 *D NR2D0
*I *1531:QN O *C 140.1 243.6 *L 0 *D DFNCND1

*CAP
1 *1581:A2 0.000214874004
2 *1531:QN 9.74515e-05

*RES
1 *1581:A2 *1531:QN 1.35185
*END

*D_NET *696 0.000352163

*CONN
*I *1584:A2 I *C 139.9 242.4 *L 0.000664 *D NR2D0
*I *1530:QN O *C 140.1 240 *L 0 *D DFNCND1

*CAP
1 *1584:A2 0.000206215996
2 *1530:QN 0.000145948

*RES
1 *1584:A2 *1530:QN 1.39722
*END

*D_NET *697 0.000272956

*CONN
*I *1587:A2 I *C 139.9 236.8 *L 0.000664 *D NR2D0
*I *1529:QN O *C 139.9 235.6 *L 0 *D DFNCND1

*CAP
1 *1529:QN 0.000272956016

*RES
1 *1587:A2 *1529:QN 1.20546
*END

*D_NET *698 0.000280391

*CONN
*I *1590:A2 I *C 140.1 233.2 *L 0.000664 *D NR2D0
*I *1528:QN O *C 140.1 232 *L 0 *D DFNCND1

*CAP
1 *1528:QN 0.000280391016

*RES
1 *1590:A2 *1528:QN 1.20546
*END

*D_NET *699 0.000558122

*CONN
*I *1593:A2 I *C 139.3 229.6 *L 0.000664 *D NR2D0
*I *1527:QN O *C 139.9 228.4 *L 0 *D DFNCND1

*CAP
1 *1527:QN 4.06493e-05
2 *699:2 0.000517472969

*RES
1 *1527:QN *699:2 0.490021
2 *1593:A2 *699:2 1.70782995
*END

*D_NET *700 0.000309927

*CONN
*I *1594:A2 I *C 140.1 224.4 *L 0.000664 *D NR2D0
*I *1526:QN O *C 140.1 222 *L 0 *D DFNCND1

*CAP
1 *1526:QN 0.000309926992

*RES
1 *1594:A2 *1526:QN 1.20937
*END

*D_NET *701 0.000323107

*CONN
*I *1595:A2 I *C 140.1 220.8 *L 0.000664 *D NR2D0
*I *1525:QN O *C 140.7 218.4 *L 0 *D DFNCND1

*CAP
1 *1595:A2 4.74722e-05
2 *701:2 0.000275635

*RES
1 *1595:A2 *701:2 0.518761
2 *1525:QN *701:2 1.44351006
*END

*D_NET *702 0.000293348

*CONN
*I *1596:A2 I *C 140.1 217.2 *L 0.000664 *D NR2D0
*I *1524:QN O *C 140.3 214.8 *L 0 *D DFNCND1

*CAP
1 *1596:A2 0.000195384004
2 *1524:QN 9.79648e-05

*RES
1 *1596:A2 *1524:QN 1.33503
*END

*D_NET *703 0.000300394

*CONN
*I *1598:A2 I *C 140.1 213.6 *L 0.000664 *D NR2D0
*I *1523:QN O *C 140.1 211.2 *L 0 *D DFNCND1

*CAP
1 *1523:QN 0.000300394004

*RES
1 *1598:A2 *1523:QN 1.20546
*END

*D_NET *704 0.000294962

*CONN
*I *1599:A2 I *C 140.1 208 *L 0.000664 *D NR2D0
*I *1522:QN O *C 140.1 206.8 *L 0 *D DFNCND1

*CAP
1 *1522:QN 0.000294961992

*RES
1 *1599:A2 *1522:QN 1.20546
*END

*D_NET *705 0.000393789

*CONN
*I *1601:A2 I *C 140.1 204.4 *L 0.000664 *D NR2D0
*I *1521:QN O *C 140.1 203.2 *L 0 *D DFNCND1

*CAP
1 *1521:QN 0.000393788984

*RES
1 *1601:A2 *1521:QN 1.29268
*END

*D_NET *706 0.000635322

*CONN
*I *1602:A2 I *C 140.7 200.8 *L 0.000664 *D NR2D0
*I *1520:QN O *C 142.3 199.6 *L 0 *D DFNCND1

*CAP
1 *1602:A2 0.000420338984
2 *1520:QN 0.000214983

*RES
1 *1602:A2 *1520:QN 2.66274
*END

*D_NET *707 0.000563299

*CONN
*I *1604:A2 I *C 140.9 195.6 *L 0.000664 *D NR2D0
*I *1519:QN O *C 140.9 193.2 *L 0 *D DFNCND1

*CAP
1 *1519:QN 0.000563298984

*RES
1 *1604:A2 *1519:QN 1.72875
*END

*D_NET *708 0.000666467

*CONN
*I *1589:A2 I *C 141.1 192 *L 0.000664 *D NR2D0
*I *1518:QN O *C 142.1 188.8 *L 0 *D DFNCND1

*CAP
1 *1589:A2 0.000555414961
2 *1518:QN 0.000111049

*RES
1 *1589:A2 *1518:QN 2.96983
*END

*D_NET *709 0.000692699

*CONN
*I *1607:A2 I *C 140.3 186.4 *L 0.000664 *D NR2D0
*I *1517:QN O *C 139.9 182.4 *L 0 *D DFNCND1

*CAP
1 *1607:A2 0.000332199
2 *1517:QN 0.000360500977

*RES
1 *1607:A2 *1517:QN 2.8511
*END

*D_NET *710 0.00087529

*CONN
*I *1608:A2 I *C 141.3 179.2 *L 0.000664 *D NR2D0
*I *1516:QN O *C 143.9 178 *L 0 *D DFNCND1

*CAP
1 *1516:QN 0.00051506
2 *710:2 0.000360232

*RES
1 *1516:QN *710:2 3.33037996
2 *1608:A2 *710:2 0.44999
*END

*D_NET *711 0.000628806

*CONN
*I *1610:A2 I *C 140.7 146.8 *L 0.000664 *D NR2D0
*I *1515:QN O *C 140.5 150 *L 0 *D DFNCND1

*CAP
1 *1610:A2 0.00016257
2 *1515:QN 0.000466239023

*RES
1 *1515:QN *1610:A2 2.51405
*END

*D_NET *712 0.000407339

*CONN
*I *1611:A2 I *C 139.9 143.2 *L 0.000664 *D NR2D0
*I *1514:QN O *C 139.9 145.6 *L 0 *D DFNCND1

*CAP
1 *1611:A2 0.000407339023

*RES
1 *1514:QN *1611:A2 1.3851
*END

*D_NET *713 0.00142874

*CONN
*I *1613:A2 I *C 137.5 134.4 *L 0.000664 *D NR2D0
*I *1513:QN O *C 139.7 138.4 *L 0 *D DFNCND1

*CAP
1 *1613:A2 1.84888e-05
2 *1513:QN 6.4193e-05
3 *713:2 0.000780208984
4 *713:3 0.000420183
5 *713:4 0.00014566

*RES
1 *713:3 *713:4 1.86175
2 *713:2 *713:3 3.1310699
3 *1613:A2 *713:2 0.310451
4 *1513:QN *713:4 0.450005
*END

*D_NET *714 0.000367833

*CONN
*I *1614:A2 I *C 139.1 134.4 *L 0.000664 *D NR2D0
*I *1512:QN O *C 138.9 135.6 *L 0 *D DFNCND1

*CAP
1 *1614:A2 0.000245581992
2 *1512:QN 0.00012225

*RES
1 *1512:QN *1614:A2 1.34388
*END

*D_NET *715 0.000326728

*CONN
*I *1616:A2 I *C 139.9 130.8 *L 0.000664 *D NR2D0
*I *1511:QN O *C 139.9 132 *L 0 *D DFNCND1

*CAP
1 *1511:QN 0.000326727988

*RES
1 *1616:A2 *1511:QN 1.86442
*END

*D_NET *716 0.00126202

*CONN
*I *1617:A2 I *C 139.9 123.6 *L 0.000664 *D NR2D0
*I *1510:QN O *C 139.9 128.4 *L 0 *D DFNCND1

*CAP
1 *1617:A2 5.23058e-05
2 *1510:QN 0.00036749
3 *716:2 0.000842226016

*RES
1 *1617:A2 *716:2 1.8922
2 *1510:QN *716:2 3.05315995
*END

*D_NET *717 0.000885406

*CONN
*I *1619:A2 I *C 139.9 121.6 *L 0.000664 *D NR2D0
*I *1509:QN O *C 139.9 124.8 *L 0 *D DFNCND1

*CAP
1 *717:2 0.000885406016

*RES
1 *1619:A2 *717:2 1.34047
2 *1509:QN *717:2 1.78627002
*END

*D_NET *718 0.000376495

*CONN
*I *1620:A2 I *C 139.9 118 *L 0.000664 *D NR2D0
*I *1508:QN O *C 140.1 120.4 *L 0 *D DFNCND1

*CAP
1 *1620:A2 0.000177875
2 *1508:QN 0.00019862

*RES
1 *1508:QN *1620:A2 1.63674
*END

*D_NET *719 0.00152426

*CONN
*I *1558:A2 I *C 138.9 109.2 *L 0.000664 *D NR2D0
*I *1507:QN O *C 138.9 116.8 *L 0 *D DFNCND1

*CAP
1 *1558:A2 0.00152426

*RES
1 *1558:A2 *719:2 5.70167017
2 *1507:QN *719:2 0.224984
*END

*D_NET *720 0.000849934

*CONN
*I *1559:A2 I *C 139.1 110.8 *L 0.000664 *D NR2D0
*I *1506:QN O *C 139.1 114 *L 0 *D DFNCND1

*CAP
1 *1559:A2 0.000849933984

*RES
1 *1559:A2 *720:2 2.62301993
2 *1506:QN *720:2 0.225016
*END

*D_NET *721 0.00159817

*CONN
*I *1561:A2 I *C 139.7 105.6 *L 0.000664 *D NR2D0
*I *1505:QN O *C 140.5 113.2 *L 0 *D DFNCND1

*CAP
1 *1561:A2 0.000306801
2 *1505:QN 0.000278868
3 *721:2 0.00101250008

*RES
1 *1505:QN *721:2 1.7397
2 *1561:A2 *721:2 4.3701601
*END

*D_NET *722 0.00151361

*CONN
*I *1562:A2 I *C 139.5 103.6 *L 0.000664 *D NR2D0
*I *1504:QN O *C 145.5 106 *L 0 *D DFNCND1

*CAP
1 *722:2 0.00151361

*RES
1 *1504:QN *722:2 0.959449
2 *1562:A2 *722:2 5.06921005
*END

*D_NET *723 0.00197903

*CONN
*I *1564:A2 I *C 139.5 94.8 *L 0.000664 *D NR2D0
*I *1503:QN O *C 139.3 99.6 *L 0 *D DFNCND1

*CAP
1 *1503:QN 0.000336564
2 *723:2 0.00164247

*RES
1 *1564:A2 *723:2 6.01857996
2 *1503:QN *723:2 1.09643
*END

*D_NET *724 0.000442274

*CONN
*I *1565:A2 I *C 138.7 91.2 *L 0.000664 *D NR2D0
*I *1502:QN O *C 138.7 92.4 *L 0 *D DFNCND1

*CAP
1 *1565:A2 0.000442274023

*RES
1 *1502:QN *1565:A2 1.48846
*END

*D_NET *725 0.00131507

*CONN
*I *1567:A2 I *C 139.9 84 *L 0.000664 *D NR2D0
*I *1501:QN O *C 140.5 91.6 *L 0 *D DFNCND1

*CAP
1 *1567:A2 0.000736508047
2 *1501:QN 1.87681e-06
3 *725:2 0.000561571
4 *725:3 1.51269e-05

*RES
1 *725:2 *725:3 2.32555
2 *1567:A2 *725:3 2.78004003
3 *1501:QN *725:2 0.201071
*END

*D_NET *726 0.00152882

*CONN
*I *1568:A2 I *C 139.5 87.6 *L 0.000664 *D NR2D0
*I *1500:QN O *C 146.3 88 *L 0 *D DFNCND1

*CAP
1 *1568:A2 0.000110405
2 *1500:QN 0.000204943
3 *726:2 7.08077e-05
4 *726:3 0.00114267

*RES
1 *726:2 *726:3 4.71198988
2 *1500:QN *726:2 0.384877
3 *1568:A2 *726:3 0.450017
*END

*D_NET *727 0.00077165

*CONN
*I *1570:A2 I *C 139.1 82 *L 0.000664 *D NR2D0
*I *1499:QN O *C 139.1 85.2 *L 0 *D DFNCND1

*CAP
1 *1570:A2 0.000444951992
2 *1499:QN 0.000326699

*RES
1 *1499:QN *1570:A2 2.86926
*END

*D_NET *728 0.00128401

*CONN
*I *1571:A2 I *C 139.9 78.4 *L 0.000664 *D NR2D0
*I *1498:QN O *C 140.9 84.4 *L 0 *D DFNCND1

*CAP
1 *1571:A2 0.000821568047
2 *1498:QN 0.000456661
3 *728:2 5.77925e-06

*RES
1 *1571:A2 *728:2 2.89402008
2 *1498:QN *728:2 1.93488
*END

*D_NET *729 0.00134026

*CONN
*I *1557:A2 I *C 139.9 74.8 *L 0.000664 *D NR2D0
*I *1497:QN O *C 140.9 80.8 *L 0 *D DFNCND1

*CAP
1 *1557:A2 0.000815376016
2 *1497:QN 0.000223356
3 *729:2 0.000301516

*RES
1 *1497:QN *729:2 1.25037
2 *1557:A2 *729:2 3.93583012
*END

*D_NET *730 0.00131432

*CONN
*I *1574:A2 I *C 139.5 71.2 *L 0.000664 *D NR2D0
*I *1496:QN O *C 139.1 77.2 *L 0 *D DFNCND1

*CAP
1 *1574:A2 0.000311129
2 *730:2 0.00100319008

*RES
1 *1574:A2 *730:2 4.73623991
2 *1496:QN *730:2 0.224974
*END

*D_NET *731 0.00150102

*CONN
*I *1576:A2 I *C 139.5 66 *L 0.000664 *D NR2D0
*I *1495:QN O *C 139.1 73.6 *L 0 *D DFNCND1

*CAP
1 *1576:A2 0.00150102

*RES
1 *1576:A2 *1495:QN 5.96035
*END

*D_NET *732 0.00314965

*CONN
*I *1577:A2 I *C 138.9 55.2 *L 0.000664 *D NR2D0
*I *1494:QN O *C 138.7 67.2 *L 0 *D DFNCND1

*CAP
1 *1494:QN 0.00039538
2 *732:2 2.752e-06
3 *732:3 0.00170144
4 *732:4 0.0010501

*RES
1 *1494:QN *732:2 1.71046
2 *732:3 *732:4 4.46352005
3 *732:2 *732:3 3.19882
4 *1577:A2 *732:4 2.68318
*END

*D_NET *733 0.00295848

*CONN
*I *1579:A2 I *C 138.9 53.2 *L 0.000664 *D NR2D0
*I *1493:QN O *C 138.9 63.6 *L 0 *D DFNCND1

*CAP
1 *1579:A2 0.000262836
2 *733:2 0.00102444008
3 *733:3 0.000688259
4 *733:4 0.000982937

*RES
1 *1493:QN *733:3 2.20966
2 *733:2 *733:4 3.99670005
3 *1579:A2 *733:2 1.51242
4 *733:3 *733:4 3.323
*END

*D_NET *734 0.00120265

*CONN
*I *1580:A2 I *C 138.9 56.8 *L 0.000664 *D NR2D0
*I *1492:QN O *C 139.1 60 *L 0 *D DFNCND1

*CAP
1 *1580:A2 5.86985e-05
2 *1492:QN 0.000282024
3 *734:2 0.000861932969

*RES
1 *1492:QN *734:2 1.54183
2 *1580:A2 *734:2 3.19612002
*END

*D_NET *735 0.00261678

*CONN
*I *1582:A2 I *C 140.1 49.6 *L 0.000664 *D NR2D0
*I *1491:QN O *C 142.7 59.2 *L 0 *D DFNCND1

*CAP
1 *1582:A2 0.000700677
2 *1491:QN 0.000380021
3 *735:2 0.00102759
4 *735:3 0.000508503

*RES
1 *1491:QN *735:3 3.21554
2 *735:2 *735:3 3.59381008
3 *1582:A2 *735:2 2.63153
*END

*D_NET *736 0.00332993

*CONN
*I *1583:A2 I *C 139.5 42.4 *L 0.000664 *D NR2D0
*I *1490:QN O *C 146.3 52 *L 0 *D DFNCND1

*CAP
1 *1490:QN 0.000416057
2 *736:2 0.000576653
3 *736:3 0.00210746
4 *736:4 0.000229735

*RES
1 *1583:A2 *736:3 2.9884
2 *736:2 *736:3 4.95390987
3 *736:2 *736:4 2.45753
4 *1490:QN *736:4 2.21874
*END

*D_NET *737 0.00270157

*CONN
*I *1585:A2 I *C 139.5 35.2 *L 0.000664 *D NR2D0
*I *1489:QN O *C 146.1 42 *L 0 *D DFNCND1

*CAP
1 *1585:A2 0.000544854
2 *737:2 0.00021616
3 *737:3 0.000748614
4 *737:4 0.000132499
5 *737:5 0.00105946008

*RES
1 *737:4 *737:5 4.07542992
2 *1585:A2 *737:3 1.97858
3 *737:2 *737:3 3.11926
4 *737:2 *737:5 1.19186
5 *1489:QN *737:4 0.224989
*END

*D_NET *738 0.00170834

*CONN
*I *1586:A2 I *C 140.5 31.6 *L 0.000664 *D NR2D0
*I *1488:QN O *C 143.9 37.6 *L 0 *D DFNCND1

*CAP
1 *1586:A2 0.000606558
2 *738:2 0.00110177008

*RES
1 *1488:QN *738:2 1.87727
2 *1586:A2 *738:2 4.64540005
*END

*D_NET *739 0.00144886

*CONN
*I *1588:A2 I *C 140.7 22.8 *L 0.000664 *D NR2D0
*I *1487:QN O *C 143.3 27.6 *L 0 *D DFNCND1

*CAP
1 *739:2 0.000707822
2 *739:3 0.000741032031

*RES
1 *739:2 *739:3 1.86175
2 *1588:A2 *739:3 1.30736
3 *1487:QN *739:2 2.66349006
*END

*D_NET *740 0.000947198

*CONN
*I *1605:A2 I *C 140.7 19.2 *L 0.000664 *D NR2D0
*I *1486:QN O *C 141.9 23.2 *L 0 *D DFNCND1

*CAP
1 *1605:A2 5.40345e-06
2 *740:2 0.000941795

*RES
1 *1605:A2 *740:2 0.310399
2 *1486:QN *740:2 3.52675009
*END

*D_NET *741 0.00075881

*CONN
*I *1591:A2 I *C 145.7 12 *L 0.000664 *D NR2D0
*I *1485:QN O *C 145.7 16 *L 0 *D DFNCND1

*CAP
1 *1591:A2 0.00075881

*RES
1 *1591:A2 *741:2 2.91182995
2 *1485:QN *741:2 0.224999
*END

*D_NET *742 0.00033783

*CONN
*I *1592:A2 I *C 144.9 8.4 *L 0.000664 *D NR2D0
*I *1484:QN O *C 145.9 8.8 *L 0 *D DFNCND1

*CAP
1 *1592:A2 0.000138644
2 *1484:QN 0.000199185

*RES
1 *1592:A2 *1484:QN 1.34998
*END

*D_NET *743 0.00349348

*CONN
*I *1289:I I *C 137.7 298 *L 0.00103 *D DEL2
*I *1763:Q O *C 138.9 276 *L 0 *D DFXQD1
*I *1625:A1 I *C 142.1 287.2 *L 0.000556 *D CKAN2D0

*CAP
1 *1289:I 7.07578e-05
2 *1763:Q 0.000143195
3 *743:3 0.000363293
4 *743:4 0.000239581
5 *743:5 0.000229035
6 *743:6 0.000142064
7 *743:7 0.000540883
8 *743:8 0.00042266
9 *743:9 0.000265209
10 *743:10 0.00058869
11 *743:11 0.000488118

*RES
1 *743:9 *743:10 3.49759007
2 *743:4 *743:11 2.99491
3 *743:3 *743:10 1.88046
4 *1625:A1 *743:4 0.631462
5 *743:7 *743:8 2.51811
6 *743:5 *743:9 1.78429
7 *743:5 *743:8 1.03952
8 *1289:I *743:6 0.997093
9 *743:6 *743:7 2.99491
10 *1763:Q *743:3 0.979641
11 *743:5 *743:11 0.225004
*END

*D_NET *744 0.00460538

*CONN
*I *1291:I I *C 146.5 300 *L 0.00103 *D DEL2
*I *1762:Q O *C 150.9 278.8 *L 0 *D DFXQD1
*I *1641:A1 I *C 145.7 285.6 *L 0.000556 *D CKAN2D0

*CAP
1 *1291:I 5.90444e-05
2 *1762:Q 0.000533379
3 *1641:A1 9.02902e-06
4 *744:3 0.000783679
5 *744:4 3.64719e-06
6 *744:5 0.00145743
7 *744:6 0.00132682
8 *744:7 0.000363251
9 *744:8 6.90742e-05

*RES
1 *744:5 *744:7 2.31609
2 *1762:Q *744:8 2.59897
3 *744:6 *744:7 3.32278
4 *744:4 *744:5 4.70774984
5 *744:3 *744:4 3.41422
6 *1641:A1 *744:7 0.488044
7 *744:6 *744:8 2.75974
8 *1291:I *744:3 0.482728
*END

*D_NET *745 0.00584952

*CONN
*I *1287:I I *C 146.7 305.2 *L 0.00103 *D DEL2
*I *1761:Q O *C 151.9 271.6 *L 0 *D DFXQD1
*I *1623:A1 I *C 145.5 287.2 *L 0.000556 *D CKAN2D0

*CAP
1 *1287:I 2.02153e-06
2 *1761:Q 1.72625e-06
3 *745:3 0.000969244
4 *745:4 0.00148855
5 *745:6 0.000461386
6 *745:7 0.000460114
7 *745:8 0.0012585
8 *745:9 0.000825579
9 *745:6 *749:3 0.000181445996
10 *745:3 *1623:A2 0.000200979004

*RES
1 *745:8 *745:9 2.80019
2 *745:6 *745:3 3.86533
3 *745:4 *745:5 9.93949986
4 *1287:I *745:7 2.62001
5 *745:9 *745:3 2.42239
6 *745:7 *745:8 5.05362
7 *745:5 *745:6 0.159248
8 *1623:A1 *745:3 1.55638
9 *1761:Q *745:4 0.327293
*END

*D_NET *746 0.00677758

*CONN
*I *1288:I I *C 144.1 303.6 *L 0.00103 *D DEL2
*I *1760:Q O *C 138.5 268.8 *L 0 *D DFXQD1
*I *1647:A1 I *C 142.5 285.6 *L 0.000556 *D CKAN2D0

*CAP
1 *1760:Q 0.000204583
2 *746:3 0.000580404
3 *746:4 0.000330521
4 *746:5 0.000422907
5 *746:6 0.000308608
6 *746:7 0.000497348
7 *746:8 0.000464327
8 *746:9 0.000491288
9 *746:10 0.000251326
10 *746:11 0.000643686992
11 *746:12 0.000382578
12 *746:13 2.46533e-06
13 *746:14 0.000411101
14 *1760:Q *759:4 0.00026203
15 *746:3 *1546:CDN 0.00118025008
16 *746:4 *1647:A2 0.000344161992

*RES
1 *746:11 *746:12 2.5181
2 *746:9 *746:4 2.9949
3 *1647:A1 *746:4 0.675011
4 *746:8 *746:4 2.92886
5 *746:13 *746:14 2.86934
6 *746:12 *746:13 0.159198
7 *746:5 *746:3 2.14039
8 *746:6 *746:7 3.14584
9 *746:9 *746:10 0.917216
10 *746:5 *746:7 2.3922
11 *746:6 *746:8 2.15029
12 *746:10 *746:11 2.99485
13 *1760:Q *746:14 1.57546
14 *1288:I *746:3 3.26138997
*END

*D_NET *747 0.00984186

*CONN
*I *1286:I I *C 146.3 307.2 *L 0.00103 *D DEL2
*I *1759:Q O *C 150.7 264.4 *L 0 *D DFXQD1
*I *1627:A1 I *C 148.1 287.2 *L 0.000556 *D CKAN2D0

*CAP
1 *1286:I 5.73355e-05
2 *1759:Q 0.000332526
3 *1627:A1 8.61956e-05
4 *747:3 0.000537526
5 *747:4 0.000382536
6 *747:5 0.00052286
7 *747:6 0.000351509
8 *747:7 0.000313158
9 *747:8 0.000240017
10 *747:9 0.000934
11 *747:10 8.62669e-05
12 *747:11 0.000191346
13 *747:12 0.000238805
14 *747:13 0.000511245
15 *747:14 0.000899311
16 *747:15 0.000632386
17 *1759:Q *749:6 0.00160857
18 *747:3 *1678:A1 0.000266847012
19 *747:4 *263:2 0.000263487988
20 *747:3 *313:2 0.00138594

*RES
1 *747:11 *747:13 0.929397
2 *1759:Q *747:9 1.98036
3 *747:8 *747:3 2.70846
4 *747:7 *747:8 1.63742
5 *747:13 *747:3 2.71315
6 *747:4 *747:15 1.28341
7 *747:6 *747:15 2.49121
8 *747:11 *747:14 12.2948999
9 *747:5 *747:7 2.41486
10 *747:5 *747:6 1.53217
11 *747:12 *747:4 2.52667
12 *1627:A1 *747:13 0.908948
13 *747:10 *747:14 0.476893
14 *1286:I *747:12 1.34157
15 *747:9 *747:10 5.19254
*END

*D_NET *748 0.0077909

*CONN
*I *1285:I I *C 145.9 308.8 *L 0.00103 *D DEL2
*I *1758:Q O *C 150.3 260.8 *L 0 *D DFXQD1
*I *1678:A1 I *C 150.1 289.2 *L 0.000556 *D CKAN2D0

*CAP
1 *1758:Q 0.000110513
2 *1678:A1 7.43192e-05
3 *748:3 0.000811211016
4 *748:4 0.000598243
5 *748:5 4.16653e-05
6 *748:6 0.000692157
7 *748:7 0.000789252
8 *748:8 6.95783e-05
9 *748:9 9.21192e-05
10 *748:6 *1:2 0.00117901
11 *1758:Q *311:2 0.00119827
12 *748:4 *312:3 0.000175545
13 *1678:A1 *747:3 0.000266847012
14 *748:3 *322:3 0.00169216

*RES
1 *748:7 *748:8 10.9214001
2 *748:3 *748:9 7.94874
3 *748:3 *748:6 9.54189
4 *1678:A1 *748:5 0.674922
5 *1285:I *748:4 0.953556
6 *1758:Q *748:6 2.42905
7 *748:7 *748:9 0.650925
8 *748:5 *748:9 0.704418
9 *748:4 *748:8 3.23662
*END

*D_NET *749 0.0100457

*CONN
*I *1284:I I *C 145.9 310.8 *L 0.00103 *D DEL2
*I *1757:Q O *C 150.3 254.4 *L 0 *D DFXQD1
*I *1689:A1 I *C 150.1 287.2 *L 0.000556 *D CKAN2D0

*CAP
1 *1284:I 2.75051e-05
2 *1757:Q 9.09926e-05
3 *1689:A1 9.09926e-06
4 *749:3 0.000352798
5 *749:4 0.000231295
6 *749:5 0.000848926
7 *749:6 0.000625631
8 *749:7 0.00081371
9 *749:8 0.000299654
10 *749:10 0.00135836
11 *749:11 9.32726e-07
12 *749:12 0.000747487
13 *749:13 3.17541e-05
14 *749:14 4.85018e-06
15 *749:15 5.16938e-05
16 *749:16 0.00074558
17 *749:17 0.000105688
18 *749:18 0.000451647
19 *749:19 0.000577171
20 *749:3 *745:6 0.000181445996
21 *749:4 *258:5 0.000636447031
22 *749:5 *319:4 0.000244414004
23 *749:6 *1759:Q 0.00160857

*RES
1 *749:7 *749:9 3.71232
2 *1689:A1 *749:17 0.488459
3 *749:11 *749:12 0.285168
4 *749:19 *749:5 7.14991
5 *749:18 *749:5 1.81795
6 *749:14 *749:19 2.72638
7 *749:9 *749:6 0.15924
8 *749:12 *749:13 3.74377
9 *749:3 *749:8 1.76658
10 *749:10 *749:13 0.285168
11 *749:3 *749:17 1.84067
12 *749:15 *749:16 4.00123
13 *1284:I *749:4 0.328597
14 *749:17 *749:18 2.92375
15 *749:8 *749:10 10.2012997
16 *749:6 *749:11 2.86273
17 *749:4 *749:15 1.82168
18 *749:14 *749:16 0.15924
19 *1757:Q *749:7 0.51103
*END

*D_NET *750 0.00859358

*CONN
*I *1290:I I *C 140.7 296.4 *L 0.00103 *D DEL2
*I *1756:Q O *C 150.5 247.2 *L 0 *D DFXQD1
*I *1668:A1 I *C 148.7 256.8 *L 0.000556 *D CKAN2D0

*CAP
1 *1290:I 4.21517e-05
2 *1668:A1 2.3671e-06
3 *750:3 0.00142319
4 *750:4 0.000691279
5 *750:5 0.000579787
6 *750:6 0.000951638
7 *750:7 8.53024e-05
8 *750:8 0.000629908
9 *750:9 4.43016e-05
10 *750:10 0.000658292
11 *750:6 *312:2 0.000902827031
12 *750:6 *319:3 0.000207987988
13 *750:3 *322:3 0.00172154
14 *750:4 *488:87 0.000652973008

*RES
1 *750:7 *750:8 0.544707
2 *750:5 *750:7 3.13089
3 *1756:Q *750:4 1.20535
4 *1668:A1 *750:7 0.486998
5 *750:5 *750:4 3.17972
6 *750:6 *750:9 5.41574
7 *750:8 *750:10 4.14484
8 *750:3 *750:10 4.24981
9 *750:9 *750:3 17.1131001
10 *1290:I *750:6 0.367664
*END

*D_NET *751 0.00230116

*CONN
*I *1424:I I *C 146.7 272.8 *L 0.00103 *D DEL2
*I *1755:Q O *C 150.9 275.2 *L 0 *D DFXQD1
*I *1629:A1 I *C 149.3 280 *L 0.000556 *D CKAN2D0

*CAP
1 *1424:I 0.000224632
2 *1629:A1 3.86928e-05
3 *751:3 0.000459298
4 *751:4 5.64832e-05
5 *751:5 0.00152205

*RES
1 *751:3 *751:5 2.11359
2 *1424:I *751:3 1.33136
3 *751:4 *751:5 4.86652994
4 *1629:A1 *751:4 0.642549
5 *1755:Q *751:5 1.10465
*END

*D_NET *752 0.00247853

*CONN
*I *1421:I I *C 139.7 280 *L 0.00103 *D DEL2
*I *1754:Q O *C 146.9 271.6 *L 0 *D DFXQD1
*I *1628:A1 I *C 145.9 280 *L 0.000556 *D CKAN2D0

*CAP
1 *1421:I 6.78232e-05
2 *1754:Q 0.000201003
3 *1628:A1 2.09942e-05
4 *752:3 0.00121542
5 *752:4 5.89396e-05
6 *752:5 0.000914361

*RES
1 *752:4 *752:5 4.37803
2 *1628:A1 *752:4 0.489871
3 *752:3 *752:4 5.11132002
4 *1421:I *752:5 0.675026
5 *1754:Q *752:3 1.12403
*END

*D_NET *753 0.00292601

*CONN
*I *1422:I I *C 140.1 267.6 *L 0.00103 *D DEL2
*I *1753:Q O *C 150.3 268 *L 0 *D DFXQD1
*I *1622:A1 I *C 144.7 272.8 *L 0.000556 *D CKAN2D0

*CAP
1 *1422:I 7.20866e-05
2 *1622:A1 7.9238e-05
3 *753:3 0.000763002
4 *753:4 3.447e-05
5 *753:5 0.000102523
6 *753:6 0.00187468

*RES
1 *753:3 *753:6 3.75032
2 *1422:I *753:3 0.367574
3 *753:5 *753:6 3.12079
4 *753:4 *753:6 4.70863008
5 *1622:A1 *753:4 0.954644
6 *1753:Q *753:5 0.225028
*END

*D_NET *754 0.00200008

*CONN
*I *1426:I I *C 146.7 269.2 *L 0.00103 *D DEL2
*I *1752:Q O *C 150.5 265.2 *L 0 *D DFXQD1
*I *1632:A1 I *C 144.7 264 *L 0.000556 *D CKAN2D0

*CAP
1 *1632:A1 0.00037662
2 *754:4 0.000105137
3 *754:5 0.00151832

*RES
1 *754:3 *754:5 2.94770002
2 *1632:A1 *754:5 2.73887
3 *754:4 *754:5 2.6172
4 *1752:Q *754:4 0.224982
5 *1426:I *754:3 0.450008
*END

*D_NET *755 0.00211835

*CONN
*I *1425:I I *C 146.7 258.4 *L 0.00103 *D DEL2
*I *1751:Q O *C 150.5 261.6 *L 0 *D DFXQD1
*I *1633:A1 I *C 143.7 260.4 *L 0.000556 *D CKAN2D0

*CAP
1 *1425:I 0.000218051
2 *1751:Q 0.000542858
3 *1633:A1 9.81152e-05
4 *755:3 0.000764291016
5 *755:4 0.000495019

*RES
1 *755:3 *755:4 3.11000991
2 *1633:A1 *755:3 1.26434
3 *1751:Q *755:4 2.30503
4 *1425:I *755:3 3.07262
*END

*D_NET *756 0.00212908

*CONN
*I *1423:I I *C 140.1 254.8 *L 0.00103 *D DEL2
*I *1750:Q O *C 149.7 253.6 *L 0 *D DFXQD1
*I *1630:A1 I *C 143.7 256.8 *L 0.000556 *D CKAN2D0

*CAP
1 *1750:Q 0.00032427
2 *756:3 0.000472
3 *756:4 0.000637355
4 *756:5 0.000695456016

*RES
1 *1630:A1 *756:5 2.04349
2 *1750:Q *756:4 2.81100988
3 *756:4 *756:5 2.35532
4 *756:3 *756:5 2.36536
5 *1423:I *756:3 0.449986
*END

*D_NET *757 0.00168729

*CONN
*I *1427:I I *C 139.9 249.6 *L 0.00103 *D DEL2
*I *1749:Q O *C 150.1 250 *L 0 *D DFXQD1
*I *1637:A1 I *C 149.7 251.2 *L 0.000556 *D CKAN2D0

*CAP
1 *1427:I 0.000128559
2 *1637:A1 4.58193e-05
3 *757:3 0.000620405977
4 *757:4 0.00022637
5 *757:5 0.000138707
6 *757:6 0.000455192
7 *757:7 7.22505e-05

*RES
1 *757:4 *757:5 0.837865
2 *1637:A1 *757:4 1.24374
3 *1427:I *757:3 0.701841
4 *757:6 *757:7 0.0925776
5 *757:5 *757:6 2.55141
6 *757:3 *757:7 3.51516008
7 *1749:Q *757:4 0.225008
*END

*D_NET *758 0.0015022

*CONN
*I *1428:I I *C 146.3 246 *L 0.00103 *D DEL2
*I *1748:Q O *C 149.7 242.8 *L 0 *D DFXQD1
*I *1665:A1 I *C 146.7 244 *L 0.000556 *D CKAN2D0

*CAP
1 *1428:I 7.02512e-05
2 *1748:Q 0.00026272
3 *758:3 0.00038705
4 *758:4 0.00078218

*RES
1 *1428:I *758:3 1.98957
2 *758:3 *758:4 1.33535
3 *1748:Q *758:4 2.49838996
4 *1665:A1 *758:3 0.449997
*END

*D_NET *759 0.00945616

*CONN
*I *1292:I I *C 138.7 290.8 *L 0.00103 *D DEL2
*I *1747:Q O *C 149.7 239.2 *L 0 *D DFXQD1
*I *1635:A1 I *C 149.7 244 *L 0.000556 *D CKAN2D0

*CAP
1 *1292:I 0.000443823
2 *1747:Q 0.000317436
3 *1635:A1 1.00127e-05
4 *759:3 8.619e-05
5 *759:4 0.000103355
6 *759:5 0.00105372
7 *759:6 0.000265685
8 *759:7 0.000363648
9 *759:8 2.45733e-06
10 *759:9 0.000504156
11 *759:10 0.000251088
12 *759:11 0.0024036
13 *759:12 0.0003686
14 *759:13 0.000268986
15 *759:14 0.000496051
16 *759:3 *1665:A2 0.000457578008
17 *759:4 *1760:Q 0.00026203
18 *1747:Q *1746:Q 0.000326541016
19 *759:5 *489:55 0.00147126

*RES
1 *759:7 *759:8 2.01527
2 *1635:A1 *759:3 0.48817
3 *759:9 *759:10 0.159304
4 *1747:Q *759:6 2.35753
5 *759:4 *759:11 13.7189999
6 *759:8 *759:9 6.02007
7 *759:5 *759:12 2.51809
8 *759:5 *759:14 4.85742
9 *759:4 *759:10 2.52668
10 *759:6 *759:3 1.52794
11 *759:12 *759:13 1.64852
12 *759:3 *759:14 3.92608
13 *759:11 *759:13 0.159304
14 *1292:I *759:7 2.28615
*END

*D_NET *760 0.0105946

*CONN
*I *1293:I I *C 146.1 296.4 *L 0.00103 *D DEL2
*I *1746:Q O *C 149.5 235.6 *L 0 *D DFXQD1
*I *1634:A1 I *C 149.7 240.4 *L 0.000556 *D CKAN2D0

*CAP
1 *1746:Q 0.000540738
2 *760:3 0.00165201
3 *760:4 2.27629e-05
4 *760:5 2.95438e-05
5 *760:6 0.000336301
6 *760:7 0.000219991
7 *760:9 0.000533226
8 *760:10 4.57022e-05
9 *760:11 0.000440637
10 *760:12 0.000107285
11 *760:13 0.000110815
12 *760:14 0.000159012
13 *760:16 0.0001181
14 *760:3 *83:9 0.000687645
15 *760:14 *354:9 0.00055029
16 *760:3 *474:21 0.000396193008
17 *760:6 *258:3 0.00125421
18 *760:6 *263:3 0.00227056
19 *1746:Q *1747:Q 0.000326541016
20 *760:3 *1665:A2 0.000793091016

*RES
1 *760:3 *760:10 9.34085
2 *760:13 *760:14 3.12031
3 *760:6 *760:7 1.56955
4 *760:9 *760:15 4.37081
5 *1746:Q *760:5 4.79033
6 *760:4 *760:5 0.628872
7 *760:11 *760:13 0.159277
8 *760:8 *760:11 10.7945995
9 *760:9 *760:10 1.42065
10 *760:15 *760:16 2.52669
11 *760:12 *760:16 2.57808
12 *760:12 *760:14 0.159277
13 *760:7 *760:8 2.01048
14 *760:4 *760:3 2.49128
15 *1293:I *760:6 0.449995
16 *1634:A1 *760:5 0.449995
*END

*D_NET *761 0.00895517

*CONN
*I *1296:I I *C 143.9 289.2 *L 0.00103 *D DEL2
*I *1745:Q O *C 149.7 232.8 *L 0 *D DFXQD1
*I *1626:A1 I *C 150.5 235.2 *L 0.000556 *D CKAN2D0

*CAP
1 *1296:I 0.000130608
2 *1745:Q 0.000124994
3 *761:3 0.000166236
4 *761:4 4.55498e-05
5 *761:5 0.00024751
6 *761:6 0.000901845
7 *761:7 0.000199979
8 *761:8 0.000600404
9 *761:10 0.000508603
10 *761:11 1.66511e-06
11 *761:12 0.000306133
12 *761:13 0.000733889
13 *761:14 0.000438104
14 *761:12 *19:4 0.000315565996
15 *761:13 *91:11 0.00116667
16 *761:10 *1755:SA 0.000407255
17 *1296:I *318:2 0.00180696
18 *1296:I *319:2 0.000538365
19 *761:3 *1630:A2 0.000314828984

*RES
1 *761:9 *761:10 0.159283
2 *1626:A1 *761:5 1.23064
3 *761:12 *761:3 0.159283
4 *761:10 *761:11 5.13257
5 *761:8 *761:11 0.159283
6 *1745:Q *761:5 0.74535
7 *1296:I *761:7 1.54616
8 *761:4 *761:6 3.75397
9 *761:13 *761:3 11.0815001
10 *761:6 *761:14 3.37065
11 *761:7 *761:8 6.14863
12 *761:13 *761:14 2.26818
13 *761:9 *761:12 6.51386
14 *761:4 *761:5 0.109232
*END

*D_NET *762 0.0096269

*CONN
*I *1298:I I *C 138.5 181.2 *L 0.00103 *D DEL2
*I *1744:Q O *C 149.9 229.2 *L 0 *D DFXQD1
*I *1648:A1 I *C 149.7 231.6 *L 0.000556 *D CKAN2D0

*CAP
1 *1648:A1 4.6524e-05
2 *762:3 0.00333583
3 *762:4 0.000144458
4 *762:5 0.000221422
5 *762:6 0.00021455
6 *762:7 0.0010813
7 *762:8 0.00257786
8 *762:3 *106:4 0.000433400977
9 *762:3 *763:3 0.00122459992
10 *762:3 *489:53 0.00034691

*RES
1 *762:3 *762:8 12.9294
2 *762:3 *762:7 20.4438992
3 *762:4 *762:6 0.503486
4 *1648:A1 *762:6 1.50266
5 *762:5 *762:8 0.544663
6 *762:4 *762:7 7.12679
7 *1744:Q *762:6 0.224915
8 *1298:I *762:5 0.450143
*END

*D_NET *763 0.0100885

*CONN
*I *1294:I I *C 138.1 172 *L 0.00103 *D DEL2
*I *1743:Q O *C 147.5 225.6 *L 0 *D DFXQD1
*I *1621:A1 I *C 149.7 228 *L 0.000556 *D CKAN2D0

*CAP
1 *1294:I 0.000300112
2 *1743:Q 0.000587317
3 *763:3 0.000412635
4 *763:4 0.00021036
5 *763:5 0.000749611
6 *763:6 0.00486105
7 *763:7 0.000307677
8 *763:8 0.000567141
9 *763:9 7.83287e-05
10 *763:10 0.000394091
11 *763:6 *1301:I 0.000395696992
12 *763:3 *762:3 0.00122459992

*RES
1 *1294:I *763:4 1.6459
2 *1743:Q *763:10 2.3612
3 *763:8 *763:9 0.21886
4 *763:5 *763:6 4.00087
5 *763:3 *763:9 3.01155
6 *1621:A1 *763:10 1.67704
7 *763:7 *763:10 1.18549
8 *763:7 *763:8 2.67748
9 *763:3 *763:6 29.1529007
10 *763:4 *763:5 2.17437
*END

*D_NET *764 0.0042406

*CONN
*I *1299:I I *C 139.5 238.8 *L 0.00103 *D DEL2
*I *1742:Q O *C 149.9 224.8 *L 0 *D DFXQD1
*I *1650:A1 I *C 149.7 222.4 *L 0.000556 *D CKAN2D0

*CAP
1 *1299:I 0.000266954
2 *1650:A1 0.000120558
3 *764:3 0.00176199
4 *764:4 0.00034323
5 *764:5 2.98437e-06
6 *764:6 2.40632e-05
7 *764:7 0.000523744
8 *764:8 0.000432976
9 *764:9 0.000207642
10 *764:10 0.000556465

*RES
1 *764:9 *764:10 2.5181
2 *764:6 *764:7 2.74293
3 *1650:A1 *764:8 1.5022
4 *764:8 *764:9 1.84512
5 *764:5 *764:7 0.285143
6 *764:4 *764:6 1.76322
7 *764:3 *764:10 3.89289
8 *764:3 *764:5 4.27330017
9 *1299:I *764:4 1.24894
10 *1742:Q *764:8 0.225024
*END

*D_NET *765 0.00855872

*CONN
*I *1295:I I *C 142.5 174 *L 0.00103 *D DEL2
*I *1741:Q O *C 149.9 221.2 *L 0 *D DFXQD1
*I *1651:A1 I *C 147.7 217.2 *L 0.000556 *D CKAN2D0

*CAP
1 *1295:I 0.000942348984
2 *1741:Q 0.000579285
3 *1651:A1 9.46591e-05
4 *765:3 0.000191446
5 *765:4 0.000693299
6 *765:5 0.000349259
7 *765:6 0.000519683
8 *765:7 0.000905049
9 *765:8 1.69676e-05
10 *765:9 3.63797e-06
11 *765:10 0.000705378
12 *765:11 0.000475294
13 *765:12 0.00083715
14 *765:13 0.000172667
15 *765:14 0.00079289
16 *765:7 *100:5 0.000771611953
17 *1295:I *492:75 0.000508098008

*RES
1 *765:4 *765:6 2.56076
2 *765:8 *765:10 0.159183
3 *765:4 *765:8 2.98835
4 *1741:Q *765:13 2.94677
5 *765:3 *765:13 0.327868
6 *765:3 *765:14 4.07083
7 *765:7 *765:14 6.16560984
8 *765:5 *765:6 1.76287
9 *765:9 *765:10 4.12624
10 *765:7 *765:9 0.159183
11 *765:11 *765:12 3.74437
12 *1651:A1 *765:13 0.952181
13 *1295:I *765:12 4.94831
14 *765:5 *765:11 2.6094
*END

*D_NET *766 0.0020191

*CONN
*I *1302:I I *C 141.5 217.2 *L 0.00103 *D DEL2
*I *1740:Q O *C 149.7 214 *L 0 *D DFXQD1
*I *1661:A1 I *C 149.7 215.2 *L 0.000556 *D CKAN2D0

*CAP
1 *1302:I 5.12127e-05
2 *1740:Q 0.000195216
3 *1661:A1 2.52535e-05
4 *766:3 0.000256319
5 *766:4 0.000670306016
6 *766:5 0.000522539
7 *766:6 0.000298255

*RES
1 *766:3 *766:5 2.75973
2 *1661:A1 *766:3 0.929483
3 *766:5 *766:6 0.0925945
4 *766:4 *766:6 3.01154995
5 *1302:I *766:4 1.77997
6 *1740:Q *766:3 0.864323
*END

*D_NET *767 0.00189148

*CONN
*I *1303:I I *C 139.7 210 *L 0.00103 *D DEL2
*I *1739:Q O *C 149.9 210.4 *L 0 *D DFXQD1
*I *1644:A1 I *C 149.7 211.6 *L 0.000556 *D CKAN2D0

*CAP
1 *1303:I 0.000140353
2 *1644:A1 4.68146e-05
3 *767:3 0.000257115
4 *767:4 0.00053815
5 *767:5 0.000145453
6 *767:6 0.000409564
7 *767:7 0.000354029

*RES
1 *767:6 *767:7 1.45704
2 *767:4 *767:7 3.13744998
3 *767:5 *767:6 1.97867
4 *1303:I *767:4 0.60273
5 *767:3 *767:5 0.711977
6 *1644:A1 *767:3 1.37589
7 *1739:Q *767:3 0.225006
*END

*D_NET *768 0.00637384

*CONN
*I *1300:I I *C 146.5 175.6 *L 0.00103 *D DEL2
*I *1738:Q O *C 149.9 204 *L 0 *D DFXQD1
*I *1653:A1 I *C 149.7 206.4 *L 0.000556 *D CKAN2D0

*CAP
1 *1300:I 0.000475568
2 *1653:A1 4.61534e-05
3 *768:3 0.00048165
4 *768:4 0.000510273
5 *768:6 0.000592608
6 *768:7 0.000806792031
7 *768:8 0.000263317
8 *768:9 0.000742616
9 *768:10 0.000262997
10 *768:11 0.000496694
11 *768:4 *1655:A1 0.00031465
12 *768:3 *1071:I 0.00138052

*RES
1 *768:3 *768:9 3.05695
2 *768:8 *768:3 3.8858
3 *768:4 *768:11 2.61719
4 *768:4 *768:10 2.81341
5 *1653:A1 *768:10 1.50166
6 *768:7 *768:11 3.41834
7 *768:7 *768:8 1.19023
8 *768:6 *768:9 4.30219984
9 *768:5 *768:6 0.285168
10 *1300:I *768:5 2.82588
11 *1738:Q *768:10 0.22497
*END

*D_NET *769 0.00517908

*CONN
*I *1301:I I *C 137.9 184.8 *L 0.00103 *D DEL2
*I *1737:Q O *C 149.9 200.4 *L 0 *D DFXQD1
*I *1655:A1 I *C 149.7 202.8 *L 0.000556 *D CKAN2D0

*CAP
1 *1301:I 0.00167481
2 *1655:A1 0.000131128
3 *769:3 0.000450015
4 *769:4 0.000843705
5 *769:5 2.30004e-06
6 *769:7 0.000596936
7 *769:8 0.000330592
8 *769:3 *488:100 0.000159378008
9 *1301:I *1074:I 0.000279891992
10 *1301:I *763:6 0.000395696992
11 *1655:A1 *768:4 0.00031465

*RES
1 *769:7 *769:8 2.89581
2 *769:4 *769:8 3.56784
3 *769:4 *769:5 1.96872
4 *769:3 *769:6 0.12588
5 *1301:I *769:5 9.40668011
6 *769:3 *769:7 2.22278
7 *1655:A1 *769:6 2.4253
8 *1737:Q *769:6 0.225062
*END

*D_NET *770 0.00159502

*CONN
*I *1304:I I *C 142.7 197.2 *L 0.00103 *D DEL2
*I *1736:Q O *C 150.1 196 *L 0 *D DFXQD1
*I *1654:A1 I *C 148.9 197.2 *L 0.000556 *D CKAN2D0

*CAP
1 *1736:Q 0.000266268
2 *770:3 0.000950583984
3 *770:4 0.000378174

*RES
1 *1654:A1 *770:4 0.884685
2 *770:3 *770:4 4.00212002
3 *1736:Q *770:4 1.96131
4 *1304:I *770:3 0.450006
*END

*D_NET *771 0.00227426

*CONN
*I *1305:I I *C 138.3 190 *L 0.00103 *D DEL2
*I *1735:Q O *C 148.5 189.6 *L 0 *D DFXQD1
*I *1656:A1 I *C 148.9 192 *L 0.000556 *D CKAN2D0

*CAP
1 *1305:I 0.000124843
2 *1735:Q 9.07235e-05
3 *771:3 0.000600966
4 *771:4 0.000351408
5 *771:5 0.000411911
6 *771:6 0.000694412969

*RES
1 *771:4 *771:6 1.9052
2 *1305:I *771:3 0.39303
3 *771:4 *771:5 1.58303
4 *1735:Q *771:6 0.449995
5 *771:3 *771:5 3.26335001
6 *1656:A1 *771:6 2.36724
*END

*D_NET *772 0.00185832

*CONN
*I *1306:I I *C 142.7 186.4 *L 0.00103 *D DEL2
*I *1734:Q O *C 148.1 185.2 *L 0 *D DFXQD1
*I *1658:A1 I *C 148.9 186.4 *L 0.000556 *D CKAN2D0

*CAP
1 *1306:I 0.000344771
2 *1734:Q 5.13472e-05
3 *772:3 0.000595143
4 *772:4 0.000867053984

*RES
1 *772:3 *772:4 2.68056989
2 *1658:A1 *772:4 2.43655
3 *1306:I *772:3 2.19019
4 *1734:Q *772:4 0.575904
*END

*D_NET *773 0.00148782

*CONN
*I *1307:I I *C 145.3 179.2 *L 0.00103 *D DEL2
*I *1733:Q O *C 148.7 181.6 *L 0 *D DFXQD1
*I *1693:A1 I *C 148.9 182.8 *L 0.000556 *D CKAN2D0

*CAP
1 *1693:A1 0.00016723
2 *773:3 0.00102195
3 *773:4 0.00029864

*RES
1 *773:3 *773:4 0.377738
2 *1307:I *773:3 3.51390004
3 *1693:A1 *773:4 1.90885
4 *1733:Q *773:4 0.224981
*END

*D_NET *774 0.00180192

*CONN
*I *1297:I I *C 143.5 172 *L 0.00103 *D DEL2
*I *1732:Q O *C 148.7 170.8 *L 0 *D DFXQD1
*I *1652:A1 I *C 148.7 174 *L 0.000556 *D CKAN2D0

*CAP
1 *1732:Q 0.000411827
2 *1652:A1 4.73998e-05
3 *774:3 0.000719727969
4 *774:4 0.000622974

*RES
1 *1297:I *774:3 0.575911
2 *1732:Q *774:4 1.67963
3 *1652:A1 *774:4 2.78359
4 *774:3 *774:4 3.24670005
*END

*D_NET *775 0.00225899

*CONN
*I *1322:I I *C 145.5 154 *L 0.00103 *D DEL2
*I *1731:Q O *C 149.9 149.2 *L 0 *D DFXQD1
*I *1642:A1 I *C 148.9 150.4 *L 0.000556 *D CKAN2D0

*CAP
1 *1322:I 8.40438e-05
2 *1731:Q 0.000319893
3 *775:3 0.000264866
4 *775:4 7.14397e-05
5 *775:5 0.000447389
6 *775:6 0.00107135

*RES
1 *775:4 *775:5 1.43861
2 *1731:Q *775:3 1.43451
3 *1322:I *775:6 2.05832
4 *775:3 *775:5 1.33135
5 *775:4 *775:6 2.68589997
6 *1642:A1 *775:5 0.45
*END

*D_NET *776 0.00268715

*CONN
*I *1323:I I *C 145.5 152.4 *L 0.00103 *D DEL2
*I *1730:Q O *C 149.9 146.4 *L 0 *D DFXQD1
*I *1624:A1 I *C 149.3 145.2 *L 0.000556 *D CKAN2D0

*CAP
1 *1323:I 0.000327396
2 *1730:Q 4.31425e-05
3 *776:3 0.000350465
4 *776:4 0.00118298992
5 *776:5 0.000783154

*RES
1 *1323:I *776:3 1.57932
2 *1730:Q *776:5 0.552419
3 *776:3 *776:4 2.92708
4 *776:4 *776:5 3.22266006
5 *1624:A1 *776:5 3.19375
*END

*D_NET *777 0.00485342

*CONN
*I *1319:I I *C 145.5 156 *L 0.00103 *D DEL2
*I *1729:Q O *C 149.9 142.8 *L 0 *D DFXQD1
*I *1662:A1 I *C 145.5 141.6 *L 0.000556 *D CKAN2D0

*CAP
1 *1662:A1 0.000738067
2 *777:3 0.000381564
3 *777:4 0.000657204
4 *777:5 0.00265765
5 *777:6 0.000359098
6 *777:7 5.98159e-05

*RES
1 *777:5 *777:6 0.837947
2 *777:3 *777:7 0.493425
3 *777:4 *777:7 2.85457
4 *777:3 *777:5 9.56719017
5 *1662:A1 *777:6 4.0947
6 *1319:I *777:4 0.953712
7 *1729:Q *777:5 0.224961
*END

*D_NET *778 0.00447365

*CONN
*I *1320:I I *C 139.7 148.8 *L 0.00103 *D DEL2
*I *1728:Q O *C 149.9 139.2 *L 0 *D DFXQD1
*I *1645:A1 I *C 149.3 138 *L 0.000556 *D CKAN2D0

*CAP
1 *1320:I 0.00111306
2 *1728:Q 7.82033e-05
3 *1645:A1 0.000314692
4 *778:3 8.22132e-05
5 *778:4 0.000706154
6 *778:5 0.00126952008
7 *778:6 0.000909828

*RES
1 *1645:A1 *778:4 1.67549
2 *778:5 *778:6 4.23737
3 *778:3 *778:6 3.32388
4 *778:3 *778:4 2.7075
5 *1320:I *778:5 5.58405018
6 *1728:Q *778:4 0.513536
*END

*D_NET *779 0.00792763

*CONN
*I *1311:I I *C 139.5 163.2 *L 0.00103 *D DEL2
*I *1727:Q O *C 150.7 135.6 *L 0 *D DFXQD1
*I *1666:A1 I *C 149.1 132.4 *L 0.000556 *D CKAN2D0

*CAP
1 *1311:I 9.70441e-05
2 *1666:A1 7.05527e-05
3 *779:3 0.000739736
4 *779:4 6.54624e-05
5 *779:5 0.000221674
6 *779:6 0.000495128
7 *779:7 0.000457744
8 *779:8 0.000545155
9 *779:9 2.21674e-06
10 *779:10 0.00179351
11 *779:11 0.000141352
12 *779:12 0.00109097
13 *779:13 0.000580185
14 *779:4 *1727:DB 0.000388198984
15 *779:5 *780:4 0.000321451016
16 *1666:A1 *488:98 0.000269515
17 *779:3 *361:6 0.000305606992
18 *1666:A1 *362:8 0.000342185

*RES
1 *779:4 *779:12 5.59923
2 *779:6 *779:7 2.14541
3 *779:3 *779:5 1.42262
4 *1311:I *779:3 3.95342
5 *779:4 *779:11 0.630078
6 *779:5 *779:6 2.59576
7 *779:7 *779:8 2.57959
8 *779:10 *779:12 2.72642
9 *1666:A1 *779:13 2.14279
10 *779:11 *779:13 2.47007
11 *779:9 *779:10 5.92181015
12 *779:8 *779:9 0.159214
13 *1727:Q *779:11 0.224996
*END

*D_NET *780 0.00788003

*CONN
*I *1316:I I *C 140.1 156 *L 0.00103 *D DEL2
*I *1726:Q O *C 150.3 131.2 *L 0 *D DFXQD1
*I *1664:A1 I *C 149.1 128.8 *L 0.000556 *D CKAN2D0

*CAP
1 *780:3 0.00181916
2 *780:4 0.000126996
3 *780:5 0.0017602
4 *780:7 2.10965e-06
5 *780:8 0.00104708
6 *780:9 3.55588e-05
7 *780:10 0.000643861
8 *780:3 *8:4 0.000808287969
9 *780:4 *88:6 0.000460485977
10 *780:4 *361:6 0.000854832031
11 *780:4 *779:5 0.000321451016

*RES
1 *780:5 *780:7 0.159154
2 *780:4 *780:5 10.1759005
3 *1664:A1 *780:10 1.93314
4 *780:7 *780:8 5.36356
5 *780:3 *780:6 3.42701
6 *1726:Q *780:10 1.41282
7 *780:6 *780:8 0.159154
8 *780:3 *780:10 7.73177
9 *780:4 *780:9 1.45723
10 *1316:I *780:9 0.449978
*END

*D_NET *781 0.0071814

*CONN
*I *1317:I I *C 138.9 154 *L 0.00103 *D DEL2
*I *1725:Q O *C 150.3 127.6 *L 0 *D DFXQD1
*I *1660:A1 I *C 149.1 125.2 *L 0.000556 *D CKAN2D0

*CAP
1 *781:3 0.000725447
2 *781:4 0.00167869
3 *781:5 0.00138337
4 *781:6 0.00015346
5 *781:7 0.000978141
6 *781:5 *368:3 0.000268419004
7 *781:3 *392:3 0.000461353008
8 *781:4 *119:5 0.000212751992
9 *781:4 *372:8 0.000693077969
10 *781:4 *485:5 0.00062668

*RES
1 *1725:Q *781:3 1.20816
2 *781:4 *781:7 0.159275
3 *1660:A1 *781:3 1.93306
4 *1317:I *781:6 1.05277
5 *781:6 *781:7 6.8434
6 *781:5 *781:4 12.7296
7 *781:5 *781:3 6.24903
*END

*D_NET *782 0.0045773

*CONN
*I *1324:I I *C 140.3 134.4 *L 0.00103 *D DEL2
*I *1724:Q O *C 149.7 120.4 *L 0 *D DFXQD1
*I *1670:A1 I *C 150.7 120 *L 0.000556 *D CKAN2D0

*CAP
1 *1324:I 5.75514e-05
2 *1670:A1 0.000113715
3 *782:3 0.000833345
4 *782:4 0.00129876992
5 *782:5 0.00125551
6 *782:6 0.000168651
7 *782:7 0.000849774

*RES
1 *782:6 *782:7 3.13801
2 *782:5 *782:6 4.78830004
3 *782:4 *782:7 2.7195
4 *782:3 *782:4 2.24525
5 *1324:I *782:3 3.88523
6 *1670:A1 *782:5 1.38879
7 *1724:Q *782:5 0.225036
*END

*D_NET *783 0.00937849

*CONN
*I *1318:I I *C 140.1 152.4 *L 0.00103 *D DEL2
*I *1723:Q O *C 150.9 117.6 *L 0 *D DFXQD1
*I *1669:A1 I *C 144.3 118 *L 0.000556 *D CKAN2D0

*CAP
1 *1669:A1 0.000141624
2 *783:3 0.00032976
3 *783:4 0.000190288
4 *783:5 0.000152632
5 *783:6 0.0011711
6 *783:8 0.00100666
7 *783:9 0.000280625
8 *783:10 0.00105202
9 *783:11 0.00134337
10 *783:4 *1080:I 0.00117505
11 *783:3 *1334:I 0.00036079
12 *783:4 *1065:I 0.000530513008
13 *783:5 *1197:Z 0.00109367
14 *783:4 *373:6 0.000319716992
15 *783:3 *377:2 0.000230660996

*RES
1 *783:10 *783:11 0.361511
2 *783:6 *783:10 6.80615
3 *783:3 *783:7 4.25074
4 *783:9 *783:11 5.19846
5 *783:4 *783:8 15.9541998
6 *783:4 *783:5 3.40599
7 *783:7 *783:8 0.159211
8 *783:3 *783:6 2.31781
9 *1318:I *783:5 1.16195
10 *1669:A1 *783:11 0.44988
11 *1723:Q *783:9 0.22494
*END

*D_NET *784 0.0120808

*CONN
*I *1312:I I *C 138.9 161.2 *L 0.00103 *D DEL2
*I *1722:Q O *C 150.7 116.8 *L 0 *D DFXQD1
*I *1672:A1 I *C 147.9 114.4 *L 0.000556 *D CKAN2D0

*CAP
1 *1312:I 3.35394e-05
2 *1722:Q 3.20019e-05
3 *1672:A1 0.000452282
4 *784:3 0.00128208
5 *784:4 0.00234329016
6 *784:5 0.000482639
7 *784:6 0.000343761
8 *784:7 0.000420459
9 *784:8 0.00033661
10 *784:9 7.66973e-05
11 *784:10 0.000662207
12 *784:12 4.00471e-06
13 *784:13 0.000360817
14 *784:14 1.9666e-06
15 *784:5 *107:5 0.000946368984
16 *784:3 *242:5 0.000777967969
17 *784:4 *375:4 0.000307628984
18 *784:5 *1068:I 0.00321649

*RES
1 *1722:Q *784:8 2.17478
2 *784:10 *784:12 1.62183
3 *1312:I *784:6 0.552396
4 *784:12 *784:13 3.46048
5 *784:9 *784:10 3.24063
6 *784:4 *784:14 0.159366
7 *784:3 *784:14 8.22075
8 *784:5 *784:8 3.62399
9 *784:11 *784:4 18.1009007
10 *784:7 *784:3 2.22588
11 *784:5 *784:7 2.5123
12 *784:11 *784:13 0.159366
13 *1672:A1 *784:8 2.14136
14 *784:6 *784:9 1.60526
*END

*D_NET *785 0.0095799

*CONN
*I *1313:I I *C 138.9 159.6 *L 0.00103 *D DEL2
*I *1721:Q O *C 150.5 110.4 *L 0 *D DFXQD1
*I *1673:A1 I *C 150.1 112.8 *L 0.000556 *D CKAN2D0

*CAP
1 *1721:Q 0.000410083
2 *785:3 0.00016653
3 *785:4 0.000229483
4 *785:5 0.000562451
5 *785:6 0.000116058
6 *785:7 0.000479936
7 *785:8 0.00113984
8 *785:9 0.000156953
9 *785:10 0.00297452
10 *785:11 1.40704e-06
11 *785:8 *455:7 0.000288933984
12 *785:8 *1206:Z 0.00183345
13 *785:3 *291:2 0.00122024

*RES
1 *785:7 *785:8 1.90519
2 *785:4 *785:6 1.41775
3 *785:3 *785:10 0.159245
4 *785:8 *785:11 5.77524
5 *785:6 *785:7 2.47279
6 *785:5 *785:9 2.49112
7 *785:3 *785:11 1.64925
8 *785:9 *785:10 23.5582008
9 *1721:Q *785:4 1.55974
10 *1313:I *785:5 0.450056
11 *1673:A1 *785:4 0.450056
*END

*D_NET *786 0.00984321

*CONN
*I *1314:I I *C 138.7 157.6 *L 0.00103 *D DEL2
*I *1720:Q O *C 150.9 109.6 *L 0 *D DFXQD1
*I *1671:A1 I *C 150.3 107.2 *L 0.000556 *D CKAN2D0

*CAP
1 *786:3 0.000522962
2 *786:4 0.00035542
3 *786:5 0.00224354
4 *786:6 8.3018e-05
5 *786:7 0.000353023
6 *786:8 0.000333304
7 *786:9 0.000360178
8 *786:10 0.00031718
9 *786:11 0.000425258
10 *786:12 0.000397288
11 *786:13 0.000370346
12 *786:14 0.000304924
13 *786:15 0.00036189
14 *786:16 0.000324814
15 *786:17 0.000230704
16 *786:18 0.000418
17 *786:5 *208:2 0.000535933008
18 *786:10 *787:6 0.000513826016
19 *786:3 *40:3 0.00065304
20 *786:4 *145:4 0.000738598984

*RES
1 *786:4 *786:11 2.78322
2 *786:16 *786:17 2.54042
3 *786:13 *786:14 2.65601
4 *786:15 *786:16 2.52739
5 *1314:I *786:5 1.4983
6 *786:14 *786:15 2.53916
7 *1671:A1 *786:3 0.994759
8 *786:11 *786:12 2.55037
9 *786:12 *786:13 2.55807
10 *786:17 *786:18 3.8755
11 *786:6 *786:18 1.07966
12 *786:10 *786:4 2.54042
13 *786:9 *786:10 2.52543
14 *786:8 *786:9 2.54154
15 *786:7 *786:8 2.52305
16 *786:3 *786:18 1.99036
17 *786:5 *786:7 9.18204975
18 *1720:Q *786:6 0.225012
*END

*D_NET *787 0.0093816

*CONN
*I *1321:I I *C 139.3 141.6 *L 0.00103 *D DEL2
*I *1719:Q O *C 150.9 103.2 *L 0 *D DFXQD1
*I *1667:A1 I *C 150.3 102 *L 0.000556 *D CKAN2D0

*CAP
1 *787:3 0.000487898
2 *787:4 0.00204204984
3 *787:5 0.000803265
4 *787:6 0.000264234
5 *787:7 0.00186204
6 *787:7 *790:5 0.000761967031
7 *787:3 *40:2 0.000941129063
8 *787:3 *47:4 0.000296903008
9 *787:4 *1673:A2 0.000472858984
10 *787:5 *145:6 0.000619180977
11 *787:4 *21:6 0.000316255
12 *787:6 *786:10 0.000513826016

*RES
1 *787:6 *787:9 2.00927
2 *1667:A1 *787:3 1.79485
3 *1321:I *787:7 0.929718
4 *787:5 *787:9 7.97506
5 *787:4 *787:8 16.9297009
6 *787:7 *787:6 7.32098
7 *1719:Q *787:3 0.855836
8 *787:8 *787:5 0.159129
9 *787:3 *787:4 1.39703
*END

*D_NET *788 0.0160232

*CONN
*I *1309:I I *C 138.5 170.4 *L 0.00103 *D DEL2
*I *1718:Q O *C 150.7 98.8 *L 0 *D DFXQD1
*I *1663:A1 I *C 144.9 94.8 *L 0.000556 *D CKAN2D0

*CAP
1 *1718:Q 0.00057474
2 *788:3 0.00300579
3 *788:4 0.00118186
4 *788:5 0.000363071
5 *788:6 0.000394351
6 *788:7 0.00028776
7 *788:8 0.00033812
8 *788:9 7.55862e-05
9 *788:10 0.000251755
10 *788:11 6.8156e-05
11 *788:7 *556:3 0.00101187
12 *788:3 *132:5 0.000287654004
13 *788:3 *246:2 0.000335189023
14 *788:4 *799:3 0.00030825002
15 *788:4 *802:4 0.000545219023
16 *788:5 *887:20 0.00041288
17 *788:6 *96:3 0.00435418
18 *788:3 *69:4 0.000911692969
19 *788:7 *71:6 0.000342341016
20 *788:8 *372:7 0.000972751016

*RES
1 *788:3 *788:10 37.5522003
2 *788:8 *788:11 3.07644
3 *788:7 *788:11 10.6704
4 *788:10 *788:7 0.159294
5 *788:3 *788:9 2.79796
6 *788:4 *788:9 4.27917
7 *788:6 *788:4 3.45405
8 *788:5 *788:4 2.89136
9 *1718:Q *788:6 1.88976
10 *1663:A1 *788:5 0.449806
11 *1309:I *788:8 0.225189
*END

*D_NET *789 0.0136859

*CONN
*I *1310:I I *C 140.1 164.8 *L 0.00103 *D DEL2
*I *1717:Q O *C 150.7 96 *L 0 *D DFXQD1
*I *1649:A1 I *C 145.3 92.8 *L 0.000556 *D CKAN2D0

*CAP
1 *1310:I 0.000428066
2 *1649:A1 0.000414528
3 *789:3 0.00102314
4 *789:4 0.000696792
5 *789:5 0.000382892
6 *789:6 0.000186776
7 *789:7 0.000220078
8 *789:8 0.000293992
9 *789:9 0.00037587
10 *789:10 0.00474434
11 *789:11 0.000213997
12 *789:12 0.00112536
13 *789:13 2.75097e-06
14 *1310:I *556:3 0.000326210996
15 *789:10 *232:3 0.00104018
16 *789:3 *112:5 0.000620003984
17 *789:3 *433:6 0.000361481016
18 *789:4 *362:6 0.00122964

*RES
1 *1310:I *789:7 2.70734
2 *789:3 *789:5 2.50687
3 *1649:A1 *789:5 1.92701
4 *789:8 *789:10 29.4584999
5 *789:6 *789:9 1.76339
6 *789:4 *789:5 3.37261
7 *789:9 *789:11 4.84068
8 *789:11 *789:12 0.159123
9 *789:10 *789:13 0.159123
10 *1717:Q *789:4 1.10712
11 *789:12 *789:13 8.52703
12 *789:7 *789:8 1.64877
13 *789:3 *789:6 2.69611
*END

*D_NET *790 0.0125439

*CONN
*I *1315:I I *C 146.5 164.8 *L 0.00103 *D DEL2
*I *1716:Q O *C 150.9 95.2 *L 0 *D DFXQD1
*I *1646:A1 I *C 149.5 92.8 *L 0.000556 *D CKAN2D0

*CAP
1 *1315:I 8.13685e-05
2 *1646:A1 0.000364404
3 *790:3 0.00306641
4 *790:4 0.000370533
5 *790:5 0.000323649
6 *790:6 0.000108694
7 *790:7 0.00102382
8 *790:8 0.000161427
9 *790:9 0.00133166
10 *790:10 0.000285094
11 *790:11 0.000235543
12 *790:5 *208:2 0.000422805
13 *790:3 *225:2 0.00119937
14 *790:4 *47:4 0.000516898984
15 *790:4 *50:2 0.0012714
16 *790:3 *21:6 0.000274886016
17 *790:3 *236:7 0.000744000938
18 *790:5 *787:7 0.000761967031

*RES
1 *790:10 *790:11 1.34979
2 *790:4 *790:8 0.377809
3 *790:9 *790:11 9.52668
4 *790:3 *790:10 2.67848
5 *790:5 *790:3 23.8306999
6 *1646:A1 *790:8 1.66069
7 *1716:Q *790:8 1.35669
8 *790:4 *790:9 7.89145
9 *790:7 *790:5 2.50794
10 *790:6 *790:7 2.49339
11 *1315:I *790:6 0.745437
*END

*D_NET *791 0.0024333

*CONN
*I *1416:I I *C 140.7 89.2 *L 0.00103 *D DEL2
*I *1715:Q O *C 150.9 88.8 *L 0 *D DFXQD1
*I *1675:A1 I *C 144.3 87.6 *L 0.000556 *D CKAN2D0

*CAP
1 *1715:Q 0.000280499
2 *791:3 0.000786553
3 *791:4 0.000178298
4 *791:5 0.00118796

*RES
1 *791:3 *791:5 2.62451
2 *1416:I *791:3 0.95374
3 *791:4 *791:5 3.79389
4 *1675:A1 *791:5 1.55001
5 *1715:Q *791:4 1.09708
*END

*D_NET *792 0.00223441

*CONN
*I *1420:I I *C 143.9 85.6 *L 0.00103 *D DEL2
*I *1714:Q O *C 150.5 84.4 *L 0 *D DFXQD1
*I *1676:A1 I *C 150.1 85.6 *L 0.000556 *D CKAN2D0

*CAP
1 *1714:Q 9.87988e-05
2 *1676:A1 1.49457e-05
3 *792:3 0.000402275
4 *792:4 0.00171836

*RES
1 *792:3 *792:4 6.3851099
2 *1676:A1 *792:3 1.35943
3 *1420:I *792:4 1.08741
4 *1714:Q *792:3 0.603183
*END

*D_NET *793 0.00457722

*CONN
*I *1417:I I *C 146.7 91.2 *L 0.00103 *D DEL2
*I *1713:Q O *C 151.1 81.6 *L 0 *D DFXQD1
*I *1674:A1 I *C 143.5 82 *L 0.000556 *D CKAN2D0

*CAP
1 *1417:I 8.037e-05
2 *793:3 0.000684128
3 *793:4 0.000299631
4 *793:5 0.000275783
5 *793:6 0.00105454
6 *793:7 0.00218278

*RES
1 *793:5 *793:7 7.84442997
2 *793:4 *793:6 3.94627
3 *1417:I *793:5 0.880847
4 *793:3 *793:6 2.73387
5 *1713:Q *793:4 0.225029
6 *1674:A1 *793:3 0.450059
7 *793:6 *793:7 0.225029
*END

*D_NET *794 0.00179916

*CONN
*I *1419:I I *C 146.1 74.8 *L 0.00103 *D DEL2
*I *1712:Q O *C 150.5 78 *L 0 *D DFXQD1
*I *1643:A1 I *C 149.9 80.4 *L 0.000556 *D CKAN2D0

*CAP
1 *1712:Q 0.000100149
2 *794:3 0.00033048
3 *794:4 0.000595196
4 *794:5 0.000773334063

*RES
1 *794:4 *794:5 2.68163991
2 *794:3 *794:4 2.53998
3 *1643:A1 *794:3 1.5714
4 *1419:I *794:5 0.994731
5 *1712:Q *794:3 0.871688
*END

*D_NET *795 0.00691586

*CONN
*I *1414:I I *C 146.3 100 *L 0.00103 *D DEL2
*I *1711:Q O *C 150.7 77.2 *L 0 *D DFXQD1
*I *1659:A1 I *C 144.1 74.8 *L 0.000556 *D CKAN2D0

*CAP
1 *1414:I 0.000264218
2 *1659:A1 0.000182477
3 *795:3 0.000592608
4 *795:4 0.00031303
5 *795:5 0.000397261
6 *795:6 0.000389008
7 *795:7 0.000565462
8 *795:8 1.56615e-06
9 *795:9 3.25479e-05
10 *795:10 0.00131587
11 *795:11 0.000114309
12 *795:12 0.0011241
13 *795:3 *1675:A2 0.000556599961
14 *1414:I *891:11 0.000492038984
15 *795:3 *437:2 0.000574785

*RES
1 *795:5 *795:6 1.82166
2 *795:11 *795:12 4.66608
3 *795:7 *795:9 2.58098
4 *795:8 *795:10 0.285122
5 *795:3 *795:7 3.45784
6 *795:4 *795:5 2.58958
7 *795:8 *795:12 0.334291
8 *795:6 *795:3 2.29506
9 *795:9 *795:10 6.54949999
10 *1659:A1 *795:8 1.26131
11 *1414:I *795:4 1.4371
12 *1711:Q *795:11 0.224959
*END

*D_NET *796 0.00270996

*CONN
*I *1418:I I *C 140.1 69.6 *L 0.00103 *D DEL2
*I *1710:Q O *C 150.5 70.8 *L 0 *D DFXQD1
*I *1639:A1 I *C 143.3 71.2 *L 0.000556 *D CKAN2D0

*CAP
1 *1418:I 0.000658229
2 *796:3 0.00123772
3 *796:4 0.000814023

*RES
1 *796:3 *796:4 5.61901999
2 *1639:A1 *796:4 2.24766
3 *1418:I *796:4 2.8757
4 *1710:Q *796:3 0.729042
*END

*D_NET *797 0.00387407

*CONN
*I *1415:I I *C 140.3 78.4 *L 0.00103 *D DEL2
*I *1709:Q O *C 150.5 67.2 *L 0 *D DFXQD1
*I *1677:A1 I *C 143.3 66 *L 0.000556 *D CKAN2D0

*CAP
1 *1415:I 0.000759962
2 *797:3 0.000197286
3 *797:5 0.000766373
4 *797:6 0.00018701
5 *797:7 0.00196342

*RES
1 *1677:A1 *797:7 1.40885
2 *1415:I *797:4 3.60615
3 *797:4 *797:5 3.749
4 *797:6 *797:7 2.9231
5 *797:5 *797:6 0.15921
6 *797:3 *797:7 5.35901022
7 *1709:Q *797:3 0.603069
*END

*D_NET *798 0.0073957

*CONN
*I *1412:I I *C 138.5 38.8 *L 0.00103 *D DEL2
*I *1708:Q O *C 150.5 66.4 *L 0 *D DFXQD1
*I *1640:A1 I *C 144.9 62.4 *L 0.000556 *D CKAN2D0

*CAP
1 *798:3 0.000976817031
2 *798:4 0.000262333
3 *798:5 0.000102474
4 *798:6 0.000684763
5 *798:7 0.00082693
6 *798:8 0.000639064
7 *798:9 7.74925e-05
8 *798:10 0.000599505
9 *798:11 0.000216499
10 *798:7 *36:11 0.000261698008
11 *798:4 *253:3 0.000279013008
12 *798:6 *803:4 0.000525547031
13 *798:3 *218:7 0.00131604
14 *798:4 *243:10 0.000627524023

*RES
1 *798:10 *798:11 1.76328
2 *798:9 *798:11 0.685608
3 *798:7 *798:8 3.21326
4 *798:4 *798:10 6.72344
5 *798:4 *798:8 1.50786
6 *798:6 *798:9 6.88296986
7 *798:5 *798:7 3.98667
8 *798:3 *798:6 3.26977
9 *1640:A1 *798:8 0.800927
10 *1708:Q *798:5 0.224965
11 *1412:I *798:3 0.450035
*END

*D_NET *799 0.00770824

*CONN
*I *1411:I I *C 140.5 98.4 *L 0.00103 *D DEL2
*I *1707:Q O *C 150.9 73.6 *L 0 *D DFXQD1
*I *1682:A1 I *C 149.5 62.4 *L 0.000556 *D CKAN2D0

*CAP
1 *799:3 0.000344748
2 *799:4 0.00128239
3 *799:5 0.000504569
4 *799:6 0.000321477
5 *799:7 0.00162587
6 *799:8 3.28722e-05
7 *799:9 0.000248092
8 *799:10 3.59733e-06
9 *799:12 0.000352514
10 *799:4 *20:3 0.000207142988
11 *799:3 *788:4 0.00030825002
12 *799:3 *503:7 0.00038778
13 *799:4 *129:6 0.000268455
14 *799:5 *218:2 0.000474456992
15 *799:6 *243:4 0.00134603

*RES
1 *799:5 *799:10 2.98962
2 *799:8 *799:6 4.23188
3 *799:7 *799:11 6.96993
4 *1707:Q *799:9 1.33153
5 *799:11 *799:12 2.52774
6 *799:5 *799:12 0.787572
7 *799:6 *799:10 0.159256
8 *799:3 *799:8 2.26736
9 *799:4 *799:9 7.1339798
10 *799:7 *799:9 4.32136
11 *1411:I *799:3 0.45001
12 *1682:A1 *799:4 0.45001
*END

*D_NET *800 0.00791239

*CONN
*I *1410:I I *C 143.9 33.6 *L 0.00103 *D DEL2
*I *1706:Q O *C 150.3 70 *L 0 *D DFXQD1
*I *1681:A1 I *C 150.7 56.8 *L 0.000556 *D CKAN2D0

*CAP
1 *1706:Q 0.000675306
2 *1681:A1 4.87943e-05
3 *800:3 0.000212717
4 *800:4 4.88602e-05
5 *800:5 0.000807545
6 *800:6 0.000572541
7 *800:7 0.000328933
8 *800:8 0.000102897
9 *800:9 0.000367474
10 *800:10 0.00216063
11 *800:5 *1057:Z 0.000401736992
12 *800:7 *365:4 0.000842033047
13 *800:7 *436:5 0.00108841
14 *1681:A1 *488:76 0.000254494004

*RES
1 *800:6 *800:8 1.41891
2 *800:3 *800:5 0.159292
3 *1681:A1 *800:8 0.4501
4 *800:7 *800:10 15.5579004
5 *800:4 *800:5 5.43776
6 *800:3 *800:6 3.87927
7 *1410:I *800:9 0.674913
8 *800:9 *800:10 3.12079
9 *800:7 *800:8 1.32205
10 *1706:Q *800:4 2.82571
*END

*D_NET *801 0.00668408

*CONN
*I *1413:I I *C 140.7 42.4 *L 0.00103 *D DEL2
*I *1705:Q O *C 150.7 63.6 *L 0 *D DFXQD1
*I *1680:A1 I *C 149.9 58.8 *L 0.000556 *D CKAN2D0

*CAP
1 *1413:I 0.00133136
2 *801:3 0.000712371
3 *801:4 0.000356481
4 *801:5 0.000516336
5 *801:6 0.000515345
6 *801:7 0.000168647
7 *801:8 0.00138171
8 *801:9 0.000208432
9 *801:3 *806:22 0.000449016016
10 *801:3 *492:68 0.000456966992
11 *801:4 *1680:A2 0.000378886992
12 *801:5 *1474:CP 0.00020849

*RES
1 *801:3 *801:5 4.2064
2 *801:8 *801:9 0.980475
3 *801:7 *801:4 0.577639
4 *1413:I *801:5 5.89292002
5 *801:3 *801:9 4.06784
6 *801:7 *801:8 4.77478
7 *801:6 *801:4 2.95284
8 *1705:Q *801:6 1.46001
9 *1680:A1 *801:4 0.450044
*END

*D_NET *802 0.0157966

*CONN
*I *1408:I I *C 140.1 105.6 *L 0.00103 *D DEL2
*I *1704:Q O *C 150.7 60 *L 0 *D DFXQD1
*I *1638:A1 I *C 146.1 40.8 *L 0.000556 *D CKAN2D0

*CAP
1 *1638:A1 0.000410215
2 *802:3 0.00184563
3 *802:4 0.000264249
4 *802:5 0.000370759
5 *802:6 0.000578937
6 *802:7 0.00106429
7 *802:8 0.00019725
8 *802:9 0.00153263
9 *802:10 0.000284695
10 *802:4 *788:4 0.000545219023
11 *802:3 *246:3 0.000188040996
12 *802:4 *112:5 0.00543175
13 *802:5 *462:5 0.000741617031
14 *802:5 *463:5 0.00234126

*RES
1 *802:10 *802:3 20.9015007
2 *1638:A1 *802:8 2.03606
3 *1408:I *802:4 1.43041
4 *802:5 *802:10 3.03272
5 *802:4 *802:5 12.4881
6 *802:8 *802:9 2.3282
7 *802:7 *802:3 5.12683
8 *802:9 *802:3 12.8268
9 *802:6 *802:7 2.22295
10 *1704:Q *802:6 0.351144
*END

*D_NET *803 0.00773698

*CONN
*I *1409:I I *C 146.7 22.8 *L 0.00103 *D DEL2
*I *1703:Q O *C 148.5 56.4 *L 0 *D DFXQD1
*I *1684:A1 I *C 143.9 40.8 *L 0.000556 *D CKAN2D0

*CAP
1 *1703:Q 0.000382291
2 *803:3 0.00104848
3 *803:4 0.000755702
4 *803:5 0.000499658
5 *803:6 0.000145253
6 *803:7 1.92145e-05
7 *803:9 0.00026038
8 *803:10 0.000351781
9 *803:11 0.000393778
10 *803:3 *218:7 0.000322302012
11 *803:4 *1550:B2 0.000502812031
12 *803:5 *1703:DA 0.000415376016
13 *803:4 *798:6 0.000525547031
14 *803:4 *253:3 0.00211442

*RES
1 *803:7 *803:5 3.03585
2 *803:3 *803:11 9.05134964
3 *803:9 *803:11 1.02811
4 *803:8 *803:9 2.61157
5 *803:4 *803:8 2.81874
6 *803:5 *803:4 6.01605
7 *1409:I *803:6 1.16194
8 *803:3 *803:10 1.389
9 *803:6 *803:10 2.78463
10 *1684:A1 *803:11 1.71909
11 *1703:Q *803:7 1.44065
*END

*D_NET *804 0.0148774

*CONN
*I *1407:I I *C 140.3 110.8 *L 0.00103 *D DEL2
*I *1702:Q O *C 147.5 52.8 *L 0 *D DFXQD1
*I *1683:A1 I *C 144.3 31.6 *L 0.000556 *D CKAN2D0

*CAP
1 *1702:Q 7.91902e-05
2 *1683:A1 0.000386207
3 *804:3 0.000688002
4 *804:4 0.000975693
5 *804:5 4.9043e-05
6 *804:6 0.000541896
7 *804:7 5.21654e-05
8 *804:8 0.00352803
9 *804:9 0.000190304
10 *804:10 8.40353e-05
11 *804:11 0.000295873
12 *804:12 0.000913029
13 *804:8 *36:9 0.00124992
14 *804:8 *1170:I 0.000484135977
15 *804:9 *435:3 0.000215895996
16 *804:7 *893:9 0.0015788
17 *804:8 *129:3 0.00126277992
18 *804:3 *199:2 0.000959007031
19 *1683:A1 *250:2 0.0005707
20 *804:4 *335:2 0.000402951016
21 *804:3 *483:3 0.000369735

*RES
1 *804:5 *804:12 2.49367
2 *804:3 *804:10 6.80114
3 *804:9 *804:12 3.38403
4 *804:4 *804:11 4.35925
5 *804:3 *804:6 1.83394
6 *804:9 *804:10 0.794465
7 *804:7 *804:12 7.41917
8 *1683:A1 *804:6 3.04457
9 *1702:Q *804:5 0.450213
10 *1407:I *804:4 0.953646
11 *804:7 *804:8 0.159181
12 *804:8 *804:11 31.4218998
*END

*D_NET *805 0.0157606

*CONN
*I *1406:I I *C 146.3 121.6 *L 0.00103 *D DEL2
*I *1701:Q O *C 150.7 49.2 *L 0 *D DFXQD1
*I *1686:A1 I *C 149.3 24.4 *L 0.000556 *D CKAN2D0

*CAP
1 *1701:Q 7.92845e-05
2 *1686:A1 0.000316627
3 *805:3 0.00143311
4 *805:4 0.000610565
5 *805:5 0.00106282
6 *805:6 0.000215818
7 *805:7 6.74998e-05
8 *805:8 0.000661111
9 *805:9 0.00106557
10 *805:10 0.000117166
11 *805:11 6.83517e-05
12 *805:12 0.000324436
13 *805:14 0.000945167
14 *805:15 0.001861
15 *805:5 *580:2 0.000704576016
16 *805:8 *4:2 0.00110893
17 *805:5 *455:5 0.000572505
18 *805:5 *199:2 0.000492023008
19 *805:9 *251:4 0.000466821992
20 *805:3 *32:3 0.00136488
21 *805:4 *111:3 0.000567048008
22 *805:5 *1272:I 0.000701888984
23 *805:6 *243:2 0.000953471016

*RES
1 *805:11 *805:14 5.27388
2 *805:9 *805:12 3.03322
3 *805:5 *805:12 1.3448
4 *805:4 *805:6 0.159408
5 *805:13 *805:4 5.51015
6 *805:3 *805:16 0.384287
7 *1686:A1 *805:7 1.27892
8 *805:11 *805:15 1.90232
9 *805:7 *805:9 2.3655
10 *805:8 *805:13 2.98524
11 *805:10 *805:14 3.38416
12 *805:15 *805:16 26.6504002
13 *805:6 *805:3 9.40303
14 *1701:Q *805:10 0.450165
15 *805:5 *805:14 11.3741
16 *1406:I *805:8 0.450165
*END

*D_NET *806 0.0225549

*CONN
*I *1210:I I *C 137.5 120 *L 0.00104 *D DEL0
*I *1700:Q O *C 150.7 48.4 *L 0 *D DFXQD1
*I *1636:A1 I *C 149.7 13.6 *L 0.000556 *D CKAN2D0

*CAP
1 *1210:I 0.000424608
2 *1636:A1 0.000232512
3 *806:3 4.16389e-05
4 *806:4 0.000767501
5 *806:5 0.000828159
6 *806:6 0.000728851
7 *806:7 0.00190004
8 *806:8 0.000690744
9 *806:9 0.000710239
10 *806:10 0.000540898
11 *806:11 0.000282506
12 *806:12 0.000535193
13 *806:13 0.0007351
14 *806:14 2.51328e-06
15 *806:15 9.44178e-06
16 *806:17 0.00075772
17 *806:19 2.64913e-06
18 *806:20 0.000941053
19 *806:21 7.03039e-05
20 *806:22 0.000592998
21 *806:23 0.000128177
22 *806:24 0.000447771
23 *806:25 4.68692e-05
24 *806:26 0.00122784
25 *806:27 0.000440911
26 *806:28 0.00445156
27 *806:29 0.00053234
28 *806:28 *168:2 0.000722621016
29 *806:8 *1146:Z 0.000261155996
30 *806:17 *197:2 0.000513295
31 *806:4 *241:2 0.000317402988
32 *1210:I *242:2 0.00037887
33 *806:28 *1224:Z 0.000180099004
34 *1210:I *366:4 0.000843083984
35 *806:4 *369:3 0.000819398984
36 *806:22 *801:3 0.000449016016

*RES
1 *806:5 *806:6 1.00201
2 *806:9 *806:10 3.51214
3 *806:7 *806:27 4.97855
4 *806:3 *806:28 9.75817
5 *806:6 *806:15 3.6175
6 *806:12 *806:16 2.774
7 *806:4 *806:9 3.4472
8 *806:10 *806:11 3.27087
9 *806:22 *806:23 3.79383
10 *806:4 *806:8 2.87394
11 *806:13 *806:18 2.69124
12 *1210:I *806:14 3.13654
13 *806:23 *806:24 2.39235
14 *806:19 *806:20 3.72094
15 *806:5 *806:14 2.67469
16 *806:7 *806:15 3.97877
17 *806:21 *806:28 20.8602009
18 *806:11 *806:12 1.63702
19 *806:18 *806:20 0.159151
20 *806:21 *806:26 2.13039
21 *806:13 *806:25 0.367638
22 *806:24 *806:26 2.60339
23 *806:26 *806:29 2.21506
24 *806:16 *806:17 3.31161
25 *1636:A1 *806:3 1.11405
26 *806:8 *806:27 1.74302
27 *806:25 *806:29 3.48795
28 *806:17 *806:19 0.159151
29 *1700:Q *806:22 0.225039
*END

*D_NET *881 0.00114485

*CONN
*I *1462:I I *C 148.1 166.8 *L 0.00103 *D BUFFD2
*I *1777:Q O *C 142.7 167.2 *L 0 *D DFCND1

*CAP
1 *881:2 0.000865447969
2 *881:3 0.00027941

*RES
1 *881:2 *881:3 3.39187002
2 *1462:I *881:3 1.06286
3 *1777:Q *881:2 0.224983
*END

*D_NET *882 0.00960515

*CONN
*I *1776:ZN O *C 144.7 153.8 *L 0 *D CKND0
*I *1772:A2 I *C 144.5 107.2 *L 0.000606 *D CKND2D0
*I *1767:A2 I *C 144.3 157.6 *L 0.00217 *D NR2D2
*I *1766:A2 I *C 144.5 102 *L 0.00102 *D ND2D1

*CAP
1 *1767:A2 0.000562576
2 *1766:A2 0.000705187
3 *882:4 0.00049282
4 *882:5 0.000537688
5 *882:6 0.000407504
6 *882:7 0.000178812
7 *882:8 2.13028e-05
8 *882:9 0.0002336
9 *882:10 0.00228117984
10 *882:4 *224:2 0.00107351008
11 *1767:A2 *343:3 0.000602881016
12 *882:5 *339:2 0.00175257
13 *1767:A2 *1316:Z 0.00029919002
14 *882:5 *361:6 0.00045632

*RES
1 *882:7 *882:4 0.8999
2 *882:6 *882:8 2.47333
3 *882:9 *882:10 21.5319004
4 *882:5 *882:9 3.06669
5 *882:4 *882:10 1.86354
6 *1766:A2 *882:7 2.85741
7 *882:6 *882:5 3.56806
8 *1767:A2 *882:8 2.68295
9 *1772:A2 *882:4 0.225057
10 *1776:ZN *882:8 0.225057
*END

*D_NET *883 0.00101683

*CONN
*I *1777:QN O *C 142.3 167.2 *L 0 *D DFCND1
*I *1764:D I *C 145.7 168.4 *L 0.000927 *D DFNSND1

*CAP
1 *1777:QN 0.000161322
2 *883:2 0.000855498047

*RES
1 *1777:QN *883:2 0.82777
2 *1764:D *883:2 3.89522004
*END

*D_NET *884 0.00291902

*CONN
*I *1775:ZN O *C 141.3 94.2 *L 0 *D INR2D0
*I *1771:A1 I *C 142.1 102 *L 0.00069 *D INR2D0
*I *1769:A1 I *C 143.1 103.4 *L 0.000617 *D CKND2D0

*CAP
1 *1775:ZN 0.000616468
2 *1769:A1 0.000116074
3 *884:3 0.00101479992
4 *884:4 0.000833379
5 *884:5 0.000338282

*RES
1 *1769:A1 *884:5 0.675027
2 *1775:ZN *884:3 2.68654
3 *884:4 *884:5 2.73077
4 *884:3 *884:4 4.05970001
5 *1771:A1 *884:4 0.224988
*END

*D_NET *885 0.00411363

*CONN
*I *1333:I I *C 144.7 125.2 *L 0.00105 *D DEL1
*I *1774:ZN O *C 142.7 107 *L 0 *D NR2D0

*CAP
1 *1774:ZN 0.000204763
2 *885:2 0.00315744
3 *885:3 0.000149838
4 *885:4 0.000601569

*RES
1 *885:2 *885:4 12.4357004
2 *885:3 *885:4 2.26395
3 *1774:ZN *885:2 0.8556
4 *1333:I *885:3 0.449906
*END

*D_NET *886 1.1062e-05

*CONN
*I *1326:I I *C 145.1 161.2 *L 0.00103 *D DEL2
*I *1773:ZN O *C 144.7 161 *L 0 *D NR2XD0

*CAP
1 *1773:ZN 1.10619995e-05

*RES
1 *1773:ZN *1326:I 0.160669
*END

*D_NET *887 0.00956537

*CONN
*I *1772:ZN O *C 145.1 106.8 *L 0 *D CKND2D0
*I *1715:SA I *C 146.1 89.2 *L 0.00154 *D DFXQD1
*I *1714:SA I *C 145.7 84 *L 0.00154 *D DFXQD1
*I *1713:SA I *C 146.3 82 *L 0.00154 *D DFXQD1
*I *1712:SA I *C 145.7 78.4 *L 0.00154 *D DFXQD1
*I *1711:SA I *C 145.9 76.8 *L 0.00154 *D DFXQD1
*I *1710:SA I *C 145.7 71.2 *L 0.00154 *D DFXQD1
*I *1709:SA I *C 145.7 67.6 *L 0.00154 *D DFXQD1
*I *1708:SA I *C 145.7 66 *L 0.00154 *D DFXQD1

*CAP
1 *1715:SA 7.08356e-05
2 *1713:SA 0.00024569
3 *1712:SA 6.68488e-05
4 *1711:SA 0.000123771
5 *1710:SA 4.71969e-05
6 *1708:SA 0.000361668
7 *887:9 0.000507206
8 *887:10 0.00083259
9 *887:11 9.20581e-05
10 *887:12 0.000582854
11 *887:13 0.000568638
12 *887:14 5.05393e-06
13 *887:15 0.00044386
14 *887:16 0.000415973
15 *887:17 0.000604177
16 *887:18 0.000618352
17 *887:19 3.6042e-06
18 *887:20 0.000572846
19 *887:21 0.00131956
20 *887:22 0.000207976
21 *887:23 0.000334848
22 *887:13 *1441:ZN 0.000327466992
23 *887:21 *1663:A2 0.00036588
24 *887:20 *788:5 0.00041288
25 *1712:SA *437:2 0.000220998008
26 *887:9 *1706:DB 0.000212507988

*RES
1 *887:17 *887:18 1.54459
2 *887:20 *887:21 0.159248
3 *887:11 *887:22 0.313532
4 *887:10 *887:22 3.95628
5 *1715:SA *887:10 0.384882
6 *887:18 *887:19 2.52733
7 *1772:ZN *887:17 1.32003
8 *1710:SA *887:12 0.607109
9 *887:12 *887:9 2.90287
10 *887:9 *887:23 1.46711
11 *887:12 *887:16 2.34463
12 *1711:SA *887:14 0.545688
13 *1712:SA *887:13 0.367556
14 *887:19 *887:20 3.51709
15 *887:14 *887:16 1.59511
16 *887:11 *887:13 3.27636
17 *1708:SA *887:23 1.71172
18 *887:10 *887:21 6.37927008
19 *1713:SA *887:11 1.53135
20 *887:13 *887:15 2.25799
21 *887:14 *887:15 0.285206
22 *1709:SA *887:23 0.224953
23 *1714:SA *887:22 0.450003
*END

*D_NET *888 0.00642687

*CONN
*I *1330:I I *C 140.1 130.8 *L 0.00103 *D DEL2
*I *1771:ZN O *C 142.7 101.4 *L 0 *D INR2D0

*CAP
1 *1771:ZN 5.63907e-05
2 *888:2 0.00147941
3 *888:4 0.00141207
4 *888:6 0.00146853
5 *888:7 5.21242e-05
6 *888:8 0.000668043
7 *888:6 *1510:CDN 0.000377271992
8 *888:4 *107:5 0.000750763984
9 *1771:ZN *40:2 0.000162257002

*RES
1 *888:4 *888:5 7.23665
2 *888:2 *888:3 3.0384
3 *888:7 *888:8 1.25919
4 *888:6 *888:7 7.44921017
5 *888:5 *888:6 0.159246
6 *888:3 *888:4 0.159246
7 *1771:ZN *888:2 2.90416
8 *1330:I *888:8 2.34481
*END

*D_NET *889 0.00898888

*CONN
*I *1770:ZN O *C 145.1 124 *L 0 *D ND2D0
*I *1731:SA I *C 145.1 148.8 *L 0.00154 *D DFXQD1
*I *1730:SA I *C 145.1 146.8 *L 0.00154 *D DFXQD1
*I *1729:SA I *C 145.1 143.2 *L 0.00154 *D DFXQD1
*I *1728:SA I *C 145.1 139.6 *L 0.00154 *D DFXQD1
*I *1727:SA I *C 145.9 136 *L 0.00154 *D DFXQD1
*I *1726:SA I *C 145.5 130.8 *L 0.00154 *D DFXQD1
*I *1725:SA I *C 145.5 127.2 *L 0.00154 *D DFXQD1
*I *1724:SA I *C 144.9 120 *L 0.00154 *D DFXQD1

*CAP
1 *1770:ZN 2.74191e-05
2 *1731:SA 4.42924e-05
3 *1725:SA 0.000880406953
4 *1724:SA 0.000567082
5 *889:9 0.000229737
6 *889:10 0.000337331
7 *889:11 0.000300226
8 *889:12 8.29424e-05
9 *889:13 0.000307911
10 *889:14 0.000719358
11 *889:15 0.000328734
12 *889:16 0.000162392
13 *889:17 7.00725e-05
14 *889:18 0.000595872
15 *889:19 0.000527049
16 *889:19 *335:4 0.000925388984
17 *889:11 *339:2 0.000977469063
18 *1731:SA *342:2 0.000915552969
19 *889:10 *484:4 0.000543385977
20 *1725:SA *1509:CPN 0.00044624

*RES
1 *1731:SA *889:13 1.85386
2 *1725:SA *889:12 3.62539
3 *889:10 *889:11 2.44116
4 *889:16 *889:19 8.40384007
5 *889:11 *889:14 2.72686
6 *889:12 *889:18 0.476768
7 *889:10 *889:18 2.14046
8 *889:11 *889:17 1.02406
9 *889:9 *889:19 1.15473
10 *889:16 *889:18 0.629493
11 *1724:SA *889:9 3.12643
12 *889:13 *889:15 3.09143
13 *1770:ZN *889:9 0.840051
14 *1727:SA *889:17 0.675015
15 *889:14 *889:15 2.47976
16 *1729:SA *889:15 0.225048
17 *1728:SA *889:14 0.225048
18 *1730:SA *889:13 0.225048
19 *1726:SA *889:12 0.225048
*END

*D_NET *890 0.012009

*CONN
*I *1207:I I *C 148.9 157.6 *L 0.00072 *D BUFFD1
*I *1769:ZN O *C 143.3 103.2 *L 0 *D CKND2D0
*I *1767:A1 I *C 144.7 157.6 *L 0.00172 *D NR2D2

*CAP
1 *1769:ZN 0.000577936
2 *890:3 0.00119584
3 *890:4 0.00228963
4 *890:5 0.000430884
5 *890:6 9.09773e-05
6 *890:7 0.000139715
7 *890:8 4.26587e-05
8 *890:9 4.8668e-05
9 *890:10 0.000425399
10 *890:6 *26:2 0.000681132031
11 *890:3 *969:4 0.00143587
12 *890:3 *503:6 0.000527122969
13 *890:4 *8:2 0.00102966
14 *890:3 *1128:I 0.000241963008
15 *890:5 *1346:I 0.00148723
16 *890:6 *335:9 0.0013643

*RES
1 *890:9 *890:4 0.476986
2 *1767:A1 *890:10 0.67513
3 *890:8 *890:10 3.85876
4 *890:5 *890:9 4.26406
5 *890:3 *890:5 8.50469
6 *890:7 *890:3 1.15716
7 *890:6 *890:4 23.6100998
8 *890:6 *890:10 0.917586
9 *1769:ZN *890:7 2.65477
10 *1207:I *890:8 0.225163
*END

*D_NET *891 0.00542144

*CONN
*I *1768:ZN O *C 145.9 102.4 *L 0 *D CKND2D0
*I *1723:SA I *C 146.1 118 *L 0.00154 *D DFXQD1
*I *1722:SA I *C 145.9 116.4 *L 0.00154 *D DFXQD1
*I *1721:SA I *C 145.7 110.8 *L 0.00154 *D DFXQD1
*I *1720:SA I *C 146.1 109.2 *L 0.00154 *D DFXQD1
*I *1719:SA I *C 146.1 103.6 *L 0.00154 *D DFXQD1
*I *1718:SA I *C 145.9 98.4 *L 0.00154 *D DFXQD1
*I *1717:SA I *C 145.9 96.4 *L 0.00154 *D DFXQD1
*I *1716:SA I *C 146.1 94.8 *L 0.00154 *D DFXQD1

*CAP
1 *1768:ZN 6.48287e-06
2 *1716:SA 0.000349439
3 *891:9 0.00032286
4 *891:10 0.000666091
5 *891:11 0.000288208
6 *891:12 0.000372804
7 *891:13 0.000523434
8 *891:14 0.000428286
9 *891:15 0.000327731
10 *891:16 0.000718875
11 *891:17 0.000273849
12 *891:9 *356:4 0.000405511992
13 *891:10 *1505:CPN 0.000245832988
14 *891:11 *1414:I 0.000492038984

*RES
1 *891:15 *891:16 3.7181499
2 *891:12 *891:16 1.2207
3 *891:10 *891:9 2.6116
4 *891:11 *891:12 1.37865
5 *891:14 *891:15 1.62737
6 *891:13 *891:17 1.45552
7 *891:10 *891:14 1.39675
8 *1723:SA *891:9 1.98225
9 *891:11 *891:17 1.56803
10 *1716:SA *891:13 2.84841
11 *1768:ZN *891:12 0.76115
12 *1718:SA *891:17 0.225009
13 *1722:SA *891:9 0.225009
14 *1719:SA *891:16 0.225009
15 *1720:SA *891:15 0.225009
16 *1721:SA *891:14 0.225009
17 *1717:SA *891:13 0.450018
*END

*D_NET *892 0.000412906

*CONN
*I *1328:I I *C 145.5 157.6 *L 0.00105 *D DEL1
*I *1767:ZN O *C 144.985 157.255 *L 0 *D NR2D2

*CAP
1 *1767:ZN 9.08613e-05
2 *892:2 0.000322043984

*RES
1 *1328:I *892:2 1.31429005
2 *1767:ZN *892:2 0.450002
*END

*D_NET *893 0.0149739

*CONN
*I *1766:ZN O *C 143.9 102.4 *L 0 *D ND2D1
*I *1707:SA I *C 146.1 73.2 *L 0.00154 *D DFXQD1
*I *1706:SA I *C 145.5 69.6 *L 0.00154 *D DFXQD1
*I *1705:SA I *C 145.9 64 *L 0.00154 *D DFXQD1
*I *1704:SA I *C 145.9 60.4 *L 0.00154 *D DFXQD1
*I *1703:SA I *C 143.7 56.8 *L 0.00154 *D DFXQD1
*I *1702:SA I *C 142.7 53.2 *L 0.00154 *D DFXQD1
*I *1701:SA I *C 145.9 49.6 *L 0.00154 *D DFXQD1
*I *1700:SA I *C 145.9 48 *L 0.00154 *D DFXQD1

*CAP
1 *1766:ZN 0.000153919
2 *1704:SA 0.00057614
3 *1702:SA 0.000228422
4 *1701:SA 1.7004e-05
5 *1700:SA 0.000469779
6 *893:9 0.000699275
7 *893:10 0.000102178
8 *893:11 0.000789746
9 *893:12 0.00013822
10 *893:13 0.000105018
11 *893:14 0.000115727
12 *893:15 0.00083335
13 *893:17 0.000478377
14 *893:18 0.000502443
15 *893:19 7.86867e-05
16 *893:20 0.000457227
17 *893:21 0.00251548
18 *893:22 0.000501062
19 *893:23 0.000389058
20 *893:21 *1170:I 0.000423303008
21 *1704:SA *470:21 0.000858718984
22 *893:9 *129:4 0.00126965
23 *893:19 *192:5 0.00169235
24 *893:9 *804:7 0.0015788

*RES
1 *893:17 *893:9 4.1738
2 *1766:ZN *893:20 2.65864
3 *893:19 *893:22 1.72437
4 *893:17 *893:23 4.46637
5 *893:12 *893:21 1.93293
6 *1702:SA *893:11 0.854504
7 *893:20 *893:21 21.4234009
8 *1701:SA *893:15 0.545261
9 *1700:SA *893:15 1.72405
10 *893:21 *893:22 2.63085
11 *893:19 *893:23 1.70639
12 *893:13 *893:23 1.47822
13 *893:14 *893:22 0.827699
14 *893:10 *893:18 2.268
15 *1704:SA *893:13 3.34087
16 *893:10 *893:15 3.29641
17 *893:11 *893:16 2.58868
18 *1703:SA *893:16 0.224904
19 *1706:SA *893:14 0.224904
20 *1705:SA *893:13 0.224904
21 *1707:SA *893:12 0.224904
22 *893:11 *893:18 0.224904
23 *893:16 *893:9 0.224904
*END

*D_NET *894 1.0678e-05

*CONN
*I *1329:I I *C 145.1 159.6 *L 0.00105 *D DEL1
*I *1765:ZN O *C 144.7 159.8 *L 0 *D NR2D1

*CAP
1 *1765:ZN 1.06779993e-05

*RES
1 *1765:ZN *1329:I 0.160426
*END

*D_NET *895 0.000480631

*CONN
*I *1777:D I *C 145.9 166.8 *L 0.000949 *D DFCND1
*I *1694:ZN O *C 145.9 164.6 *L 0 *D CKND0

*CAP
1 *1777:D 0.000480630977

*RES
1 *1694:ZN *1777:D 1.88859
*END

*D_NET *896 0.00139953

*CONN
*I *1693:Z O *C 148.1 182.6 *L 0 *D CKAN2D0
*I *1517:D I *C 143.5 182.8 *L 0.000792 *D DFNCND1

*CAP
1 *896:2 0.00131306
2 *896:3 8.64554e-05

*RES
1 *1693:Z *896:3 0.449973
2 *896:2 *896:3 4.30439997
3 *1517:D *896:2 0.225019
*END

*D_NET *897 0.000428846

*CONN
*I *1692:Z O *C 145.7 24.2 *L 0 *D CKAN2D0
*I *1478:D I *C 145.5 26.4 *L 0.000792 *D DFNCND1

*CAP
1 *1692:Z 0.000362881992
2 *1478:D 6.5965e-05

*RES
1 *1478:D *1692:Z 1.79915
*END

*D_NET *898 0.00117264

*CONN
*I *1691:Z O *C 141.5 13.4 *L 0 *D CKAN2D0
*I *1475:D I *C 139.9 10 *L 0.000792 *D DFNCND1

*CAP
1 *1691:Z 0.000409999
2 *898:2 0.000428565
3 *898:3 0.000334076

*RES
1 *1691:Z *898:3 2.66613007
2 *898:2 *898:3 1.7361
3 *1475:D *898:2 0.225012
*END

*D_NET *899 0.000579974

*CONN
*I *1690:Z O *C 145.1 35 *L 0 *D CKAN2D0
*I *1480:D I *C 147.1 35.2 *L 0.000792 *D DFNCND1

*CAP
1 *1690:Z 5.9786e-05
2 *899:2 0.000520191016

*RES
1 *1690:Z *899:2 0.384757
2 *1480:D *899:2 2.03925991
*END

*D_NET *900 0.00125828

*CONN
*I *1689:Z O *C 149.3 287 *L 0 *D CKAN2D0
*I *1541:D I *C 147.7 290.8 *L 0.000792 *D DFNCND1

*CAP
1 *1689:Z 0.000184943
2 *1541:D 0.00042374
3 *900:2 0.000649600977

*RES
1 *1689:Z *900:2 1.11204
2 *1541:D *900:2 3.43752003
*END

*D_NET *901 0.00034625

*CONN
*I *1688:Z O *C 145.9 30.2 *L 0 *D CKAN2D0
*I *1479:D I *C 147.1 30 *L 0.000792 *D DFNCND1

*CAP
1 *1688:Z 0.000200533008
2 *1479:D 0.000145717

*RES
1 *1688:Z *1479:D 1.39253
*END

*D_NET *902 0.00132811

*CONN
*I *1687:Z O *C 140.3 45.8 *L 0 *D CKAN2D0
*I *1483:D I *C 140.3 51.6 *L 0.000792 *D DFNCND1

*CAP
1 *1687:Z 0.00114863
2 *902:2 0.000179476

*RES
1 *1687:Z *902:2 4.45685005
2 *1483:D *902:2 0.225032
*END

*D_NET *903 0.00221099

*CONN
*I *1686:Z O *C 150.1 24.2 *L 0 *D CKAN2D0
*I *1485:D I *C 149.3 15.6 *L 0.000792 *D DFNCND1

*CAP
1 *1686:Z 0.000426702
2 *1485:D 0.000246787
3 *903:2 0.00026553
4 *903:3 0.000698295
5 *903:4 0.000573681

*RES
1 *903:3 *903:4 1.8642
2 *1686:Z *903:2 2.54979
3 *1485:D *903:4 1.50299
4 *903:2 *903:3 2.9221499
*END

*D_NET *904 0.000466146

*CONN
*I *1685:Z O *C 145.5 45.8 *L 0 *D CKAN2D0
*I *1482:D I *C 145.5 44.4 *L 0.000792 *D DFNCND1

*CAP
1 *1685:Z 0.000466145977

*RES
1 *1482:D *1685:Z 1.56895
*END

*D_NET *905 0.00283992

*CONN
*I *1684:Z O *C 144.7 41 *L 0 *D CKAN2D0
*I *1487:D I *C 139.7 28 *L 0.000792 *D DFNCND1

*CAP
1 *1487:D 0.00044676
2 *905:2 0.000109694
3 *905:3 0.000678467
4 *905:4 0.001605

*RES
1 *905:3 *905:4 7.78166008
2 *905:2 *905:3 2.72208
3 *1487:D *905:4 1.98436
4 *1684:Z *905:2 0.22501
*END

*D_NET *906 0.00200548

*CONN
*I *1683:Z O *C 145.1 31.4 *L 0 *D CKAN2D0
*I *1486:D I *C 145.5 22.8 *L 0.000792 *D DFNCND1

*CAP
1 *1683:Z 7.84584e-05
2 *906:2 0.000204237
3 *906:3 0.000706093047
4 *906:4 0.000457853
5 *906:5 0.000558841

*RES
1 *906:4 *906:5 2.13815999
2 *906:3 *906:5 1.75298
3 *906:2 *906:4 1.78623
4 *1486:D *906:3 1.08941
5 *1683:Z *906:2 0.760375
*END

*D_NET *907 0.00137104

*CONN
*I *1682:Z O *C 148.7 62.6 *L 0 *D CKAN2D0
*I *1491:D I *C 146.3 58.8 *L 0.000792 *D DFNCND1

*CAP
1 *1682:Z 0.000749807031
2 *907:2 0.000621241

*RES
1 *1682:Z *907:2 4.52593994
2 *1491:D *907:2 0.449997
*END

*D_NET *908 0.000985275

*CONN
*I *1681:Z O *C 149.9 56.6 *L 0 *D CKAN2D0
*I *1490:D I *C 149.9 51.6 *L 0.000792 *D DFNCND1

*CAP
1 *908:2 0.000985275

*RES
1 *1681:Z *908:2 3.67631006
2 *1490:D *908:2 0.225001
*END

*D_NET *909 0.00385683

*CONN
*I *1680:Z O *C 150.7 59 *L 0 *D CKAN2D0
*I *1489:D I *C 149.7 42.4 *L 0.000792 *D DFNCND1

*CAP
1 *1680:Z 0.000493144
2 *1489:D 0.000371473
3 *909:2 0.00056092
4 *909:3 0.000627513
5 *909:4 2.63846e-06
6 *909:5 0.00180116

*RES
1 *909:3 *909:5 2.39314
2 *909:4 *909:5 4.19967985
3 *909:2 *909:3 2.57962
4 *1489:D *909:2 3.58199
5 *1680:Z *909:4 1.71528
*END

*D_NET *910 0.000939341

*CONN
*I *1679:Z O *C 144.9 38.6 *L 0 *D CKAN2D0
*I *1481:D I *C 147.3 38.8 *L 0.000792 *D DFNCND1

*CAP
1 *1679:Z 0.000114706
2 *910:2 0.000124566
3 *910:3 0.000700062969

*RES
1 *910:2 *910:3 2.62466002
2 *1679:Z *910:3 0.449992
3 *1481:D *910:2 0.224996
*END

*D_NET *911 0.00107164

*CONN
*I *1678:Z O *C 149.3 289.4 *L 0 *D CKAN2D0
*I *1542:D I *C 147.7 292.8 *L 0.000792 *D DFNCND1

*CAP
1 *1678:Z 0.00066633
2 *911:2 6.96172e-05
3 *911:3 0.000335702

*RES
1 *911:2 *911:3 1.10634
2 *1542:D *911:3 0.675011
3 *1678:Z *911:2 2.48748994
*END

*D_NET *912 0.000366956

*CONN
*I *1677:Z O *C 142.5 66.2 *L 0 *D CKAN2D0
*I *1493:D I *C 142.5 64 *L 0.000792 *D DFNCND1

*CAP
1 *1677:Z 0.000366955977

*RES
1 *1493:D *1677:Z 1.59831
*END

*D_NET *913 0.00181053

*CONN
*I *1676:Z O *C 149.3 85.4 *L 0 *D CKAN2D0
*I *1498:D I *C 144.5 84 *L 0.000792 *D DFNCND1

*CAP
1 *1676:Z 7.30846e-05
2 *1498:D 0.000322767
3 *913:2 0.00120858
4 *913:3 0.000206087

*RES
1 *1498:D *913:2 1.13083
2 *913:2 *913:3 4.26262999
3 *1676:Z *913:3 1.08159
*END

*D_NET *914 0.000858115

*CONN
*I *1675:Z O *C 143.5 87.8 *L 0 *D CKAN2D0
*I *1499:D I *C 142.7 85.6 *L 0.000792 *D DFNCND1

*CAP
1 *1675:Z 0.000434300977
2 *914:2 0.000423817

*RES
1 *1675:Z *914:2 2.67137003
2 *1499:D *914:2 0.225006
*END

*D_NET *915 0.000444012

*CONN
*I *1674:Z O *C 144.3 81.8 *L 0 *D CKAN2D0
*I *1497:D I *C 144.5 80.4 *L 0.000792 *D DFNCND1

*CAP
1 *1497:D 0.000444011992

*RES
1 *1674:Z *1497:D 1.75801
*END

*D_NET *916 0.00117087

*CONN
*I *1673:Z O *C 149.3 113 *L 0 *D CKAN2D0
*I *1505:D I *C 144.1 112.8 *L 0.000792 *D DFNCND1

*CAP
1 *916:2 9.378e-05
2 *916:3 0.00107709

*RES
1 *1505:D *916:3 0.450025
2 *916:2 *916:3 4.1219902
3 *1673:Z *916:2 0.224981
*END

*D_NET *917 0.00113467

*CONN
*I *1672:Z O *C 147.1 114.2 *L 0 *D CKAN2D0
*I *1506:D I *C 142.7 114.4 *L 0.000792 *D DFNCND1

*CAP
1 *917:2 0.00102003
2 *917:3 0.000114649

*RES
1 *917:2 *917:3 3.22119999
2 *1672:Z *917:3 0.449983
3 *1506:D *917:2 0.384857
*END

*D_NET *918 0.000774936

*CONN
*I *1671:Z O *C 149.5 107 *L 0 *D CKAN2D0
*I *1504:D I *C 149.1 105.6 *L 0.000792 *D DFNCND1

*CAP
1 *1671:Z 0.000356235
2 *1504:D 0.0004187

*RES
1 *1504:D *1671:Z 2.61883
*END

*D_NET *919 0.00141286

*CONN
*I *1670:Z O *C 149.9 120.2 *L 0 *D CKAN2D0
*I *1508:D I *C 143.7 120 *L 0.000792 *D DFNCND1

*CAP
1 *1670:Z 4.14477e-05
2 *1508:D 0.000213698
3 *919:2 0.00106898
4 *919:3 8.8735e-05

*RES
1 *919:2 *919:3 4.52103996
2 *1508:D *919:2 0.553609
3 *1670:Z *919:3 0.618042
*END

*D_NET *920 0.000865859

*CONN
*I *1669:Z O *C 143.5 117.8 *L 0 *D CKAN2D0
*I *1507:D I *C 142.5 116.4 *L 0.000792 *D DFNCND1

*CAP
1 *1669:Z 0.000144663
2 *1507:D 0.000429156016
3 *920:2 0.000292037

*RES
1 *1507:D *920:2 1.64181006
2 *1669:Z *920:2 1.24912
*END

*D_NET *921 0.00423351

*CONN
*I *1668:Z O *C 147.9 257 *L 0 *D CKAN2D0
*I *1540:D I *C 146.1 283.6 *L 0.000792 *D DFNCND1

*CAP
1 *1668:Z 0.00200709016
2 *1540:D 0.000540063
3 *921:3 0.0005849
4 *921:4 0.000688815
5 *921:5 0.000409626
6 *921:6 2.97074e-06

*RES
1 *921:5 *921:6 1.89936
2 *921:2 *921:4 3.24022
3 *921:2 *921:3 2.35817
4 *1668:Z *921:6 9.39939976
5 *921:4 *921:5 0.1592
6 *1540:D *921:3 2.38972
*END

*D_NET *922 0.00181684

*CONN
*I *1667:Z O *C 149.5 102.2 *L 0 *D CKAN2D0
*I *1503:D I *C 142.9 100 *L 0.000792 *D DFNCND1

*CAP
1 *1503:D 0.000309455
2 *922:2 0.000357193
3 *922:3 0.00115019

*RES
1 *922:2 *922:3 4.7809
2 *1667:Z *922:2 0.979437
3 *1503:D *922:3 1.08945
*END

*D_NET *923 0.00134834

*CONN
*I *1666:Z O *C 148.3 132.2 *L 0 *D CKAN2D0
*I *1511:D I *C 143.5 132.4 *L 0.000792 *D DFNCND1

*CAP
1 *1511:D 0.000889767969
2 *923:2 0.000458563

*RES
1 *1511:D *923:2 3.2137599
2 *1666:Z *923:2 1.50974
*END

*D_NET *924 0.00123991

*CONN
*I *1665:Z O *C 145.9 243.8 *L 0 *D CKAN2D0
*I *1532:D I *C 142.5 247.6 *L 0.000792 *D DFNCND1

*CAP
1 *1665:Z 0.000278941
2 *924:2 7.5115e-05
3 *924:4 0.000885848984

*RES
1 *924:2 *924:4 2.4512701
2 *924:3 *924:4 1.73589
3 *1665:Z *924:2 0.966803
4 *1532:D *924:3 0.224982
*END

*D_NET *925 0.00137045

*CONN
*I *1664:Z O *C 148.3 128.6 *L 0 *D CKAN2D0
*I *1510:D I *C 143.5 128.8 *L 0.000792 *D DFNCND1

*CAP
1 *1510:D 0.000156639
2 *925:2 0.00114097
3 *925:3 7.28438e-05

*RES
1 *925:2 *925:3 4.31304979
2 *1664:Z *925:3 0.450022
3 *1510:D *925:2 0.384868
*END

*D_NET *926 0.000871994

*CONN
*I *1663:Z O *C 144.1 95 *L 0 *D CKAN2D0
*I *1502:D I *C 142.3 92.8 *L 0.000792 *D DFNCND1

*CAP
1 *1663:Z 0.000400134
2 *926:2 0.000471861992

*RES
1 *1663:Z *926:2 3.12302995
2 *1502:D *926:2 0.225021
*END

*D_NET *927 0.00134271

*CONN
*I *1662:Z O *C 144.7 141.8 *L 0 *D CKAN2D0
*I *1513:D I *C 143.3 138 *L 0.000792 *D DFNCND1

*CAP
1 *1513:D 9.54803e-05
2 *927:2 0.00124722008

*RES
1 *1662:Z *927:2 1.20545
2 *1513:D *927:2 3.32395005
*END

*D_NET *928 0.00109207

*CONN
*I *1661:Z O *C 148.9 215 *L 0 *D CKAN2D0
*I *1524:D I *C 143.9 215.2 *L 0.000792 *D DFNCND1

*CAP
1 *1524:D 0.000177896
2 *928:2 0.000803255
3 *928:3 0.000110925

*RES
1 *928:2 *928:3 3.81011009
2 *1524:D *928:2 0.544634
3 *1661:Z *928:3 0.224993
*END

*D_NET *929 0.00122671

*CONN
*I *1660:Z O *C 148.3 125 *L 0 *D CKAN2D0
*I *1509:D I *C 143.5 125.2 *L 0.000792 *D DFNCND1

*CAP
1 *1509:D 0.00017154
2 *929:2 0.000940035
3 *929:3 0.000115125

*RES
1 *929:2 *929:3 3.63127995
2 *1660:Z *929:3 0.449976
3 *1509:D *929:2 0.38487
*END

*D_NET *930 0.000556817

*CONN
*I *1659:Z O *C 143.3 74.6 *L 0 *D CKAN2D0
*I *1495:D I *C 142.7 73.2 *L 0.000792 *D DFNCND1

*CAP
1 *1659:Z 0.00020277
2 *1495:D 0.000354048984

*RES
1 *1659:Z *1495:D 1.96381
*END

*D_NET *931 0.00123361

*CONN
*I *1658:Z O *C 148.1 186.2 *L 0 *D CKAN2D0
*I *1518:D I *C 145.7 188.4 *L 0.000792 *D DFNCND1

*CAP
1 *931:2 0.00113872
2 *931:3 9.4889e-05

*RES
1 *931:2 *931:3 2.14285994
2 *1658:Z *931:3 0.450015
3 *1518:D *931:2 1.7035
*END

*D_NET *932 0.000525323

*CONN
*I *1657:Z O *C 144.1 19.4 *L 0 *D CKAN2D0
*I *1477:D I *C 144.5 17.2 *L 0.000792 *D DFNCND1

*CAP
1 *1657:Z 0.000342568984
2 *1477:D 0.000182756

*RES
1 *1657:Z *1477:D 1.9283
*END

*D_NET *933 0.00138139

*CONN
*I *1656:Z O *C 148.1 192.2 *L 0 *D CKAN2D0
*I *1519:D I *C 144.5 193.6 *L 0.000792 *D DFNCND1

*CAP
1 *1656:Z 0.000390101
2 *933:2 0.000991285

*RES
1 *1656:Z *933:2 1.66361
2 *1519:D *933:2 3.61683989
*END

*D_NET *934 0.00109333

*CONN
*I *1655:Z O *C 148.9 203 *L 0 *D CKAN2D0
*I *1521:D I *C 143.7 202.8 *L 0.000792 *D DFNCND1

*CAP
1 *1521:D 6.74092e-05
2 *934:2 0.000166286
3 *934:3 0.000859633984

*RES
1 *934:2 *934:3 3.51285005
2 *1521:D *934:3 1.05274
3 *1655:Z *934:2 0.225021
*END

*D_NET *935 0.00089809

*CONN
*I *1654:Z O *C 148.1 197 *L 0 *D CKAN2D0
*I *1520:D I *C 145.9 199.2 *L 0.000792 *D DFNCND1

*CAP
1 *1654:Z 0.00037534
2 *935:2 0.000522748008

*RES
1 *1654:Z *935:2 3.49853992
2 *1520:D *935:2 0.225011
*END

*D_NET *936 0.00103

*CONN
*I *1653:Z O *C 148.9 206.6 *L 0 *D CKAN2D0
*I *1522:D I *C 143.7 206.4 *L 0.000792 *D DFNCND1

*CAP
1 *1522:D 8.29275e-05
2 *936:2 0.000125394
3 *936:3 0.000821688984

*RES
1 *936:2 *936:3 3.40130997
2 *1522:D *936:3 0.844359
3 *1653:Z *936:2 0.224986
*END

*D_NET *937 0.000852822

*CONN
*I *1652:Z O *C 147.9 174.2 *L 0 *D CKAN2D0
*I *1516:D I *C 147.5 177.6 *L 0.000792 *D DFNCND1

*CAP
1 *1652:Z 0.000852822031

*RES
1 *1652:Z *1516:D 3.36946
*END

*D_NET *938 0.00073016

*CONN
*I *1651:Z O *C 146.9 217.4 *L 0 *D CKAN2D0
*I *1525:D I *C 144.3 218.8 *L 0.000792 *D DFNCND1

*CAP
1 *1651:Z 0.000268791
2 *1525:D 7.27086e-05
3 *938:2 0.000388658984

*RES
1 *1651:Z *938:2 3.05401993
2 *1525:D *938:2 0.450022
*END

*D_NET *939 0.0010641

*CONN
*I *1650:Z O *C 148.9 222.2 *L 0 *D CKAN2D0
*I *1526:D I *C 143.7 222.4 *L 0.000792 *D DFNCND1

*CAP
1 *1650:Z 9.2898e-05
2 *1526:D 0.000668872031
3 *939:2 0.000302332

*RES
1 *1650:Z *939:2 1.86038
2 *1526:D *939:2 3.00981998
*END

*D_NET *940 0.000662946

*CONN
*I *1649:Z O *C 144.5 92.6 *L 0 *D CKAN2D0
*I *1501:D I *C 144.1 91.2 *L 0.000792 *D DFNCND1

*CAP
1 *1649:Z 0.000261741
2 *1501:D 0.000401206992

*RES
1 *1649:Z *1501:D 1.95158
*END

*D_NET *941 0.00142992

*CONN
*I *1648:Z O *C 148.9 231.8 *L 0 *D CKAN2D0
*I *1528:D I *C 143.7 231.6 *L 0.000792 *D DFNCND1

*CAP
1 *1648:Z 0.000160173
2 *941:2 0.00126974

*RES
1 *1648:Z *941:2 0.544621
2 *1528:D *941:2 4.92510986
*END

*D_NET *942 0.0027393

*CONN
*I *1647:Z O *C 143.3 285.8 *L 0 *D CKAN2D0
*I *1544:D I *C 143.3 300 *L 0.000792 *D DFNCND1

*CAP
1 *1647:Z 0.000531604
2 *1544:D 7.02849e-06
3 *942:2 0.000492404
4 *942:3 0.00034712
5 *942:4 0.00039171
6 *942:5 0.000345291
7 *942:6 0.000624135977

*RES
1 *942:5 *942:6 2.36924
2 *942:3 *942:6 1.59956
3 *942:3 *942:4 1.63676
4 *1544:D *942:5 1.33499
5 *1647:Z *942:2 2.38301992
6 *942:2 *942:4 1.95188
*END

*D_NET *943 0.00115794

*CONN
*I *1646:Z O *C 150.3 92.6 *L 0 *D CKAN2D0
*I *1500:D I *C 149.9 87.6 *L 0.000792 *D DFNCND1

*CAP
1 *1646:Z 0.000133446
2 *1500:D 0.000992777969
3 *943:2 3.17065e-05

*RES
1 *1646:Z *943:2 0.62164
2 *1500:D *943:2 3.62002993
*END

*D_NET *944 0.00179655

*CONN
*I *1645:Z O *C 148.5 138.2 *L 0 *D CKAN2D0
*I *1512:D I *C 142.5 136 *L 0.000792 *D DFNCND1

*CAP
1 *1645:Z 0.000273564
2 *1512:D 0.0002032
3 *944:2 0.00131979

*RES
1 *1512:D *944:2 5.92530012
2 *1645:Z *944:2 0.936949
*END

*D_NET *945 0.0010747

*CONN
*I *1644:Z O *C 148.9 211.4 *L 0 *D CKAN2D0
*I *1523:D I *C 143.7 211.6 *L 0.000792 *D DFNCND1

*CAP
1 *1644:Z 0.000371236
2 *1523:D 0.000387398008
3 *945:2 0.000316066

*RES
1 *1523:D *945:2 3.56464005
2 *1644:Z *945:2 1.3815
*END

*D_NET *946 0.00215139

*CONN
*I *1643:Z O *C 149.1 80.6 *L 0 *D CKAN2D0
*I *1496:D I *C 142.7 76.8 *L 0.000792 *D DFNCND1

*CAP
1 *1496:D 0.000680511
2 *946:2 0.00112816
3 *946:3 0.000342726

*RES
1 *946:2 *946:3 1.84511
2 *1643:Z *946:2 2.53149
3 *1496:D *946:3 4.13858986
*END

*D_NET *947 0.00102416

*CONN
*I *1642:Z O *C 148.1 150.2 *L 0 *D CKAN2D0
*I *1515:D I *C 144.1 150.4 *L 0.000792 *D DFNCND1

*CAP
1 *1642:Z 3.12558e-05
2 *947:2 0.000992897969

*RES
1 *1642:Z *947:2 0.833295
2 *1515:D *947:2 3.13512993
*END

*D_NET *948 0.00300644

*CONN
*I *1641:Z O *C 146.5 285.8 *L 0 *D CKAN2D0
*I *1546:D I *C 146.7 301.6 *L 0.000792 *D DFNCND1

*CAP
1 *1641:Z 0.000704231
2 *948:2 0.00189496
3 *948:3 0.000407242

*RES
1 *1546:D *948:3 1.54539
2 *1641:Z *948:2 2.77263
3 *948:2 *948:3 7.14285994
*END

*D_NET *949 0.000869575

*CONN
*I *1640:Z O *C 144.1 62.6 *L 0 *D CKAN2D0
*I *1492:D I *C 142.7 60.4 *L 0.000792 *D DFNCND1

*CAP
1 *1640:Z 8.08629e-05
2 *1492:D 0.000788711016

*RES
1 *1640:Z *1492:D 3.04764
*END

*D_NET *950 0.000866269

*CONN
*I *1639:Z O *C 142.5 71 *L 0 *D CKAN2D0
*I *1494:D I *C 142.3 67.6 *L 0.000792 *D DFNCND1

*CAP
1 *1639:Z 7.13692e-05
2 *1494:D 8.79494e-05
3 *950:2 0.00070695

*RES
1 *1639:Z *950:2 0.384211
2 *1494:D *950:2 3.00008011
*END

*D_NET *951 0.000937803

*CONN
*I *1638:Z O *C 146.9 41 *L 0 *D CKAN2D0
*I *1488:D I *C 147.5 37.2 *L 0.000792 *D DFNCND1

*CAP
1 *1638:Z 2.69091e-05
2 *1488:D 0.000672317969
3 *951:2 0.000238581

*RES
1 *1638:Z *951:2 0.376701
2 *1488:D *951:2 3.00114989
*END

*D_NET *952 0.00093758

*CONN
*I *1637:Z O *C 148.9 251 *L 0 *D CKAN2D0
*I *1533:D I *C 143.9 251.2 *L 0.000792 *D DFNCND1

*CAP
1 *1533:D 6.52893e-05
2 *952:2 0.000119121
3 *952:3 0.000753166016

*RES
1 *952:2 *952:3 3.25822997
2 *1533:D *952:3 1.0527
3 *1637:Z *952:2 0.225018
*END

*D_NET *953 0.00122574

*CONN
*I *1636:Z O *C 150.5 13.4 *L 0 *D CKAN2D0
*I *1484:D I *C 149.5 8.4 *L 0.000792 *D DFNCND1

*CAP
1 *1636:Z 0.000203284
2 *953:2 0.0005468
3 *953:3 7.39413e-05
4 *953:4 0.000401713

*RES
1 *953:2 *953:3 2.2038
2 *1636:Z *953:4 2.76370001
3 *1484:D *953:2 0.224981
4 *953:3 *953:4 0.224981
*END

*D_NET *954 0.00114954

*CONN
*I *1635:Z O *C 148.9 243.8 *L 0 *D CKAN2D0
*I *1531:D I *C 143.7 244 *L 0.000792 *D DFNCND1

*CAP
1 *1531:D 9.6632e-05
2 *954:2 0.000650116016
3 *954:3 0.000402797

*RES
1 *954:2 *954:3 2.69959998
2 *1635:Z *954:3 1.57694
3 *1531:D *954:2 0.35092
*END

*D_NET *955 0.00121262

*CONN
*I *1634:Z O *C 148.9 240.2 *L 0 *D CKAN2D0
*I *1530:D I *C 143.7 240.4 *L 0.000792 *D DFNCND1

*CAP
1 *955:2 0.000981527969
2 *955:3 0.000231098

*RES
1 *955:2 *955:3 3.69867992
2 *1634:Z *955:3 1.09534
3 *1530:D *955:2 0.225016
*END

*D_NET *956 0.00074885

*CONN
*I *1633:Z O *C 142.9 260.6 *L 0 *D CKAN2D0
*I *1535:D I *C 142.3 262 *L 0.000792 *D DFNCND1

*CAP
1 *1633:Z 0.000521372969
2 *1535:D 0.000227476

*RES
1 *1633:Z *1535:D 2.86374
*END

*D_NET *957 0.000584769

*CONN
*I *1632:Z O *C 143.9 264.2 *L 0 *D CKAN2D0
*I *1536:D I *C 142.3 265.6 *L 0.000792 *D DFNCND1

*CAP
1 *1536:D 0.000520910977
2 *957:2 6.3859e-05

*RES
1 *1632:Z *957:2 0.450008
2 *1536:D *957:2 2.33857012
*END

*D_NET *958 0.000657013

*CONN
*I *1631:Z O *C 146.7 13.4 *L 0 *D CKAN2D0
*I *1476:D I *C 147.1 10 *L 0.000792 *D DFNCND1

*CAP
1 *1476:D 0.000657012969

*RES
1 *1476:D *1631:Z 2.9285
*END

*D_NET *959 0.000368473

*CONN
*I *1630:Z O *C 144.5 257 *L 0 *D CKAN2D0
*I *1534:D I *C 143.9 258.4 *L 0.000792 *D DFNCND1

*CAP
1 *1630:Z 0.000241294004
2 *1534:D 0.000127181

*RES
1 *1534:D *1630:Z 1.7257
*END

*D_NET *960 0.000444559

*CONN
*I *1629:Z O *C 148.5 279.8 *L 0 *D CKAN2D0
*I *1539:D I *C 148.9 282 *L 0.000792 *D DFNCND1

*CAP
1 *1629:Z 0.000444559023

*RES
1 *1629:Z *1539:D 1.89682
*END

*D_NET *961 0.00069745

*CONN
*I *1628:Z O *C 145.1 279.8 *L 0 *D CKAN2D0
*I *1538:D I *C 143.9 278.4 *L 0.000792 *D DFNCND1

*CAP
1 *1628:Z 0.000617513008
2 *1538:D 7.99417e-05

*RES
1 *1628:Z *1538:D 2.80265
*END

*D_NET *962 0.00124769

*CONN
*I *1627:Z O *C 147.3 287 *L 0 *D CKAN2D0
*I *1543:D I *C 147.1 294.4 *L 0.000792 *D DFNCND1

*CAP
1 *1627:Z 0.000641823008
2 *1543:D 0.000605861

*RES
1 *1543:D *1627:Z 5.0382
*END

*D_NET *963 0.00161436

*CONN
*I *1626:Z O *C 149.7 235.4 *L 0 *D CKAN2D0
*I *1529:D I *C 143.5 235.2 *L 0.000792 *D DFNCND1

*CAP
1 *1626:Z 0.000483644
2 *1529:D 0.000842542969
3 *963:2 0.000288176

*RES
1 *1626:Z *963:2 1.67772
2 *1529:D *963:2 4.47464991
*END

*D_NET *964 0.00353768

*CONN
*I *1625:Z O *C 142.9 287 *L 0 *D CKAN2D0
*I *1547:D I *C 142.9 303.6 *L 0.000792 *D DFNCND1

*CAP
1 *1625:Z 0.000898978
2 *964:2 0.00073547
3 *964:3 0.00125695
4 *964:4 2.78108e-06
5 *964:5 0.000643502

*RES
1 *964:4 *964:5 2.49293
2 *964:3 *964:4 0.159179
3 *964:2 *964:5 2.67068
4 *1547:D *964:3 4.60774994
5 *1625:Z *964:2 3.27842
*END

*D_NET *965 0.00147221

*CONN
*I *1624:Z O *C 148.5 145.4 *L 0 *D CKAN2D0
*I *1514:D I *C 143.5 145.2 *L 0.000792 *D DFNCND1

*CAP
1 *1624:Z 1.8948e-05
2 *965:2 0.00129215
3 *965:3 0.000161107

*RES
1 *965:2 *965:3 4.22060013
2 *1514:D *965:2 0.544706
3 *1624:Z *965:3 0.60988
*END

*D_NET *966 0.0026326

*CONN
*I *1623:Z O *C 146.3 287 *L 0 *D CKAN2D0
*I *1545:D I *C 146.7 298 *L 0.000792 *D DFNCND1

*CAP
1 *1623:Z 0.000425993
2 *1545:D 0.00032735
3 *966:2 0.00174201
4 *966:3 0.00013724

*RES
1 *1623:Z *966:2 1.56535
2 *1545:D *966:3 1.1391
3 *966:2 *966:3 6.36907005
*END

*D_NET *967 0.000714501

*CONN
*I *1622:Z O *C 143.9 272.6 *L 0 *D CKAN2D0
*I *1537:D I *C 142.7 274.8 *L 0.000792 *D DFNCND1

*CAP
1 *1622:Z 0.000617683008
2 *967:2 9.6816e-05

*RES
1 *1622:Z *967:2 2.87068009
2 *1537:D *967:2 0.225017
*END

*D_NET *968 0.00123662

*CONN
*I *1621:Z O *C 148.9 228.2 *L 0 *D CKAN2D0
*I *1527:D I *C 143.5 228 *L 0.000792 *D DFNCND1

*CAP
1 *968:2 0.000131015
2 *968:3 0.0011056

*RES
1 *1527:D *968:3 0.450016
2 *968:2 *968:3 3.96614003
3 *1621:Z *968:2 0.225008
*END

*D_NET *969 0.0116005

*CONN
*I *1773:A1 I *C 144.7 161.2 *L 0.000774 *D NR2XD0
*I *1696:ZN O *C 143.5 109.6 *L 0 *D IND2D0
*I *1695:A1 I *C 145.1 163.2 *L 0.000709 *D IND2D1

*CAP
1 *1696:ZN 8.76436e-05
2 *1695:A1 0.000345169
3 *969:3 0.000166701
4 *969:4 0.000446018
5 *969:5 0.000245792
6 *969:6 3.20539e-05
7 *969:7 0.00224189
8 *969:8 0.00142734
9 *969:9 0.000472256
10 *969:10 0.00015117
11 *969:11 0.000454741
12 *969:12 0.000114224
13 *969:13 0.000737342
14 *1695:A1 *107:8 0.00122797
15 *969:3 *150:3 0.000342768008
16 *969:4 *1346:I 0.000422517969
17 *969:5 *296:4 0.000460146992
18 *1695:A1 *297:5 0.000788853984
19 *969:4 *890:3 0.00143587

*RES
1 *969:6 *969:7 15.3930998
2 *969:4 *969:10 0.963478
3 *969:5 *969:6 2.35491
4 *969:3 *969:4 4.9306
5 *1695:A1 *969:12 1.50394
6 *969:5 *969:12 1.41727
7 *969:7 *969:9 1.94457
8 *969:8 *969:9 6.30817
9 *969:11 *969:13 3.73483
10 *969:10 *969:11 3.34446
11 *969:8 *969:3 1.34304
12 *1696:ZN *969:13 0.45003
13 *1773:A1 *969:12 0.225015
*END

*D_NET *970 0.00310781

*CONN
*I *1774:A1 I *C 142.7 107.2 *L 0.000647 *D NR2D0
*I *1699:ZN O *C 140.7 96 *L 0 *D CKND2D0
*I *1696:A1 I *C 142.9 109.2 *L 0.000681 *D IND2D0

*CAP
1 *1774:A1 9.55927e-05
2 *1699:ZN 0.000404373
3 *1696:A1 0.000485174
4 *970:3 0.000332923
5 *970:4 0.00152425
6 *970:5 0.000265473

*RES
1 *1699:ZN *970:4 1.97291
2 *970:3 *970:5 1.26387
3 *970:3 *970:4 6.14643002
4 *1774:A1 *970:5 0.674986
5 *1696:A1 *970:5 2.42843
*END

*D_NET *971 1.3035e-05

*CONN
*I *1325:I I *C 146.1 163.2 *L 0.00103 *D DEL2
*I *1695:ZN O *C 145.54 162.695 *L 0 *D IND2D1

*CAP
1 *1695:ZN 1.3035e-05

*RES
1 *1695:ZN *1325:I 0.158819
*END

*D_NET *972 0.00141558

*CONN
*I *1698:ZN O *C 140.9 177 *L 0 *D INR2D0
*I *1465:CEN I *C 134.195 177.81 *L 0.00171 *D sram00

*CAP
1 *1698:ZN 0.000253491
2 *972:2 1.95807e-05
3 *972:3 0.000304618
4 *972:4 7.11292e-05
5 *972:5 0.000120328
6 *972:6 5.86076e-05
7 *972:7 0.000587825

*RES
1 *972:2 *972:3 2.21432
2 *1698:ZN *972:4 0.434654
3 *972:2 *972:6 0.353079
4 *972:5 *972:6 0.183824
5 *972:4 *972:7 2.81672001
6 *972:6 *972:7 0.224999
7 *972:7 *1465:CEN 8.59595e-05
*END

*D_NET *973 0.0014428

*CONN
*I *1764:Q O *C 142.3 168 *L 0 *D DFNSND1
*I *1698:A1 I *C 141.5 177.6 *L 0.00069 *D INR2D0
*I *1697:A1 I *C 141.3 175.4 *L 0.000633 *D OR2D0

*CAP
1 *1764:Q 0.000694445
2 *1697:A1 0.000110978
3 *973:3 1.39874e-06
4 *973:4 0.000635984

*RES
1 *973:3 *973:4 2.36995
2 *1764:Q *973:3 3.10454011
3 *1698:A1 *973:4 0.965716
4 *1697:A1 *973:4 0.840418
*END

*D_NET *974 0.00148193

*CONN
*I *1697:Z O *C 140.3 175.4 *L 0 *D OR2D0
*I *1465:WEN I *C 134.195 175.12 *L 0.00612 *D sram00

*CAP
1 *974:2 0.000248679
2 *974:3 0.000217209
3 *974:4 0.000124514
4 *974:5 0.000424626992
5 *974:6 7.63337e-05
6 *974:7 0.000177911
7 *974:8 2.0138e-05
8 *974:9 0.000192516

*RES
1 *974:2 *974:3 1.19212
2 *974:8 *974:9 0.877168
3 *974:7 *974:8 0.21849
4 *974:6 *974:7 0.662819
5 *974:4 *974:5 1.91097999
6 *974:3 *974:4 0.3444
7 *1697:Z *974:2 0.434648
8 *974:5 *974:6 0.0925806
9 *974:9 *1465:WEN 8.74777e-05
*END

