*SPEF "IEEE 1481-1998"
*DESIGN "sram_wrapper_c"
*DATE "Thu Apr  2 21:36:09 2026"
*VENDOR "Cadence Design Systems, Inc."
*PROGRAM "Innovus"
*VERSION "21.16-s078_1"
*DESIGN_FLOW "COUPLING C" "PIN_CAP NONE" "NAME_SCOPE LOCAL"
*DIVIDER /
*DELIMITER :
*BUS_DELIMITER []
*T_UNIT 1 NS
*C_UNIT 1 PF
*R_UNIT 1 OHM
*L_UNIT 1 HENRY

// MMMC spef file for corner 'RC_BEST'

*NAME_MAP

*1 FE_PHN235_sram_din_18
*2 FE_PHN234_sram_din_13
*3 FE_PHN233_sram_din_1
*4 FE_PHN232_sram_din_8
*5 FE_PHN231_sram_din_9
*6 FE_PHN230_sram_din_3
*7 FE_PHN229_sram_din_5
*8 FE_PHN228_sram_din_4
*9 FE_PHN227_sram_din_11
*10 FE_PHN226_sram_din_10
*11 FE_PHN225_sram_din_0
*12 FE_PHN224_sram_din_12
*13 FE_PHN223_sram_din_6
*14 FE_PHN222_sram_din_2
*15 FE_PHN221_sram_din_33
*16 FE_PHN220_sram_din_35
*17 FE_PHN219_sram_din_34
*18 FE_PHN218_sram_din_42
*19 FE_PHN217_sram_din_47
*20 FE_PHN216_sram_din_37
*21 FE_PHN215_sram_din_49
*22 FE_PHN214_sram_din_32
*23 FE_PHN213_sram_din_43
*24 FE_PHN212_sram_din_38
*25 FE_PHN211_sram_din_50
*26 FE_PHN210_sram_din_41
*27 FE_PHN209_sram_din_45
*28 FE_PHN208_sram_din_46
*29 FE_PHN207_sram_addr_2
*30 FE_PHN206_sram_din_48
*31 FE_PHN205_sram_addr_7
*32 FE_PHN204_sram_addr_8
*33 FE_PHN203_sram_din_36
*34 FE_PHN202_sram_din_53
*35 FE_PHN201_sram_din_51
*36 FE_PHN200_sram_din_62
*37 FE_PHN199_sram_din_54
*38 FE_PHN198_sram_din_52
*39 FE_PHN197_sram_din_55
*40 FE_PHN196_sram_din_60
*41 FE_PHN195_sram_din_7
*42 FE_PHN194_tpu_we
*43 FE_PHN193_bus_addr_0
*44 FE_PHN192_bus_addr_5
*45 FE_PHN191_bus_addr_10
*46 FE_PHN190_bus_addr_11
*47 FE_PHN189_bus_addr_2
*48 FE_PHN188_bus_addr_1
*49 FE_PDN16_n_16
*50 FE_PHN187_tpu_din_18
*51 FE_PHN186_sram_din_1
*52 FE_PHN185_sram_din_8
*53 FE_PHN184_sram_din_0
*54 FE_PHN183_sram_din_19
*55 FE_PHN182_sram_din_20
*56 FE_PHN181_sram_din_21
*57 FE_PHN180_bus_addr_2
*58 FE_PHN179_tpu_we
*59 FE_PHN178_sram_din_11
*60 FE_PHN177_sram_din_9
*61 FE_PHN176_sram_din_10
*62 FE_PHN175_sram_din_8
*63 FE_PHN174_sram_din_0
*64 FE_PHN173_sram_din_1
*65 FE_PHN172_sram_din_12
*66 FE_PHN171_sram_din_13
*67 FE_PHN170_sram_din_4
*68 FE_PHN169_sram_din_3
*69 FE_PHN168_sram_din_5
*70 FE_PHN167_sram_din_33
*71 FE_PHN166_sram_din_32
*72 FE_PHN165_sram_din_35
*73 FE_PHN164_sram_din_34
*74 FE_PHN163_sram_din_37
*75 FE_PHN162_sram_din_38
*76 FE_PHN161_sram_din_36
*77 FE_PHN160_sram_din_31
*78 FE_PHN159_sram_din_16
*79 FE_PHN158_sram_din_28
*80 FE_PHN157_sram_din_22
*81 FE_PHN156_sram_din_23
*82 FE_PHN155_sram_din_24
*83 FE_PHN154_sram_din_25
*84 FE_PHN153_sram_din_26
*85 FE_PHN152_sram_din_29
*86 FE_PHN151_sram_din_27
*87 FE_PHN150_sram_din_14
*88 FE_PHN149_sram_din_15
*89 FE_PHN148_sram_din_44
*90 FE_PHN147_sram_addr_4
*91 FE_PHN146_sram_din_41
*92 FE_PHN145_bus_addr_1
*93 FE_PHN144_sram_din_39
*94 FE_PHN143_sram_din_49
*95 FE_PHN142_bus_addr_0
*96 FE_PHN141_sram_din_40
*97 FE_PHN140_sram_din_42
*98 FE_PHN139_sram_din_47
*99 FE_PHN138_sram_din_43
*100 FE_PHN137_sram_addr_0
*101 FE_PHN136_sram_din_58
*102 FE_PHN135_sram_din_56
*103 FE_PHN134_sram_din_59
*104 FE_PHN133_sram_din_57
*105 FE_PHN132_sram_din_61
*106 FE_PHN131_sram_din_63
*107 FE_PHN130_sram_addr_1
*108 FE_PHN129_sram_din_45
*109 FE_PHN128_sram_din_50
*110 FE_PHN127_sram_din_48
*111 FE_PHN126_sram_din_51
*112 FE_PHN125_sram_din_46
*113 FE_PHN124_sram_din_52
*114 FE_PHN123_sram_addr_6
*115 FE_PHN122_sram_din_62
*116 FE_PHN121_sram_din_53
*117 FE_PHN120_sram_din_60
*118 FE_PHN119_sram_din_54
*119 FE_PHN118_sram_addr_5
*120 FE_PHN117_sram_din_55
*121 FE_PHN116_sram_addr_2
*122 FE_PHN115_sram_addr_3
*123 FE_PHN114_sram_addr_7
*124 FE_PHN113_sram_addr_8
*125 FE_PHN112_sram_cen
*126 FE_PHN111_sram_din_30
*127 FE_PHN110_tpu_we
*128 FE_PHN109_bus_addr_2
*129 FE_PHN108_rstn
*130 FE_PHN107_sram_din_7
*131 FE_PHN106_sram_din_5
*132 FE_PHN105_sram_din_2
*133 FE_PHN104_sram_din_3
*134 FE_PHN103_sram_din_4
*135 FE_PHN102_sram_din_6
*136 FE_PHN101_sram_din_0
*137 FE_PHN100_sram_din_11
*138 FE_PHN99_sram_din_1
*139 FE_PHN98_sram_din_8
*140 FE_PHN97_sram_din_9
*141 FE_PHN96_sram_din_13
*142 FE_PHN95_sram_din_10
*143 FE_PHN94_sram_din_12
*144 FE_PHN93_sram_din_33
*145 FE_PHN92_sram_din_32
*146 FE_PHN91_sram_din_35
*147 FE_PHN90_sram_din_34
*148 FE_PHN89_sram_din_37
*149 FE_PHN88_sram_din_39
*150 FE_PHN87_sram_din_41
*151 FE_PHN86_sram_din_38
*152 FE_PHN85_sram_din_40
*153 FE_PHN84_sram_din_42
*154 FE_PHN83_sram_din_44
*155 FE_PHN82_sram_din_43
*156 FE_PHN81_sram_din_36
*157 FE_PHN80_sram_addr_6
*158 FE_PHN79_sram_addr_4
*159 FE_PHN78_sram_addr_0
*160 FE_PHN77_sram_addr_2
*161 FE_PHN76_sram_addr_5
*162 FE_PHN75_sram_addr_1
*163 FE_PHN74_sram_addr_3
*164 FE_PHN73_sram_addr_7
*165 FE_PHN72_sram_addr_8
*166 FE_PHN71_sram_din_45
*167 FE_PHN70_sram_din_47
*168 FE_PHN69_sram_din_46
*169 FE_PHN68_sram_din_49
*170 FE_PHN67_sram_din_48
*171 FE_PHN66_sram_din_50
*172 FE_PHN65_sram_din_53
*173 FE_PHN64_sram_din_52
*174 FE_PHN63_sram_din_51
*175 FE_PHN62_sram_din_54
*176 FE_PHN61_sram_din_62
*177 FE_PHN60_sram_din_60
*178 FE_PHN59_sram_din_56
*179 FE_PHN58_sram_din_61
*180 FE_PHN57_sram_din_63
*181 FE_PHN56_sram_din_59
*182 FE_PHN55_sram_din_57
*183 FE_PHN54_FE_OFN10_bus_dout_5
*184 FE_PHN53_FE_OFN11_bus_dout_4
*185 FE_PHN52_sram_din_55
*186 FE_PHN51_rstn
*187 FE_PHN50_FE_OFN13_bus_dout_2
*188 FE_PHN49_FE_OFN12_bus_dout_3
*189 FE_PHN48_FE_OFN15_bus_dout_0
*190 FE_PHN47_FE_OFN9_bus_dout_6
*191 FE_PHN46_FE_OFN14_bus_dout_1
*192 FE_PHN45_n_38
*193 FE_PHN44_n_14
*194 FE_PHN43_FE_OFN8_bus_dout_7
*195 FE_PHN42_sram_din_58
*196 FE_PHN41_sram_cen
*197 FE_PHN40_tpu_we
*198 FE_PHN39_tpu_din_17
*199 FE_PHN38_bus_byte_sel_d1_2
*200 FE_PHN37_bus_byte_sel_d1_1
*201 FE_PHN36_bus_byte_sel_d1_0
*202 FE_PHN35_tpu_din_18
*203 FE_PHN34_tpu_din_31
*204 FE_PHN33_tpu_din_20
*205 FE_PHN32_tpu_din_16
*206 FE_PHN31_tpu_din_19
*207 FE_PHN30_tpu_din_21
*208 FE_PHN29_tpu_din_28
*209 FE_PHN28_tpu_din_22
*210 FE_PHN27_tpu_din_23
*211 FE_PHN26_tpu_din_24
*212 FE_PHN25_tpu_din_25
*213 FE_PHN24_bus_addr_0
*214 FE_PHN23_bus_addr_2
*215 FE_PHN22_bus_addr_1
*216 FE_PHN21_tpu_din_26
*217 FE_PHN20_tpu_din_14
*218 FE_PHN19_tpu_din_29
*219 FE_PHN18_tpu_din_15
*220 FE_PHN17_tpu_din_27
*221 FE_PHN16_tpu_din_30
*222 CTS_2
*223 CTS_1
*224 LTIELO_NET
*225 LTIEHI_NET
*226 FE_OFN15_bus_dout_0
*227 FE_OFN14_bus_dout_1
*228 FE_OFN13_bus_dout_2
*229 FE_OFN12_bus_dout_3
*230 FE_OFN11_bus_dout_4
*231 FE_OFN10_bus_dout_5
*232 FE_OFN9_bus_dout_6
*233 FE_OFN8_bus_dout_7
*234 FE_OFN7_n_43
*235 FE_OFN6_n_36
*236 FE_OFN5_n_32
*237 FE_OFN4_n_26
*238 FE_OFN3_n_25
*239 FE_OFN2_n_22
*240 FE_OFN1_n_21
*241 FE_OFN0_n_15
*242 clk
*243 rstn
*244 tpu_we
*245 tpu_addr[8]
*246 tpu_addr[7]
*247 tpu_addr[6]
*248 tpu_addr[5]
*249 tpu_addr[4]
*250 tpu_addr[3]
*251 tpu_addr[2]
*252 tpu_addr[1]
*253 tpu_addr[0]
*254 tpu_din[63]
*255 tpu_din[62]
*256 tpu_din[61]
*257 tpu_din[60]
*258 tpu_din[59]
*259 tpu_din[58]
*260 tpu_din[57]
*261 tpu_din[56]
*262 tpu_din[55]
*263 tpu_din[54]
*264 tpu_din[53]
*265 tpu_din[52]
*266 tpu_din[51]
*267 tpu_din[50]
*268 tpu_din[49]
*269 tpu_din[48]
*270 tpu_din[47]
*271 tpu_din[46]
*272 tpu_din[45]
*273 tpu_din[44]
*274 tpu_din[43]
*275 tpu_din[42]
*276 tpu_din[41]
*277 tpu_din[40]
*278 tpu_din[39]
*279 tpu_din[38]
*280 tpu_din[37]
*281 tpu_din[36]
*282 tpu_din[35]
*283 tpu_din[34]
*284 tpu_din[33]
*285 tpu_din[32]
*286 tpu_din[31]
*287 tpu_din[30]
*288 tpu_din[29]
*289 tpu_din[28]
*290 tpu_din[27]
*291 tpu_din[26]
*292 tpu_din[25]
*293 tpu_din[24]
*294 tpu_din[23]
*295 tpu_din[22]
*296 tpu_din[21]
*297 tpu_din[20]
*298 tpu_din[19]
*299 tpu_din[18]
*300 tpu_din[17]
*301 tpu_din[16]
*302 tpu_din[15]
*303 tpu_din[14]
*304 tpu_din[13]
*305 tpu_din[12]
*306 tpu_din[11]
*307 tpu_din[10]
*308 tpu_din[9]
*309 tpu_din[8]
*310 tpu_din[7]
*311 tpu_din[6]
*312 tpu_din[5]
*313 tpu_din[4]
*314 tpu_din[3]
*315 tpu_din[2]
*316 tpu_din[1]
*317 tpu_din[0]
*318 bus_re
*319 bus_addr[11]
*320 bus_addr[10]
*321 bus_addr[9]
*322 bus_addr[8]
*323 bus_addr[7]
*324 bus_addr[6]
*325 bus_addr[5]
*326 bus_addr[4]
*327 bus_addr[3]
*328 bus_addr[2]
*329 bus_addr[1]
*330 bus_addr[0]
*331 bus_dout[7]
*332 bus_dout[6]
*333 bus_dout[5]
*334 bus_dout[4]
*335 bus_dout[3]
*336 bus_dout[2]
*337 bus_dout[1]
*338 bus_dout[0]
*339 sram_addr[8]
*340 sram_addr[7]
*341 sram_addr[6]
*342 sram_addr[5]
*343 sram_addr[4]
*344 sram_addr[3]
*345 sram_addr[2]
*346 sram_addr[1]
*347 sram_addr[0]
*348 sram_din[63]
*349 sram_din[62]
*350 sram_din[61]
*351 sram_din[60]
*352 sram_din[59]
*353 sram_din[58]
*354 sram_din[57]
*355 sram_din[56]
*356 sram_din[55]
*357 sram_din[54]
*358 sram_din[53]
*359 sram_din[52]
*360 sram_din[51]
*361 sram_din[50]
*362 sram_din[49]
*363 sram_din[48]
*364 sram_din[47]
*365 sram_din[46]
*366 sram_din[45]
*367 sram_din[44]
*368 sram_din[43]
*369 sram_din[42]
*370 sram_din[41]
*371 sram_din[40]
*372 sram_din[39]
*373 sram_din[38]
*374 sram_din[37]
*375 sram_din[36]
*376 sram_din[35]
*377 sram_din[34]
*378 sram_din[33]
*379 sram_din[32]
*380 sram_din[31]
*381 sram_din[30]
*382 sram_din[29]
*383 sram_din[28]
*384 sram_din[27]
*385 sram_din[26]
*386 sram_din[25]
*387 sram_din[24]
*388 sram_din[23]
*389 sram_din[22]
*390 sram_din[21]
*391 sram_din[20]
*392 sram_din[19]
*393 sram_din[18]
*394 sram_din[17]
*395 sram_din[16]
*396 sram_din[15]
*397 sram_din[14]
*398 sram_din[13]
*399 sram_din[12]
*400 sram_din[11]
*401 sram_din[10]
*402 sram_din[9]
*403 sram_din[8]
*404 sram_din[7]
*405 sram_din[6]
*406 sram_din[5]
*407 sram_din[4]
*408 sram_din[3]
*409 sram_din[2]
*410 sram_din[1]
*411 sram_din[0]
*412 sram_q[63]
*413 sram_q[62]
*414 sram_q[61]
*415 sram_q[60]
*416 sram_q[59]
*417 sram_q[58]
*418 sram_q[57]
*419 sram_q[56]
*420 sram_q[55]
*421 sram_q[54]
*422 sram_q[53]
*423 sram_q[52]
*424 sram_q[51]
*425 sram_q[50]
*426 sram_q[49]
*427 sram_q[48]
*428 sram_q[47]
*429 sram_q[46]
*430 sram_q[45]
*431 sram_q[44]
*432 sram_q[43]
*433 sram_q[42]
*434 sram_q[41]
*435 sram_q[40]
*436 sram_q[39]
*437 sram_q[38]
*438 sram_q[37]
*439 sram_q[36]
*440 sram_q[35]
*441 sram_q[34]
*442 sram_q[33]
*443 sram_q[32]
*444 sram_q[31]
*445 sram_q[30]
*446 sram_q[29]
*447 sram_q[28]
*448 sram_q[27]
*449 sram_q[26]
*450 sram_q[25]
*451 sram_q[24]
*452 sram_q[23]
*453 sram_q[22]
*454 sram_q[21]
*455 sram_q[20]
*456 sram_q[19]
*457 sram_q[18]
*458 sram_q[17]
*459 sram_q[16]
*460 sram_q[15]
*461 sram_q[14]
*462 sram_q[13]
*463 sram_q[12]
*464 sram_q[11]
*465 sram_q[10]
*466 sram_q[9]
*467 sram_q[8]
*468 bus_byte_sel_d1[2]
*469 bus_byte_sel_d1[1]
*470 bus_byte_sel_d1[0]
*471 n_0
*472 n_1
*473 n_2
*474 n_3
*475 n_4
*476 n_5
*477 n_6
*478 n_7
*479 n_8
*480 n_9
*481 n_10
*482 n_11
*483 n_12
*484 n_13
*485 n_14
*486 n_15
*487 n_16
*488 n_17
*489 n_18
*490 n_19
*491 n_20
*492 n_21
*493 n_22
*494 n_23
*495 n_24
*496 n_25
*497 n_26
*498 n_27
*499 n_28
*500 n_29
*501 n_30
*502 n_31
*503 n_32
*504 n_33
*505 n_34
*506 n_35
*507 n_36
*508 n_37
*509 n_38
*510 n_39
*511 n_40
*512 n_41
*513 n_42
*514 n_43
*515 n_44
*516 n_45
*517 n_60
*518 n_61
*519 n_62
*520 n_63
*521 n_64
*522 n_65
*523 n_66
*524 n_67
*525 sram_cen
*526 FE_PHC235_sram_din_18
*527 FE_PHC234_sram_din_13
*528 FE_PHC233_sram_din_1
*529 FE_PHC232_sram_din_8
*530 FE_PHC231_sram_din_9
*531 FE_PHC230_sram_din_3
*532 FE_PHC229_sram_din_5
*533 FE_PHC228_sram_din_4
*534 FE_PHC227_sram_din_11
*535 FE_PHC226_sram_din_10
*536 FE_PHC225_sram_din_0
*537 FE_PHC224_sram_din_12
*538 FE_PHC223_sram_din_6
*539 FE_PHC222_sram_din_2
*540 FE_PHC221_sram_din_33
*541 FE_PHC220_sram_din_35
*542 FE_PHC219_sram_din_34
*543 FE_PHC218_sram_din_42
*544 FE_PHC217_sram_din_47
*545 FE_PHC216_sram_din_37
*546 FE_PHC215_sram_din_49
*547 FE_PHC214_sram_din_32
*548 FE_PHC213_sram_din_43
*549 FE_PHC212_sram_din_38
*550 FE_PHC211_sram_din_50
*551 FE_PHC210_sram_din_41
*552 FE_PHC209_sram_din_45
*553 FE_PHC208_sram_din_46
*554 FE_PHC207_sram_addr_2
*555 FE_PHC206_sram_din_48
*556 FE_PHC205_sram_addr_7
*557 FE_PHC204_sram_addr_8
*558 FE_PHC203_sram_din_36
*559 FE_PHC202_sram_din_53
*560 FE_PHC201_sram_din_51
*561 FE_PHC200_sram_din_62
*562 FE_PHC199_sram_din_54
*563 FE_PHC198_sram_din_52
*564 FE_PHC197_sram_din_55
*565 FE_PHC196_sram_din_60
*566 FE_PHC195_sram_din_7
*567 FE_PHC194_tpu_we
*568 FE_PHC193_bus_addr_0
*569 FE_PHC192_bus_addr_5
*570 FE_PHC191_bus_addr_10
*571 FE_PHC190_bus_addr_11
*572 FE_PHC189_bus_addr_2
*573 FE_PHC188_bus_addr_1
*574 FE_PDC16_n_16
*575 FE_PHC187_tpu_din_18
*576 FE_PHC186_sram_din_1
*577 FE_PHC185_sram_din_8
*578 FE_PHC184_sram_din_0
*579 FE_PHC183_sram_din_19
*580 FE_PHC182_sram_din_20
*581 FE_PHC181_sram_din_21
*582 FE_PHC180_bus_addr_2
*583 FE_PHC179_tpu_we
*584 FE_PHC178_sram_din_11
*585 FE_PHC177_sram_din_9
*586 FE_PHC176_sram_din_10
*587 FE_PHC175_sram_din_8
*588 FE_PHC174_sram_din_0
*589 FE_PHC173_sram_din_1
*590 FE_PHC172_sram_din_12
*591 FE_PHC171_sram_din_13
*592 FE_PHC170_sram_din_4
*593 FE_PHC169_sram_din_3
*594 FE_PHC168_sram_din_5
*595 FE_PHC167_sram_din_33
*596 FE_PHC166_sram_din_32
*597 FE_PHC165_sram_din_35
*598 FE_PHC164_sram_din_34
*599 FE_PHC163_sram_din_37
*600 FE_PHC162_sram_din_38
*601 FE_PHC161_sram_din_36
*602 FE_PHC160_sram_din_31
*603 FE_PHC159_sram_din_16
*604 FE_PHC158_sram_din_28
*605 FE_PHC157_sram_din_22
*606 FE_PHC156_sram_din_23
*607 FE_PHC155_sram_din_24
*608 FE_PHC154_sram_din_25
*609 FE_PHC153_sram_din_26
*610 FE_PHC152_sram_din_29
*611 FE_PHC151_sram_din_27
*612 FE_PHC150_sram_din_14
*613 FE_PHC149_sram_din_15
*614 FE_PHC148_sram_din_44
*615 FE_PHC147_sram_addr_4
*616 FE_PHC146_sram_din_41
*617 FE_PHC145_bus_addr_1
*618 FE_PHC144_sram_din_39
*619 FE_PHC143_sram_din_49
*620 FE_PHC142_bus_addr_0
*621 FE_PHC141_sram_din_40
*622 FE_PHC140_sram_din_42
*623 FE_PHC139_sram_din_47
*624 FE_PHC138_sram_din_43
*625 FE_PHC137_sram_addr_0
*626 FE_PHC136_sram_din_58
*627 FE_PHC135_sram_din_56
*628 FE_PHC134_sram_din_59
*629 FE_PHC133_sram_din_57
*630 FE_PHC132_sram_din_61
*631 FE_PHC131_sram_din_63
*632 FE_PHC130_sram_addr_1
*633 FE_PHC129_sram_din_45
*634 FE_PHC128_sram_din_50
*635 FE_PHC127_sram_din_48
*636 FE_PHC126_sram_din_51
*637 FE_PHC125_sram_din_46
*638 FE_PHC124_sram_din_52
*639 FE_PHC123_sram_addr_6
*640 FE_PHC122_sram_din_62
*641 FE_PHC121_sram_din_53
*642 FE_PHC120_sram_din_60
*643 FE_PHC119_sram_din_54
*644 FE_PHC118_sram_addr_5
*645 FE_PHC117_sram_din_55
*646 FE_PHC116_sram_addr_2
*647 FE_PHC115_sram_addr_3
*648 FE_PHC114_sram_addr_7
*649 FE_PHC113_sram_addr_8
*650 FE_PHC112_sram_cen
*651 FE_PHC111_sram_din_30
*652 FE_PHC110_tpu_we
*653 FE_PHC109_bus_addr_2
*654 FE_PHC108_rstn
*655 FE_PHC107_sram_din_7
*656 FE_PHC106_sram_din_5
*657 FE_PHC105_sram_din_2
*658 FE_PHC104_sram_din_3
*659 FE_PHC103_sram_din_4
*660 FE_PHC102_sram_din_6
*661 FE_PHC101_sram_din_0
*662 FE_PHC100_sram_din_11
*663 FE_PHC99_sram_din_1
*664 FE_PHC98_sram_din_8
*665 FE_PHC97_sram_din_9
*666 FE_PHC96_sram_din_13
*667 FE_PHC95_sram_din_10
*668 FE_PHC94_sram_din_12
*669 FE_PHC93_sram_din_33
*670 FE_PHC92_sram_din_32
*671 FE_PHC91_sram_din_35
*672 FE_PHC90_sram_din_34
*673 FE_PHC89_sram_din_37
*674 FE_PHC88_sram_din_39
*675 FE_PHC87_sram_din_41
*676 FE_PHC86_sram_din_38
*677 FE_PHC85_sram_din_40
*678 FE_PHC84_sram_din_42
*679 FE_PHC83_sram_din_44
*680 FE_PHC82_sram_din_43
*681 FE_PHC81_sram_din_36
*682 FE_PHC80_sram_addr_6
*683 FE_PHC79_sram_addr_4
*684 FE_PHC78_sram_addr_0
*685 FE_PHC77_sram_addr_2
*686 FE_PHC76_sram_addr_5
*687 FE_PHC75_sram_addr_1
*688 FE_PHC74_sram_addr_3
*689 FE_PHC73_sram_addr_7
*690 FE_PHC72_sram_addr_8
*691 FE_PHC71_sram_din_45
*692 FE_PHC70_sram_din_47
*693 FE_PHC69_sram_din_46
*694 FE_PHC68_sram_din_49
*695 FE_PHC67_sram_din_48
*696 FE_PHC66_sram_din_50
*697 FE_PHC65_sram_din_53
*698 FE_PHC64_sram_din_52
*699 FE_PHC63_sram_din_51
*700 FE_PHC62_sram_din_54
*701 FE_PHC61_sram_din_62
*702 FE_PHC60_sram_din_60
*703 FE_PHC59_sram_din_56
*704 FE_PHC58_sram_din_61
*705 FE_PHC57_sram_din_63
*706 FE_PHC56_sram_din_59
*707 FE_PHC55_sram_din_57
*708 FE_PHC54_FE_OFN10_bus_dout_5
*709 FE_PHC53_FE_OFN11_bus_dout_4
*710 FE_PHC52_sram_din_55
*711 FE_PHC51_rstn
*712 FE_PHC50_FE_OFN13_bus_dout_2
*713 FE_PHC49_FE_OFN12_bus_dout_3
*714 FE_PHC48_FE_OFN15_bus_dout_0
*715 FE_PHC47_FE_OFN9_bus_dout_6
*716 FE_PHC46_FE_OFN14_bus_dout_1
*717 FE_PHC45_n_38
*718 FE_PHC44_n_14
*719 FE_PHC43_FE_OFN8_bus_dout_7
*720 FE_PHC42_sram_din_58
*721 FE_PHC41_sram_cen
*722 FE_PHC40_tpu_we
*723 FE_PHC39_tpu_din_17
*724 FE_PHC38_bus_byte_sel_d1_2
*725 FE_PHC37_bus_byte_sel_d1_1
*726 FE_PHC36_bus_byte_sel_d1_0
*727 FE_PHC35_tpu_din_18
*728 FE_PHC34_tpu_din_31
*729 FE_PHC33_tpu_din_20
*730 FE_PHC32_tpu_din_16
*731 FE_PHC31_tpu_din_19
*732 FE_PHC30_tpu_din_21
*733 FE_PHC29_tpu_din_28
*734 FE_PHC28_tpu_din_22
*735 FE_PHC27_tpu_din_23
*736 FE_PHC26_tpu_din_24
*737 FE_PHC25_tpu_din_25
*738 FE_PHC24_bus_addr_0
*739 FE_PHC23_bus_addr_2
*740 FE_PHC22_bus_addr_1
*741 FE_PHC21_tpu_din_26
*742 FE_PHC20_tpu_din_14
*743 FE_PHC19_tpu_din_29
*744 FE_PHC18_tpu_din_15
*745 FE_PHC17_tpu_din_27
*746 FE_PHC16_tpu_din_30
*747 CTS_ccl_a_inv_00001
*748 CTS_cmf_inv_00047
*749 LTIELO
*750 LTIEHI
*751 FE_OFC15_bus_dout_0
*752 FE_OFC14_bus_dout_1
*753 FE_OFC13_bus_dout_2
*754 FE_OFC12_bus_dout_3
*755 FE_OFC11_bus_dout_4
*756 FE_OFC10_bus_dout_5
*757 FE_OFC9_bus_dout_6
*758 FE_OFC8_bus_dout_7
*759 FE_OFC7_n_43
*760 FE_OFC6_n_36
*761 FE_OFC5_n_32
*762 FE_OFC4_n_26
*763 FE_OFC3_n_25
*764 FE_OFC2_n_22
*765 FE_OFC1_n_21
*766 FE_OFC0_n_15
*767 u_sram
*768 p70817A__2398
*769 p70817A1797__5107
*770 p70817A1798__6260
*771 p70817A1799__4319
*772 p70817A1800__8428
*773 p70817A1801__5526
*774 p70817A1802__6783
*775 p70817A1803__3680
*776 p70812A__1617
*777 p70816A__2802
*778 p70824A__1705
*779 p70812A1804__5122
*780 p70812A1805__8246
*781 p70810A__7098
*782 p70824A1806__6131
*783 p70810A1807__1881
*784 p70812A1808__5115
*785 p70816A1809__7482
*786 p70812A1810__4733
*787 p70824A1811__6161
*788 p70810A1812__9315
*789 p70824A1813__9945
*790 p70824A1814__2883
*791 p70816A1815__2346
*792 p70810A1816__1666
*793 p70812A1817__7410
*794 p70816A1818__6417
*795 p70816A1819__5477
*796 p70816A1820__2398
*797 p70810A1821__5107
*798 p70810A1822__6260
*799 p70824A1823__4319
*800 p70824A1824__8428
*801 p70810A1825__5526
*802 p70816A1826__6783
*803 p70816A1827__3680
*804 p70812A1828__1617
*805 p70810A1829__2802
*806 p70824A1830__1705
*807 p70812A1831__5122
*808 p71871A__8246
*809 p71849A__7098
*810 p71898A__6131
*811 p71884A__1881
*812 p71849A1832__5115
*813 p71859A__7482
*814 p71846A__4733
*815 p71862A__6161
*816 p71824A__9315
*817 p71822A__9945
*818 p71825A__2883
*819 p71861A__2346
*820 bus_byte_sel_d1_reg\[2\]
*821 bus_byte_sel_d1_reg\[1\]
*822 p96144A__1666
*823 p96144A1087__7410
*824 p96144A1088__6417
*825 p96144A1089__5477
*826 p96144A1090__2398
*827 p96144A1091__5107
*828 p96144A1092__6260
*829 p96144A1093__4319
*830 p96144A1094__8428
*831 p96447A__5526
*832 p96447A1095__6783
*833 p96447A1096__3680
*834 p96447A1097__1617
*835 p96447A1098__2802
*836 p96447A1099__1705
*837 p96447A1100__5122
*838 p96447A1101__8246
*839 p96447A1102__7098
*840 p96447A1103__6131
*841 p96447A1104__1881
*842 p96447A1105__5115
*843 p96447A1106__7482
*844 p96447A1107__4733
*845 p96447A1108__6161
*846 p96447A1109__9315
*847 p96447A1110__9945
*848 p96447A1111__2883
*849 p96447A1112__2346
*850 p96447A1113__1666
*851 p96447A1114__7410
*852 p96447A1115__6417
*853 p96447A1116__5477
*854 p96447A1117__2398
*855 p96447A1118__5107
*856 p96447A1119__6260
*857 p96447A1120__4319
*858 p96447A1121__8428
*859 p96447A1122__5526
*860 p96447A1123__6783
*861 p96447A1124__3680
*862 p96447A1125__1617
*863 p96447A1126__2802
*864 p96447A1127__1705
*865 p96447A1128__5122
*866 p96447A1129__8246
*867 p96447A1130__7098
*868 p96447A1131__6131
*869 p96447A1132__1881
*870 p96447A1133__5115
*871 p96447A1134__7482
*872 p96447A1135__4733
*873 p96407A__6161
*874 p96447A1136__9315
*875 p96447A1137__9945
*876 p96447A1138__2883
*877 p96447A1139__2346
*878 p96447A1140__1666
*879 p96447A1141__7410
*880 p96447A1142__6417
*881 p96447A1143__5477
*882 p96447A1144__2398
*883 p96447A1145__5107
*884 p96447A1146__6260
*885 p96447A1147__4319
*886 p96447A1148__8428
*887 p96447A1149__5526
*888 p96447A1150__6783
*889 p96447A1151__3680
*890 p96447A1152__1617
*891 p96447A1153__2802
*892 p96447A1154__1705
*893 p96447A1155__5122
*894 p96447A1156__8246
*895 p96447A1157__7098
*896 Fp96144A1836
*897 bus_byte_sel_d1_reg\[0\]


*PORTS

*242 I *C 10 153
*243 I *C 15 153
*244 I *C 0 5
*245 I *C 0 37.4
*246 I *C 0 33.8
*247 I *C 0 30.2
*248 I *C 0 26.6
*249 I *C 0 23
*250 I *C 0 19.4
*251 I *C 0 15.8
*252 I *C 0 12.2
*253 I *C 0 8.6
*254 I *C 0 267.8
*255 I *C 0 264.2
*256 I *C 0 260.6
*257 I *C 0 257
*258 I *C 0 253.4
*259 I *C 0 249.8
*260 I *C 0 246.2
*261 I *C 0 242.6
*262 I *C 0 239
*263 I *C 0 235.4
*264 I *C 0 231.8
*265 I *C 0 228.2
*266 I *C 0 224.6
*267 I *C 0 221
*268 I *C 0 217.4
*269 I *C 0 213.8
*270 I *C 0 210.2
*271 I *C 0 206.6
*272 I *C 0 203
*273 I *C 0 199.4
*274 I *C 0 195.8
*275 I *C 0 192.2
*276 I *C 0 188.6
*277 I *C 0 185
*278 I *C 0 181.4
*279 I *C 0 177.8
*280 I *C 0 174.2
*281 I *C 0 170.6
*282 I *C 0 167
*283 I *C 0 163.4
*284 I *C 0 159.8
*285 I *C 0 156.2
*286 I *C 0 152.6
*287 I *C 0 149
*288 I *C 0 145.4
*289 I *C 0 141.8
*290 I *C 0 138.2
*291 I *C 0 134.6
*292 I *C 0 131
*293 I *C 0 127.4
*294 I *C 0 123.8
*295 I *C 0 120.2
*296 I *C 0 116.6
*297 I *C 0 113
*298 I *C 0 109.4
*299 I *C 0 105.8
*300 I *C 0 102.2
*301 I *C 0 98.6
*302 I *C 0 95
*303 I *C 0 91.4
*304 I *C 0 87.8
*305 I *C 0 84.2
*306 I *C 0 80.6
*307 I *C 0 77
*308 I *C 0 73.4
*309 I *C 0 69.8
*310 I *C 0 66.2
*311 I *C 0 62.6
*312 I *C 0 59
*313 I *C 0 55.4
*314 I *C 0 51.8
*315 I *C 0 48.2
*316 I *C 0 44.6
*317 I *C 0 41
*318 I *C 324 5
*319 I *C 324 48.2
*320 I *C 324 44.6
*321 I *C 324 41
*322 I *C 324 37.4
*323 I *C 324 33.8
*324 I *C 324 30.2
*325 I *C 324 26.6
*326 I *C 324 23
*327 I *C 324 19.4
*328 I *C 324 15.8
*329 I *C 324 12.2
*330 I *C 324 8.6
*331 O *C 324 77
*332 O *C 324 73.4
*333 O *C 324 69.8
*334 O *C 324 66.2
*335 O *C 324 62.6
*336 O *C 324 59
*337 O *C 324 55.4
*338 O *C 324 51.8


*D_NET *1 0.00292104

*CONN
*I *526:Z O *C 230.1 145.6 *L 0 *D DEL015
*I *767:D[18] I *C 238.585 134.265 *L 0.00183 *D sram00

*CAP
1 *1:3 0.000355437
2 *1:4 6.26064e-05
3 *1:5 0.000251725
4 *1:6 5.31762e-05
5 *1:7 0.000532773
6 *1:8 0.0002509
7 *1:9 6.21111e-05
8 *1:11 0.00135231

*RES
1 *1:10 *1:11 1.31973
2 *1:7 *1:9 0.285118
3 *1:2 *1:3 1.48401
4 *1:8 *1:9 0.854502
5 *1:4 *1:5 0.285118
6 *1:6 *1:11 5.58108997
7 *1:5 *1:6 1.11739
8 *1:4 *1:7 2.48473
9 *526:Z *1:2 0.224994
10 *1:3 *1:10 0.224994
11 *526:Z *767:D[18] 8.51607e-05
*END

*D_NET *2 0.00248813

*CONN
*I *527:Z O *C 250.9 142.8 *L 0 *D DEL01
*I *767:D[13] I *C 259.855 134.265 *L 0.00183 *D sram00

*CAP
1 *2:2 8.60621e-05
2 *2:3 0.000572427
3 *2:4 9.49035e-05
4 *2:5 8.60621e-05
5 *2:6 6.75619e-05
6 *2:7 0.000110348
7 *2:8 3.99561e-05
8 *2:9 1.39224e-05
9 *2:10 0.000249559
10 *2:11 2.18834e-06
11 *2:12 0.000824212031
12 *2:13 5.01683e-05
13 *2:14 0.00029076

*RES
1 *2:11 *2:12 0.394367
2 *2:10 *2:11 0.092595
3 *2:9 *2:10 2.17368
4 *2:7 *2:14 0.856501
5 *2:8 *2:14 0.619367
6 *2:8 *2:9 0.092595
7 *2:4 *2:5 0.084985
8 *2:3 *2:6 3.00077
9 *2:12 *2:15 6.66631
10 *2:5 *2:7 0.544644
11 *527:Z *2:2 0.225
12 *2:2 *2:3 0.225
13 *2:6 *2:13 0.225
14 *2:13 *2:15 0.225
15 *527:Z *767:D[13] 0.0001
*END

*D_NET *3 0.000289023

*CONN
*I *528:I I *C 287.3 141.6 *L 0.00103 *D DEL015
*I *576:Z O *C 287.3 142.8 *L 0 *D BUFFD1

*CAP
1 *528:I 0.000289023008

*RES
1 *576:Z *528:I 1.20542
*END

*D_NET *4 0.00146294

*CONN
*I *529:Z O *C 273.9 142 *L 0 *D DEL015
*I *767:D[8] I *C 280.585 134.265 *L 0.00183 *D sram00

*CAP
1 *4:2 0.000170146
2 *4:3 4.50145e-05
3 *4:4 0.000451106
4 *4:5 2.88458e-05
5 *4:7 0.000767835938

*RES
1 *4:6 *4:7 1.60996
2 *4:4 *4:5 2.85489
3 *4:5 *4:7 4.3798399
4 *529:Z *4:2 0.22502
5 *4:2 *4:3 0.22502
6 *4:3 *4:6 0.22502
7 *529:Z *767:D[8] 6.68311e-05
*END

*D_NET *5 0.00700409

*CONN
*I *530:I I *C 231.3 141.6 *L 0.00104 *D DEL0
*I *585:Z O *C 189.5 142 *L 0 *D CKBD0

*CAP
1 *585:Z 4.91547e-05
2 *5:2 0.000264949
3 *5:3 0.000169896
4 *5:4 0.00112911
5 *5:5 6.9261e-05
6 *5:6 2.70669e-05
7 *5:7 0.000479469
8 *5:4 *48:3 0.000341625977
9 *5:4 *135:3 0.00246064
10 *5:3 *392:3 0.000622169961
11 *585:Z *480:10 0.000384493008
12 *585:Z *477:10 0.000733085
13 *5:2 *454:13 0.000273173984

*RES
1 *5:4 *5:5 1.51328
2 *5:3 *5:6 4.49377
3 *5:5 *5:7 5.51175
4 *585:Z *5:3 0.450106
5 *5:6 *5:7 0.350989
6 *5:2 *5:4 19.1049995
7 *530:I *5:2 0.800803
*END

*D_NET *6 0.000438333

*CONN
*I *531:I I *C 252.1 141.6 *L 0.00104 *D DEL0
*I *593:Z O *C 252.1 139.2 *L 0 *D CKBD0

*CAP
1 *531:I 0.000438333008

*RES
1 *593:Z *531:I 1.74517
*END

*D_NET *7 0.000941356

*CONN
*I *532:I I *C 247.3 139.6 *L 0.00104 *D DEL0
*I *594:Z O *C 250.5 139.2 *L 0 *D CKBD0

*CAP
1 *7:2 0.000130487
2 *7:3 0.000810871016

*RES
1 *532:I *7:3 0.675003
2 *7:2 *7:3 2.76914001
3 *594:Z *7:2 0.225001
*END

*D_NET *8 1.0719e-05

*CONN
*I *533:I I *C 249.5 141.6 *L 0.00104 *D DEL0
*I *592:Z O *C 249.3 142 *L 0 *D CKBD0

*CAP
1 *592:Z 1.07190002e-05

*RES
1 *592:Z *533:I 0.154551
*END

*D_NET *9 0.00830123

*CONN
*I *534:I I *C 228.5 143.2 *L 0.00104 *D DEL0
*I *584:Z O *C 179.7 142.8 *L 0 *D CKBD0

*CAP
1 *584:Z 7.19742e-05
2 *534:I 0.000478774
3 *9:2 9.23389e-05
4 *9:3 0.000658156
5 *9:4 0.00269072
6 *534:I *10:2 0.00283628
7 *9:2 *31:2 0.000428036016
8 *9:2 *141:2 0.000231731992
9 *9:3 *241:2 0.000813232031

*RES
1 *9:2 *9:4 31.2206001
2 *584:Z *9:3 0.384446
3 *9:3 *9:4 4.71196
4 *534:I *9:2 5.56422
*END

*D_NET *10 0.00724136

*CONN
*I *535:I I *C 228.7 141.6 *L 0.00104 *D DEL0
*I *586:Z O *C 188.7 142 *L 0 *D CKBD0

*CAP
1 *10:2 0.000723541
2 *10:3 0.000719559
3 *10:4 0.000125186
4 *10:5 0.00283681
5 *10:2 *534:I 0.00283628

*RES
1 *10:3 *10:5 5.26101
2 *10:2 *10:4 6.62972
3 *10:4 *10:5 25.1539993
4 *586:Z *10:3 0.701622
5 *535:I *10:2 0.449837
*END

*D_NET *11 1.1322e-05

*CONN
*I *536:I I *C 290.5 145.2 *L 0.00103 *D DEL015
*I *578:Z O *C 290.3 145.6 *L 0 *D BUFFD1

*CAP
1 *578:Z 1.13219995e-05

*RES
1 *578:Z *536:I 0.165372
*END

*D_NET *12 0.00800204

*CONN
*I *537:I I *C 230.5 139.6 *L 0.00104 *D DEL0
*I *590:Z O *C 188.1 139.2 *L 0 *D CKBD0

*CAP
1 *12:2 0.000298476
2 *12:3 0.000936433
3 *12:4 0.00234287
4 *12:3 *394:2 0.00442426

*RES
1 *12:3 *12:4 31.3794994
2 *590:Z *12:2 1.07877
3 *537:I *12:3 2.1786
4 *12:2 *12:4 0.576012
*END

*D_NET *13 0.00229649

*CONN
*I *538:Z O *C 271.3 142 *L 0 *D DEL0
*I *767:D[6] I *C 288.985 134.265 *L 0.00183 *D sram00

*CAP
1 *13:2 0.000113053
2 *13:3 0.000127875
3 *13:4 0.000733581
4 *13:5 0.0012865
5 *13:6 3.54531e-05

*RES
1 *13:4 *13:6 4.84254
2 *13:5 *13:6 11.3046
3 *538:Z *13:2 0.225
4 *13:2 *13:3 0.225
5 *13:3 *13:5 0.225
6 *538:Z *767:D[6] 0.0001
*END

*D_NET *14 0.00241949

*CONN
*I *539:Z O *C 288.1 145.6 *L 0 *D DEL0
*I *767:D[2] I *C 305.785 134.265 *L 0.00183 *D sram00

*CAP
1 *14:2 6.82458e-05
2 *14:3 2.27336e-05
3 *14:5 0.000476509
4 *14:6 0.000252067
5 *14:7 7.50906e-05
6 *14:8 9.20118e-07
7 *14:9 0.00147073
8 *14:10 5.31873e-05

*RES
1 *14:9 *14:10 11.1209
2 *14:6 *14:8 0.159213
3 *14:4 *14:6 1.72935
4 *14:7 *14:8 0.32348
5 *14:5 *14:10 4.6176
6 *14:4 *14:5 0.159213
7 *14:3 *14:9 0.476808
8 *539:Z *14:2 0.225
9 *14:2 *14:3 0.225
10 *539:Z *767:D[2] 0.0001
*END

*D_NET *15 0.00910251

*CONN
*I *540:I I *C 21.7 145.2 *L 0.00103 *D DEL01
*I *884:Z O *C 79.5 141.8 *L 0 *D CKAN2D0

*CAP
1 *540:I 0.000126297
2 *15:2 0.00379847
3 *15:3 6.12067e-05
4 *15:4 0.00152878
5 *15:3 *281:2 0.0016078
6 *15:2 *282:2 0.00166647
7 *15:2 *268:2 0.000313465

*RES
1 *15:3 *15:2 43.9255981
2 *15:3 *15:4 6.9438
3 *540:I *15:2 5.51416
4 *884:Z *15:4 0.225204
*END

*D_NET *16 0.00742448

*CONN
*I *541:I I *C 21.7 143.2 *L 0.00103 *D DEL01
*I *881:Z O *C 79.1 143 *L 0 *D CKAN2D0

*CAP
1 *541:I 5.74694e-05
2 *16:2 0.000144989
3 *16:3 1.17016e-05
4 *16:4 0.000391692
5 *16:5 0.00226883
6 *16:2 *234:2 0.000295276992
7 *16:4 *238:2 0.000514618984
8 *16:4 *417:2 0.00207585
9 *16:4 *419:2 0.00166407

*RES
1 *16:4 *16:5 37.2034988
2 *881:Z *16:2 0.450171
3 *541:I *16:3 0.450171
4 *16:3 *16:5 0.450171
5 *16:2 *16:4 0.224801
*END

*D_NET *17 0.00984868

*CONN
*I *542:I I *C 23.9 145.2 *L 0.00103 *D DEL01
*I *883:Z O *C 80.3 145.4 *L 0 *D CKAN2D0

*CAP
1 *883:Z 0.00020479
2 *542:I 8.64581e-05
3 *17:2 0.000724546
4 *17:3 0.000286868
5 *17:4 2.21055e-05
6 *17:5 0.000163173
7 *17:6 0.000172564
8 *17:7 0.000174326
9 *17:8 0.00164998
10 *17:3 *271:3 0.000714588984
11 *17:6 *279:2 0.00119293
12 *17:3 *300:2 0.000767273047
13 *17:5 *223:5 0.000891563984
14 *17:5 *203:2 0.00258242016
15 *17:2 *110:2 0.000215072012

*RES
1 *17:7 *17:8 1.48413
2 *17:6 *17:8 15.3344
3 *17:5 *17:7 15.8875999
4 *17:2 *17:6 0.728731
5 *883:Z *17:3 2.98717
6 *17:3 *17:4 0.0926066
7 *17:4 *17:2 6.90549
8 *542:I *17:5 0.449942
*END

*D_NET *18 0.00951217

*CONN
*I *543:I I *C 23.7 143.2 *L 0.00103 *D BUFFD2
*I *870:Z O *C 72.9 141.8 *L 0 *D CKAN2D0

*CAP
1 *543:I 0.000405533
2 *18:2 0.000238189
3 *18:3 0.000184295
4 *18:4 0.000475904
5 *18:5 0.00119322
6 *18:6 9.44234e-05
7 *18:7 4.87958e-06
8 *543:I *208:3 0.00429722969
9 *18:2 *374:2 0.00261852

*RES
1 *18:5 *18:6 0.0924697
2 *18:4 *18:7 10.1885
3 *18:3 *18:5 24.0480003
4 *543:I *18:4 2.13561
5 *18:6 *18:7 2.92711
6 *18:2 *18:3 0.449873
7 *870:Z *18:2 0.224936
*END

*D_NET *19 0.00918586

*CONN
*I *544:I I *C 26.1 145.2 *L 0.00103 *D DEL01
*I *858:Z O *C 66.5 145.4 *L 0 *D CKAN2D0

*CAP
1 *858:Z 0.000166365
2 *19:2 0.002236
3 *19:3 0.000482445
4 *19:4 0.000416083
5 *19:2 *258:2 0.000565240039
6 *19:3 *366:2 0.00292
7 *19:3 *27:2 0.00152419
8 *19:3 *378:3 0.000875546016

*RES
1 *19:3 *19:2 35.4818993
2 *858:Z *19:3 3.09687
3 *19:2 *19:4 3.26146
4 *544:I *19:4 0.225227
*END

*D_NET *20 0.0105635

*CONN
*I *545:I I *C 27.1 141.6 *L 0.00103 *D DEL01
*I *878:Z O *C 86.5 143 *L 0 *D CKAN2D0

*CAP
1 *878:Z 8.57213e-05
2 *545:I 5.78719e-05
3 *20:2 0.000748217
4 *20:3 0.00374766
5 *20:4 0.000141077
6 *20:5 0.00121817
7 *20:2 *24:3 0.000758463047
8 *20:2 *282:2 0.00251212
9 *20:2 *240:2 0.00129424

*RES
1 *20:2 *20:3 46.0320015
2 *20:3 *20:4 0.597736
3 *878:Z *20:2 6.20915
4 *20:4 *20:5 5.92538
5 *545:I *20:5 0.384209
*END

*D_NET *21 0.00382407

*CONN
*I *546:Z O *C 31.9 142.8 *L 0 *D DEL01
*I *694:I I *C 53.5 143.2 *L 0.00105 *D DEL1

*CAP
1 *546:Z 0.000121184
2 *21:2 0.000586039
3 *21:3 0.00311687

*RES
1 *21:2 *21:3 15.2629995
2 *694:I *21:2 0.701712
3 *546:Z *21:3 0.449953
*END

*D_NET *22 0.0121828

*CONN
*I *547:I I *C 28.3 145.2 *L 0.00103 *D DEL01
*I *886:Z O *C 75.5 145.4 *L 0 *D CKAN2D0

*CAP
1 *22:2 0.000133643
2 *22:3 0.00213409
3 *22:4 0.000527213
4 *22:5 0.000570914
5 *22:2 *27:2 0.00458575
6 *22:2 *30:2 0.00423123969

*RES
1 *22:2 *22:5 2.11329
2 *22:2 *22:3 52.4608002
3 *22:3 *22:4 2.23977
4 *886:Z *22:5 0.224937
5 *547:I *22:4 0.224937
*END

*D_NET *23 0.00977745

*CONN
*I *548:I I *C 30.5 145.2 *L 0.00103 *D DEL01
*I *869:Z O *C 70.7 145.4 *L 0 *D CKAN2D0

*CAP
1 *869:Z 0.000506419
2 *23:2 1.82645e-05
3 *23:3 0.00174739
4 *23:4 0.000683865
5 *869:Z *378:4 0.0019503
6 *869:Z *285:2 0.000464108008
7 *869:Z *28:5 0.00392823
8 *869:Z *370:5 0.00047887

*RES
1 *23:2 *23:3 36.6226006
2 *869:Z *23:2 3.98101
3 *23:3 *23:4 3.12099
4 *548:I *23:4 0.225203
*END

*D_NET *24 0.0101842

*CONN
*I *549:I I *C 32.7 145.2 *L 0.00103 *D DEL01
*I *877:Z O *C 83.5 145.4 *L 0 *D CKAN2D0

*CAP
1 *24:2 6.90099e-05
2 *24:3 0.00133549
3 *24:4 2.55144e-05
4 *24:5 0.0013452
5 *24:6 0.000831218
6 *24:7 0.000719801
7 *24:3 *285:2 0.00208821016
8 *24:3 *20:2 0.000758463047
9 *24:2 *240:2 0.00301124

*RES
1 *24:3 *24:4 23.1215
2 *24:2 *24:3 0.289301
3 *24:5 *24:6 3.62438
4 *24:4 *24:5 20.8618
5 *24:2 *24:7 3.24687
6 *877:Z *24:7 0.22509
7 *549:I *24:6 0.22509
*END

*D_NET *25 0.00562405

*CONN
*I *550:I I *C 32.3 143.2 *L 0.00103 *D DEL01
*I *634:Z O *C 54.1 139.2 *L 0 *D DEL015

*CAP
1 *25:2 0.000302658
2 *25:3 4.48407e-05
3 *25:5 0.00142583
4 *25:6 0.00100227
5 *25:2 *304:4 0.00231885
6 *25:3 *413:3 0.000529618984

*RES
1 *25:4 *25:6 3.69313
2 *25:2 *25:5 14.0194998
3 *25:3 *25:6 3.26165
4 *25:3 *25:5 0.602614
5 *634:Z *25:2 0.864239
6 *550:I *25:4 0.225044
*END

*D_NET *26 1.0681e-05

*CONN
*I *551:I I *C 69.1 143.2 *L 0.000643 *D CKBD0
*I *871:Z O *C 68.9 143 *L 0 *D CKAN2D0

*CAP
1 *871:Z 1.06809998e-05

*RES
1 *871:Z *551:I 0.156489
*END

*D_NET *27 0.00963312

*CONN
*I *552:I I *C 34.9 145.2 *L 0.00103 *D DEL01
*I *864:Z O *C 71.9 143 *L 0 *D CKAN2D0

*CAP
1 *864:Z 0.000866458
2 *27:2 0.00208470984
3 *27:3 0.000329463
4 *27:4 0.000242524
5 *27:2 *19:3 0.00152419
6 *27:2 *22:2 0.00458575

*RES
1 *27:2 *27:4 36.3170013
2 *27:2 *27:3 2.43384
3 *864:Z *27:4 3.56709
4 *552:I *27:3 0.224986
*END

*D_NET *28 0.0126377

*CONN
*I *553:Z O *C 40.1 139.2 *L 0 *D DEL01
*I *693:I I *C 75.1 141.6 *L 0.00105 *D DEL1

*CAP
1 *693:I 9.79499e-05
2 *28:2 0.00121456
3 *28:3 0.0014991
4 *28:4 0.000224059
5 *28:5 0.00106635
6 *28:5 *869:Z 0.00392823
7 *28:2 *375:5 0.000438635
8 *28:3 *886:A2 0.00416884

*RES
1 *28:3 *28:4 2.99729
2 *28:4 *28:5 39.0828018
3 *693:I *28:3 6.66309
4 *28:5 *28:2 7.38945
5 *553:Z *28:2 0.224826
*END

*D_NET *29 0.0087726

*CONN
*I *554:I I *C 225.9 145.2 *L 0.00103 *D DEL01
*I *646:Z O *C 159.9 145.6 *L 0 *D DEL015

*CAP
1 *29:4 0.00433830969
2 *29:5 6.43448e-05
3 *29:6 0.00074963
4 *29:7 0.00093962
5 *29:2 *490:2 0.00268071

*RES
1 *29:3 *29:2 0.134638
2 *29:4 *29:5 0.134638
3 *29:2 *29:4 51.0036011
4 *29:3 *29:6 4.88354
5 *29:5 *29:7 4.64306
6 *646:Z *29:7 0.224915
7 *554:I *29:6 0.224915
*END

*D_NET *30 0.00921684

*CONN
*I *555:Z O *C 38.9 145.6 *L 0 *D DEL01
*I *695:I I *C 72.1 143.2 *L 0.00105 *D DEL1

*CAP
1 *30:2 0.00187959
2 *30:3 2.50956e-05
3 *30:4 0.000476042
4 *30:5 0.000352342
5 *30:6 0.000721291
6 *30:7 0.000260019
7 *30:2 *22:2 0.00423123969
8 *30:2 *373:2 0.0009083
9 *30:2 *379:3 0.000362935

*RES
1 *30:2 *30:5 1.86178
2 *30:2 *30:3 32.2872009
3 *30:6 *30:7 1.99874
4 *30:4 *30:6 2.00416
5 *30:3 *30:7 0.728649
6 *555:Z *30:5 0.225147
7 *695:I *30:4 0.449802
*END

*D_NET *31 0.00799488

*CONN
*I *556:I I *C 223.7 145.2 *L 0.00103 *D DEL01
*I *648:Z O *C 185.5 142.8 *L 0 *D DEL015

*CAP
1 *648:Z 0.000801175
2 *31:2 0.00192863
3 *31:3 0.000122954
4 *31:4 0.000219952
5 *31:2 *237:3 0.0030205
6 *31:2 *9:2 0.000428036016
7 *31:2 *241:4 0.00147361

*RES
1 *31:2 *31:4 29.2856998
2 *648:Z *31:2 3.37248
3 *31:3 *31:4 2.49127
4 *556:I *31:3 0.22522
*END

*D_NET *32 0.00671909

*CONN
*I *557:I I *C 219.9 141.6 *L 0.00103 *D DEL01
*I *649:Z O *C 187.3 139.2 *L 0 *D DEL015

*CAP
1 *649:Z 1.67791e-05
2 *32:2 0.00197064
3 *32:3 0.000576623
4 *32:2 *394:13 0.000305548008
5 *32:2 *403:6 0.000583178984
6 *32:3 *45:2 0.000376713984
7 *32:3 *396:5 0.000264082988
8 *32:3 *46:2 0.00262553

*RES
1 *32:3 *32:2 24.9288006
2 *557:I *32:3 2.49113
3 *649:Z *32:2 1.33134
*END

*D_NET *33 0.00973366

*CONN
*I *558:Z O *C 42.1 142.8 *L 0 *D DEL01
*I *681:I I *C 107.1 143.2 *L 0.00105 *D DEL1

*CAP
1 *681:I 0.000452129
2 *33:2 1.5391e-05
3 *33:3 0.000219896
4 *33:4 0.000155568
5 *33:5 0.000972572
6 *33:6 0.001894
7 *33:7 0.00190671
8 *33:8 0.000897188
9 *33:5 *288:3 0.000670401016
10 *33:3 *223:6 0.000706813984
11 *33:4 *419:4 0.000553219023
12 *33:2 *624:I 0.00128980008

*RES
1 *33:7 *33:8 1.74489
2 *33:6 *33:8 23.8384991
3 *681:I *33:3 1.98751
4 *33:2 *33:5 0.827887
5 *33:3 *33:5 7.99115
6 *33:2 *33:7 13.2331
7 *33:4 *33:6 0.728584
8 *558:Z *33:4 0.449955
*END

*D_NET *34 0.00288804

*CONN
*I *559:I I *C 39.3 145.2 *L 0.00103 *D DEL01
*I *840:Z O *C 50.5 145.4 *L 0 *D CKAN2D0

*CAP
1 *34:2 8.03096e-05
2 *34:3 0.000378814
3 *34:4 0.0010794
4 *34:5 0.00134951

*RES
1 *34:2 *34:4 0.728603
2 *34:3 *34:4 4.37873
3 *34:2 *34:5 5.17949009
4 *559:I *34:5 0.701811
5 *840:Z *34:3 0.225006
*END

*D_NET *35 0.00294305

*CONN
*I *560:I I *C 67.3 139.6 *L 0.00103 *D DEL01
*I *848:Z O *C 59.7 145.4 *L 0 *D CKAN2D0

*CAP
1 *848:Z 0.000352074
2 *35:2 6.61838e-05
3 *35:3 0.00129088
4 *35:4 0.00123389

*RES
1 *35:2 *35:4 4.69267
2 *35:2 *35:3 6.18254995
3 *848:Z *35:3 1.24913
4 *560:I *35:4 0.224997
*END

*D_NET *36 0.000859301

*CONN
*I *561:Z O *C 15.9 145.6 *L 0 *D DEL01
*I *640:I I *C 13.7 141.6 *L 0.00103 *D DEL015

*CAP
1 *640:I 0.000103612
2 *561:Z 0.000184274
3 *36:2 0.00057142

*RES
1 *561:Z *36:2 1.96084
2 *640:I *36:2 2.54129004
*END

*D_NET *37 0.00191282

*CONN
*I *562:Z O *C 51.7 142 *L 0 *D DEL01
*I *643:I I *C 46.7 145.2 *L 0.00103 *D DEL015

*CAP
1 *37:2 0.00142783
2 *37:3 0.000484985

*RES
1 *37:2 *37:3 3.72866011
2 *643:I *37:2 2.40113
3 *562:Z *37:3 1.40946
*END

*D_NET *38 0.00245628

*CONN
*I *563:Z O *C 61.1 142.8 *L 0 *D DEL01
*I *638:I I *C 55.5 145.2 *L 0.00103 *D DEL015

*CAP
1 *638:I 0.000441009
2 *563:Z 0.000511588
3 *38:2 0.00131814
4 *38:3 0.000185547

*RES
1 *38:2 *38:3 6.66266012
2 *563:Z *38:3 2.23946
3 *638:I *38:2 1.92277
*END

*D_NET *39 0.000798061

*CONN
*I *564:I I *C 40.5 139.6 *L 0.00103 *D DEL01
*I *834:Z O *C 42.5 141.8 *L 0 *D CKAN2D0

*CAP
1 *39:2 0.000798061016

*RES
1 *834:Z *39:2 0.728618
2 *564:I *39:2 2.57332993
*END

*D_NET *40 0.00116716

*CONN
*I *565:Z O *C 25.7 139.2 *L 0 *D DEL01
*I *642:I I *C 21.3 139.6 *L 0.00103 *D DEL015

*CAP
1 *565:Z 0.000218708
2 *40:2 7.22386e-05
3 *40:3 0.000876208984

*RES
1 *40:2 *40:3 3.58126998
2 *642:I *40:3 0.674985
3 *565:Z *40:2 0.369515
*END

*D_NET *41 0.00211919

*CONN
*I *566:I I *C 41.3 145.2 *L 0.00103 *D BUFFD2
*I *655:Z O *C 49.1 142 *L 0 *D BUFFD2

*CAP
1 *566:I 0.000128039
2 *41:2 0.00133276
3 *41:3 0.000641885
4 *41:4 1.65337e-05

*RES
1 *566:I *41:2 2.49256
2 *41:3 *41:4 0.219733
3 *41:2 *41:4 3.96160007
4 *655:Z *41:3 2.26739
*END

*D_NET *42 0.00120966

*CONN
*I *567:Z O *C 9.7 139.2 *L 0 *D CKBD0
*I *583:I I *C 13.3 139.6 *L 0.00105 *D DEL1

*CAP
1 *42:2 0.000420671
2 *42:3 0.000788983984

*RES
1 *42:2 *42:3 2.92844009
2 *567:Z *42:3 0.953611
3 *583:I *42:2 1.6153
*END

*D_NET *43 0.00989479

*CONN
*I *568:Z O *C 217.9 142 *L 0 *D DEL01
*I *738:I I *C 184.7 145.2 *L 0.00105 *D DEL1

*CAP
1 *568:Z 0.000857825
2 *43:2 5.58634e-05
3 *43:3 0.00106147
4 *43:2 *121:2 0.00384309
5 *568:Z *123:2 0.00407654

*RES
1 *43:2 *43:3 34.763401
2 *738:I *43:3 1.95099
3 *568:Z *43:2 3.43942
*END

*D_NET *44 0.00890331

*CONN
*I *569:Z O *C 139.7 142 *L 0 *D DEL01
*I *825:A2 I *C 164.5 139.6 *L 0.000745 *D AO22D0

*CAP
1 *569:Z 0.000205999
2 *44:2 5.96364e-06
3 *44:3 0.000400053
4 *44:4 7.48515e-05
5 *44:5 0.000208937
6 *44:6 0.000817525
7 *44:7 0.00114611992
8 *44:3 *239:3 0.00100144008
9 *44:2 *502:3 0.00239123984
10 *44:2 *512:2 0.00265117

*RES
1 *44:2 *44:3 22.0438995
2 *44:4 *44:5 6.34717
3 *44:3 *44:4 0.277836
4 *44:2 *44:7 5.26106
5 *569:Z *44:6 0.874208
6 *44:5 *44:6 3.46488
7 *825:A2 *44:7 0.225027
*END

*D_NET *45 0.00751132

*CONN
*I *570:Z O *C 211.3 145.6 *L 0 *D DEL01
*I *823:A2 I *C 174.7 139.6 *L 0.000745 *D AO22D0

*CAP
1 *570:Z 3.96321e-07
2 *45:2 0.00324661
3 *45:3 0.000231848
4 *45:4 0.000542365
5 *45:2 *32:3 0.000376713984
6 *45:2 *690:I 0.00101835
7 *570:Z *663:I 0.000420426016
8 *45:2 *403:6 0.00167464

*RES
1 *45:3 *45:4 3.64427
2 *45:2 *45:4 26.7028999
3 *570:Z *45:3 1.28104
4 *823:A2 *45:2 0.981964
*END

*D_NET *46 0.00718639

*CONN
*I *571:Z O *C 208.5 142 *L 0 *D DEL01
*I *824:A2 I *C 176.3 139.6 *L 0.000745 *D AO22D0

*CAP
1 *46:2 0.00171438
2 *46:4 0.0004844
3 *46:2 *32:3 0.00262553
4 *46:2 *394:13 0.000284478984
5 *46:2 *403:7 0.000541886992
6 *46:2 *396:5 0.00153571

*RES
1 *46:2 *46:4 24.1074009
2 *824:A2 *46:2 1.82527
3 *46:3 *46:4 2.36527
4 *571:Z *46:3 0.225124
*END

*D_NET *47 0.000495713

*CONN
*I *572:Z O *C 290.9 142.8 *L 0 *D DEL015
*I *582:I I *C 287.9 143.2 *L 0.00072 *D BUFFD1

*CAP
1 *582:I 0.000434383984
2 *47:2 6.13314e-05

*RES
1 *582:I *47:2 2.81537008
2 *572:Z *47:2 0.22502
*END

*D_NET *48 0.0102129

*CONN
*I *573:Z O *C 280.3 139.2 *L 0 *D CKBD1
*I *740:I I *C 183.3 141.6 *L 0.00105 *D DEL1

*CAP
1 *740:I 0.000164191
2 *573:Z 0.000116955
3 *48:2 0.00035587
4 *48:3 0.00437232031
5 *48:4 7.61912e-05
6 *48:5 0.000165326
7 *48:3 *320:3 0.00137651
8 *48:2 *132:3 0.000904396016
9 *48:2 *476:4 0.000430218984
10 *48:2 *134:4 0.000420558984
11 *48:3 *774:A2 0.00109649
12 *48:3 *5:4 0.000341625977
13 *48:4 *135:3 0.000392196016

*RES
1 *48:2 *48:3 61.2313004
2 *573:Z *48:5 0.45034
3 *740:I *48:4 0.674576
4 *48:4 *48:3 1.45753
5 *48:5 *48:2 2.11342
*END

*D_NET *49 0.0107158

*CONN
*I *770:A4 I *C 187.9 141.6 *L 0.00102 *D ND4D1
*I *574:Z O *C 254.3 139.2 *L 0 *D CKBD0

*CAP
1 *49:2 0.00196755
2 *49:3 1.36604e-05
3 *49:4 9.8355e-05
4 *49:5 0.00138898
5 *49:6 1.8314e-06
6 *49:7 0.000820586
7 *49:8 1.20992e-05
8 *49:9 0.000243876
9 *49:11 0.000473581
10 *49:12 0.00057743
11 *49:4 *65:5 0.000470093984
12 *49:7 *124:3 0.00124166
13 *49:4 *133:4 0.00204385
14 *49:2 *143:2 0.000512893008
15 *49:3 *515:3 0.000620741016
16 *49:4 *67:12 0.000228593008

*RES
1 *49:9 *49:10 0.115607
2 *49:4 *49:5 17.1800995
3 *49:7 *49:8 0.115607
4 *49:6 *49:7 8.53919
5 *49:8 *49:9 3.43911
6 *49:3 *49:2 11.5405
7 *49:10 *49:11 9.93015
8 *49:11 *49:3 0.115607
9 *49:2 *49:13 5.11895
10 *49:4 *49:12 1.34141
11 *574:Z *49:12 2.50797
12 *49:5 *49:6 0.115607
13 *770:A4 *49:13 0.224923
*END

*D_NET *50 0.00103993

*CONN
*I *575:Z O *C 119.3 142 *L 0 *D DEL01
*I *727:I I *C 123.9 141.6 *L 0.00105 *D DEL1

*CAP
1 *727:I 0.00018847
2 *50:2 0.000851467031

*RES
1 *50:2 *50:3 3.03693008
2 *575:Z *50:2 0.371043
3 *727:I *50:3 0.928883
*END

*D_NET *51 0.00300527

*CONN
*I *528:Z O *C 289.5 142 *L 0 *D DEL015
*I *767:D[1] I *C 310.255 134.265 *L 0.00183 *D sram00

*CAP
1 *51:2 8.03999e-05
2 *51:3 0.000298719
3 *51:4 9.74809e-05
4 *51:5 0.000793168
5 *51:6 0.00173551

*RES
1 *51:4 *51:6 14.7206
2 *51:2 *51:3 1.60995
3 *51:3 *51:5 4.88345
4 *51:5 *51:6 0.476808
5 *528:Z *51:2 0.225
6 *528:Z *767:D[1] 0.0001
*END

*D_NET *52 0.00197207

*CONN
*I *529:I I *C 271.7 141.6 *L 0.00103 *D DEL015
*I *577:Z O *C 262.3 139.2 *L 0 *D BUFFD1

*CAP
1 *577:Z 7.35766e-05
2 *52:3 0.000683509
3 *52:4 5.64465e-05
4 *52:5 0.00115854

*RES
1 *52:4 *52:5 5.89068985
2 *52:2 *52:3 2.20478
3 *577:Z *52:5 1.85136
4 *529:I *52:2 0.449963
5 *52:3 *52:4 0.224982
*END

*D_NET *53 0.00280963

*CONN
*I *536:Z O *C 292.7 145.6 *L 0 *D DEL015
*I *767:D[0] I *C 314.185 134.265 *L 0.00183 *D sram00

*CAP
1 *53:2 6.95039e-05
2 *53:4 0.000315969
3 *53:5 0.000224318
4 *53:6 0.000172724
5 *53:7 0.00202712016

*RES
1 *53:6 *53:7 1.86638
2 *53:4 *53:5 4.86934
3 *53:3 *53:6 1.73585
4 *53:5 *53:7 15.2719
5 *536:Z *53:2 0.225
6 *53:2 *53:3 0.225
7 *536:Z *767:D[0] 0.0001
*END

*D_NET *54 0.00706351

*CONN
*I *579:Z O *C 204.3 142 *L 0 *D DEL0
*I *767:D[19] I *C 234.655 134.265 *L 0.00183 *D sram00

*CAP
1 *54:2 0.000567129
2 *54:3 2.80581e-05
3 *54:4 6.38735e-05
4 *54:5 0.000163363
5 *54:6 7.16308e-05
6 *54:7 5.82668e-05
7 *54:8 0.000342639
8 *54:9 0.000153095
9 *54:10 1.57135e-05
10 *54:11 0.00060415
11 *54:12 0.00013804
12 *54:13 0.000814703984
13 *54:14 0.000686335
14 *54:8 *130:9 0.00130801
15 *54:2 *768:ZN 0.00023188
16 *54:2 *201:17 0.00126447
17 *54:2 *454:3 0.000552146953

*RES
1 *54:8 *54:10 0.365511
2 *54:7 *54:13 4.4973
3 *54:8 *54:14 1.73275
4 *54:9 *54:12 0.285117
5 *54:4 *54:5 1.9776
6 *54:6 *54:7 0.336794
7 *54:10 *54:11 0.285117
8 *54:13 *54:14 5.97618
9 *54:2 *54:5 7.65129
10 *54:11 *54:12 3.2402
11 *54:3 *54:4 0.967107
12 *54:3 *54:9 0.590511
13 *579:Z *54:2 0.225
14 *579:Z *767:D[19] 0.0001
*END

*D_NET *55 0.0139858

*CONN
*I *580:Z O *C 138.7 142.8 *L 0 *D DEL0
*I *767:D[20] I *C 230.185 134.265 *L 0.00183 *D sram00

*CAP
1 *580:Z 6.97294e-06
2 *55:2 0.000330783
3 *55:3 0.000946816
4 *55:4 0.000597258
5 *55:5 4.25768e-05
6 *55:7 0.000676153
7 *55:8 4.64698e-05
8 *55:10 0.000317749
9 *55:11 2.98136e-06
10 *55:12 0.000284166
11 *55:13 5.91344e-07
12 *55:14 0.000244743
13 *55:15 3.95215e-05
14 *55:16 0.00161474
15 *55:17 0.00151382
16 *55:18 0.000108955
17 *55:19 6.35695e-06
18 *55:20 0.000254943
19 *55:21 2.48611e-05
20 *55:22 0.000244546
21 *55:23 0.00155509
22 *55:5 *133:3 0.00087135
23 *55:2 *515:12 0.000628791992
24 *55:3 *130:6 0.000732457969
25 *55:4 *196:2 0.00151327
26 *55:3 *83:2 0.00137992

*RES
1 *55:22 *55:4 7.89574
2 *55:5 *55:6 0.239381
3 *55:9 *55:2 1.11282
4 *55:4 *55:23 9.46267
5 *55:19 *55:20 2.55139
6 *55:13 *55:14 1.67006
7 *55:23 *55:24 0.106214
8 *55:7 *55:8 0.367559
9 *55:9 *55:10 0.159213
10 *55:3 *55:24 2.88565
11 *580:Z *55:10 1.11784
12 *55:2 *55:11 0.159213
13 *55:11 *55:3 2.9878
14 *55:14 *55:15 0.092595
15 *55:20 *55:21 0.092595
16 *55:18 *55:19 0.093083
17 *55:17 *55:18 1.54416
18 *55:16 *55:17 15.3936
19 *55:8 *55:12 2.50793
20 *55:12 *55:13 0.093083
21 *55:21 *55:22 3.93634
22 *55:15 *55:16 8.49818
23 *55:6 *55:7 7.56498
24 *580:Z *767:D[20] 0.0001
*END

*D_NET *56 0.0113547

*CONN
*I *581:Z O *C 136.1 139.2 *L 0 *D DEL0
*I *767:D[21] I *C 226.255 134.265 *L 0.00183 *D sram00

*CAP
1 *56:2 0.000507237
2 *56:3 0.000330919
3 *56:4 0.00269535
4 *56:5 3.30672e-05
5 *56:6 5.8608e-05
6 *56:7 0.00016221
7 *56:8 0.000190178
8 *56:9 1.10635e-05
9 *56:10 0.000240766
10 *56:3 *434:6 0.000211044004
11 *56:2 *82:12 0.00150167
12 *56:3 *407:8 0.000403109023
13 *56:3 *435:4 0.000314516016
14 *56:4 *291:2 0.00064558
15 *56:4 *80:15 0.000960687969
16 *56:2 *334:3 0.000607198008
17 *56:3 *396:4 0.00248157

*RES
1 *56:8 *56:9 0.092595
2 *56:7 *56:8 2.04778
3 *56:4 *56:7 0.09261
4 *56:6 *56:2 0.093189
5 *56:5 *56:6 0.302109
6 *581:Z *56:3 2.00153
7 *56:2 *56:4 54.0177
8 *56:5 *56:10 1.56903
9 *56:3 *56:9 1.19211
10 *581:Z *767:D[21] 0.0001
*END

*D_NET *57 0.00386549

*CONN
*I *582:Z O *C 288.5 142.8 *L 0 *D BUFFD1
*I *653:I I *C 251.9 143.2 *L 0.000643 *D CKBD0

*CAP
1 *653:I 0.000163896
2 *582:Z 0.000374232
3 *57:2 0.000210292
4 *57:3 1.87656e-05
5 *57:4 0.000459824
6 *57:5 0.000230518
7 *57:6 2.08393e-05
8 *57:7 0.000957046953
9 *57:8 1.02225e-07
10 *57:9 0.000420876
11 *57:10 3.89916e-05
12 *57:11 0.000699571
13 *57:12 0.000270561

*RES
1 *57:3 *57:4 3.05503
2 *57:7 *57:8 0.0926077
3 *57:4 *57:5 0.0926077
4 *57:8 *57:9 2.92906
5 *57:2 *57:3 1.51089
6 *57:11 *57:12 0.0926077
7 *57:10 *57:11 4.69178
8 *57:5 *57:6 1.63675
9 *57:6 *57:7 6.70623016
10 *57:9 *57:10 0.0926077
11 *582:Z *57:2 1.45174
12 *653:I *57:12 2.83206
*END

*D_NET *58 0.000903354

*CONN
*I *583:Z O *C 16.5 139.2 *L 0 *D DEL1
*I *722:I I *C 12.5 141.6 *L 0.000975 *D CKBD2

*CAP
1 *722:I 0.000445295977
2 *583:Z 0.000282758
3 *58:2 0.000175299

*RES
1 *583:Z *58:2 1.31467
2 *722:I *58:2 3.47131991
*END

*D_NET *59 0.00569628

*CONN
*I *534:Z O *C 230.9 142.8 *L 0 *D DEL0
*I *767:D[11] I *C 268.255 134.265 *L 0.00183 *D sram00

*CAP
1 *534:Z 0.000207588
2 *59:2 0.0024194
3 *59:3 4.3489e-05
4 *59:4 2.82789e-05
5 *59:6 1.9271e-05
6 *59:7 2.62116e-06
7 *59:8 0.000285706
8 *59:9 3.93912e-05
9 *59:2 *335:2 0.00149097
10 *59:2 *65:3 0.000514334961
11 *59:2 *130:7 0.000251673008
12 *59:2 *133:2 0.000222005996
13 *59:2 *87:4 0.000171538984

*RES
1 *59:3 *59:2 5.78219
2 *59:8 *59:9 0.092595
3 *59:7 *59:8 4.69176
4 *59:6 *59:7 0.092595
5 *59:4 *59:5 0.194235
6 *59:2 *59:9 17.7423
7 *534:Z *59:3 1.46393
8 *59:5 *59:6 0.256789
9 *534:Z *767:D[11] 0.0001
*END

*D_NET *60 0.00765117

*CONN
*I *530:Z O *C 233.7 142 *L 0 *D DEL0
*I *767:D[9] I *C 276.655 134.265 *L 0.00183 *D sram00

*CAP
1 *60:2 8.63427e-05
2 *60:3 0.000108504
3 *60:4 0.00225167984
4 *60:5 1.52208e-05
5 *60:6 4.71054e-05
6 *60:7 0.000286171
7 *60:8 0.000123072
8 *60:9 0.00202522
9 *60:10 0.000221852
10 *60:11 0.000153136
11 *60:7 *61:4 0.000297666016
12 *60:9 *130:5 0.000620195977
13 *60:2 *228:10 0.000464426992
14 *60:3 *331:6 0.00041742
15 *60:4 *394:6 0.000533159023

*RES
1 *60:9 *60:10 13.3306
2 *60:8 *60:10 0.705974
3 *60:4 *60:11 16.3523
4 *60:9 *60:11 2.6247
5 *60:3 *60:6 0.084985
6 *60:5 *60:7 2.94198
7 *60:7 *60:4 2.9821
8 *60:6 *60:8 0.544644
9 *530:Z *60:2 0.225
10 *60:2 *60:5 0.225
11 *530:Z *767:D[9] 0.0001
*END

*D_NET *61 0.00603232

*CONN
*I *535:Z O *C 231.1 142 *L 0 *D DEL0
*I *767:D[10] I *C 272.185 134.265 *L 0.00183 *D sram00

*CAP
1 *61:2 0.00034325
2 *61:3 0.000322267
3 *61:4 0.00032088
4 *61:5 0.000105482
5 *61:6 0.00112166
6 *61:7 5.27498e-05
7 *61:8 1.93747e-05
8 *61:9 0.000841275
9 *61:10 0.000140809
10 *61:11 0.000546136
11 *61:12 2.4167e-05
12 *61:6 *337:2 0.000205801992
13 *61:5 *495:2 0.000184469004
14 *61:2 *331:6 0.000210122012
15 *61:3 *338:2 0.00129621992
16 *61:4 *60:7 0.000297666016

*RES
1 *61:11 *61:12 0.092595
2 *61:10 *61:11 5.699
3 *61:7 *61:3 2.19855
4 *61:4 *61:5 0.556545
5 *61:9 *61:10 0.092595
6 *61:8 *61:9 8.91532
7 *61:2 *61:8 0.09311
8 *61:6 *61:12 10.5658
9 *61:5 *61:6 0.994438
10 *535:Z *61:4 1.34148
11 *61:7 *61:2 1.6134
12 *535:Z *767:D[10] 0.0001
*END

*D_NET *62 0.00256675

*CONN
*I *577:I I *C 261.7 139.6 *L 0.00072 *D BUFFD1
*I *587:Z O *C 241.1 139.4 *L 0 *D DEL005

*CAP
1 *62:2 9.50726e-05
2 *62:3 0.000889925
3 *62:4 0.000472472
4 *62:5 0.000119036
5 *62:6 0.000966431016
6 *62:7 2.38308e-05

*RES
1 *62:3 *62:7 4.76284
2 *62:2 *62:4 3.44228
3 *62:6 *62:7 0.092607
4 *62:4 *62:5 0.092607
5 *62:5 *62:6 5.57309008
6 *587:Z *62:3 0.225012
7 *577:I *62:2 0.225012
*END

*D_NET *63 0.00221398

*CONN
*I *578:I I *C 289.7 145.2 *L 0.00072 *D BUFFD1
*I *588:Z O *C 265.1 145.6 *L 0 *D CKBD0

*CAP
1 *588:Z 0.000103549
2 *63:2 8.2319e-05
3 *63:3 0.00202811

*RES
1 *63:2 *63:3 15.7111998
2 *588:Z *63:3 0.44998
3 *578:I *63:2 0.22511
*END

*D_NET *64 0.0026136

*CONN
*I *576:I I *C 286.7 143.2 *L 0.00072 *D BUFFD1
*I *589:Z O *C 263.1 142.8 *L 0 *D CKBD0

*CAP
1 *576:I 0.000164577
2 *64:2 0.000458092
3 *64:3 0.000141758
4 *64:4 0.000562557
5 *64:5 0.000179727
6 *64:6 0.00110689

*RES
1 *64:5 *64:6 7.20984983
2 *64:2 *64:6 2.72647
3 *64:4 *64:5 1.47759
4 *64:3 *64:4 3.55861
5 *576:I *64:3 1.56648
6 *589:Z *64:2 0.224978
*END

*D_NET *65 0.00512587

*CONN
*I *537:Z O *C 232.9 139.2 *L 0 *D DEL0
*I *767:D[12] I *C 263.785 134.265 *L 0.00183 *D sram00

*CAP
1 *65:2 9.66715e-06
2 *65:3 0.00124712
3 *65:4 0.000121544
4 *65:5 0.000120478
5 *65:6 0.000417572
6 *65:7 2.40156e-05
7 *65:10 0.000176235
8 *65:11 9.09626e-06
9 *65:12 0.000181564
10 *65:2 *68:10 0.000435896992
11 *65:3 *59:2 0.000514334961
12 *65:2 *67:9 0.000749305
13 *65:4 *506:3 0.000648940039
14 *65:5 *49:4 0.000470093984

*RES
1 *65:11 *65:3 12.3836
2 *65:10 *65:11 0.115567
3 *65:2 *65:6 6.20245
4 *65:9 *65:10 2.04831
5 *65:5 *65:9 0.115601
6 *65:8 *65:5 2.44304
7 *65:7 *65:4 1.27557
8 *65:6 *65:7 0.115601
9 *65:3 *65:13 2.94198
10 *65:4 *65:8 0.115601
11 *65:2 *65:12 1.19131
12 *537:Z *65:13 0.225
13 *537:Z *767:D[12] 0.0001
*END

*D_NET *66 0.00493949

*CONN
*I *527:I I *C 249.1 143.2 *L 0.00103 *D DEL01
*I *591:Z O *C 218.3 145.6 *L 0 *D DEL01

*CAP
1 *591:Z 0.000654548
2 *66:2 0.000204888
3 *66:3 0.000595035
4 *66:4 8.20535e-06
5 *66:5 0.000940493
6 *66:6 0.000603338
7 *66:7 0.00107119
8 *66:8 0.000861807

*RES
1 *66:7 *66:8 3.1996
2 *66:6 *66:7 5.06947994
3 *66:2 *66:3 4.14471
4 *527:I *66:2 0.818329
5 *591:Z *66:8 2.2162
6 *66:5 *66:6 2.40517
7 *66:4 *66:5 4.38281
8 *66:3 *66:4 0.0925929
*END

*D_NET *67 0.00746349

*CONN
*I *533:Z O *C 251.9 142 *L 0 *D DEL0
*I *767:D[4] I *C 297.385 134.265 *L 0.00183 *D sram00

*CAP
1 *67:2 3.50984e-05
2 *67:3 9.72432e-05
3 *67:5 0.000546397
4 *67:6 2.10422e-05
5 *67:7 0.00183867
6 *67:8 4.26175e-05
7 *67:9 0.000741248
8 *67:10 0.000669648
9 *67:11 0.000254415
10 *67:13 0.000213368
11 *67:14 0.00071538
12 *67:14 *335:2 0.000300864004
13 *67:12 *49:4 0.000228593008
14 *67:9 *65:2 0.000749305
15 *67:2 *68:3 0.00100963

*RES
1 *67:7 *67:8 0.270175
2 *67:2 *67:3 0.505711
3 *67:12 *67:14 4.0026
4 *67:5 *67:6 0.115601
5 *67:9 *67:12 0.270175
6 *67:4 *67:5 4.98534
7 *67:6 *67:7 20.2882
8 *67:10 *67:15 2.0491
9 *67:10 *67:11 2.11479
10 *67:8 *67:9 8.2314
11 *67:11 *67:14 1.98766
12 *67:2 *67:13 1.06541
13 *67:3 *67:4 0.115601
14 *533:Z *67:15 0.225
15 *533:Z *767:D[4] 0.0001
*END

*D_NET *68 0.00651961

*CONN
*I *531:Z O *C 254.5 142 *L 0 *D DEL0
*I *767:D[3] I *C 301.855 134.265 *L 0.00183 *D sram00

*CAP
1 *531:Z 6.00436e-05
2 *68:2 6.69734e-05
3 *68:4 0.000824642
4 *68:6 0.000163172
5 *68:7 1.85081e-05
6 *68:8 4.73893e-05
7 *68:9 0.000246071
8 *68:10 0.00282076
9 *68:4 *337:3 0.00038021
10 *68:10 *65:2 0.000435896992
11 *68:3 *67:2 0.00100963
12 *68:10 *511:2 0.000446326992

*RES
1 *68:8 *68:10 3.2467
2 *68:7 *68:10 27.0657
3 *68:2 *68:3 0.289782
4 *531:Z *68:8 0.650731
5 *68:6 *68:7 0.115601
6 *68:4 *68:5 0.115601
7 *68:3 *68:4 7.16985
8 *68:5 *68:6 2.20301
9 *68:2 *68:9 1.19131
10 *531:Z *767:D[3] 0.0001
*END

*D_NET *69 0.00669094

*CONN
*I *532:Z O *C 249.7 139.2 *L 0 *D DEL0
*I *767:D[5] I *C 293.455 134.265 *L 0.00183 *D sram00

*CAP
1 *69:2 8.65106e-05
2 *69:3 2.86863e-05
3 *69:4 0.00148028
4 *69:5 4.34812e-05
5 *69:6 0.000463453
6 *69:8 1.39366e-05
7 *69:9 9.23156e-05
8 *69:11 0.00145607
9 *69:12 0.000257341
10 *69:13 5.45717e-05
11 *69:14 0.000213769
12 *69:6 *495:3 0.00107831
13 *69:2 *500:3 0.00142223

*RES
1 *69:2 *69:8 0.115601
2 *69:3 *69:4 12.54
3 *69:3 *69:14 0.841725
4 *69:12 *69:13 1.45328
5 *69:6 *69:7 0.115601
6 *69:5 *69:6 4.0579
7 *69:7 *69:2 0.966418
8 *69:10 *69:11 12.828
9 *69:8 *69:9 4.0555
10 *69:9 *69:10 0.115601
11 *69:13 *69:14 0.391763
12 *69:11 *69:15 1.82175
13 *69:4 *69:5 0.115601
14 *532:Z *69:15 0.225
15 *532:Z *767:D[5] 0.0001
*END

*D_NET *70 0.00154126

*CONN
*I *595:Z O *C 129.7 139.2 *L 0 *D DEL015
*I *767:D[33] I *C 135.275 134.195 *L 0.00183 *D sram00

*CAP
1 *595:Z 4.7884e-05
2 *70:2 0.000793245
3 *70:3 4.07668e-05
4 *70:4 1.57717e-05
5 *70:5 0.000100513
6 *70:6 0.000543077

*RES
1 *70:4 *70:5 0.570969
2 *70:3 *70:4 0.194249
3 *70:2 *70:6 0.745273
4 *595:Z *70:2 3.24339008
5 *70:5 *70:6 2.6114
6 *595:Z *767:D[33] 9.89804e-05
*END

*D_NET *71 0.00283856

*CONN
*I *596:Z O *C 131.9 145.6 *L 0 *D DEL015
*I *767:D[32] I *C 139.205 134.195 *L 0.00183 *D sram00

*CAP
1 *71:3 0.000254316
2 *71:4 5.79653e-05
3 *71:5 0.00119158008
4 *71:6 6.78202e-05
5 *71:7 3.00009e-06
6 *71:8 0.000626927
7 *71:9 0.000281499
8 *71:10 0.000355447

*RES
1 *71:9 *71:10 1.57535
2 *71:8 *71:10 2.53099
3 *71:2 *71:5 4.88028002
4 *71:2 *71:3 0.159211
5 *596:Z *71:8 0.350889
6 *71:6 *71:7 0.323485
7 *71:4 *71:9 1.38889
8 *71:3 *71:4 1.11649
9 *71:5 *71:7 0.159211
10 *596:Z *767:D[32] 7.44672e-05
*END

*D_NET *72 0.00216102

*CONN
*I *597:Z O *C 132.3 142.8 *L 0 *D DEL015
*I *767:D[35] I *C 126.875 134.195 *L 0.00183 *D sram00

*CAP
1 *72:3 3.59643e-05
2 *72:4 0.000305752
3 *72:5 0.000117314
4 *72:6 0.00103419008
5 *72:7 2.63538e-06
6 *72:8 8.41744e-05
7 *72:9 0.000379953
8 *72:10 9.84717e-06
9 *72:11 8.5784e-05
10 *72:12 0.000105415

*RES
1 *72:11 *72:12 0.344388
2 *72:9 *72:10 0.0926305
3 *72:5 *72:11 0.997085
4 *72:4 *72:6 4.75754976
5 *72:2 *72:4 0.854509
6 *72:10 *72:12 1.04057
7 *72:8 *72:9 3.05506
8 *72:7 *72:8 0.474114
9 *72:6 *72:7 0.367546
10 *72:3 *72:4 0.270705
11 *597:Z *72:2 0.22497
12 *597:Z *767:D[35] 7.25944e-05
*END

*D_NET *73 0.00190316

*CONN
*I *598:Z O *C 123.1 142 *L 0 *D DEL015
*I *767:D[34] I *C 130.805 134.195 *L 0.00183 *D sram00

*CAP
1 *73:2 0.000183029
2 *73:3 4.00596e-05
3 *73:4 8.88966e-05
4 *73:5 2.49802e-05
5 *73:6 0.00124776992
6 *73:7 3.09586e-05
7 *73:8 1.83353e-05
8 *73:9 0.000255913
9 *73:10 1.32136e-05

*RES
1 *73:9 *73:10 0.0926263
2 *73:8 *73:9 1.67006
3 *73:7 *73:8 0.0926263
4 *73:4 *73:5 0.210892
5 *73:3 *73:6 4.25393009
6 *73:6 *73:10 3.0803
7 *73:5 *73:7 0.61937
8 *598:Z *73:2 0.224977
9 *73:2 *73:3 0.224977
10 *598:Z *767:D[34] 0.00012982
*END

*D_NET *74 0.00201079

*CONN
*I *599:Z O *C 123.1 142.8 *L 0 *D DEL015
*I *767:D[37] I *C 118.475 134.195 *L 0.00183 *D sram00

*CAP
1 *74:2 0.00109967008
2 *74:3 0.000546957
3 *74:4 4.14799e-05
4 *74:5 0.000319506
5 *74:6 3.1714e-06

*RES
1 *74:2 *74:3 3.66689
2 *74:3 *74:4 0.239438
3 *74:2 *74:6 4.72359991
4 *74:5 *74:6 0.159217
5 *599:Z *74:5 1.00957
6 *599:Z *767:D[37] 7.20764e-05
*END

*D_NET *75 0.00159685

*CONN
*I *600:Z O *C 111.1 139.2 *L 0 *D DEL015
*I *767:D[38] I *C 114.005 134.195 *L 0.00183 *D sram00

*CAP
1 *75:2 0.000115843
2 *75:3 3.76675e-05
3 *75:4 0.000166448
4 *75:5 0.000285604
5 *75:6 3.63938e-05
6 *75:7 0.000397648
7 *75:8 2.52881e-05
8 *75:9 0.000468946992
9 *75:10 6.29985e-05

*RES
1 *75:9 *75:10 1.99883997
2 *75:4 *75:6 0.345533
3 *75:2 *75:3 0.571934
4 *75:7 *75:8 1.72934
5 *75:6 *75:7 0.159209
6 *75:5 *75:10 1.25617
7 *75:3 *75:4 0.285662
8 *75:5 *75:8 0.159209
9 *600:Z *75:9 0.224998
10 *600:Z *767:D[38] 9.14996e-05
*END

*D_NET *76 0.00261622

*CONN
*I *601:Z O *C 115.9 142.8 *L 0 *D DEL015
*I *767:D[36] I *C 122.405 134.195 *L 0.00183 *D sram00

*CAP
1 *76:2 4.55293e-05
2 *76:3 0.00016635
3 *76:4 6.74293e-06
4 *76:5 0.000218012
5 *76:6 1.64214e-05
6 *76:7 0.000952366016
7 *76:8 0.000217663
8 *76:9 0.000362331
9 *76:11 2.45594e-06
10 *76:12 0.000628342

*RES
1 *76:11 *76:12 2.86932
2 *76:7 *76:10 1.3356
3 *76:2 *76:3 0.999249
4 *76:10 *76:12 0.159232
5 *76:9 *76:11 0.159232
6 *76:6 *76:7 2.90922999
7 *76:4 *76:5 1.3154
8 *76:3 *76:4 0.0383541
9 *76:2 *76:8 1.06539
10 *601:Z *76:9 1.17575
11 *76:5 *76:6 0.0383541
12 *601:Z *767:D[36] 8.87827e-05
*END

*D_NET *77 0.0179697

*CONN
*I *602:Z O *C 45.5 142.8 *L 0 *D DEL1
*I *767:D[31] I *C 184.255 134.265 *L 0.00183 *D sram00

*CAP
1 *77:2 1.14028e-06
2 *77:3 0.000175467
3 *77:4 7.06976e-05
4 *77:5 0.00011599
5 *77:6 0.000319393
6 *77:7 1.87919e-05
7 *77:8 3.6033e-06
8 *77:9 0.000422361
9 *77:10 0.00015631
10 *77:11 0.000232572
11 *77:12 0.000160415
12 *77:13 0.000145728
13 *77:14 0.000266325
14 *77:15 2.10953e-05
15 *77:17 8.76878e-05
16 *77:18 1.58499e-05
17 *77:19 0.00102096
18 *77:20 3.21104e-05
19 *77:21 0.000182628
20 *77:22 5.67861e-06
21 *77:23 2.85527e-05
22 *77:24 2.61809e-05
23 *77:25 0.000469934
24 *77:26 2.2304e-05
25 *77:27 0.000479809
26 *77:28 1.00801e-05
27 *77:29 1.81305e-05
28 *77:30 0.000224978
29 *77:31 0.00149457
30 *77:32 3.86784e-05
31 *77:33 0.00106081
32 *77:34 0.00016338
33 *77:35 0.00105196
34 *77:36 2.99895e-05
35 *77:37 8.10514e-05
36 *77:38 0.000128419
37 *77:39 0.000230907
38 *77:32 *313:2 0.000514251992
39 *77:14 *79:3 0.000605970039
40 *77:2 *394:17 0.000811761953
41 *77:3 *428:5 0.00134198
42 *77:2 *80:17 0.00139764
43 *77:4 *86:14 0.000425893008
44 *77:5 *432:2 0.00024958
45 *77:5 *301:3 0.00107179
46 *77:2 *396:3 0.00066827
47 *77:3 *295:4 0.00186802

*RES
1 *77:37 *77:38 0.855736
2 *77:16 *77:17 2.9291
3 *77:4 *77:37 0.561794
4 *77:18 *77:19 7.96527
5 *602:Z *77:6 1.13502
6 *77:20 *77:21 3.18091
7 *77:27 *77:28 0.092598
8 *77:8 *77:9 1.99106
9 *77:34 *77:35 7.08435
10 *77:12 *77:36 0.7453
11 *77:2 *77:15 0.394367
12 *77:31 *77:32 0.092605
13 *77:3 *77:30 0.092598
14 *77:33 *77:34 0.092605
15 *77:6 *77:8 0.159213
16 *77:29 *77:3 11.5595
17 *77:24 *77:25 7.83941
18 *77:19 *77:20 0.092595
19 *77:28 *77:5 3.05506
20 *77:14 *77:38 1.76431
21 *77:32 *77:33 16.7795
22 *77:7 *77:9 0.159213
23 *77:21 *77:22 0.092595
24 *77:10 *77:11 0.241074
25 *77:17 *77:18 0.092595
26 *77:30 *77:31 20.4305
27 *77:15 *77:16 0.092595
28 *77:22 *77:23 0.914638
29 *77:7 *77:11 0.963771
30 *77:2 *77:39 2.73251
31 *77:35 *77:36 0.092607
32 *77:13 *77:37 0.188892
33 *77:5 *77:29 0.092598
34 *77:26 *77:27 4.06231
35 *77:23 *77:24 0.092595
36 *77:25 *77:26 0.092598
37 *77:11 *77:12 0.225
38 *77:14 *77:39 0.225
39 *602:Z *767:D[31] 0.0001
*END

*D_NET *78 0.00553265

*CONN
*I *603:Z O *C 218.1 142.8 *L 0 *D DEL1
*I *767:D[16] I *C 246.985 134.265 *L 0.00183 *D sram00

*CAP
1 *78:3 0.000514203008
2 *78:4 0.000113009
3 *78:5 4.66773e-05
4 *78:7 0.0001878
5 *78:8 0.000391849
6 *78:9 8.57594e-06
7 *78:10 0.000464631
8 *78:11 0.00019789
9 *78:12 3.67361e-05
10 *78:13 0.000357255
11 *78:14 2.10044e-05
12 *78:5 *319:4 0.00112159
13 *78:4 *335:2 0.00024845
14 *78:3 *81:3 0.000386570977
15 *78:4 *130:4 0.00143641

*RES
1 *78:2 *78:3 1.4208
2 *78:6 *78:8 1.98201
3 *78:12 *78:13 4.81767
4 *78:4 *78:5 0.714506
5 *78:6 *78:7 0.159213
6 *78:8 *78:9 0.159213
7 *78:9 *78:10 1.01208
8 *78:13 *78:14 0.092595
9 *78:10 *78:14 6.57112
10 *78:3 *78:7 1.10091
11 *78:5 *78:11 7.29229
12 *78:11 *78:12 0.092595
13 *603:Z *78:2 0.225
14 *603:Z *767:D[16] 0.0001
*END

*D_NET *79 0.0112907

*CONN
*I *604:Z O *C 116.9 145.6 *L 0 *D DEL1
*I *767:D[28] I *C 196.585 134.265 *L 0.00183 *D sram00

*CAP
1 *79:2 0.00115468
2 *79:3 0.000509567
3 *79:4 5.44744e-06
4 *79:5 0.000168835
5 *79:6 0.00079027
6 *79:7 0.000157798
7 *79:8 0.000225232
8 *79:9 0.000235094
9 *79:10 9.01142e-05
10 *79:11 4.14789e-05
11 *79:13 2.34988e-05
12 *79:14 0.000128353
13 *79:15 0.00233331984
14 *79:16 9.50632e-06
15 *79:17 0.000458795
16 *79:18 2.83053e-05
17 *79:19 0.000131201
18 *79:20 0.000131913
19 *79:21 0.000180834
20 *79:2 *82:2 0.000524459023
21 *79:3 *85:8 0.000366762031
22 *79:4 *80:17 0.00116770008
23 *79:5 *86:10 0.000629398984
24 *79:2 *432:7 0.000224902012
25 *79:3 *77:14 0.000605970039
26 *79:4 *84:3 0.000967316953

*RES
1 *79:5 *79:19 0.241074
2 *79:12 *79:13 3.68453
3 *79:10 *79:19 0.561794
4 *79:8 *79:9 1.18892
5 *79:4 *79:11 0.772079
6 *79:4 *79:21 2.18415
7 *79:13 *79:14 0.092595
8 *79:3 *79:20 8.87238
9 *79:19 *79:20 1.10803
10 *79:17 *79:18 0.218505
11 *79:6 *79:9 4.43856
12 *79:7 *79:2 5.95941
13 *79:16 *79:17 3.93641
14 *79:15 *79:16 0.218505
15 *79:2 *79:18 1.29882
16 *79:11 *79:12 0.092595
17 *79:14 *79:15 26.3475
18 *79:7 *79:8 0.936769
19 *604:Z *79:6 0.225
20 *79:3 *79:21 0.225
21 *604:Z *767:D[28] 0.0001
*END

*D_NET *80 0.0145474

*CONN
*I *605:Z O *C 120.7 145.6 *L 0 *D DEL1
*I *767:D[22] I *C 221.785 134.265 *L 0.00183 *D sram00

*CAP
1 *605:Z 0.000236356
2 *80:2 0.000154346
3 *80:3 0.000821739
4 *80:4 4.64679e-05
5 *80:5 0.000296729
6 *80:6 0.000294311
7 *80:7 0.000130982
8 *80:8 1.01918e-05
9 *80:9 1.39058e-05
10 *80:10 2.37522e-05
11 *80:11 0.000506569
12 *80:12 2.04701e-05
13 *80:13 5.44141e-05
14 *80:14 5.65734e-06
15 *80:15 0.000306965
16 *80:16 2.54364e-05
17 *80:17 0.00283018
18 *80:18 0.000228582
19 *80:19 7.86413e-05
20 *80:21 6.17988e-05
21 *80:22 2.78116e-05
22 *80:23 4.56906e-05
23 *80:24 0.000376796
24 *80:25 0.00010641
25 *80:26 0.000155426
26 *80:27 3.84353e-05
27 *80:28 0.000179394
28 *80:29 0.00055023
29 *80:30 2.21111e-05
30 *80:31 0.000693607
31 *80:32 0.000196236
32 *80:17 *77:2 0.00139764
33 *80:17 *79:4 0.00116770008
34 *80:15 *56:4 0.000960687969
35 *605:Z *411:4 0.00133617
36 *80:2 *331:5 0.00114549992

*RES
1 *80:15 *80:16 1.46993
2 *605:Z *80:3 0.980425
3 *80:4 *80:18 1.83988
4 *80:26 *80:27 0.092595
5 *80:9 *80:10 0.092595
6 *80:8 *80:9 0.411022
7 *80:5 *80:6 2.14153
8 *80:13 *80:14 0.092595
9 *80:31 *80:32 0.092595
10 *80:22 *80:25 0.159213
11 *80:4 *80:5 2.01216
12 *80:17 *80:32 27.1452
13 *80:29 *80:30 0.092595
14 *80:28 *80:29 9.97974
15 *80:16 *80:26 2.69151
16 *80:23 *80:24 0.159213
17 *80:19 *80:22 0.344404
18 *80:18 *80:19 0.159213
19 *80:27 *80:2 1.67006
20 *80:6 *80:7 0.757784
21 *80:3 *80:14 6.42528
22 *80:20 *80:21 0.159213
23 *80:7 *80:8 0.092595
24 *80:30 *80:31 6.70623
25 *80:21 *80:23 0.347897
26 *80:10 *80:11 4.81767
27 *80:17 *80:20 0.864675
28 *80:2 *80:28 0.092595
29 *80:11 *80:12 0.092595
30 *80:12 *80:13 0.411022
31 *80:24 *80:25 3.24569
32 *605:Z *767:D[22] 0.0001
*END

*D_NET *81 0.0110406

*CONN
*I *606:Z O *C 124.1 145.6 *L 0 *D DEL1
*I *767:D[23] I *C 217.855 134.265 *L 0.00183 *D sram00

*CAP
1 *81:2 0.00646179
2 *81:3 0.00141265
3 *81:4 0.00050799
4 *81:5 0.000214851
5 *81:7 6.82316e-05
6 *81:8 0.00130636
7 *81:5 *411:3 0.000405351992
8 *81:2 *85:6 0.000276751016
9 *81:3 *78:3 0.000386570977

*RES
1 *81:7 *81:8 0.338642
2 *81:5 *81:2 0.980425
3 *81:4 *81:5 1.66816
4 *81:2 *81:8 58.0937
5 *81:3 *81:6 7.8798
6 *81:6 *81:7 0.130885
7 *606:Z *81:4 0.225
8 *606:Z *767:D[23] 0.0001
*END

*D_NET *82 0.0120115

*CONN
*I *607:Z O *C 126.5 142.8 *L 0 *D DEL1
*I *767:D[24] I *C 213.385 134.265 *L 0.00183 *D sram00

*CAP
1 *82:2 0.000661749
2 *82:4 3.42176e-06
3 *82:5 0.000377092
4 *82:6 0.000275861
5 *82:7 1.63859e-06
6 *82:8 7.02906e-05
7 *82:9 5.17119e-05
8 *82:10 0.000211065
9 *82:11 1.96872e-05
10 *82:12 0.000415864
11 *82:13 0.000406587
12 *82:14 0.000756257
13 *82:15 6.8146e-05
14 *82:16 0.00157919
15 *82:17 7.3857e-05
16 *82:18 0.00023186
17 *82:15 *291:2 0.00110186008
18 *82:2 *79:2 0.000524459023
19 *82:12 *56:2 0.00150167
20 *82:8 *83:2 0.00291625
21 *82:6 *137:3 0.000524030039
22 *82:8 *435:2 0.000238993008

*RES
1 *82:7 *82:8 0.486962
2 *82:12 *82:13 0.092595
3 *82:3 *82:6 1.10068
4 *82:4 *82:5 1.20961
5 *82:6 *82:7 0.159213
6 *82:3 *82:5 0.159213
7 *82:9 *82:18 1.06541
8 *82:10 *82:11 0.092595
9 *82:2 *82:4 0.159213
10 *82:9 *82:10 1.14979
11 *82:13 *82:14 33.7756
12 *607:Z *82:2 2.29518
13 *82:16 *82:17 0.092595
14 *82:15 *82:16 17.1192
15 *82:11 *82:12 2.84909
16 *82:14 *82:15 0.092595
17 *82:8 *82:17 0.493463
18 *607:Z *767:D[24] 0.0001
*END

*D_NET *83 0.0112123

*CONN
*I *608:Z O *C 123.7 139.2 *L 0 *D DEL1
*I *767:D[25] I *C 209.455 134.265 *L 0.00183 *D sram00

*CAP
1 *83:2 0.00269481
2 *83:3 2.10535e-05
3 *83:4 9.53165e-05
4 *83:5 7.60723e-06
5 *83:6 0.000125417
6 *83:7 0.000748181
7 *83:8 7.68125e-05
8 *83:2 *55:3 0.00137992
9 *83:2 *84:5 0.000676933984
10 *83:2 *434:3 0.000443497969
11 *83:2 *143:4 0.000420601992
12 *83:2 *82:8 0.00291625
13 *83:2 *130:8 0.000391761992
14 *83:2 *196:2 0.00121414008

*RES
1 *83:6 *83:7 0.092595
2 *83:4 *83:5 0.092595
3 *83:3 *83:4 1.77931
4 *83:2 *83:7 50.4524
5 *608:Z *83:2 2.61718
6 *83:5 *83:6 2.42549
7 *83:3 *83:8 0.939506
8 *608:Z *767:D[25] 0.0001
*END

*D_NET *84 0.0113273

*CONN
*I *609:Z O *C 135.9 145.6 *L 0 *D DEL1
*I *767:D[26] I *C 204.985 134.265 *L 0.00183 *D sram00

*CAP
1 *84:2 0.000814133
2 *84:3 0.00216535
3 *84:4 0.000169501
4 *84:5 0.000278768
5 *84:6 0.000890756
6 *84:7 4.52333e-05
7 *84:8 0.00018926
8 *84:9 3.08604e-05
9 *84:11 0.000252533
10 *84:13 0.000121492
11 *84:14 2.97701e-05
12 *84:15 0.000217311
13 *84:16 5.41544e-05
14 *84:17 0.000100115
15 *84:18 0.000128431
16 *84:19 0.000155128
17 *84:20 1.61902e-06
18 *84:21 0.00013266
19 *84:22 0.000144885
20 *84:3 *79:4 0.000967316953
21 *84:2 *343:3 0.000819058984
22 *84:3 *86:15 0.000457131992
23 *84:4 *130:8 0.00248495
24 *84:5 *83:2 0.000676933984

*RES
1 *84:21 *84:22 0.092595
2 *84:10 *84:5 1.09983
3 *84:11 *84:14 0.977418
4 *84:18 *84:19 4.32285
5 *84:7 *84:13 1.11917
6 *84:13 *84:16 0.159213
7 *84:2 *84:8 1.19139
8 *84:4 *84:9 0.714506
9 *84:3 *84:22 23.7934
10 *84:10 *84:11 0.159213
11 *84:19 *84:20 0.092595
12 *84:17 *84:18 4.02203
13 *609:Z *84:6 1.15983
14 *84:6 *84:8 2.33829
15 *84:15 *84:16 1.48921
16 *84:3 *84:12 0.487217
17 *84:9 *84:17 2.63383
18 *84:5 *84:12 0.159213
19 *84:20 *84:21 2.55139
20 *84:14 *84:15 0.159213
21 *84:7 *84:2 6.32495
22 *609:Z *767:D[26] 0.0001
*END

*D_NET *85 0.00733195

*CONN
*I *610:Z O *C 139.3 145.6 *L 0 *D DEL1
*I *767:D[29] I *C 192.655 134.265 *L 0.00183 *D sram00

*CAP
1 *85:2 0.000585292
2 *85:3 0.000103782
3 *85:4 1.89103e-05
4 *85:5 7.49378e-05
5 *85:6 0.00184418
6 *85:7 0.000167914
7 *85:8 0.000148356
8 *85:9 0.00111526
9 *85:10 2.22309e-06
10 *85:11 9.06683e-05
11 *85:12 0.000258216
12 *85:13 8.86141e-05
13 *85:14 7.87931e-07
14 *85:15 3.99875e-05
15 *85:16 8.9008e-05
16 *85:18 0.000101727
17 *85:16 *245:3 0.000272720996
18 *85:6 *288:2 0.000302885
19 *85:8 *79:3 0.000366762031
20 *85:4 *223:6 0.000274219004
21 *85:6 *81:2 0.000276751016
22 *85:6 *132:2 0.000829878984
23 *85:2 *247:5 0.000278865996

*RES
1 *85:8 *85:9 12.4812
2 *85:5 *85:13 0.561794
3 *85:13 *85:14 0.586848
4 *85:7 *85:13 0.241074
5 *85:11 *85:17 0.844257
6 *85:9 *85:10 0.093009
7 *85:10 *85:11 3.18237
8 *85:14 *85:15 0.159334
9 *85:8 *85:15 1.09611
10 *85:17 *85:18 0.159334
11 *85:2 *85:16 1.46853
12 *85:12 *85:2 4.65675
13 *85:6 *85:12 18.1322
14 *85:16 *85:18 1.26147
15 *610:Z *85:3 0.225
16 *85:3 *85:4 0.225
17 *85:4 *85:6 0.225
18 *610:Z *767:D[29] 0.0001
*END

*D_NET *86 0.0110618

*CONN
*I *611:Z O *C 142.7 145.6 *L 0 *D DEL1
*I *767:D[27] I *C 201.055 134.265 *L 0.00183 *D sram00

*CAP
1 *86:3 0.000180236
2 *86:4 0.00200607984
3 *86:5 0.000448785
4 *86:6 5.33547e-05
5 *86:7 6.21093e-05
6 *86:9 8.62613e-05
7 *86:10 0.000379758
8 *86:11 9.79546e-06
9 *86:12 1.77237e-05
10 *86:13 0.000327168
11 *86:14 4.01002e-06
12 *86:15 0.000971067
13 *86:16 0.00101239
14 *86:17 6.93947e-05
15 *86:18 5.84054e-05
16 *86:19 4.90998e-05
17 *86:15 *320:2 0.000338470977
18 *86:14 *77:4 0.000425893008
19 *86:10 *79:5 0.000629398984
20 *86:15 *84:3 0.000457131992
21 *86:2 *130:8 0.00070237
22 *86:3 *234:4 0.000682156016
23 *86:2 *322:8 0.000622994023
24 *86:3 *238:10 0.00146779

*RES
1 *86:3 *86:8 0.153938
2 *86:4 *86:5 9.20296
3 *86:12 *86:13 5.8249
4 *86:6 *86:7 0.309382
5 *86:2 *86:6 0.578879
6 *86:8 *86:9 0.159213
7 *86:13 *86:14 0.092595
8 *86:16 *86:19 16.552
9 *86:15 *86:19 6.89854
10 *86:16 *86:17 1.29235
11 *86:3 *86:17 1.32917
12 *86:11 *86:12 0.092595
13 *86:11 *86:18 0.619367
14 *86:14 *86:15 2.1821
15 *86:7 *86:10 4.31213
16 *86:5 *86:9 1.08967
17 *86:10 *86:18 0.855736
18 *611:Z *86:4 0.225
19 *611:Z *767:D[27] 0.0001
*END

*D_NET *87 0.0156435

*CONN
*I *612:Z O *C 117.1 142 *L 0 *D DEL1
*I *767:D[14] I *C 255.385 134.265 *L 0.00183 *D sram00

*CAP
1 *87:2 0.000149698
2 *87:3 4.6959e-05
3 *87:4 7.1914e-05
4 *87:5 6.41196e-05
5 *87:6 0.00179169
6 *87:7 7.02782e-05
7 *87:8 0.000164517
8 *87:9 0.000149505
9 *87:10 0.000181742
10 *87:11 0.00204977
11 *87:12 0.000115601
12 *87:13 0.000447682
13 *87:14 9.75105e-06
14 *87:15 0.00210208984
15 *87:17 0.000176128
16 *87:18 1.88606e-05
17 *87:19 0.000767414
18 *87:20 3.18192e-05
19 *87:21 0.000315402
20 *87:22 2.14908e-05
21 *87:23 0.000564888
22 *87:24 4.07363e-05
23 *87:25 0.00132909
24 *87:26 1.46266e-05
25 *87:19 *249:3 0.00077059
26 *87:8 *294:2 0.000765654063
27 *87:19 *325:2 0.000629975039
28 *87:4 *59:2 0.000171538984
29 *87:5 *130:2 0.000687187031
30 *87:6 *131:2 0.000192012988
31 *87:6 *139:2 0.000326279023
32 *87:11 *393:2 0.00140453

*RES
1 *87:21 *87:22 0.092598
2 *87:22 *87:23 4.81775
3 *87:18 *87:19 7.9368
4 *87:12 *87:13 3.18091
5 *87:24 *87:25 15.3939
6 *87:23 *87:24 0.092598
7 *87:4 *87:5 0.084985
8 *87:6 *87:7 3.64987
9 *87:9 *87:10 0.093052
10 *87:5 *87:9 2.46792
11 *87:13 *87:14 0.092595
12 *87:25 *87:26 0.092598
13 *87:19 *87:20 0.092595
14 *87:17 *87:18 0.092595
15 *87:8 *87:26 0.619373
16 *87:16 *87:17 1.67006
17 *87:15 *87:16 0.092595
18 *87:11 *87:12 0.092595
19 *87:20 *87:21 3.68453
20 *87:14 *87:15 17.2822
21 *87:3 *87:8 0.854521
22 *87:6 *87:10 9.13954
23 *87:7 *87:11 22.6526
24 *612:Z *87:2 0.225
25 *87:2 *87:3 0.225
26 *612:Z *767:D[14] 0.0001
*END

*D_NET *88 0.00433307

*CONN
*I *613:Z O *C 221.1 139.2 *L 0 *D DEL1
*I *767:D[15] I *C 251.455 134.265 *L 0.00183 *D sram00

*CAP
1 *88:2 0.000819299
2 *88:3 0.000286353
3 *88:4 1.55783e-05
4 *88:5 0.00042395
5 *88:6 1.85766e-05
6 *88:7 7.59619e-05
7 *88:8 0.000376172
8 *88:9 0.000175285
9 *88:10 0.000107353
10 *88:11 0.000854327031
11 *88:12 1.69731e-05
12 *88:13 0.000140569
13 *88:14 7.14383e-06
14 *88:15 0.000506026
15 *88:16 5.6564e-05
16 *88:17 0.000386119
17 *88:18 2.26699e-05
18 *88:19 4.41406e-05

*RES
1 *88:12 *88:13 0.729817
2 *88:5 *88:6 0.092595
3 *88:4 *88:5 3.05501
4 *88:2 *88:6 0.871175
5 *88:8 *88:18 1.35193
6 *88:10 *88:11 7.46165
7 *88:9 *88:10 0.2185
8 *88:13 *88:14 0.092595
9 *88:17 *88:18 0.092595
10 *88:9 *88:19 0.967107
11 *613:Z *88:2 3.15985
12 *88:16 *88:17 1.79597
13 *88:15 *88:16 0.092595
14 *88:11 *88:12 0.2185
15 *88:14 *88:15 2.38926
16 *88:3 *88:8 2.13022
17 *88:3 *88:4 0.092595
18 *88:7 *88:19 0.225
19 *613:Z *767:D[15] 0.0001
*END

*D_NET *89 0.00114884

*CONN
*I *614:Z O *C 48.9 139.2 *L 0 *D DEL0
*I *679:I I *C 51.9 141.6 *L 0.00105 *D DEL1

*CAP
1 *614:Z 0.000746171016
2 *89:2 0.000402672

*RES
1 *614:Z *89:2 3.15367007
2 *679:I *89:2 1.4778
*END

*D_NET *90 0.00473264

*CONN
*I *615:Z O *C 141.7 142.8 *L 0 *D DEL0
*I *683:I I *C 168.7 143.2 *L 0.00105 *D DEL1

*CAP
1 *683:I 0.00014507
2 *90:2 3.57309e-05
3 *90:3 0.00260470016
4 *90:4 0.00116819
5 *90:5 0.000778926

*RES
1 *90:2 *90:4 6.24226
2 *90:4 *90:5 1.73879
3 *90:3 *90:5 11.1718998
4 *683:I *90:2 0.82763
5 *615:Z *90:3 0.22502
*END

*D_NET *91 0.00469164

*CONN
*I *616:Z O *C 111.9 142 *L 0 *D DEL015
*I *675:I I *C 86.7 143.2 *L 0.00105 *D DEL1

*CAP
1 *675:I 0.000726696
2 *616:Z 0.000376394
3 *91:2 0.000591364
4 *91:3 0.000619061
5 *91:4 0.000358083
6 *91:5 0.000236954
7 *91:6 0.00178307

*RES
1 *91:2 *91:3 2.50159
2 *616:Z *91:2 1.4186
3 *91:5 *91:6 2.502
4 *91:3 *91:4 3.15527
5 *675:I *91:6 8.90083027
6 *91:4 *91:5 2.26622
*END

*D_NET *92 0.00407708

*CONN
*I *617:Z O *C 199.7 145.6 *L 0 *D DEL015
*I *821:D I *C 181.7 139.6 *L 0.000971 *D DFCNQD1

*CAP
1 *821:D 0.00062624
2 *617:Z 0.000579608
3 *92:2 0.000333832
4 *92:3 0.000286751
5 *92:4 0.000391258
6 *92:5 0.00155128
7 *92:6 0.000308126

*RES
1 *617:Z *92:3 2.61464
2 *92:5 *92:6 3.24632
3 *92:4 *92:5 2.67085
4 *821:D *92:2 2.49127
5 *92:3 *92:4 3.30681992
6 *92:2 *92:6 3.12779
*END

*D_NET *93 0.00377853

*CONN
*I *618:Z O *C 112.9 142.8 *L 0 *D DEL0
*I *674:I I *C 87.1 145.2 *L 0.00105 *D DEL1

*CAP
1 *618:Z 0.000143068
2 *93:2 0.00127157
3 *93:3 0.00148049
4 *93:4 0.000111373
5 *93:5 0.000717914
6 *93:6 5.4105e-05

*RES
1 *93:5 *93:6 0.0925593
2 *93:3 *93:6 6.08463
3 *674:I *93:3 1.29128
4 *618:Z *93:2 0.619388
5 *93:4 *93:5 4.21757
6 *93:2 *93:4 6.62946987
*END

*D_NET *94 0.00298487

*CONN
*I *546:I I *C 30.1 143.2 *L 0.00103 *D DEL01
*I *619:Z O *C 48.3 142 *L 0 *D DEL015

*CAP
1 *94:2 0.00298487

*RES
1 *546:I *94:2 0.728552
2 *619:Z *94:2 13.0633001
*END

*D_NET *95 0.00286206

*CONN
*I *620:Z O *C 192.9 145.6 *L 0 *D DEL015
*I *897:D I *C 180.9 145.2 *L 0.000949 *D DFCND1

*CAP
1 *897:D 0.000338212
2 *95:2 0.00031869
3 *95:3 0.000506149
4 *95:4 0.00132169
5 *95:5 0.000377317

*RES
1 *897:D *95:5 1.58315
2 *95:4 *95:5 2.20702
3 *95:3 *95:4 5.91185999
4 *95:2 *95:3 2.96035
5 *620:Z *95:2 1.33129
*END

*D_NET *96 0.00235449

*CONN
*I *621:Z O *C 104.1 145.6 *L 0 *D DEL0
*I *677:I I *C 91.9 145.2 *L 0.00105 *D DEL1

*CAP
1 *96:2 0.00235449

*RES
1 *677:I *96:2 1.20543
2 *621:Z *96:2 10.8783998
*END

*D_NET *97 0.00251149

*CONN
*I *622:Z O *C 101.5 142.8 *L 0 *D DEL015
*I *678:I I *C 86.7 141.6 *L 0.00105 *D DEL1

*CAP
1 *678:I 0.000476216
2 *97:2 0.00107015
3 *97:3 0.000965119

*RES
1 *622:Z *97:2 0.384832
2 *678:I *97:3 7.09633017
3 *97:2 *97:3 4.20283
*END

*D_NET *98 0.00350359

*CONN
*I *623:Z O *C 99.1 142.8 *L 0 *D DEL015
*I *692:I I *C 79.7 141.6 *L 0.00105 *D DEL1

*CAP
1 *692:I 0.0004023
2 *98:2 0.000387881
3 *98:3 0.00121105
4 *98:4 0.00150235

*RES
1 *98:2 *98:3 5.74142
2 *623:Z *98:2 1.10629
3 *98:3 *98:4 6.16199017
4 *692:I *98:4 1.77791
*END

*D_NET *99 0.00302119

*CONN
*I *624:Z O *C 97.5 145.6 *L 0 *D DEL015
*I *680:I I *C 83.7 145.2 *L 0.00105 *D DEL1

*CAP
1 *624:Z 0.000226243
2 *99:2 9.08192e-05
3 *99:3 0.00270415

*RES
1 *99:2 *99:3 10.7410002
2 *680:I *99:3 1.43047
3 *624:Z *99:2 0.728676
*END

*D_NET *100 0.00340131

*CONN
*I *625:Z O *C 145.3 145.6 *L 0 *D DEL0
*I *684:I I *C 160.1 143.2 *L 0.00105 *D DEL1

*CAP
1 *100:2 0.0017223
2 *100:3 0.000601537
3 *100:4 0.00107745

*RES
1 *625:Z *100:2 0.547392
2 *100:3 *100:4 4.29632
3 *684:I *100:3 2.14451
4 *100:2 *100:4 7.13197994
*END

*D_NET *101 0.000649246

*CONN
*I *626:Z O *C 32.7 142 *L 0 *D DEL0
*I *720:I I *C 30.1 139.6 *L 0.00105 *D DEL1

*CAP
1 *101:2 0.000649245977

*RES
1 *626:Z *101:2 0.728631
2 *720:I *101:2 2.68947005
*END

*D_NET *102 0.000661246

*CONN
*I *627:Z O *C 39.9 142.8 *L 0 *D DEL0
*I *703:I I *C 37.7 141.6 *L 0.00105 *D DEL1

*CAP
1 *703:I 0.000377296016
2 *627:Z 0.000103071
3 *102:2 0.000180879

*RES
1 *703:I *102:2 2.94503999
2 *627:Z *102:2 0.450007
*END

*D_NET *103 0.00133739

*CONN
*I *628:Z O *C 28.3 142.8 *L 0 *D DEL0
*I *706:I I *C 25.9 139.6 *L 0.00105 *D DEL1

*CAP
1 *628:Z 0.000376205
2 *103:2 0.000961192031

*RES
1 *706:I *103:2 2.02712
2 *628:Z *103:2 3.31800008
*END

*D_NET *104 0.00102627

*CONN
*I *629:Z O *C 36.7 142.8 *L 0 *D DEL0
*I *707:I I *C 34.3 139.6 *L 0.00105 *D DEL1

*CAP
1 *104:2 0.00102627

*RES
1 *629:Z *104:2 1.86202
2 *707:I *104:2 2.81537008
*END

*D_NET *105 0.000699454

*CONN
*I *630:Z O *C 20.3 142 *L 0 *D DEL0
*I *704:I I *C 16.9 139.6 *L 0.00105 *D DEL1

*CAP
1 *105:2 0.000699453984

*RES
1 *630:Z *105:2 0.728618
2 *704:I *105:2 3.41809011
*END

*D_NET *106 0.000882889

*CONN
*I *631:Z O *C 12.5 142.8 *L 0 *D DEL0
*I *705:I I *C 9.9 139.6 *L 0.00105 *D DEL1

*CAP
1 *106:2 0.000586439023
2 *106:3 0.000296454

*RES
1 *106:2 *106:3 1.86176
2 *705:I *106:3 0.674994
3 *631:Z *106:2 2.44562006
*END

*D_NET *107 0.00169719

*CONN
*I *632:Z O *C 156.3 145.6 *L 0 *D DEL0
*I *687:I I *C 159.9 141.6 *L 0.00105 *D DEL1

*CAP
1 *687:I 0.000275126
2 *107:2 0.000314014
3 *107:3 0.00110806

*RES
1 *107:2 *107:3 3.49271011
2 *687:I *107:2 2.33062
3 *632:Z *107:3 0.827717
*END

*D_NET *108 0.000880981

*CONN
*I *633:Z O *C 85.3 142 *L 0 *D DEL015
*I *691:I I *C 81.9 143.2 *L 0.00105 *D DEL1

*CAP
1 *691:I 0.000418674
2 *633:Z 0.000462305

*RES
1 *633:Z *691:I 4.00625
*END

*D_NET *109 0.00532317

*CONN
*I *550:Z O *C 34.1 142.8 *L 0 *D DEL01
*I *696:I I *C 64.5 141.6 *L 0.00105 *D DEL1

*CAP
1 *696:I 2.17263e-06
2 *109:2 0.00113671
3 *109:3 0.00122744
4 *109:4 0.000527199
5 *109:5 0.000612268
6 *109:6 0.000125862
7 *109:2 *315:7 0.000200029004
8 *109:3 *374:6 0.00105651
9 *696:I *857:A1 0.000216657988
10 *109:2 *304:9 0.000218298008

*RES
1 *109:3 *109:6 13.8494997
2 *109:5 *109:2 5.95941
3 *109:2 *109:6 1.73584
4 *696:I *109:5 2.8284
5 *109:4 *109:3 1.76648
6 *550:Z *109:4 0.225063
*END

*D_NET *110 0.00603358

*CONN
*I *555:I I *C 37.1 145.2 *L 0.00103 *D DEL01
*I *635:Z O *C 72.9 139.2 *L 0 *D DEL015

*CAP
1 *555:I 0.000148226
2 *110:2 0.00194786
3 *110:3 0.000136218
4 *110:4 9.71924e-06
5 *110:5 0.00111643
6 *555:I *847:A2 0.000212087012
7 *110:2 *271:3 0.000693467969
8 *110:2 *300:2 0.00022316
9 *110:2 *223:5 0.000330025
10 *110:2 *17:2 0.000215072012
11 *110:2 *368:2 0.000191892988
12 *110:2 *377:2 0.000809436016

*RES
1 *110:3 *110:5 4.48046
2 *110:2 *110:3 23.5678005
3 *555:I *110:2 1.34389
4 *110:4 *110:5 0.544818
5 *635:Z *110:4 0.44988
*END

*D_NET *111 0.000954564

*CONN
*I *636:Z O *C 62.7 142 *L 0 *D DEL015
*I *699:I I *C 60.5 139.6 *L 0.00105 *D DEL1

*CAP
1 *111:2 0.000954563984

*RES
1 *636:Z *111:2 0.602693
2 *699:I *111:2 3.13751006
*END

*D_NET *112 0.0126146

*CONN
*I *553:I I *C 38.3 139.6 *L 0.00103 *D DEL01
*I *637:Z O *C 80.9 139.2 *L 0 *D DEL015

*CAP
1 *637:Z 0.000232869
2 *112:2 0.000536262
3 *112:3 0.00157688
4 *112:4 0.000695045
5 *112:5 1.41001e-05
6 *112:2 *309:2 0.0047785
7 *112:2 *311:2 0.00478096

*RES
1 *112:2 *112:4 3.21246
2 *112:2 *112:3 45.8675003
3 *112:3 *112:5 2.23962
4 *637:Z *112:4 4.64722
5 *553:I *112:5 0.224662
*END

*D_NET *113 0.000960847

*CONN
*I *638:Z O *C 57.7 145.6 *L 0 *D DEL015
*I *698:I I *C 55.3 141.6 *L 0.00105 *D DEL1

*CAP
1 *638:Z 0.000389481
2 *113:2 0.000571366016

*RES
1 *698:I *113:2 1.80813
2 *638:Z *113:2 2.83141994
*END

*D_NET *114 0.00477237

*CONN
*I *639:Z O *C 194.7 142.8 *L 0 *D DEL0
*I *682:I I *C 173.1 145.2 *L 0.00105 *D DEL1

*CAP
1 *682:I 0.000329202
2 *639:Z 0.000467373
3 *114:2 0.000126792
4 *114:3 0.00135053
5 *114:4 0.00208306
6 *114:5 0.000380694
7 *114:6 3.46779e-05

*RES
1 *114:5 *114:6 2.14031
2 *114:2 *114:4 8.77766991
3 *114:4 *114:5 0.0925502
4 *114:3 *114:6 6.14662
5 *682:I *114:3 1.39803
6 *639:Z *114:2 1.98789
*END

*D_NET *115 0.00052467

*CONN
*I *640:Z O *C 15.9 142 *L 0 *D DEL015
*I *701:I I *C 14.3 143.2 *L 0.00105 *D DEL1

*CAP
1 *640:Z 0.00052467

*RES
1 *640:Z *701:I 2.35415
*END

*D_NET *116 0.000526361

*CONN
*I *641:Z O *C 52.5 142.8 *L 0 *D DEL015
*I *697:I I *C 50.7 145.2 *L 0.00105 *D DEL1

*CAP
1 *697:I 0.000271587988
2 *641:Z 0.000254771

*RES
1 *697:I *641:Z 2.58853
*END

*D_NET *117 0.000473996

*CONN
*I *642:Z O *C 23.5 139.2 *L 0 *D DEL015
*I *702:I I *C 21.9 141.6 *L 0.00105 *D DEL1

*CAP
1 *702:I 0.000335191992
2 *642:Z 0.000138803

*RES
1 *702:I *642:Z 2.47298
*END

*D_NET *118 0.000875693

*CONN
*I *643:Z O *C 48.9 145.6 *L 0 *D DEL015
*I *700:I I *C 46.9 143.2 *L 0.00105 *D DEL1

*CAP
1 *643:Z 0.000251171
2 *118:2 0.000624521016

*RES
1 *700:I *118:2 1.63394
2 *643:Z *118:2 1.76795995
*END

*D_NET *119 0.00284491

*CONN
*I *644:Z O *C 156.3 142.8 *L 0 *D DEL0
*I *686:I I *C 172.3 143.2 *L 0.00105 *D DEL1

*CAP
1 *686:I 0.000173133
2 *119:2 0.000939182969
3 *119:3 0.000409021
4 *119:4 0.000334672
5 *119:5 0.000524257
6 *119:6 0.00046464

*RES
1 *119:4 *119:5 2.26628
2 *119:5 *119:6 2.51075
3 *119:3 *119:4 2.14039
4 *119:2 *119:6 3.26101995
5 *686:I *119:3 2.61012
6 *644:Z *119:2 0.225011
*END

*D_NET *120 0.000522819

*CONN
*I *645:Z O *C 44.7 139.2 *L 0 *D DEL015
*I *710:I I *C 42.7 141.6 *L 0.00105 *D DEL1

*CAP
1 *710:I 0.000428757031
2 *645:Z 8.54897e-05
3 *120:2 8.57056e-06

*RES
1 *710:I *120:2 2.68947005
2 *645:Z *120:2 0.449982
*END

*D_NET *121 0.0141026

*CONN
*I *554:Z O *C 227.7 145.6 *L 0 *D DEL01
*I *685:I I *C 165.3 143.2 *L 0.00105 *D DEL1

*CAP
1 *554:Z 0.000280663
2 *685:I 0.000560894
3 *121:2 0.00112926
4 *121:3 3.51124e-05
5 *121:4 0.00100701
6 *121:5 0.000686009
7 *121:6 1.60424e-05
8 *121:7 0.00257680984
9 *121:8 4.65544e-05
10 *121:2 *556:Z 0.000405505
11 *121:4 *411:5 0.00351561
12 *121:2 *43:2 0.00384309

*RES
1 *121:5 *121:8 28.0568008
2 *121:2 *121:8 0.619479
3 *121:6 *121:7 10.7491
4 *121:5 *121:6 0.219622
5 *121:3 *121:2 12.1015
6 *554:Z *121:3 1.10624
7 *121:4 *121:7 5.90453
8 *685:I *121:4 2.44709
*END

*D_NET *122 0.0019061

*CONN
*I *647:Z O *C 157.1 142 *L 0 *D DEL0
*I *688:I I *C 168.7 141.6 *L 0.00105 *D DEL1

*CAP
1 *688:I 5.37544e-05
2 *122:2 0.000149368
3 *122:3 0.000864277031
4 *122:4 0.000494353
5 *122:5 0.000344352

*RES
1 *122:3 *122:5 3.35512996
2 *688:I *122:2 0.959091
3 *122:2 *122:4 3.13745
4 *122:4 *122:5 1.34746
5 *647:Z *122:3 0.225003
*END

*D_NET *123 0.0123549

*CONN
*I *556:Z O *C 225.5 145.6 *L 0 *D DEL01
*I *689:I I *C 172.1 141.6 *L 0.00105 *D DEL1

*CAP
1 *556:Z 0.000233718
2 *689:I 0.000262555
3 *123:2 0.00347397
4 *123:4 0.000295474
5 *123:5 5.34335e-05
6 *123:6 0.00104116
7 *123:2 *568:Z 0.00407654
8 *123:2 *193:3 0.00251257984
9 *556:Z *121:2 0.000405505

*RES
1 *556:Z *123:3 0.854252
2 *123:5 *123:6 2.52689
3 *123:4 *123:5 0.649067
4 *123:3 *123:2 38.5301018
5 *689:I *123:6 6.26608
6 *123:4 *123:2 3.23181
*END

*D_NET *124 0.00786057

*CONN
*I *557:Z O *C 221.7 142 *L 0 *D DEL01
*I *690:I I *C 177.3 139.6 *L 0.00105 *D DEL1

*CAP
1 *690:I 0.000429528
2 *124:2 0.00304019
3 *124:3 0.000418441
4 *124:4 0.000641439
5 *124:2 *407:2 0.000352351016
6 *124:3 *506:2 0.000718598984
7 *690:I *45:2 0.00101835
8 *124:3 *49:7 0.00124166

*RES
1 *124:3 *124:2 27.8174992
2 *690:I *124:4 8.45357
3 *124:2 *124:4 1.98775
4 *124:3 *124:5 3.49841
5 *557:Z *124:5 0.224965
*END

*D_NET *125 0.000992481

*CONN
*I *650:Z O *C 159.7 142 *L 0 *D DEL0
*I *721:I I *C 163.3 141.6 *L 0.00105 *D DEL1

*CAP
1 *650:Z 0.000893923984
2 *125:2 9.85519e-05

*RES
1 *650:Z *125:2 3.58380008
2 *721:I *125:2 0.449998
*END

*D_NET *126 0.00494467

*CONN
*I *651:Z O *C 166.1 145.6 *L 0 *D DEL1
*I *767:D[30] I *C 188.185 134.265 *L 0.00183 *D sram00

*CAP
1 *126:3 0.000716731
2 *126:4 9.12623e-05
3 *126:5 4.48613e-05
4 *126:6 0.000918047
5 *126:7 0.000703329
6 *126:8 0.00229327984
7 *126:9 0.000177171

*RES
1 *126:7 *126:9 0.729589
2 *126:6 *126:8 0.602712
3 *126:2 *126:3 2.74308
4 *126:8 *126:9 13.0578
5 *126:4 *126:5 0.336794
6 *126:3 *126:6 4.00212
7 *126:5 *126:7 2.53396
8 *651:Z *126:2 0.225
9 *651:Z *767:D[30] 0.0001
*END

*D_NET *127 0.000336314

*CONN
*I *652:Z O *C 11.9 142 *L 0 *D BUFFD1
*I *876:A1 I *C 10.9 141.6 *L 0.000556 *D CKAN2D0

*CAP
1 *876:A1 0.000249837988
2 *652:Z 8.64778e-05

*RES
1 *652:Z *876:A1 1.60668
*END

*D_NET *128 0.010317

*CONN
*I *653:Z O *C 252.5 142.8 *L 0 *D CKBD0
*I *739:I I *C 179.9 143.2 *L 0.00105 *D DEL1

*CAP
1 *739:I 0.000446694
2 *653:Z 0.000159479
3 *128:3 0.00201959984
4 *128:4 0.000284072
5 *128:5 0.000489437
6 *128:6 0.000114917
7 *128:7 0.000984823
8 *128:8 0.000333595
9 *128:9 0.000643862
10 *128:3 *568:I 0.00177477
11 *128:3 *132:3 0.000604829023
12 *128:2 *136:2 0.0017081
13 *653:Z *138:2 0.000752798984

*RES
1 *128:6 *128:7 6.958
2 *128:2 *128:3 28.4785995
3 *653:Z *128:2 0.728739
4 *128:8 *128:9 1.38491
5 *128:7 *128:8 0.0925589
6 *128:5 *128:6 4.00784
7 *128:3 *128:4 0.108203
8 *739:I *128:9 6.13062
9 *128:4 *128:5 3.1457
*END

*D_NET *129 0.00359803

*CONN
*I *654:Z O *C 169.5 145.6 *L 0 *D DEL1
*I *897:CDN I *C 183.3 145.2 *L 0.00167 *D DFCND1

*CAP
1 *897:CDN 0.000312748
2 *654:Z 0.000939495
3 *129:2 0.000147009
4 *129:3 0.00215723984
5 *129:4 4.15088e-05

*RES
1 *129:2 *129:3 8.83533001
2 *129:3 *129:4 0.0926189
3 *654:Z *129:4 3.55578
4 *897:CDN *129:2 1.23748
*END

*D_NET *130 0.032374

*CONN
*I *566:Z O *C 41.9 145.6 *L 0 *D BUFFD2
*I *767:D[7] I *C 285.055 134.265 *L 0.00183 *D sram00

*CAP
1 *566:Z 0.000106655
2 *130:2 4.47951e-05
3 *130:3 0.000479318
4 *130:4 3.6893e-05
5 *130:5 0.000734126
6 *130:6 0.00190142
7 *130:7 0.000187568
8 *130:8 0.00036287
9 *130:9 0.000105782
10 *130:10 0.00167046
11 *130:11 0.000666982
12 *130:12 1.17321e-05
13 *130:13 0.000177969
14 *130:14 6.89865e-05
15 *130:15 7.20892e-05
16 *130:16 0.00149516
17 *130:17 0.000100498
18 *130:18 0.000622429
19 *130:19 1.60952e-05
20 *130:21 0.000500746
21 *130:22 0.000124156
22 *130:23 0.000226933
23 *130:24 0.000419688
24 *130:25 0.000381244
25 *130:26 0.000233429
26 *130:27 9.16749e-05
27 *130:28 9.06568e-06
28 *130:29 0.000331067
29 *130:30 5.28428e-06
30 *130:32 0.000139573
31 *130:34 0.000270952
32 *130:35 0.000392491
33 *130:36 1.71618e-05
34 *130:37 0.000210983
35 *130:38 3.39357e-06
36 *130:39 0.000110727
37 *130:40 3.07845e-05
38 *130:41 8.52271e-05
39 *130:42 0.000270274
40 *130:43 4.35347e-05
41 *130:44 0.000161243
42 *130:45 1.67739e-05
43 *130:46 0.000261984
44 *130:47 2.27854e-06
45 *130:48 0.000215346
46 *130:49 0.000150093
47 *130:50 0.00317711
48 *130:51 1.5465e-05
49 *130:52 0.00031759
50 *130:53 1.48348e-05
51 *130:54 0.000163813
52 *130:55 3.58264e-05
53 *130:8 *319:2 0.00082399
54 *130:6 *55:3 0.000732457969
55 *130:8 *83:2 0.000391761992
56 *130:8 *84:4 0.00248495
57 *130:49 *430:2 0.00172638
58 *130:49 *431:3 0.0013829
59 *130:2 *87:5 0.000687187031
60 *130:3 *322:3 0.00155012
61 *130:4 *78:4 0.00143641
62 *130:5 *60:9 0.000620195977
63 *130:6 *291:3 0.000983031953
64 *130:7 *59:2 0.000251673008
65 *130:8 *86:2 0.00070237
66 *130:9 *54:8 0.00130801

*RES
1 *130:40 *130:41 2.42549
2 *130:38 *130:39 0.857451
3 *130:20 *130:21 1.90522
4 *130:7 *130:22 0.092595
5 *130:23 *130:4 0.092595
6 *130:28 *130:29 3.18091
7 *130:15 *130:2 0.084985
8 *130:45 *130:46 1.63008
9 *130:37 *130:38 0.092595
10 *130:3 *130:36 0.092595
11 *130:11 *130:14 3.75032
12 *130:19 *130:5 8.7207
13 *130:33 *130:34 7.73014
14 *130:11 *130:12 0.398046
15 *566:Z *130:12 0.384213
16 *130:52 *130:53 0.092605
17 *130:51 *130:52 2.42562
18 *130:31 *130:32 1.16645
19 *130:2 *130:17 0.544644
20 *130:46 *130:47 0.092598
21 *130:6 *130:43 0.092598
22 *130:35 *130:3 9.01839
23 *130:48 *130:49 0.092598
24 *130:8 *130:31 0.092699
25 *130:7 *130:55 2.63383
26 *130:26 *130:9 1.99669
27 *130:22 *130:23 5.44719
28 *130:29 *130:30 0.092595
29 *130:13 *130:16 4.25856
30 *130:47 *130:48 3.30688
31 *130:39 *130:40 0.092595
32 *130:34 *130:35 3.13226
33 *130:4 *130:24 7.86808
34 *130:10 *130:14 3.1208
35 *130:21 *130:55 1.2354
36 *130:32 *130:33 0.092595
37 *130:5 *130:20 0.092595
38 *130:44 *130:45 0.092598
39 *130:41 *130:42 0.092595
40 *130:24 *130:25 4.41064
41 *130:50 *130:51 0.092605
42 *130:16 *130:53 2.48704
43 *130:42 *130:6 18.427
44 *130:18 *130:54 5.27782
45 *130:36 *130:37 1.92187
46 *130:49 *130:50 39.9581
47 *130:43 *130:44 1.54419
48 *130:17 *130:54 0.856501
49 *130:30 *130:8 5.76771
50 *130:10 *130:13 4.25717
51 *130:27 *130:28 0.092595
52 *130:25 *130:26 5.44893
53 *130:18 *130:19 0.092595
54 *130:9 *130:27 1.29235
55 *566:Z *767:D[7] 0.0001
*END

*D_NET *131 0.00569543

*CONN
*I *594:I I *C 249.9 139.6 *L 0.000643 *D CKBD0
*I *656:Z O *C 206.5 139.2 *L 0 *D DEL1

*CAP
1 *594:I 1.01656e-05
2 *131:2 0.00273033
3 *131:3 0.000832618
4 *131:4 0.000110696
5 *131:5 0.000429954
6 *131:6 3.50379e-05
7 *131:5 *139:3 0.000451735
8 *131:2 *87:6 0.000192012988
9 *131:2 *338:3 0.000303465996
10 *131:3 *791:A2 0.000599394961

*RES
1 *131:4 *131:2 21.1616993
2 *131:2 *131:6 0.0929957
3 *131:5 *131:3 2.49765
4 *594:I *131:4 0.609962
5 *131:6 *131:3 5.32142
6 *656:Z *131:5 0.225063
*END

*D_NET *132 0.0188875

*CONN
*I *539:I I *C 285.7 145.2 *L 0.00104 *D DEL0
*I *657:Z O *C 96.7 142.8 *L 0 *D DEL1

*CAP
1 *539:I 0.000181168
2 *132:2 0.00504368031
3 *132:3 0.00395983
4 *132:4 0.00100142
5 *132:5 0.000113364
6 *132:6 0.000855813
7 *132:7 0.000257668
8 *132:8 0.000144072
9 *132:9 6.96503e-05
10 *132:2 *288:4 0.000479425
11 *132:2 *85:6 0.000829878984
12 *132:3 *332:3 0.00161505
13 *132:3 *128:3 0.000604829023
14 *132:3 *136:2 0.000368816992
15 *132:3 *48:2 0.000904396016
16 *132:3 *138:4 0.00028042502
17 *132:4 *234:12 0.00217804

*RES
1 *132:7 *132:8 1.63641
2 *132:5 *132:2 0.728821
3 *539:I *132:3 1.05296
4 *132:2 *132:9 46.844
5 *132:5 *132:6 3.94467
6 *132:4 *132:8 4.09986
7 *132:3 *132:9 64.3720016
8 *132:6 *132:7 0.0923304
9 *657:Z *132:4 0.224933
*END

*D_NET *133 0.00788382

*CONN
*I *593:I I *C 251.5 139.6 *L 0.000643 *D CKBD0
*I *658:Z O *C 203.1 139.2 *L 0 *D DEL1

*CAP
1 *133:2 0.00137709
2 *133:3 0.000504796
3 *133:4 0.000430431
4 *133:6 4.32869e-06
5 *133:7 0.000294225
6 *133:9 0.00116732
7 *133:10 0.000898518
8 *133:11 6.99104e-05
9 *133:2 *59:2 0.000222005996
10 *133:3 *55:5 0.00087135
11 *133:4 *49:4 0.00204385

*RES
1 *133:4 *133:2 16.2474995
2 *133:9 *133:10 1.00902
3 *133:8 *133:9 8.84841
4 *133:7 *133:8 0.0381792
5 *133:6 *133:7 4.05741
6 *133:5 *133:3 8.21176
7 *133:2 *133:5 0.0381792
8 *133:10 *133:12 3.22044
9 *133:3 *133:6 0.0381792
10 *133:4 *133:11 3.24672
11 *658:Z *133:12 0.225109
12 *593:I *133:11 0.225109
*END

*D_NET *134 0.00662409

*CONN
*I *592:I I *C 248.7 141.6 *L 0.000643 *D CKBD0
*I *659:Z O *C 200.1 142 *L 0 *D DEL1

*CAP
1 *592:I 0.000326322
2 *659:Z 0.000190546
3 *134:2 0.000318073
4 *134:3 5.32548e-05
5 *134:4 0.0019875
6 *134:5 0.000167498
7 *134:6 0.000367628
8 *134:4 *48:2 0.000420558984
9 *134:4 *454:4 0.000420356992
10 *659:Z *476:3 0.00172456
11 *134:3 *504:3 0.000443603008
12 *134:2 *477:9 0.000204188008

*RES
1 *659:Z *134:6 2.8333
2 *592:I *134:3 1.4598
3 *134:5 *134:6 1.51067
4 *134:3 *134:4 24.6952
5 *134:2 *134:5 3.02171
6 *134:4 *134:2 0.0926974
*END

*D_NET *135 0.0184159

*CONN
*I *538:I I *C 268.9 141.6 *L 0.00104 *D DEL0
*I *660:Z O *C 96.7 142 *L 0 *D DEL1

*CAP
1 *135:2 9.00428e-06
2 *135:3 0.00797426
3 *135:4 0.000325979
4 *135:5 0.000279254
5 *135:6 0.000340702
6 *135:7 3.37052e-05
7 *135:8 0.000442548
8 *135:9 0.000116326
9 *135:10 0.000535998
10 *135:3 *48:4 0.000392196016
11 *135:3 *392:4 0.001667
12 *135:2 *504:5 0.000295955
13 *135:2 *228:5 0.000458786016
14 *135:3 *393:2 0.00308366
15 *135:3 *5:4 0.00246064

*RES
1 *135:8 *135:9 0.0924534
2 *135:7 *135:8 4.18796
3 *135:6 *135:7 0.0924534
4 *135:5 *135:3 44.0052
5 *135:9 *135:10 2.80294
6 *135:3 *135:6 58.2598991
7 *135:4 *135:10 1.79129
8 *538:I *135:2 0.449822
9 *660:Z *135:4 0.224911
10 *135:2 *135:5 0.224911
*END

*D_NET *136 0.00611208

*CONN
*I *588:I I *C 264.5 145.2 *L 0.000643 *D CKBD0
*I *661:Z O *C 214.7 145.6 *L 0 *D DEL1

*CAP
1 *588:I 0.000120551
2 *136:2 0.00233322
3 *136:3 1.51311e-05
4 *136:4 0.00015804
5 *136:5 1.2817e-06
6 *136:2 *132:3 0.000368816992
7 *136:2 *192:3 0.00140696
8 *136:2 *128:2 0.0017081

*RES
1 *136:2 *136:5 24.6653004
2 *136:4 *136:5 0.0925852
3 *136:3 *136:4 6.07675
4 *588:I *136:3 1.83477
5 *661:Z *136:2 0.225065
*END

*D_NET *137 0.0123508

*CONN
*I *584:I I *C 179.1 143.2 *L 0.000643 *D CKBD0
*I *662:Z O *C 94.9 139.2 *L 0 *D DEL1

*CAP
1 *137:2 0.000104303
2 *137:3 0.00292992
3 *137:4 0.000332089
4 *137:5 0.000463932
5 *137:7 0.000417838
6 *137:8 4.91785e-05
7 *137:9 0.000407019
8 *137:10 0.00050323
9 *137:11 0.000544182
10 *137:12 0.000475869
11 *137:5 *302:2 0.00101447
12 *137:2 *143:4 0.00159543
13 *137:3 *82:6 0.000524030039
14 *137:2 *407:7 0.00279111
15 *137:3 *435:3 0.000198122988

*RES
1 *137:5 *137:6 0.115539
2 *137:2 *137:3 43.7686005
3 *137:8 *137:9 4.98621
4 *137:7 *137:8 1.97084
5 *137:3 *137:4 3.05277
6 *137:4 *137:5 3.82882
7 *137:6 *137:7 7.61422
8 *137:10 *137:13 2.23932
9 *137:11 *137:12 2.5265
10 *584:I *137:12 2.27405
11 *137:9 *137:10 1.0866
12 *137:2 *137:11 0.711934
13 *662:Z *137:13 0.225067
*END

*D_NET *138 0.00644748

*CONN
*I *589:I I *C 262.5 143.2 *L 0.000643 *D CKBD0
*I *663:Z O *C 214.7 142.8 *L 0 *D DEL1

*CAP
1 *589:I 0.000133937
2 *138:2 0.000481521
3 *138:3 2.90321e-05
4 *138:4 0.00187635
5 *138:5 0.000626967
6 *138:6 0.000105621
7 *138:7 0.00098211
8 *138:8 0.000468007
9 *138:10 0.00068947
10 *138:11 2.12444e-05
11 *138:4 *132:3 0.00028042502
12 *138:2 *653:Z 0.000752798984

*RES
1 *138:7 *138:8 0.0926131
2 *138:6 *138:7 10.3575001
3 *589:I *138:3 0.930715
4 *138:9 *138:10 5.57307
5 *138:4 *138:11 7.49771
6 *138:3 *138:5 4.5224
7 *138:10 *138:11 0.0926131
8 *138:8 *138:9 2.00082
9 *138:2 *138:6 2.57879
10 *138:5 *138:2 0.0926131
11 *663:Z *138:4 0.225053
*END

*D_NET *139 0.00567688

*CONN
*I *587:I I *C 240.5 139.6 *L 0.00182 *D DEL005
*I *664:Z O *C 199.7 139.2 *L 0 *D DEL1

*CAP
1 *139:2 0.000153483
2 *139:3 0.001308
3 *139:4 0.000195776
4 *139:5 8.8657e-05
5 *139:6 0.000740112
6 *139:7 0.000282657
7 *139:8 0.000152306
8 *139:9 1.07378e-05
9 *139:2 *87:6 0.000326279023
10 *139:3 *804:B2 0.00121443
11 *139:4 *791:A2 0.000320369004
12 *139:3 *201:18 0.000432341016
13 *139:3 *131:5 0.000451735

*RES
1 *139:8 *139:4 3.05504
2 *139:6 *139:7 2.51803
3 *139:5 *139:2 2.34877
4 *139:4 *139:9 0.0926549
5 *139:7 *139:8 2.08216
6 *139:3 *139:9 8.22131
7 *139:2 *139:6 9.92195034
8 *664:Z *139:3 0.224976
9 *587:I *139:5 0.224976
*END

*D_NET *140 0.0141226

*CONN
*I *585:I I *C 188.9 141.6 *L 0.000643 *D CKBD0
*I *665:Z O *C 100.3 142 *L 0 *D DEL1

*CAP
1 *140:2 0.00113753
2 *140:3 0.00497718
3 *140:4 3.28091e-05
4 *140:5 0.000920173
5 *140:3 *398:4 0.000721391953
6 *140:4 *512:5 0.00244458
7 *140:2 *812:ZN 0.000410748008
8 *140:3 *370:3 0.000536816016
9 *140:3 *746:I 0.000458121016
10 *140:4 *510:6 0.00248329

*RES
1 *140:4 *140:2 6.11228
2 *140:4 *140:3 69.1598969
3 *140:3 *140:5 4.2539
4 *665:Z *140:5 0.224778
5 *585:I *140:2 0.449556
*END

*D_NET *141 0.00675577

*CONN
*I *591:I I *C 216.5 145.2 *L 0.00103 *D DEL01
*I *666:Z O *C 172.9 145.6 *L 0 *D DEL1

*CAP
1 *591:I 0.000487276
2 *141:2 0.00132132
3 *141:3 5.70384e-05
4 *141:4 1.51619e-05
5 *141:5 0.000310516
6 *141:6 6.37524e-05
7 *141:7 0.000480139
8 *141:8 0.000667666
9 *141:2 *9:2 0.000231731992
10 *141:3 *769:A4 0.00103845
11 *141:2 *772:A1 0.00027761
12 *591:I *510:2 0.00180511

*RES
1 *141:6 *141:7 10.3768
2 *141:5 *141:6 1.60369
3 *141:4 *141:2 15.3205996
4 *141:7 *141:8 2.64048
5 *141:3 *141:5 5.14022
6 *141:2 *141:3 1.56465
7 *591:I *141:4 3.10078
8 *666:Z *141:8 0.22489
*END

*D_NET *142 0.0120695

*CONN
*I *586:I I *C 188.1 141.6 *L 0.000643 *D CKBD0
*I *667:Z O *C 103.7 142 *L 0 *D DEL1

*CAP
1 *586:I 0.000213937
2 *667:Z 0.000768149
3 *142:2 1.43848e-06
4 *142:3 0.00325072
5 *142:4 1.31447e-05
6 *142:5 0.00116676
7 *142:6 0.00127459
8 *142:7 0.000452973
9 *586:I *236:3 0.000700283984
10 *142:2 *240:3 0.00221968
11 *142:2 *491:2 0.00200781984

*RES
1 *142:6 *142:8 4.71346
2 *667:Z *142:7 3.48348
3 *142:4 *142:5 11.6572
4 *142:2 *142:8 1.13315
5 *142:2 *142:3 52.4450989
6 *586:I *142:6 1.923
7 *142:5 *142:7 2.2623
8 *142:3 *142:4 0.115236
*END

*D_NET *143 0.0122401

*CONN
*I *590:I I *C 187.5 139.6 *L 0.000643 *D CKBD0
*I *668:Z O *C 105.3 139.2 *L 0 *D DEL1

*CAP
1 *668:Z 0.000512935
2 *143:2 0.000645877
3 *143:3 0.000291127
4 *143:4 0.00336253
5 *143:5 0.000357367
6 *143:6 0.000511345
7 *143:8 0.000543105
8 *143:6 *299:2 0.000463248008
9 *143:8 *302:2 0.000476596016
10 *143:2 *49:2 0.000512893008
11 *143:4 *83:2 0.000420601992
12 *143:4 *137:2 0.00159543
13 *143:4 *434:2 0.000172832988
14 *143:2 *515:2 0.00237416

*RES
1 *143:6 *143:7 0.0384125
2 *143:7 *143:8 7.82891
3 *143:5 *143:6 3.61078
4 *143:3 *143:4 47.4981995
5 *143:2 *143:9 4.09565
6 *143:2 *143:3 3.29478
7 *668:Z *143:8 2.96936
8 *143:4 *143:5 2.59538
9 *590:I *143:9 0.450079
*END

*D_NET *144 0.00514167

*CONN
*I *595:I I *C 127.5 139.6 *L 0.00103 *D DEL015
*I *669:Z O *C 93.3 142 *L 0 *D DEL1

*CAP
1 *595:I 0.00017333
2 *669:Z 0.000432319
3 *144:2 8.74436e-05
4 *144:3 0.00185577
5 *144:4 0.000220959
6 *144:5 0.000518715
7 *144:6 0.00024418
8 *144:7 0.000380046
9 *144:8 0.00034346
10 *144:3 *294:2 0.000272812988
11 *144:8 *854:A1 0.000612615

*RES
1 *144:7 *144:8 3.18092
2 *144:2 *144:3 10.1162004
3 *669:Z *144:8 1.9556
4 *144:6 *144:7 2.42763
5 *144:5 *144:6 2.77325
6 *144:4 *144:5 2.14037
7 *144:3 *144:4 2.10734
8 *595:I *144:2 0.827684
*END

*D_NET *145 0.0023702

*CONN
*I *596:I I *C 129.7 145.2 *L 0.00103 *D DEL015
*I *670:Z O *C 112.3 145.6 *L 0 *D DEL1

*CAP
1 *596:I 0.000192362
2 *670:Z 0.000232131
3 *145:2 4.88576e-05
4 *145:3 0.00189685

*RES
1 *145:2 *145:3 11.0815001
2 *596:I *145:2 1.20544
3 *670:Z *145:3 1.28373
*END

*D_NET *146 0.00494068

*CONN
*I *597:I I *C 130.1 143.2 *L 0.00103 *D DEL015
*I *671:Z O *C 93.3 142.8 *L 0 *D DEL1

*CAP
1 *597:I 0.000225419
2 *671:Z 0.000398372
3 *146:2 3.57629e-05
4 *146:3 0.000345427
5 *146:4 0.000476794
6 *146:5 0.000456489
7 *146:6 0.000429097
8 *146:7 0.000447639
9 *146:8 0.00016441
10 *146:9 0.00125534
11 *146:10 0.000131252
12 *146:11 0.000574696

*RES
1 *146:8 *146:9 7.96528006
2 *146:7 *146:8 0.0926139
3 *146:6 *146:7 3.50085
4 *146:2 *146:3 2.47457
5 *146:10 *146:11 2.38256
6 *146:5 *146:6 1.61029
7 *146:4 *146:5 2.29955
8 *597:I *146:2 1.33135
9 *671:Z *146:11 1.9207
10 *146:9 *146:10 0.755374
11 *146:3 *146:4 2.51808
*END

*D_NET *147 0.00274238

*CONN
*I *598:I I *C 120.9 141.6 *L 0.00103 *D DEL015
*I *672:Z O *C 108.9 145.6 *L 0 *D DEL1

*CAP
1 *598:I 0.000318192
2 *147:2 0.000128718
3 *147:3 0.00119857
4 *147:4 0.00061751
5 *147:5 0.000466516
6 *147:6 1.28755e-05

*RES
1 *147:2 *147:4 2.99945
2 *672:Z *147:3 1.23225
3 *147:5 *147:6 0.0926011
4 *147:3 *147:6 4.01634979
5 *598:I *147:2 1.3732
6 *147:4 *147:5 2.62985
*END

*D_NET *148 0.00294316

*CONN
*I *599:I I *C 120.9 143.2 *L 0.00103 *D DEL015
*I *673:Z O *C 105.7 142.8 *L 0 *D DEL1

*CAP
1 *599:I 0.00015554
2 *148:2 0.00123406008
3 *148:3 0.000659672
4 *148:4 0.000315864
5 *148:5 0.000578004

*RES
1 *148:4 *148:5 2.67984
2 *148:2 *148:5 4.7521801
3 *148:3 *148:4 1.88859
4 *599:I *148:3 3.60148
5 *673:Z *148:2 0.225006
*END

*D_NET *149 0.00316271

*CONN
*I *674:Z O *C 90.3 145.6 *L 0 *D DEL1
*I *767:D[39] I *C 110.075 134.195 *L 0.00183 *D sram00

*CAP
1 *149:2 0.000105028
2 *149:3 4.90717e-05
3 *149:4 0.000116464
4 *149:5 0.000445623
5 *149:6 2.7806e-05
6 *149:7 0.000137175
7 *149:8 0.000986656
8 *149:10 4.15943e-05
9 *149:11 0.00125328008

*RES
1 *149:10 *149:11 6.28558
2 *149:4 *149:6 0.493467
3 *149:9 *149:11 2.63397
4 *149:8 *149:9 0.092605
5 *149:7 *149:8 8.59504
6 *149:6 *149:7 0.346261
7 *149:5 *149:10 1.51487
8 *149:3 *149:5 0.980425
9 *674:Z *149:2 0.225
10 *149:2 *149:3 0.225
11 *674:Z *767:D[39] 0.0001
*END

*D_NET *150 0.00276319

*CONN
*I *675:Z O *C 89.9 142.8 *L 0 *D DEL1
*I *767:D[41] I *C 101.675 134.195 *L 0.00183 *D sram00

*CAP
1 *150:3 0.000286122
2 *150:4 0.000954636953
3 *150:5 0.000112267
4 *150:6 0.000661509
5 *150:7 0.000351934
6 *150:8 1.87766e-05
7 *150:9 0.000345758
8 *150:10 3.21927e-05

*RES
1 *150:9 *150:10 0.0926091
2 *150:2 *150:3 0.602683
3 *150:8 *150:9 1.79608
4 *150:7 *150:8 0.0926091
5 *150:4 *150:5 4.99525023
6 *150:6 *150:10 3.89309
7 *150:5 *150:7 2.25616
8 *675:Z *150:2 0.225006
9 *150:3 *150:6 0.225006
10 *675:Z *767:D[41] 7.62215e-05
*END

*D_NET *151 0.00241134

*CONN
*I *600:I I *C 108.9 139.6 *L 0.00103 *D DEL015
*I *676:Z O *C 101.5 145.6 *L 0 *D DEL1

*CAP
1 *600:I 0.000461902
2 *676:Z 0.000243647
3 *151:2 5.16422e-05
4 *151:3 0.00165414

*RES
1 *151:2 *151:3 5.82898998
2 *676:Z *151:3 2.53142
3 *600:I *151:2 2.09577
*END

*D_NET *152 0.00292131

*CONN
*I *677:Z O *C 95.1 145.6 *L 0 *D DEL1
*I *767:D[40] I *C 105.605 134.195 *L 0.00183 *D sram00

*CAP
1 *152:2 0.00117877992
2 *152:3 4.7144e-05
3 *152:4 0.000171758
4 *152:5 4.08306e-06
5 *152:6 0.00020784
6 *152:7 2.55236e-05
7 *152:8 0.000100601
8 *152:9 7.03113e-05
9 *152:10 0.000231745
10 *152:11 4.65684e-05
11 *152:12 0.000836936

*RES
1 *152:10 *152:11 0.0926111
2 *152:9 *152:10 1.41829
3 *152:8 *152:9 0.0926111
4 *152:7 *152:8 0.662808
5 *152:6 *152:7 0.0926111
6 *152:4 *152:5 0.0926111
7 *152:3 *152:12 4.08711004
8 *152:3 *152:4 0.812607
9 *677:Z *152:2 2.86901
10 *152:5 *152:6 1.29238
11 *152:2 *152:11 2.75975
12 *677:Z *767:D[40] 0.000124729
*END

*D_NET *153 0.00198305

*CONN
*I *678:Z O *C 89.9 142 *L 0 *D DEL1
*I *767:D[42] I *C 97.205 134.195 *L 0.00183 *D sram00

*CAP
1 *153:3 0.000402676
2 *153:4 0.000623890977
3 *153:5 4.51437e-05
4 *153:6 0.000186058
5 *153:7 0.000208078
6 *153:8 3.80227e-05
7 *153:9 0.000466069
8 *153:10 1.3109e-05

*RES
1 *153:9 *153:10 0.218501
2 *153:2 *153:3 1.48402
3 *153:8 *153:9 2.92925
4 *153:7 *153:8 0.218501
5 *153:4 *153:5 2.98077989
6 *153:6 *153:10 1.12302
7 *153:5 *153:7 1.19216
8 *678:Z *153:2 0.225005
9 *153:3 *153:6 0.225005
10 *678:Z *767:D[42] 9.09662e-05
*END

*D_NET *154 0.00730186

*CONN
*I *679:Z O *C 55.1 142 *L 0 *D DEL1
*I *767:D[44] I *C 88.805 134.195 *L 0.00183 *D sram00

*CAP
1 *154:2 0.000819822
2 *154:3 8.75867e-05
3 *154:4 9.20092e-05
4 *154:5 0.0018228
5 *154:6 2.26129e-05
6 *154:2 *315:3 0.000306998008
7 *154:2 *374:6 0.00415004

*RES
1 *154:2 *154:6 4.59073
2 *154:5 *154:6 26.9271
3 *679:Z *154:3 0.225
4 *154:3 *154:4 0.225
5 *154:4 *154:5 0.225
6 *679:Z *767:D[44] 0.0001
*END

*D_NET *155 0.00242931

*CONN
*I *680:Z O *C 86.9 145.6 *L 0 *D DEL1
*I *767:D[43] I *C 93.275 134.195 *L 0.00183 *D sram00

*CAP
1 *155:2 0.000177902
2 *155:3 7.23e-05
3 *155:4 0.000142972
4 *155:5 0.00140349
5 *155:6 0.000209533
6 *155:7 2.61702e-05
7 *155:8 0.000266842
8 *155:9 1.61904e-05
9 *155:10 0.000113911

*RES
1 *155:9 *155:10 0.809396
2 *155:4 *155:6 1.31766
3 *155:8 *155:9 0.223181
4 *155:7 *155:8 2.29971
5 *155:6 *155:7 0.218517
6 *155:5 *155:10 0.476822
7 *155:3 *155:5 6.94969
8 *680:Z *155:2 0.225
9 *155:2 *155:3 0.225
10 *680:Z *767:D[43] 0.0001
*END

*D_NET *156 0.000943649

*CONN
*I *601:I I *C 113.7 143.2 *L 0.00103 *D DEL015
*I *681:Z O *C 110.3 142.8 *L 0 *D DEL1

*CAP
1 *601:I 0.000139497
2 *681:Z 8.84293e-05
3 *156:2 0.000715723984

*RES
1 *601:I *156:2 3.33371997
2 *681:Z *156:2 0.449983
*END

*D_NET *157 0.00208777

*CONN
*I *682:Z O *C 176.3 145.6 *L 0 *D DEL1
*I *767:A[6] I *C 173.3 134.265 *L 0.00555 *D sram00

*CAP
1 *157:2 0.000984078984
2 *157:3 1.7764e-05
3 *157:4 0.000689058
4 *157:5 0.0003592
5 *157:6 3.76904e-05

*RES
1 *157:2 *157:5 2.25614
2 *157:2 *157:3 4.07233
3 *682:Z *157:4 3.07245
4 *157:3 *157:4 0.159324
5 *157:5 *157:6 0.194246
6 *682:Z *767:A[6] 0.000124278
*END

*D_NET *158 0.00178524

*CONN
*I *683:Z O *C 171.9 142.8 *L 0 *D DEL1
*I *767:A[4] I *C 170.05 134.265 *L 0.00555 *D sram00

*CAP
1 *158:2 0.000481613008
2 *158:3 0.00040636
3 *158:5 4.82164e-05
4 *158:6 0.000340477
5 *158:7 7.37319e-05
6 *158:8 0.000434844

*RES
1 *158:4 *158:6 0.159209
2 *158:2 *158:4 2.20869994
3 *158:7 *158:8 1.6634
4 *158:3 *158:5 0.159209
5 *158:5 *158:6 1.4806
6 *158:3 *158:8 2.10523
7 *683:Z *158:7 0.224995
8 *683:Z *767:A[4] 0.000101106
*END

*D_NET *159 0.00192339

*CONN
*I *684:Z O *C 163.3 142.8 *L 0 *D DEL1
*I *767:A[0] I *C 160.755 134.195 *L 0.00555 *D sram00

*CAP
1 *159:2 0.000213503
2 *159:3 0.000467434
3 *159:4 0.000130801
4 *159:5 0.000378011
5 *159:7 5.70794e-05
6 *159:8 0.00067656

*RES
1 *159:6 *159:8 0.159202
2 *159:4 *159:6 0.323496
3 *159:2 *159:3 2.04302
4 *159:7 *159:8 3.24020004
5 *159:3 *159:5 1.85302
6 *684:Z *159:2 0.350887
7 *159:5 *159:7 0.159202
8 *684:Z *767:A[0] 9.88831e-05
*END

*D_NET *160 0.00187111

*CONN
*I *685:Z O *C 168.5 142.8 *L 0 *D DEL1
*I *767:A[2] I *C 166.8 134.265 *L 0.00555 *D sram00

*CAP
1 *160:2 0.000269549
2 *160:4 0.000930466016
3 *160:5 0.000303724
4 *160:6 3.5637e-06
5 *160:7 9.41044e-05
6 *160:8 0.000269705

*RES
1 *160:6 *160:7 0.323504
2 *160:3 *160:5 1.22574
3 *160:3 *160:4 0.159229
4 *160:2 *160:8 1.44402
5 *685:Z *160:2 0.98043
6 *160:5 *160:6 0.159229
7 *160:4 *160:8 3.80152988
8 *685:Z *767:A[2] 0.000116013
*END

*D_NET *161 0.00171907

*CONN
*I *686:Z O *C 175.5 142.8 *L 0 *D DEL1
*I *767:A[5] I *C 171.71 134.265 *L 0.00555 *D sram00

*CAP
1 *161:2 0.000113647
2 *161:3 0.000261821
3 *161:4 0.000595304023
4 *161:5 0.000179958
5 *161:6 0.000568334

*RES
1 *161:2 *161:3 1.98767
2 *161:4 *161:5 0.680903
3 *161:3 *161:4 3.07261992
4 *161:5 *161:6 2.58643
5 *686:Z *161:2 0.224999
6 *686:Z *767:A[5] 9.37689e-05
*END

*D_NET *162 0.00165828

*CONN
*I *687:Z O *C 163.1 142 *L 0 *D DEL1
*I *767:A[1] I *C 161.335 134.265 *L 0.00555 *D sram00

*CAP
1 *162:2 0.000393243
2 *162:3 0.00115483
3 *162:4 0.000108567
4 *162:5 1.63881e-06

*RES
1 *162:2 *162:5 1.66337
2 *162:2 *162:3 4.97265005
3 *687:Z *162:4 0.224974
4 *162:4 *162:5 0.224974
5 *687:Z *767:A[1] 7.58766e-05
*END

*D_NET *163 0.00141808

*CONN
*I *688:Z O *C 171.9 142 *L 0 *D DEL1
*I *767:A[3] I *C 168.46 134.265 *L 0.00555 *D sram00

*CAP
1 *163:3 0.000178762
2 *163:4 0.000324573
3 *163:5 0.000234785
4 *163:6 0.000372513008
5 *163:7 6.88525e-05
6 *163:8 0.000238588

*RES
1 *163:2 *163:4 1.60346
2 *163:2 *163:3 0.159227
3 *163:7 *163:8 1.86175001
4 *163:4 *163:5 0.664692
5 *163:5 *163:6 1.83098
6 *163:3 *163:8 0.971243
7 *688:Z *163:7 0.224992
8 *688:Z *767:A[3] 0.000113632
*END

*D_NET *164 0.00135627

*CONN
*I *689:Z O *C 175.3 142 *L 0 *D DEL1
*I *767:A[7] I *C 174.96 134.265 *L 0.00555 *D sram00

*CAP
1 *164:2 0.000880986953
2 *164:3 9.72735e-05
3 *164:4 0.000378004

*RES
1 *164:2 *164:3 0.248161
2 *164:3 *164:4 1.70511
3 *689:Z *164:2 3.41741991
4 *689:Z *767:A[7] 0.000104291
*END

*D_NET *165 0.00122535

*CONN
*I *690:Z O *C 180.5 139.2 *L 0 *D DEL1
*I *767:A[8] I *C 176.55 134.265 *L 0.00555 *D sram00

*CAP
1 *165:2 0.000755047969
2 *165:3 0.000395745
3 *165:4 2.38376e-05
4 *165:5 5.07167e-05

*RES
1 *165:2 *165:5 3.12080002
2 *165:2 *165:3 3.07256
3 *165:3 *165:4 0.239622
4 *690:Z *165:5 0.225003
5 *690:Z *767:A[8] 9.52393e-05
*END

*D_NET *166 0.00164548

*CONN
*I *691:Z O *C 85.1 142.8 *L 0 *D DEL1
*I *767:D[45] I *C 84.875 134.195 *L 0.00183 *D sram00

*CAP
1 *166:3 0.000426886992
2 *166:4 0.000196524
3 *166:5 0.000245749
4 *166:6 4.49718e-05
5 *166:7 0.000411195
6 *166:8 0.000320151

*RES
1 *166:4 *166:6 0.286078
2 *166:2 *166:4 0.775415
3 *166:2 *166:3 0.159217
4 *166:7 *166:8 1.61249006
5 *691:Z *166:3 1.52485
6 *166:5 *166:7 1.58228
7 *166:5 *166:6 0.479471
8 *691:Z *767:D[45] 9.84186e-05
*END

*D_NET *167 0.0025193

*CONN
*I *692:Z O *C 82.9 142 *L 0 *D DEL1
*I *767:D[47] I *C 76.475 134.195 *L 0.00183 *D sram00

*CAP
1 *167:2 0.00106947008
2 *167:3 0.00016027
3 *167:4 1.74124e-05
4 *167:5 0.000468227
5 *167:6 4.78149e-05
6 *167:7 0.000493113
7 *167:8 0.000247299
8 *167:9 1.56989e-05

*RES
1 *167:2 *167:3 0.913521
2 *167:7 *167:8 1.56902
3 *167:6 *167:7 1.94756
4 *167:4 *167:5 2.66699
5 *167:3 *167:4 0.115634
6 *167:5 *167:6 0.115634
7 *167:2 *167:9 3.67516994
8 *692:Z *167:9 0.224988
9 *692:Z *767:D[47] 0.000112157
*END

*D_NET *168 0.00136963

*CONN
*I *693:Z O *C 78.3 142 *L 0 *D DEL1
*I *767:D[46] I *C 80.405 134.195 *L 0.00183 *D sram00

*CAP
1 *168:2 5.99346e-05
2 *168:4 0.000474001
3 *168:6 0.00058164
4 *168:7 0.00023807
5 *168:8 1.59843e-05

*RES
1 *168:2 *168:3 0.239444
2 *168:7 *168:8 0.15923
3 *168:3 *168:4 1.56538
4 *693:Z *168:6 2.31175995
5 *168:5 *168:7 0.973933
6 *168:5 *168:6 0.15923
7 *168:4 *168:8 1.21585
8 *693:Z *767:D[46] 0.000105824
*END

*D_NET *169 0.00311113

*CONN
*I *694:Z O *C 56.7 142.8 *L 0 *D DEL1
*I *767:D[49] I *C 68.075 134.195 *L 0.00183 *D sram00

*CAP
1 *169:3 0.000130652
2 *169:4 6.40983e-05
3 *169:5 0.000395875
4 *169:6 0.000472942
5 *169:7 1.37964e-06
6 *169:8 0.0018083
7 *169:9 0.00022055
8 *169:10 1.73283e-05

*RES
1 *169:9 *169:10 0.092595
2 *169:8 *169:10 6.63383
3 *169:2 *169:5 1.61467
4 *169:2 *169:3 0.159213
5 *694:Z *169:8 1.34375
6 *169:6 *169:7 2.2087
7 *169:4 *169:9 1.33479
8 *169:3 *169:4 0.486962
9 *169:5 *169:7 0.159213
10 *694:Z *767:D[49] 0.0001
*END

*D_NET *170 0.00177738

*CONN
*I *695:Z O *C 75.3 142.8 *L 0 *D DEL1
*I *767:D[48] I *C 72.005 134.195 *L 0.00183 *D sram00

*CAP
1 *170:2 0.00120059
2 *170:3 0.000296836
3 *170:4 4.2044e-05
4 *170:5 0.000222769
5 *170:6 1.51139e-05

*RES
1 *170:2 *170:3 2.33834
2 *170:3 *170:4 0.239482
3 *170:2 *170:6 5.07753992
4 *170:5 *170:6 0.159215
5 *695:Z *170:5 0.711937
6 *695:Z *767:D[48] 7.74771e-05
*END

*D_NET *171 0.00174249

*CONN
*I *696:Z O *C 67.7 142 *L 0 *D DEL1
*I *767:D[50] I *C 63.605 134.195 *L 0.00183 *D sram00

*CAP
1 *171:2 0.000542625
2 *171:3 0.000622336992
3 *171:4 0.000577524

*RES
1 *171:2 *171:3 2.88758993
2 *171:3 *171:4 2.70218
3 *696:Z *171:2 1.98764
4 *696:Z *767:D[50] 8.81223e-05
*END

*D_NET *172 0.00228456

*CONN
*I *697:Z O *C 53.9 145.6 *L 0 *D DEL1
*I *767:D[53] I *C 51.275 134.195 *L 0.00183 *D sram00

*CAP
1 *697:Z 9.4548e-05
2 *172:2 0.000801371016
3 *172:3 0.000219079
4 *172:4 0.00017408
5 *172:5 0.00012123
6 *172:6 0.000402917
7 *172:7 0.000471334

*RES
1 *172:4 *172:6 1.57953
2 *172:3 *172:7 2.19856
3 *172:2 *172:3 1.28489
4 *172:4 *172:5 0.633383
5 *172:2 *172:6 2.97665
6 *697:Z *172:5 0.912762
7 *697:Z *767:D[53] 9.08401e-05
*END

*D_NET *173 0.00193365

*CONN
*I *698:Z O *C 58.5 142 *L 0 *D DEL1
*I *767:D[52] I *C 55.205 134.195 *L 0.00183 *D sram00

*CAP
1 *173:2 0.00117227992
2 *173:3 0.000569102
3 *173:4 0.000192276

*RES
1 *173:2 *173:5 4.42541981
2 *173:2 *173:3 2.77791
3 *173:3 *173:4 0.68769
4 *698:Z *173:5 0.224998
5 *698:Z *767:D[52] 6.75265e-05
*END

*D_NET *174 0.00140988

*CONN
*I *699:Z O *C 63.7 139.2 *L 0 *D DEL1
*I *767:D[51] I *C 59.675 134.195 *L 0.00183 *D sram00

*CAP
1 *174:2 0.000236346
2 *174:3 0.000164709
3 *174:5 5.52142e-05
4 *174:6 0.000449945977
5 *174:7 5.94161e-05
6 *174:8 0.000360245
7 *174:9 5.28662e-05
8 *174:10 3.11292e-05

*RES
1 *174:9 *174:10 0.194228
2 *174:4 *174:6 0.159222
3 *174:2 *174:4 0.528029
4 *174:8 *174:9 0.411008
5 *174:7 *174:8 1.83751
6 *174:3 *174:5 0.159222
7 *174:2 *174:7 0.619354
8 *699:Z *174:3 0.590878
9 *174:5 *174:6 1.98116004
10 *699:Z *767:D[51] 9.06903e-05
*END

*D_NET *175 0.00207966

*CONN
*I *700:Z O *C 50.1 142.8 *L 0 *D DEL1
*I *767:D[54] I *C 46.805 134.195 *L 0.00183 *D sram00

*CAP
1 *175:2 0.000504958
2 *175:3 0.00101628992
3 *175:4 0.000558397

*RES
1 *175:2 *175:4 2.61001
2 *175:3 *175:4 4.56790018
3 *700:Z *175:2 1.52993
4 *700:Z *767:D[54] 6.97006e-05
*END

*D_NET *176 0.00204613

*CONN
*I *701:Z O *C 17.5 142.8 *L 0 *D DEL1
*I *767:D[62] I *C 13.205 134.195 *L 0.00183 *D sram00

*CAP
1 *176:2 0.000271866
2 *176:3 4.66962e-05
3 *176:4 6.47899e-05
4 *176:5 0.00116138008
5 *176:6 9.80355e-05
6 *176:7 0.000403342

*RES
1 *176:4 *176:6 0.28226
2 *176:2 *176:5 2.40865
3 *176:2 *176:3 0.239478
4 *176:6 *176:7 1.38289
5 *176:5 *176:7 5.47607994
6 *701:Z *176:6 0.225023
7 *701:Z *767:D[62] 8.35583e-05
*END

*D_NET *177 0.00140782

*CONN
*I *702:Z O *C 25.1 142 *L 0 *D DEL1
*I *767:D[60] I *C 21.605 134.195 *L 0.00183 *D sram00

*CAP
1 *702:Z 6.91159e-05
2 *177:2 0.00093219
3 *177:3 0.000362706
4 *177:4 4.38109e-05

*RES
1 *177:2 *177:5 4.24876022
2 *177:2 *177:3 2.80193
3 *177:3 *177:4 0.239421
4 *702:Z *177:5 0.384188
5 *702:Z *767:D[60] 0.000129662
*END

*D_NET *178 0.00129183

*CONN
*I *703:Z O *C 40.9 142 *L 0 *D DEL1
*I *767:D[56] I *C 38.405 134.195 *L 0.00183 *D sram00

*CAP
1 *178:2 0.00102242008
2 *178:3 0.00022645
3 *178:4 2.1592e-05
4 *178:5 2.13735e-05

*RES
1 *178:2 *178:5 4.25393009
2 *178:2 *178:3 1.87447
3 *178:3 *178:4 0.239452
4 *703:Z *178:5 0.224977
5 *703:Z *767:D[56] 0.00012982
*END

*D_NET *179 0.000989157

*CONN
*I *704:Z O *C 20.1 139.2 *L 0 *D DEL1
*I *767:D[61] I *C 17.675 134.195 *L 0.00183 *D sram00

*CAP
1 *179:2 0.00070914
2 *179:3 0.000235817
3 *179:4 2.7593e-06
4 *179:5 4.14436e-05

*RES
1 *179:2 *179:5 3.12080002
2 *179:2 *179:3 1.87445
3 *179:3 *179:4 0.239432
4 *704:Z *179:5 0.225003
5 *704:Z *767:D[61] 9.52393e-05
*END

*D_NET *180 0.00134218

*CONN
*I *705:Z O *C 13.1 139.2 *L 0 *D DEL1
*I *767:D[63] I *C 9.275 134.195 *L 0.00183 *D sram00

*CAP
1 *180:2 0.000846598984
2 *180:3 5.78222e-05
3 *180:4 0.00035586
4 *180:5 5.15568e-05
5 *180:6 3.0345e-05

*RES
1 *180:2 *180:3 0.619353
2 *180:4 *180:5 0.411032
3 *180:3 *180:4 1.70851
4 *705:Z *180:2 3.31210995
5 *180:5 *180:6 0.194221
6 *705:Z *767:D[63] 0.000101078
*END

*D_NET *181 0.00108053

*CONN
*I *706:Z O *C 29.1 139.2 *L 0 *D DEL1
*I *767:D[59] I *C 26.075 134.195 *L 0.00183 *D sram00

*CAP
1 *181:2 0.000742408984
2 *181:3 0.000270251
3 *181:4 5.70953e-06
4 *181:5 6.21591e-05

*RES
1 *181:2 *181:5 3.12080002
2 *181:2 *181:3 2.33822
3 *181:3 *181:4 0.239432
4 *706:Z *181:5 0.225003
5 *706:Z *767:D[59] 9.52393e-05
*END

*D_NET *182 0.00109656

*CONN
*I *707:Z O *C 37.5 139.2 *L 0 *D DEL1
*I *767:D[57] I *C 34.475 134.195 *L 0.00183 *D sram00

*CAP
1 *182:2 0.00075776
2 *182:3 0.000267503
3 *182:4 9.12295e-06
4 *182:5 6.21609e-05

*RES
1 *182:2 *182:5 3.12080002
2 *182:2 *182:3 2.33822
3 *182:3 *182:4 0.239432
4 *707:Z *182:5 0.225003
5 *707:Z *767:D[57] 9.52393e-05
*END

*D_NET *183 0.000914955

*CONN
*I *708:Z O *C 204.3 142.8 *L 0 *D DEL1
*I *756:I I *C 200.5 145.2 *L 0.00382 *D BUFFD12

*CAP
1 *756:I 9.84654e-05
2 *183:2 0.000728732969
3 *183:3 8.77571e-05

*RES
1 *183:2 *183:3 3.07942009
2 *756:I *183:2 1.02411
3 *708:Z *183:3 0.22498
*END

*D_NET *184 0.000750601

*CONN
*I *709:Z O *C 209.1 145.6 *L 0 *D DEL1
*I *755:I I *C 205.9 143.2 *L 0.00382 *D BUFFD12

*CAP
1 *709:Z 0.000191401
2 *184:2 0.000559202031

*RES
1 *755:I *184:2 1.20542
2 *709:Z *184:2 2.46446991
*END

*D_NET *185 0.0014919

*CONN
*I *710:Z O *C 45.9 142 *L 0 *D DEL1
*I *767:D[55] I *C 42.875 134.195 *L 0.00183 *D sram00

*CAP
1 *185:2 0.000389463984
2 *185:3 0.000302312
3 *185:4 4.29608e-05
4 *185:6 0.000365538
5 *185:7 0.000351329
6 *185:8 4.02925e-05

*RES
1 *185:2 *185:3 2.33821011
2 *185:7 *185:8 0.159196
3 *185:3 *185:4 0.239437
4 *185:2 *185:8 1.46738
5 *710:Z *185:6 1.72401
6 *185:5 *185:7 1.22615
7 *185:5 *185:6 0.159196
8 *710:Z *767:D[55] 0.000107035
*END

*D_NET *186 0.00123519

*CONN
*I *711:Z O *C 178.7 142 *L 0 *D DEL1
*I *820:CDN I *C 182.3 141.6 *L 0.00163 *D DFCNQD1
*I *821:CDN I *C 184.1 139.6 *L 0.00163 *D DFCNQD1

*CAP
1 *821:CDN 0.000285043
2 *186:3 0.000553573008
3 *186:4 0.000396577

*RES
1 *820:CDN *186:4 0.575914
2 *186:3 *186:4 2.49128
3 *821:CDN *186:4 2.66039991
4 *711:Z *186:3 0.225015
*END

*D_NET *187 0.000527944

*CONN
*I *712:Z O *C 319.5 142 *L 0 *D DEL1
*I *753:I I *C 316.3 139.6 *L 0.00382 *D BUFFD12

*CAP
1 *187:2 8.11443e-05
2 *187:3 0.000446798008

*RES
1 *753:I *187:3 1.33134
2 *187:2 *187:3 2.12491012
3 *712:Z *187:2 0.224987
*END

*D_NET *188 0.000136601

*CONN
*I *713:Z O *C 224.5 139.2 *L 0 *D DEL1
*I *754:I I *C 225.5 139.6 *L 0.0045 *D BUFFD16

*CAP
1 *713:Z 0.000136601006

*RES
1 *713:Z *754:I 0.818123
*END

*D_NET *189 0.000984926

*CONN
*I *714:Z O *C 223.3 145.6 *L 0 *D DEL1
*I *751:I I *C 220.1 143.2 *L 0.0045 *D BUFFD16

*CAP
1 *189:2 0.000984926016

*RES
1 *714:Z *189:2 0.602721
2 *751:I *189:2 3.57594991
*END

*D_NET *190 0.00167385

*CONN
*I *715:Z O *C 199.5 142.8 *L 0 *D DEL1
*I *757:I I *C 193.5 145.2 *L 0.00382 *D BUFFD12

*CAP
1 *190:2 3.67988e-05
2 *190:3 0.00108144
3 *190:4 0.000555613

*RES
1 *190:2 *190:4 2.04131
2 *190:2 *190:3 4.71819019
3 *757:I *190:3 1.20539
4 *715:Z *190:4 0.224981
*END

*D_NET *191 0.00128733

*CONN
*I *716:Z O *C 228.3 142.8 *L 0 *D DEL1
*I *752:I I *C 223.7 141.6 *L 0.0045 *D BUFFD16

*CAP
1 *191:2 0.00128733

*RES
1 *716:Z *191:2 0.602701
2 *752:I *191:2 4.44854021
*END

*D_NET *192 0.00843442

*CONN
*I *717:Z O *C 262.5 142 *L 0 *D DEL0
*I *772:A4 I *C 200.9 143.2 *L 0.00102 *D ND4D1

*CAP
1 *772:A4 0.000472407
2 *717:Z 8.1383e-05
3 *192:2 0.000219854
4 *192:4 0.000228396
5 *192:5 0.000467891
6 *192:6 9.51e-05
7 *192:7 0.000316071
8 *192:8 0.00100328008
9 *192:9 0.000209168
10 *192:10 0.000409946
11 *192:11 7.48614e-05
12 *192:12 1.70696e-05
13 *192:13 0.000134919
14 *192:14 3.09243e-05
15 *192:15 0.000178045
16 *192:2 *333:3 0.000975935
17 *192:2 *332:3 0.000506198984
18 *192:2 *193:3 0.000759931953
19 *192:3 *136:2 0.00140696
20 *192:4 *330:3 0.000846068984

*RES
1 *192:7 *192:3 0.0926461
2 *192:14 *192:15 3.367
3 *192:2 *192:15 3.5027
4 *192:9 *192:10 7.20993
5 *192:6 *192:7 5.90733
6 *192:8 *192:9 1.98108
7 *192:3 *192:8 13.0014
8 *192:5 *192:6 0.270598
9 *192:10 *192:11 0.0926461
10 *192:13 *192:14 0.0926461
11 *717:Z *192:5 2.38717
12 *192:12 *192:13 2.55144
13 *192:4 *192:12 0.0926461
14 *772:A4 *192:2 1.696
15 *192:11 *192:4 2.92916
*END

*D_NET *193 0.00914903

*CONN
*I *718:Z O *C 265.1 142 *L 0 *D DEL0
*I *774:A3 I *C 205.5 141.8 *L 0.00103 *D ND4D1

*CAP
1 *774:A3 0.000148671
2 *718:Z 3.72637e-06
3 *193:2 0.000663787
4 *193:3 0.000553476
5 *193:4 7.94594e-06
6 *193:5 0.00359129
7 *193:3 *333:3 0.000907596016
8 *193:3 *123:2 0.00251257984
9 *193:3 *192:2 0.000759931953

*RES
1 *718:Z *193:2 0.550365
2 *193:4 *193:5 41.5537987
3 *193:2 *193:4 3.0809
4 *193:3 *193:5 3.38398
5 *774:A3 *193:3 0.675275
*END

*D_NET *194 0.00148485

*CONN
*I *719:Z O *C 196.3 139.2 *L 0 *D DEL1
*I *758:I I *C 190.5 141.6 *L 0.0045 *D BUFFD16

*CAP
1 *194:2 0.00011539
2 *194:3 0.00136945

*RES
1 *758:I *194:3 1.33131
2 *194:2 *194:3 4.5260601
3 *719:Z *194:2 0.225005
*END

*D_NET *195 0.00108751

*CONN
*I *720:Z O *C 33.3 139.2 *L 0 *D DEL1
*I *767:D[58] I *C 30.005 134.195 *L 0.00183 *D sram00

*CAP
1 *195:2 0.000726112031
2 *195:3 0.000310244
3 *195:4 9.71695e-06
4 *195:5 4.14383e-05

*RES
1 *195:2 *195:5 3.12080002
2 *195:2 *195:3 2.49279
3 *195:3 *195:4 0.239432
4 *720:Z *195:5 0.225003
5 *720:Z *767:D[58] 9.52393e-05
*END

*D_NET *196 0.00502491

*CONN
*I *721:Z O *C 166.5 142 *L 0 *D DEL1
*I *767:CEN I *C 145.65 134.195 *L 0.00171 *D sram00

*CAP
1 *196:2 0.000173176
2 *196:3 0.000300687
3 *196:4 3.59466e-06
4 *196:5 0.000315706
5 *196:7 3.47458e-06
6 *196:8 0.000280216
7 *196:9 0.000274572
8 *196:10 0.000524668984
9 *196:11 3.84045e-05
10 *196:12 0.000179157
11 *196:2 *55:4 0.00151327
12 *196:2 *83:2 0.00121414008
13 *196:2 *515:8 0.000203851992

*RES
1 *196:11 *196:12 0.687698
2 *196:10 *196:11 0.967109
3 *196:9 *196:10 5.31449
4 *196:6 *196:8 0.159213
5 *196:2 *196:6 0.864675
6 *196:3 *196:4 0.159299
7 *196:7 *196:8 1.60345
8 *196:2 *196:9 7.59275
9 *196:4 *196:5 0.941499
10 *721:Z *196:3 0.868366
11 *196:5 *196:7 0.159213
12 *721:Z *767:CEN 0.0001
*END

*D_NET *197 0.047321

*CONN
*I *722:Z O *C 13.3 141.8 *L 0 *D CKBD2
*I *857:A1 I *C 66.1 139.6 *L 0.00098 *D AN2XD1
*I *867:A1 I *C 66.1 143.2 *L 0.000556 *D CKAN2D0
*I *871:A1 I *C 68.1 143.2 *L 0.000556 *D CKAN2D0
*I *870:A1 I *C 72.1 141.6 *L 0.000556 *D CKAN2D0
*I *864:A1 I *C 71.1 143.2 *L 0.000556 *D CKAN2D0
*I *880:A1 I *C 105.1 141.6 *L 0.000993 *D AN2D2
*I *891:A1 I *C 112.9 141.6 *L 0.000556 *D CKAN2D0
*I *889:A1 I *C 145.5 143.2 *L 0.000556 *D CKAN2D0
*I *872:A1 I *C 145.7 145.2 *L 0.000556 *D CKAN2D0
*I *896:I I *C 148.9 143 *L 0.00062 *D CKND0
*I *873:A1 I *C 163.3 139.6 *L 0.000647 *D NR2D0
*I *824:B2 I *C 175.7 139.4 *L 0.000698 *D AO22D0
*I *823:B2 I *C 174.1 139.4 *L 0.000698 *D AO22D0
*I *829:B2 I *C 171.9 139.4 *L 0.000698 *D AO22D0
*I *822:B2 I *C 170.3 139.4 *L 0.000698 *D AO22D0
*I *830:B2 I *C 167.5 139.4 *L 0.000698 *D AO22D0
*I *827:B2 I *C 165.9 139.4 *L 0.000698 *D AO22D0
*I *825:B2 I *C 163.9 139.4 *L 0.000698 *D AO22D0
*I *828:B2 I *C 162.1 139.4 *L 0.000698 *D AO22D0
*I *826:B2 I *C 157.9 139.4 *L 0.000698 *D AO22D0
*I *892:A1 I *C 150.9 139.6 *L 0.000556 *D CKAN2D0
*I *894:A1 I *C 149.5 139.6 *L 0.000556 *D CKAN2D0
*I *832:A1 I *C 148.3 139.6 *L 0.000556 *D CKAN2D0
*I *895:A1 I *C 146.5 139.6 *L 0.000556 *D CKAN2D0
*I *846:A1 I *C 144.5 139.6 *L 0.000556 *D CKAN2D0
*I *833:A1 I *C 142.5 139.6 *L 0.000556 *D CKAN2D0
*I *835:A1 I *C 136.5 139.6 *L 0.000556 *D CKAN2D0
*I *839:A1 I *C 132.7 139.6 *L 0.000556 *D CKAN2D0
*I *836:A1 I *C 130.1 139.6 *L 0.000556 *D CKAN2D0
*I *838:A1 I *C 126.5 139.6 *L 0.000556 *D CKAN2D0
*I *841:A1 I *C 125.3 139.6 *L 0.000556 *D CKAN2D0
*I *843:A1 I *C 124.1 139.6 *L 0.000556 *D CKAN2D0
*I *831:A1 I *C 112.9 139.6 *L 0.00098 *D AN2XD1
*I *866:A1 I *C 111.7 139.6 *L 0.00098 *D AN2XD1
*I *868:A1 I *C 107.9 139.6 *L 0.00098 *D AN2XD1
*I *849:A1 I *C 106.1 139.6 *L 0.00098 *D AN2XD1
*I *845:A1 I *C 101.1 139.6 *L 0.00098 *D AN2XD1
*I *842:A1 I *C 99.9 139.6 *L 0.00098 *D AN2XD1
*I *854:A1 I *C 96.7 139.6 *L 0.00098 *D AN2XD1
*I *856:A1 I *C 90.7 139.6 *L 0.00098 *D AN2XD1
*I *865:A1 I *C 87.7 139.6 *L 0.00098 *D AN2XD1
*I *878:A1 I *C 85.7 143.2 *L 0.000556 *D CKAN2D0
*I *850:A1 I *C 85.7 141.6 *L 0.00098 *D AN2XD1
*I *879:A1 I *C 84.5 139.6 *L 0.00098 *D AN2XD1
*I *862:A1 I *C 81.7 139.6 *L 0.00098 *D AN2XD1
*I *852:A1 I *C 73.3 139.6 *L 0.00098 *D AN2XD1
*I *860:A1 I *C 75.3 139.6 *L 0.00098 *D AN2XD1
*I *859:A1 I *C 77.7 139.6 *L 0.00098 *D AN2XD1
*I *884:A1 I *C 78.7 141.6 *L 0.000556 *D CKAN2D0
*I *883:A1 I *C 79.5 145.2 *L 0.000556 *D CKAN2D0
*I *877:A1 I *C 82.7 145.2 *L 0.000556 *D CKAN2D0
*I *875:A1 I *C 80.9 143.2 *L 0.000556 *D CKAN2D0
*I *881:A1 I *C 78.3 143.2 *L 0.000556 *D CKAN2D0
*I *887:A1 I *C 75.9 143.2 *L 0.000556 *D CKAN2D0
*I *874:A1 I *C 77.1 145.2 *L 0.000556 *D CKAN2D0
*I *886:A1 I *C 74.7 145.2 *L 0.000556 *D CKAN2D0
*I *861:A1 I *C 72.3 145.2 *L 0.000556 *D CKAN2D0
*I *869:A1 I *C 69.9 145.2 *L 0.000556 *D CKAN2D0
*I *855:A1 I *C 67.9 145.2 *L 0.000556 *D CKAN2D0
*I *858:A1 I *C 65.7 145.2 *L 0.000556 *D CKAN2D0
*I *853:A1 I *C 63.5 145.2 *L 0.000556 *D CKAN2D0
*I *851:A1 I *C 61.3 145.2 *L 0.000556 *D CKAN2D0
*I *848:A1 I *C 58.9 145.2 *L 0.000556 *D CKAN2D0
*I *844:A1 I *C 54.5 145.2 *L 0.000556 *D CKAN2D0
*I *840:A1 I *C 49.7 145.2 *L 0.000556 *D CKAN2D0
*I *837:A1 I *C 45.9 143.2 *L 0.000556 *D CKAN2D0
*I *834:A1 I *C 41.7 141.6 *L 0.000556 *D CKAN2D0
*I *847:A1 I *C 36.7 141.6 *L 0.000556 *D CKAN2D0
*I *893:A1 I *C 33.5 141.6 *L 0.000556 *D CKAN2D0
*I *890:A1 I *C 29.3 141.6 *L 0.000556 *D CKAN2D0
*I *888:A1 I *C 26.5 141.6 *L 0.000556 *D CKAN2D0
*I *885:A1 I *C 21.5 141.6 *L 0.000556 *D CKAN2D0
*I *882:A1 I *C 17.5 141.6 *L 0.000556 *D CKAN2D0
*I *863:A1 I *C 13.9 143.2 *L 0.000556 *D CKAN2D0

*CAP
1 *882:A1 0.000330309
2 *885:A1 0.000103863
3 *847:A1 5.46616e-05
4 *834:A1 4.7037e-05
5 *840:A1 9.56816e-05
6 *844:A1 6.45783e-05
7 *848:A1 8.02414e-05
8 *851:A1 7.63575e-05
9 *853:A1 6.71888e-05
10 *858:A1 1.83054e-05
11 *855:A1 8.73089e-05
12 *869:A1 5.37383e-05
13 *861:A1 0.000145568
14 *886:A1 4.38534e-05
15 *874:A1 0.000306274
16 *887:A1 0.000234086
17 *881:A1 2.68055e-05
18 *875:A1 0.000283336
19 *877:A1 0.000327269
20 *883:A1 0.000330071
21 *884:A1 0.000453513
22 *859:A1 0.000186795
23 *860:A1 0.000117775
24 *862:A1 0.000134091
25 *879:A1 0.000266861
26 *878:A1 1.86556e-05
27 *865:A1 0.000153877
28 *856:A1 8.69269e-05
29 *854:A1 0.00025088
30 *842:A1 0.000183277
31 *845:A1 3.8314e-05
32 *868:A1 0.000386515
33 *839:A1 4.28506e-05
34 *846:A1 8.69109e-06
35 *895:A1 9.40739e-06
36 *832:A1 2.27306e-05
37 *826:B2 0.000294096
38 *828:B2 9.06675e-05
39 *827:B2 0.000137959
40 *823:B2 9.9295e-05
41 *824:B2 7.2569e-05
42 *873:A1 5.25286e-07
43 *872:A1 8.16262e-05
44 *880:A1 0.000175939
45 *864:A1 9.20046e-06
46 *870:A1 0.000636774
47 *871:A1 0.000393455
48 *867:A1 1.01555e-05
49 *857:A1 0.000509862
50 *722:Z 0.000235519
51 *197:75 0.000624629
52 *197:76 0.000660173
53 *197:77 0.0004839
54 *197:78 0.000485921
55 *197:79 0.000236044
56 *197:80 0.000566242
57 *197:81 0.000177913
58 *197:82 7.65803e-05
59 *197:83 0.000106522
60 *197:84 0.000119288
61 *197:85 0.000238559
62 *197:86 0.000167264
63 *197:87 0.000159623
64 *197:88 0.000438152
65 *197:89 0.000478249
66 *197:90 1.85283e-05
67 *197:91 0.00081674
68 *197:92 0.000260287
69 *197:93 0.000518043
70 *197:94 0.000103561
71 *197:95 0.000293539
72 *197:96 0.000151601
73 *197:97 0.000163412
74 *197:98 0.000645927
75 *197:99 0.000374465
76 *197:100 0.000273165
77 *197:101 0.000328336
78 *197:102 0.000181367
79 *197:103 0.000775815
80 *197:104 0.000581587
81 *197:105 0.00020717
82 *197:106 0.000305478
83 *197:107 0.000435414
84 *197:108 7.4909e-05
85 *197:109 0.000147223
86 *197:110 0.000332331
87 *197:111 0.000927257
88 *197:112 5.04752e-05
89 *197:113 0.000228468
90 *197:114 0.000355348
91 *197:115 0.000648187
92 *197:116 0.000235296
93 *197:117 0.000286408
94 *197:118 0.000318212
95 *197:119 4.66072e-05
96 *197:120 0.000445586
97 *197:121 0.000250259
98 *197:122 0.000312609
99 *197:123 0.000289242
100 *197:124 0.000236028
101 *197:125 0.000302963
102 *197:126 0.000349904
103 *197:127 0.000399408
104 *197:128 0.000551264
105 *197:129 0.000235822
106 *197:130 0.000681582
107 *197:131 0.000345527
108 *197:132 5.03638e-05
109 *197:133 0.000207377
110 *197:134 0.000750872
111 *197:135 0.000166038
112 *197:136 0.000256881
113 *197:137 0.000252217
114 *197:138 4.88357e-05
115 *197:139 0.000193926
116 *197:140 0.000100377
117 *197:141 0.000127087
118 *197:142 0.000384732
119 *197:143 0.000884359
120 *197:144 7.46861e-05
121 *197:145 0.000256276
122 *197:146 3.89826e-05
123 *197:147 0.000510721
124 *197:148 0.000316381
125 *197:149 0.00104317
126 *197:150 0.000647757
127 *197:151 0.000391242
128 *197:152 0.000221209
129 *197:153 0.000216466
130 *197:154 0.000119367
131 *197:155 0.000905497
132 *197:156 0.000268819
133 *197:157 0.000101571
134 *197:158 5.63488e-05
135 *197:159 0.00029026
136 *197:160 0.000317464
137 *197:161 0.000263359
138 *197:162 0.000476339
139 *197:163 0.00050246
140 *197:164 0.000704663
141 *197:165 0.00021325
142 *862:A1 *313:3 0.000792928984
143 *868:A1 *208:5 0.000909188984
144 *857:A1 *696:I 0.000216657988
145 *854:A1 *144:8 0.000612615
146 *875:A1 *376:5 0.00101973
147 *197:75 *394:20 0.000589221016
148 *823:B2 *471:33 0.000370091992
149 *874:A1 *887:A2 0.00303728
150 *197:76 *343:3 0.000478591992
151 *865:A1 *408:5 0.000545714023

*RES
1 *197:124 *197:125 1.259
2 *197:119 *197:163 2.28295
3 *830:B2 *197:75 1.43044
4 *197:132 *197:133 2.20446
5 *870:A1 *197:95 2.55907
6 *197:117 *197:147 2.77975
7 *197:107 *197:142 1.04394
8 *197:76 *197:143 1.43767
9 *885:A1 *197:164 0.926837
10 *842:A1 *197:139 2.00547
11 *197:141 *197:155 0.479449
12 *197:116 *197:140 2.60448
13 *854:A1 *197:144 1.69805
14 *197:102 *197:162 0.840608
15 *846:A1 *197:125 0.85668
16 *834:A1 *197:134 1.13926
17 *878:A1 *197:101 1.52594
18 *863:A1 *197:91 1.36513
19 *835:A1 *197:149 1.07251
20 *197:112 *197:113 2.51808
21 *197:109 *197:150 2.35736
22 *197:84 *197:155 3.24669
23 *890:A1 *197:163 1.10134
24 *197:164 *197:165 2.17538
25 *197:115 *197:131 1.52755
26 *892:A1 *197:121 0.800895
27 *197:130 *197:152 2.97287
28 *197:100 *197:112 0.711944
29 *197:92 *197:143 2.73136
30 *197:159 *197:160 1.75809
31 *197:122 *197:123 1.13314
32 *197:119 *197:136 0.486932
33 *197:103 *197:163 2.83315
34 *197:75 *197:77 1.62696
35 *882:A1 *197:165 1.76549
36 *875:A1 *197:81 1.75665
37 *197:139 *197:144 1.76268
38 *722:Z *197:91 1.05244
39 *843:A1 *197:151 0.834826
40 *197:106 *197:120 1.77969
41 *197:88 *197:162 2.82575
42 *197:110 *197:151 1.18561
43 *874:A1 *197:83 1.96695
44 *197:91 *197:165 3.24729
45 *197:80 *197:100 1.06979
46 *844:A1 *197:147 1.13246
47 *197:80 *197:130 2.07307
48 *884:A1 *197:94 2.16305
49 *197:118 *197:135 0.738732
50 *197:85 *197:95 1.05193
51 *893:A1 *197:136 0.800895
52 *886:A1 *197:84 1.00924
53 *197:90 *197:103 0.319661
54 *861:A1 *197:85 1.76779
55 *197:115 *197:145 3.72121
56 *856:A1 *197:145 0.769516
57 *832:A1 *197:123 0.992657
58 *197:156 *197:157 1.75809
59 *197:121 *197:122 0.881342
60 *840:A1 *197:88 1.06477
61 *855:A1 *197:86 1.32856
62 *197:109 *197:149 1.0322
63 *836:A1 *197:127 0.800895
64 *847:A1 *197:135 0.963829
65 *864:A1 *197:95 0.485231
66 *828:B2 *197:120 1.04513
67 *197:118 *197:134 2.5572
68 *197:108 *197:149 3.61559
69 *197:89 *197:134 3.18955
70 *197:106 *197:142 2.32402
71 *197:89 *197:102 1.46938
72 *197:77 *197:78 1.92094
73 *197:147 *197:161 3.08538
74 *839:A1 *197:150 1.14581
75 *197:158 *197:159 2.5572
76 *197:157 *197:158 0.958897
77 *197:132 *197:154 0.919269
78 *197:81 *197:153 1.73581
79 *894:A1 *197:122 0.836951
80 *197:123 *197:124 1.0072
81 *197:108 *197:126 0.487357
82 *197:78 *197:79 0.410992
83 *197:127 *197:128 2.71699
84 *197:114 *197:145 0.898009
85 *197:88 *197:117 1.35951
86 *872:A1 *197:76 2.03846
87 *825:B2 *197:78 0.846901
88 *858:A1 *197:87 0.868331
89 *197:113 *197:138 0.394325
90 *197:114 *197:144 2.41178
91 *197:131 *197:140 1.18604
92 *197:160 *197:161 1.91788
93 *197:105 *197:143 2.96556
94 *197:135 *197:136 1.84857
95 *197:90 *197:164 3.93619
96 *197:93 *197:115 0.780741
97 *197:128 *197:129 0.958897
98 *197:116 *197:146 0.924371
99 *824:B2 *197:137 2.18235
100 *197:92 *197:124 0.367538
101 *860:A1 *197:141 0.769431
102 *197:79 *197:120 0.728612
103 *197:125 *197:126 1.0072
104 *838:A1 *197:128 0.834826
105 *826:B2 *197:142 1.56709
106 *833:A1 *197:126 0.800895
107 *197:137 *197:148 1.20185
108 *869:A1 *197:156 1.39778
109 *829:B2 *197:148 0.675038
110 *867:A1 *197:96 0.506066
111 *868:A1 *197:130 2.15684
112 *853:A1 *197:159 1.55162
113 *857:A1 *197:96 2.68782
114 *197:138 *197:139 2.08473
115 *883:A1 *197:82 2.0138
116 *197:153 *197:154 1.45365
117 *197:99 *197:152 1.7859
118 *841:A1 *197:129 0.800895
119 *851:A1 *197:160 1.55289
120 *877:A1 *197:81 2.71053
121 *197:87 *197:96 0.881342
122 *197:75 *197:104 3.26277
123 *197:133 *197:156 1.4886
124 *197:107 *197:121 2.91249
125 *895:A1 *197:92 0.486677
126 *197:127 *197:150 1.32337
127 *871:A1 *197:86 2.03591
128 *880:A1 *197:80 1.34922
129 *887:A1 *197:83 1.24233
130 *197:104 *197:148 1.58835
131 *859:A1 *197:146 1.54099
132 *865:A1 *197:93 1.78292
133 *197:98 *197:111 1.57041
134 *845:A1 *197:138 0.675038
135 *852:A1 *197:155 1.31249
136 *879:A1 *197:131 1.8507
137 *827:B2 *197:77 1.42108
138 *848:A1 *197:161 1.59813
139 *873:A1 *197:79 0.638556
140 *862:A1 *197:140 0.924797
141 *197:97 *197:98 1.3795
142 *197:82 *197:94 0.755399
143 *881:A1 *197:94 0.640172
144 *197:141 *197:146 1.04649
145 *823:B2 *197:137 0.759141
146 *197:110 *197:111 5.57310009
147 *197:97 *197:152 1.27626
148 *197:129 *197:151 0.958897
149 *197:93 *197:101 1.42414
150 *896:I *197:105 0.225013
151 *822:B2 *197:104 0.225013
152 *888:A1 *197:103 0.450025
153 *837:A1 *197:102 0.450025
154 *850:A1 *197:101 0.450025
155 *849:A1 *197:100 0.450025
156 *866:A1 *197:99 0.450025
157 *831:A1 *197:98 0.450025
158 *891:A1 *197:97 0.450025
159 *889:A1 *197:76 0.450025
160 *197:82 *197:153 0.225013
161 *197:83 *197:154 0.225013
162 *197:84 *197:132 0.225013
163 *197:85 *197:133 0.225013
164 *197:86 *197:157 0.225013
165 *197:87 *197:158 0.225013
*END

*D_NET *198 0.00204518

*CONN
*I *723:Z O *C 129.5 145.6 *L 0 *D DEL2
*I *843:A2 I *C 124.3 139.6 *L 0.000585 *D CKAN2D0

*CAP
1 *198:2 0.000968206
2 *198:4 0.00107698

*RES
1 *198:2 *198:4 3.65313
2 *198:3 *198:4 3.99324989
3 *843:A2 *198:2 1.18257
4 *723:Z *198:3 0.225022
*END

*D_NET *199 0.00289139

*CONN
*I *724:Z O *C 179.7 145.6 *L 0 *D DEL1
*I *817:B1 I *C 176.7 143.2 *L 0.000658 *D IND2D0
*I *819:A2 I *C 178.7 143.2 *L 0.000606 *D CKND2D0
*I *816:A1 I *C 188.5 143.2 *L 0.000647 *D NR2D0
*I *818:A1 I *C 186.7 143.2 *L 0.000681 *D IND2D0

*CAP
1 *818:A1 0.000122431
2 *819:A2 0.000105296
3 *817:B1 0.000350309
4 *199:5 0.000418037
5 *199:6 0.000471888
6 *199:7 0.000656696953
7 *199:8 0.000214039
8 *199:9 0.000552684

*RES
1 *199:7 *199:8 0.799102
2 *816:A1 *199:9 2.01453996
3 *818:A1 *199:9 0.449995
4 *817:B1 *199:8 1.79607
5 *199:6 *199:7 1.23108
6 *199:5 *199:9 1.9518
7 *199:5 *199:6 1.74247
8 *724:Z *199:7 1.40894
9 *819:A2 *199:8 0.609809
*END

*D_NET *200 0.00361816

*CONN
*I *725:Z O *C 192.9 139.2 *L 0 *D DEL1
*I *817:A1 I *C 177.3 143.2 *L 0.000681 *D IND2D0
*I *819:A1 I *C 178.3 143 *L 0.000617 *D CKND2D0
*I *816:A2 I *C 188.1 143.2 *L 0.000664 *D NR2D0
*I *818:B1 I *C 187.3 143.2 *L 0.000658 *D IND2D0

*CAP
1 *816:A2 0.000117535
2 *817:A1 0.000232346
3 *725:Z 0.000629222
4 *200:5 0.00024183
5 *200:6 0.00107534
6 *200:7 0.000178083
7 *200:8 0.000360941
8 *200:9 0.000359874
9 *200:10 0.000422965

*RES
1 *200:7 *200:9 0.710562
2 *200:6 *200:10 4.20434999
3 *725:Z *200:5 2.06779
4 *817:A1 *200:6 1.12756
5 *200:9 *200:10 2.46092
6 *200:8 *200:9 1.71854
7 *200:5 *200:8 2.59763
8 *816:A2 *200:7 0.974104
9 *818:B1 *200:7 0.224986
10 *819:A1 *200:6 0.224986
*END

*D_NET *201 0.0156647

*CONN
*I *726:Z O *C 192.1 142.8 *L 0 *D DEL1
*I *809:B1 I *C 242.7 141.6 *L 0.000651 *D INR2D0
*I *810:A2 I *C 242.3 143.2 *L 0.000585 *D CKAN2D0
*I *815:A2 I *C 189.9 145.2 *L 0.000996 *D NR2D1
*I *811:A2 I *C 157.5 143.2 *L 0.00155 *D NR2XD1
*I *813:A2 I *C 157.9 143.2 *L 0.000996 *D NR2D1

*CAP
1 *813:A2 0.000208329
2 *811:A2 4.13601e-05
3 *201:6 0.000133226
4 *201:7 0.000735936
5 *201:8 0.000209694
6 *201:9 0.000511445
7 *201:10 0.000442703
8 *201:11 0.000475218
9 *201:12 0.00102598
10 *201:13 0.00107509
11 *201:14 1.48787e-05
12 *201:15 0.000513493
13 *201:16 1.57796e-05
14 *201:17 0.00178913
15 *201:18 0.000313244
16 *201:19 0.000531347
17 *201:20 0.000222471
18 *201:21 0.000224218
19 *201:22 0.00146843
20 *201:17 *54:2 0.00126447
21 *201:18 *139:3 0.000432341016
22 *201:8 *235:3 0.00160547
23 *201:6 *228:10 0.000396162969
24 *201:7 *331:2 0.000568406992
25 *201:8 *237:4 0.0014459

*RES
1 *201:16 *201:17 10.711
2 *201:6 *201:10 0.430993
3 *201:17 *201:18 2.61942
4 *201:13 *201:14 0.0927064
5 *201:19 *201:20 1.44954
6 *201:18 *201:19 3.47096
7 *201:7 *201:11 2.04015
8 *201:8 *201:22 20.1179008
9 *201:6 *201:13 9.20894
10 *201:11 *201:12 3.00467
11 *813:A2 *201:9 0.786776
12 *201:8 *201:12 2.19303
13 *811:A2 *813:A2 0.326621
14 *201:7 *201:21 2.91166
15 *810:A2 *201:10 1.85321
16 *201:20 *201:21 1.81084
17 *201:14 *201:15 4.38268
18 *201:9 *201:22 2.93836
19 *201:15 *201:16 0.0927064
20 *815:A2 *201:12 0.225013
21 *726:Z *201:11 0.225013
22 *809:B1 *201:10 0.225013
*END

*D_NET *202 0.000680759

*CONN
*I *727:Z O *C 127.1 142 *L 0 *D DEL1
*I *841:A2 I *C 125.5 139.6 *L 0.000585 *D CKAN2D0

*CAP
1 *727:Z 6.43101e-06
2 *202:2 0.00067433

*RES
1 *727:Z *202:2 0.350899
2 *841:A2 *202:2 2.63268995
*END

*D_NET *203 0.0127222

*CONN
*I *728:Z O *C 8.9 145.6 *L 0 *D DEL1
*I *887:A2 I *C 76.1 143.2 *L 0.000585 *D CKAN2D0

*CAP
1 *887:A2 0.000380546
2 *203:2 0.00275814
3 *203:3 0.000594262
4 *203:4 3.24066e-05
5 *203:5 0.000304033
6 *203:6 0.00206392
7 *203:7 0.000383619
8 *203:8 2.32738e-05
9 *887:A2 *874:A1 0.00303728
10 *887:A2 *364:2 0.000562277969
11 *203:2 *17:5 0.00258242016

*RES
1 *887:A2 *203:4 3.22176
2 *203:2 *203:8 0.0925104
3 *203:7 *203:2 24.5456009
4 *203:6 *203:7 1.60002
5 *203:4 *203:5 1.47792
6 *203:3 *203:8 4.01877
7 *203:5 *203:6 18.759
8 *728:Z *203:3 0.225096
*END

*D_NET *204 0.00144055

*CONN
*I *729:Z O *C 129.9 142.8 *L 0 *D DEL1
*I *838:A2 I *C 126.7 139.6 *L 0.000585 *D CKAN2D0

*CAP
1 *729:Z 0.000224012
2 *204:2 0.000684602031
3 *204:3 0.000531939

*RES
1 *204:2 *204:3 2.49572
2 *729:Z *204:3 2.63959002
3 *838:A2 *204:2 0.450014
*END

*D_NET *205 0.000833718

*CONN
*I *730:Z O *C 145.1 142.8 *L 0 *D DEL1
*I *846:A2 I *C 144.7 139.6 *L 0.000585 *D CKAN2D0

*CAP
1 *846:A2 0.000167227
2 *730:Z 0.000666496016

*RES
1 *730:Z *846:A2 2.91709
*END

*D_NET *206 0.0011322

*CONN
*I *731:Z O *C 136.1 142.8 *L 0 *D DEL1
*I *839:A2 I *C 132.9 139.6 *L 0.000585 *D CKAN2D0

*CAP
1 *839:A2 0.000346047
2 *206:2 0.000786153984

*RES
1 *839:A2 *206:2 2.95143008
2 *731:Z *206:2 2.25919
*END

*D_NET *207 0.000647379

*CONN
*I *732:Z O *C 132.7 142 *L 0 *D DEL1
*I *836:A2 I *C 130.3 139.6 *L 0.000585 *D CKAN2D0

*CAP
1 *732:Z 7.20487e-05
2 *207:2 0.000575326992

*RES
1 *732:Z *207:2 0.660132
2 *836:A2 *207:2 2.91446996
*END

*D_NET *208 0.0154137

*CONN
*I *733:Z O *C 8.9 142 *L 0 *D DEL1
*I *891:A2 I *C 113.1 141.6 *L 0.000585 *D CKAN2D0

*CAP
1 *733:Z 3.96923e-05
2 *208:2 0.00030659
3 *208:3 0.00122624
4 *208:4 0.00021406
5 *208:5 0.000642771
6 *208:6 0.000310014
7 *208:7 0.000337871
8 *208:8 0.000229066
9 *208:9 0.000350383
10 *208:10 0.00277022
11 *208:11 0.000302575
12 *208:12 0.000116583
13 *208:13 0.000244664
14 *208:14 0.000240014
15 *208:15 0.000502939
16 *208:16 0.000410957
17 *208:3 *257:2 0.000569453008
18 *208:2 *238:17 0.00094668
19 *208:3 *543:I 0.00429722969
20 *208:4 *374:6 0.000446468008
21 *208:5 *868:A1 0.000909188984

*RES
1 *208:14 *208:15 4.18815
2 *208:15 *208:16 0.218575
3 *208:10 *208:16 36.6357002
4 *208:13 *208:14 1.60382
5 *208:4 *208:9 1.84811
6 *208:7 *208:8 2.35905
7 *208:6 *208:10 2.63409
8 *208:3 *208:9 10.7885
9 *208:12 *208:13 2.55135
10 *208:6 *208:7 2.51837
11 *208:11 *208:12 0.0927967
12 *208:2 *208:5 2.95496
13 *208:5 *208:11 4.39666
14 *733:Z *208:3 0.843556
15 *891:A2 *208:2 1.73463
16 *208:8 *208:4 1.6368
*END

*D_NET *209 0.000980665

*CONN
*I *734:Z O *C 140.7 139.2 *L 0 *D DEL1
*I *835:A2 I *C 136.7 139.6 *L 0.000585 *D CKAN2D0

*CAP
1 *209:2 9.74158e-05
2 *209:3 0.000883252031

*RES
1 *835:A2 *209:3 0.816629
2 *209:2 *209:3 2.94139004
3 *734:Z *209:2 0.224994
*END

*D_NET *210 0.00079252

*CONN
*I *735:Z O *C 145.5 142 *L 0 *D DEL1
*I *833:A2 I *C 142.7 139.6 *L 0.000585 *D CKAN2D0

*CAP
1 *210:2 9.45255e-05
2 *210:3 0.000697997969

*RES
1 *833:A2 *210:3 1.43041
2 *210:2 *210:3 2.05199003
3 *735:Z *210:2 0.225
*END

*D_NET *211 0.00198765

*CONN
*I *736:Z O *C 153.3 145.6 *L 0 *D DEL1
*I *832:A2 I *C 148.5 139.6 *L 0.000585 *D CKAN2D0

*CAP
1 *832:A2 0.000739077
2 *211:2 0.000332226
3 *211:3 0.000916347969

*RES
1 *211:2 *211:3 3.32836
2 *736:Z *211:2 0.98043
3 *832:A2 *211:3 3.57480001
*END

*D_NET *212 0.00150485

*CONN
*I *737:Z O *C 152.3 142.8 *L 0 *D DEL1
*I *895:A2 I *C 146.7 139.6 *L 0.000585 *D CKAN2D0

*CAP
1 *895:A2 0.000453615
2 *212:2 0.000713082031
3 *212:3 0.000338158

*RES
1 *212:2 *212:3 1.8738
2 *737:Z *212:2 1.23223
3 *895:A2 *212:3 3.63092995
*END

*D_NET *213 0.00097121

*CONN
*I *620:I I *C 190.7 145.2 *L 0.00103 *D DEL015
*I *738:Z O *C 187.9 145.6 *L 0 *D DEL1

*CAP
1 *213:2 0.000284679
2 *213:3 0.00068653

*RES
1 *213:2 *213:3 3.25591993
2 *620:I *213:2 1.43043
3 *738:Z *213:3 0.225007
*END

*D_NET *214 0.00102818

*CONN
*I *739:Z O *C 183.1 142.8 *L 0 *D DEL1
*I *820:D I *C 179.9 141.6 *L 0.000971 *D DFCNQD1

*CAP
1 *214:2 0.00102818

*RES
1 *739:Z *214:2 0.644247
2 *820:D *214:2 3.36184001
*END

*D_NET *215 0.00263834

*CONN
*I *617:I I *C 197.5 145.2 *L 0.00103 *D DEL015
*I *740:Z O *C 186.5 142 *L 0 *D DEL1

*CAP
1 *740:Z 0.000417054
2 *215:2 0.00134453
3 *215:3 0.000391696
4 *215:4 0.000485044

*RES
1 *215:2 *215:4 5.15803003
2 *740:Z *215:2 1.48533
3 *215:3 *215:4 2.5181
4 *617:I *215:3 2.42097
*END

*D_NET *216 0.00142119

*CONN
*I *741:Z O *C 156.3 139.2 *L 0 *D DEL1
*I *894:A2 I *C 149.7 139.6 *L 0.000585 *D CKAN2D0

*CAP
1 *216:2 0.000550051
2 *216:3 0.000871135

*RES
1 *216:2 *216:3 5.3270998
2 *741:Z *216:3 0.224997
3 *894:A2 *216:2 0.449994
*END

*D_NET *217 0.000964508

*CONN
*I *742:Z O *C 109.5 142 *L 0 *D DEL1
*I *849:A2 I *C 106.3 139.6 *L 0.00104 *D AN2XD1

*CAP
1 *217:2 0.000964507969

*RES
1 *742:Z *217:2 0.602733
2 *849:A2 *217:2 3.64028001
*END

*D_NET *218 0.00137961

*CONN
*I *743:Z O *C 148.9 142 *L 0 *D DEL1
*I *889:A2 I *C 145.7 143.2 *L 0.000585 *D CKAN2D0

*CAP
1 *743:Z 0.000305621
2 *218:2 0.00107399

*RES
1 *889:A2 *218:2 1.65917
2 *743:Z *218:2 3.16698003
*END

*D_NET *219 0.000836232

*CONN
*I *744:Z O *C 117.1 139.2 *L 0 *D DEL1
*I *831:A2 I *C 113.1 139.6 *L 0.00104 *D AN2XD1

*CAP
1 *744:Z 0.00010438
2 *219:2 0.000694538984
3 *219:3 3.73155e-05

*RES
1 *219:2 *219:3 3.04181004
2 *831:A2 *219:2 0.609838
3 *744:Z *219:3 0.449987
*END

*D_NET *220 0.000824393

*CONN
*I *745:Z O *C 154.3 142 *L 0 *D DEL1
*I *892:A2 I *C 151.1 139.6 *L 0.000585 *D CKAN2D0

*CAP
1 *892:A2 0.000268521
2 *745:Z 0.000128711
3 *220:2 0.000427156016

*RES
1 *745:Z *220:2 2.81537008
2 *892:A2 *220:2 1.07952
*END

*D_NET *221 0.00119765

*CONN
*I *746:Z O *C 149.9 145.6 *L 0 *D DEL1
*I *872:A2 I *C 145.9 145.2 *L 0.000585 *D CKAN2D0

*CAP
1 *746:Z 0.000257688
2 *221:2 4.49715e-05
3 *221:3 0.000894992031

*RES
1 *221:2 *221:3 3.25409007
2 *746:Z *221:2 0.953595
3 *872:A2 *221:3 1.60113
*END

*D_NET *222 0.0005186

*CONN
*I *747:I I *C 11.3 145.4 *L 0.0054 *D CKND6
*I *748:ZN O *C 9.1 145.4 *L 0 *D CKND1

*CAP
1 *747:I 0.000124664
2 *222:2 0.000393936016

*RES
1 *747:I *222:2 2.27330995
2 *748:ZN *222:2 0.224986
*END

*D_NET *223 0.0231045

*CONN
*I *897:CP I *C 179.9 145.2 *L 0.000688 *D DFCND1
*I *747:ZN O *C 12.3 145.6 *L 0 *D CKND6
*I *821:CP I *C 180.7 139.6 *L 0.000642 *D DFCNQD1
*I *820:CP I *C 178.9 141.6 *L 0.000642 *D DFCNQD1
*I *767:CLK I *C 142.535 134.195 *L 0.031 *D sram00

*CAP
1 *897:CP 0.000164242
2 *223:5 0.000724093
3 *223:6 0.0114263
4 *223:7 0.00414632
5 *223:8 2.98146e-05
6 *223:9 2.65018e-05
7 *223:10 8.21208e-05
8 *223:13 1.53432e-05
9 *223:14 0.000279141
10 *223:15 1.93533e-05
11 *223:16 2.23173e-05
12 *223:17 0.000587922
13 *223:18 3.29529e-05
14 *223:19 2.96402e-06
15 *223:20 4.88192e-06
16 *223:21 4.44603e-05
17 *223:22 0.00143406
18 *223:23 0.000428911
19 *223:5 *110:2 0.000330025
20 *223:6 *85:4 0.000274219004
21 *223:5 *17:5 0.000891563984
22 *223:6 *33:3 0.000706813984
23 *223:6 *364:4 0.000908988984
24 *223:7 *288:4 0.000521163984

*RES
1 *223:5 *223:6 57.3955
2 *223:13 *223:14 1.35814
3 *223:17 *223:23 2.74308
4 *897:CP *223:9 0.476808
5 *223:9 *223:17 0.854521
6 *223:10 *223:12 0.329389
7 *223:11 *223:5 0.270694
8 *223:16 *223:21 0.163675
9 *223:14 *223:23 1.35814
10 *223:7 *223:22 7.15899
11 *223:18 *223:20 0.179414
12 *223:19 *223:20 0.076099
13 *223:17 *223:7 23.5327
14 *223:15 *223:21 0.163675
15 *223:8 *223:13 0.291062
16 *223:6 *223:7 27.223
17 *821:CP *223:13 0.225
18 *820:CP *223:12 0.45
19 *747:ZN *223:5 0.225
20 *223:12 *223:21 0.225
21 *223:18 *223:22 0.225
22 *223:21 *223:23 0.225
23 *747:ZN *767:CLK 0.0001
*END

*D_NET *224 0.00220941

*CONN
*I *749:ZN O *C 152.3 139.2 *L 0 *D TIEL
*I *767:EMA[2] I *C 143.545 134.195 *L 0.00755 *D sram00
*I *767:EMA[0] I *C 152.68 134.195 *L 0.00755 *D sram00

*CAP
1 *749:ZN 2.39268e-05
2 *224:3 1.15141e-05
3 *224:4 0.000106673
4 *224:5 0.000998116016
5 *224:6 2.89832e-05
6 *224:7 0.000727931
7 *224:8 2.53889e-05
8 *224:9 0.000286877

*RES
1 *224:3 *224:4 0.239449
2 *749:ZN *224:9 0.963771
3 *224:8 *224:9 0.272527
4 *224:7 *224:8 2.8477
5 *224:5 *224:6 0.239464
6 *224:4 *224:5 7.14785
7 *749:ZN *224:6 1e-06
8 *749:ZN *767:EMA[2] 0.0001
9 *767:EMA[2] *767:EMA[0] 0.0001
*END

*D_NET *225 0.00296764

*CONN
*I *750:Z O *C 152.9 139.8 *L 0 *D TIEH
*I *767:RETN I *C 144.905 134.195 *L 0.00453 *D sram00
*I *767:EMA[1] I *C 153.84 134.195 *L 0.00755 *D sram00

*CAP
1 *225:4 4.94212e-05
2 *225:5 2.44258e-05
3 *225:6 0.00139209
4 *225:7 8.45332e-06
5 *225:8 0.00149323

*RES
1 *225:4 *225:5 0.194247
2 *225:3 *225:8 4.71971
3 *225:6 *225:8 6.39706993
4 *225:6 *225:7 0.194247
5 *225:5 *225:8 0.75932
6 *750:Z *225:3 0.224995
7 *750:Z *767:EMA[1] 9.76115e-05
8 *767:EMA[1] *767:RETN 9.76115e-05
*END

*D_NET *226 0.00160555

*CONN
*I *714:I I *C 220.1 145.2 *L 0.00105 *D DEL1
*I *773:ZN O *C 214.9 141.2 *L 0 *D ND4D1

*CAP
1 *714:I 5.1118e-05
2 *773:ZN 0.000387381
3 *226:2 0.000674183047
4 *226:3 0.000492868

*RES
1 *773:ZN *226:2 1.80935
2 *714:I *226:3 2.5983
3 *226:2 *226:3 3.23841
*END

*D_NET *227 0.00176854

*CONN
*I *716:I I *C 225.1 143.2 *L 0.00105 *D DEL1
*I *771:ZN O *C 218.7 141.2 *L 0 *D ND4D1

*CAP
1 *771:ZN 0.00045967
2 *227:2 0.000644738
3 *227:3 0.000664135

*RES
1 *716:I *227:2 2.77523994
2 *771:ZN *227:3 1.54299
3 *227:2 *227:3 2.6449
*END

*D_NET *228 0.0119774

*CONN
*I *712:I I *C 316.3 141.6 *L 0.00105 *D DEL1
*I *768:ZN O *C 212.7 141.2 *L 0 *D ND4D1

*CAP
1 *712:I 0.000596502
2 *768:ZN 0.000289311
3 *228:2 4.95515e-05
4 *228:3 0.00301239
5 *228:4 1.45253e-05
6 *228:5 0.000556926
7 *228:6 0.000297906
8 *228:7 3.14868e-05
9 *228:8 0.000852855
10 *228:9 7.90617e-06
11 *228:10 0.000550766
12 *228:11 0.000139645
13 *228:12 8.2739e-07
14 *228:13 0.000916151
15 *228:14 0.000210479
16 *768:ZN *54:2 0.00023188
17 *228:10 *60:2 0.000464426992
18 *228:5 *135:2 0.000458786016
19 *228:10 *201:6 0.000396162969
20 *768:ZN *454:2 0.000363633984
21 *228:3 *797:A2 0.000400693008
22 *228:3 *504:2 0.0021346

*RES
1 *228:6 *228:7 2.39212
2 *228:10 *228:11 0.0925715
3 *228:4 *228:5 5.57212
4 *228:3 *228:4 0.0925715
5 *228:5 *228:6 0.0925715
6 *228:8 *228:9 0.0925715
7 *228:7 *228:8 11.9942
8 *712:I *228:2 5.3472
9 *228:13 *228:14 0.0925715
10 *228:12 *228:13 6.82663
11 *228:11 *228:12 1.83154
12 *228:9 *228:10 10.2381
13 *228:2 *228:3 22.4694996
14 *768:ZN *228:14 4.21749
*END

*D_NET *229 0.00267116

*CONN
*I *713:I I *C 221.3 139.6 *L 0.00105 *D DEL1
*I *775:ZN O *C 210.1 141.2 *L 0 *D ND4D1

*CAP
1 *713:I 0.000261283
2 *229:2 0.00187118
3 *229:3 0.000220596
4 *229:4 0.000318102

*RES
1 *713:I *229:3 2.45434
2 *775:ZN *229:2 0.350893
3 *229:3 *229:4 1.32672
4 *229:2 *229:4 6.58348989
*END

*D_NET *230 0.00104925

*CONN
*I *709:I I *C 205.9 145.2 *L 0.00105 *D DEL1
*I *774:ZN O *C 205.9 141.2 *L 0 *D ND4D1

*CAP
1 *709:I 2.22463e-05
2 *774:ZN 0.000449613
3 *230:2 0.00057739

*RES
1 *709:I *230:2 0.330755
2 *774:ZN *230:2 3.74376011
*END

*D_NET *231 0.000466267

*CONN
*I *708:I I *C 201.1 143.2 *L 0.00105 *D DEL1
*I *772:ZN O *C 200.1 143.6 *L 0 *D ND4D1

*CAP
1 *708:I 0.000218872
2 *231:2 0.000247396016

*RES
1 *708:I *231:2 2.03313994
2 *772:ZN *231:2 0.225012
*END

*D_NET *232 0.000548086

*CONN
*I *715:I I *C 196.3 143.2 *L 0.00105 *D DEL1
*I *769:ZN O *C 195.3 143.6 *L 0 *D ND4D1

*CAP
1 *769:ZN 0.000548085977

*RES
1 *769:ZN *715:I 2.35857
*END

*D_NET *233 0.00137591

*CONN
*I *719:I I *C 193.1 139.6 *L 0.00105 *D DEL1
*I *770:ZN O *C 187.1 141.2 *L 0 *D ND4D1

*CAP
1 *719:I 0.000439581
2 *233:2 0.000936325

*RES
1 *719:I *233:2 6.05694008
2 *770:ZN *233:2 0.224954
*END

*D_NET *234 0.0196838

*CONN
*I *768:A1 I *C 212.5 141.8 *L 0.000996 *D ND4D1
*I *759:Z O *C 64.5 142.8 *L 0 *D CKBD1

*CAP
1 *234:2 0.000680971
2 *234:3 0.00030047
3 *234:4 7.93277e-05
4 *234:5 0.00307436
5 *234:6 0.00024122
6 *234:7 0.000523488
7 *234:8 0.00040452
8 *234:9 0.000368679
9 *234:10 3.33542e-05
10 *234:11 0.000548633
11 *234:12 0.00278576
12 *234:12 *132:4 0.00217804
13 *234:2 *16:2 0.000295276992
14 *234:3 *376:9 0.00112452992
15 *234:2 *481:14 0.00207577984
16 *234:4 *86:3 0.000682156016
17 *234:5 *320:3 0.00428716

*RES
1 *234:10 *234:4 2.80348
2 *234:9 *234:5 40.9925995
3 *234:3 *234:7 2.34874
4 *234:4 *234:11 0.0925736
5 *234:5 *234:10 0.0925736
6 *234:6 *234:7 5.23166
7 *768:A1 *234:8 1.70886
8 *234:11 *234:12 37.8119
9 *234:2 *234:12 10.7273
10 *234:6 *234:2 1.97094
11 *759:Z *234:3 0.225179
12 *234:8 *234:9 0.225179
*END

*D_NET *235 0.0192773

*CONN
*I *771:A2 I *C 218.9 141.8 *L 0.00103 *D ND4D1
*I *760:Z O *C 74.9 142 *L 0 *D CKBD1

*CAP
1 *760:Z 0.000491847
2 *771:A2 0.000633349
3 *235:2 0.00259903
4 *235:3 0.000145468
5 *235:4 0.000277214
6 *235:5 0.00012203
7 *235:6 0.000890733
8 *235:7 6.87285e-05
9 *235:8 3.48996e-06
10 *235:9 0.00205174
11 *235:10 1.39202e-05
12 *235:11 0.000938919
13 *235:12 3.94207e-05
14 *235:3 *512:4 0.000567570977
15 *235:2 *243:4 0.00360684
16 *235:3 *237:4 0.000910092031
17 *235:3 *201:8 0.00160547
18 *235:3 *411:6 0.00128624
19 *235:4 *746:I 0.00302517

*RES
1 *235:8 *235:4 0.092558
2 *771:A2 *235:5 2.85556
3 *235:2 *235:7 0.092558
4 *760:Z *235:6 4.48876
5 *235:5 *235:3 1.40509
6 *235:3 *235:2 39.1347008
7 *235:4 *235:9 35.0054
8 *235:11 *235:12 0.092558
9 *235:10 *235:11 7.74203
10 *235:6 *235:12 3.51541
11 *235:7 *235:8 6.45457
12 *235:9 *235:10 0.092558
*END

*D_NET *236 0.0152298

*CONN
*I *770:A1 I *C 186.9 141.8 *L 0.000996 *D ND4D1
*I *761:Z O *C 61.9 142.8 *L 0 *D CKBD0

*CAP
1 *761:Z 0.000887577
2 *236:2 0.000204139
3 *236:3 0.000117265
4 *236:4 0.00052169
5 *236:5 0.000207112
6 *236:6 0.000158995
7 *236:7 0.0072159
8 *236:8 3.52344e-06
9 *236:9 3.22615e-05
10 *236:10 0.000268332
11 *236:11 0.000299603
12 *236:12 0.00110185
13 *236:7 *277:4 0.000364385977
14 *236:4 *241:2 0.000492216992
15 *236:5 *484:9 0.00217858
16 *236:2 *274:3 0.000476226016
17 *236:3 *586:I 0.000700283984

*RES
1 *236:10 *236:11 2.35882
2 *236:7 *236:8 16.1957
3 *236:3 *236:12 4.43804
4 *236:2 *236:11 2.7596
5 *236:5 *236:7 50.9015007
6 *236:9 *236:10 3.57746
7 *236:6 *236:2 1.14951
8 *236:4 *236:5 3.50911
9 *236:8 *236:9 0.596502
10 *236:4 *236:12 2.13281
11 *761:Z *236:6 3.48969
12 *770:A1 *236:3 0.225242
*END

*D_NET *237 0.0176728

*CONN
*I *773:A2 I *C 215.1 141.8 *L 0.00103 *D ND4D1
*I *762:Z O *C 104.5 142 *L 0 *D CKBD1

*CAP
1 *762:Z 0.000951989
2 *773:A2 0.000800109
3 *237:2 0.000350892
4 *237:3 4.19523e-06
5 *237:4 0.00429584969
6 *237:5 0.000113337
7 *237:6 4.0969e-05
8 *237:7 5.4538e-05
9 *237:8 3.66427e-05
10 *237:4 *287:2 0.00199764
11 *237:3 *31:2 0.0030205
12 *237:4 *201:8 0.0014459
13 *237:4 *235:3 0.000910092031
14 *237:4 *241:2 0.00324338
15 *237:2 *510:2 0.000406673984

*RES
1 *237:7 *237:8 0.0924798
2 *237:6 *237:7 6.32814
3 *237:2 *237:3 2.03456
4 *773:A2 *237:2 2.97533
5 *237:5 *237:6 0.0924798
6 *237:4 *237:8 55.0978012
7 *762:Z *237:4 4.38018
8 *237:3 *237:5 12.0602
*END

*D_NET *238 0.0175893

*CONN
*I *774:A2 I *C 205.7 141.8 *L 0.00103 *D ND4D1
*I *763:Z O *C 58.9 142.8 *L 0 *D CKBD1

*CAP
1 *774:A2 0.0002232
2 *238:2 0.000199343
3 *238:3 0.000128569
4 *238:4 0.000306501
5 *238:5 0.000163756
6 *238:6 0.000914504
7 *238:7 8.24234e-05
8 *238:8 0.00110353
9 *238:9 8.35139e-06
10 *238:10 4.36187e-05
11 *238:11 4.44166e-06
12 *238:12 0.000241126
13 *238:13 4.75284e-05
14 *238:14 0.00043382
15 *238:15 0.00033496
16 *238:16 0.00174302
17 *238:17 0.00033105
18 *238:18 0.00014224
19 *238:19 0.000118914
20 *238:20 0.000602789
21 *238:21 0.00031706
22 *238:22 3.47354e-05
23 *238:23 0.000329029
24 *238:24 8.67055e-06
25 *238:25 0.000892588
26 *774:A2 *48:3 0.00109649
27 *238:17 *208:2 0.00094668
28 *238:10 *86:3 0.00146779
29 *238:5 *392:2 0.00174765
30 *238:2 *417:4 0.000235503008
31 *238:10 *481:9 0.00282487
32 *238:2 *16:4 0.000514618984

*RES
1 *238:24 *238:25 12.2795
2 *238:18 *238:19 0.0926733
3 *238:13 *238:14 2.5514
4 *238:20 *238:21 2.23306
5 *238:19 *238:20 5.82507
6 *238:14 *238:15 2.04928
7 *238:2 *238:25 3.48205
8 *774:A2 *238:4 2.21631
9 *238:10 *238:11 0.0926733
10 *238:22 *238:23 4.06244
11 *238:16 *238:17 2.04928
12 *238:21 *238:22 0.505253
13 *238:17 *238:18 4.94362
14 *238:23 *238:24 0.0926733
15 *238:15 *238:16 17.156601
16 *238:9 *238:10 2.80324
17 *238:3 *238:2 0.450015
18 *238:11 *238:12 3.8106
19 *238:7 *238:8 15.8393
20 *238:4 *238:5 1.51078
21 *238:8 *238:9 0.0926733
22 *238:5 *238:6 12.0622
23 *238:12 *238:13 0.0926733
24 *238:6 *238:7 1.2257
25 *763:Z *238:3 0.224877
*END

*D_NET *239 0.0217657

*CONN
*I *769:A1 I *C 195.1 143 *L 0.000996 *D ND4D1
*I *764:Z O *C 53.3 142.8 *L 0 *D CKBD1

*CAP
1 *764:Z 9.37542e-05
2 *239:2 0.00699793
3 *239:3 0.000298561
4 *239:4 0.000531238
5 *239:5 2.787e-05
6 *239:6 6.08655e-06
7 *239:7 0.000728998
8 *239:8 2.79768e-05
9 *239:9 0.000503582
10 *239:11 0.0016643
11 *239:12 0.000499631
12 *239:13 0.000624245
13 *239:14 0.000441221
14 *239:9 *373:3 0.00161149
15 *239:2 *379:2 0.00166288
16 *239:2 *624:I 0.00178909
17 *239:3 *44:3 0.00100144008
18 *239:4 *411:6 0.000763868984
19 *239:5 *502:7 0.00249165016

*RES
1 *239:5 *239:4 4.28064
2 *239:12 *239:14 1.99443
3 *239:8 *239:9 7.66952
4 *239:6 *239:7 5.69736
5 *239:5 *239:13 2.79595
6 *239:3 *239:2 76.7959976
7 *239:7 *239:3 2.31902
8 *764:Z *239:14 0.449977
9 *239:9 *239:10 0.11601
10 *239:11 *239:12 2.36589
11 *239:2 *239:8 0.11601
12 *239:4 *239:6 0.0386699
13 *239:10 *239:11 18.9154
14 *769:A1 *239:13 0.224988
*END

*D_NET *240 0.0202149

*CONN
*I *775:A1 I *C 209.9 141.8 *L 0.000996 *D ND4D1
*I *765:Z O *C 60.1 142 *L 0 *D CKBD1

*CAP
1 *765:Z 0.000253971
2 *775:A1 0.000178993
3 *240:2 0.00893397063
4 *240:3 8.94283e-05
5 *240:4 7.44327e-05
6 *240:5 0.00111758
7 *240:6 6.36631e-05
8 *240:7 0.00124068
9 *240:2 *20:2 0.00129424
10 *240:2 *24:2 0.00301124
11 *240:3 *494:2 0.00173684
12 *240:3 *142:2 0.00221968

*RES
1 *240:4 *240:7 5.23327
2 *240:3 *240:2 77.1928024
3 *775:A1 *240:5 0.749124
4 *765:Z *240:7 1.12486
5 *240:5 *240:6 5.04717
6 *240:2 *240:4 35.3066
7 *240:3 *240:6 8.51246
*END

*D_NET *241 0.0208858

*CONN
*I *772:A1 I *C 199.9 143 *L 0.000996 *D ND4D1
*I *766:Z O *C 57.5 142.8 *L 0 *D BUFFD2

*CAP
1 *766:Z 0.000919834
2 *772:A1 0.000943694
3 *241:2 8.66093e-05
4 *241:3 0.000275616
5 *241:4 3.77745e-05
6 *241:5 5.88248e-05
7 *241:7 4.03612e-05
8 *241:8 0.00292273
9 *241:9 6.86809e-06
10 *241:10 0.000342914
11 *241:11 4.81212e-05
12 *241:12 0.000594536
13 *241:13 0.000608272
14 *241:8 *287:3 0.000969576016
15 *241:4 *31:2 0.00147361
16 *772:A1 *141:2 0.00027761
17 *766:Z *364:3 0.00128925
18 *241:8 *370:3 0.000255394004
19 *241:2 *398:4 0.000674408984
20 *241:2 *484:13 0.00407827
21 *241:2 *237:4 0.00324338
22 *241:2 *9:3 0.000813232031
23 *241:2 *236:4 0.000492216992
24 *241:3 *491:3 0.000432771992

*RES
1 *241:7 *241:8 41.524601
2 *766:Z *241:5 3.74657
3 *241:6 *241:2 21.3224
4 *241:3 *241:6 0.0925078
5 *241:2 *241:7 0.0925078
6 *772:A1 *241:4 4.35167
7 *241:10 *241:11 0.0925078
8 *241:8 *241:9 0.0925078
9 *241:4 *241:3 7.58501
10 *241:9 *241:10 7.46145
11 *241:11 *241:12 4.60195
12 *241:12 *241:13 2.27151
13 *241:5 *241:13 9.16524
*END

*D_NET *242 0.00131262

*CONN
*I *748:I I *C 9.5 145.4 *L 0.000942 *D CKND1
*P *242 I *C 10 153 *L 0.5

*CAP
1 *748:I 8.67266e-05
2 *242 9.46195e-05
3 *242:2 0.00104922
4 *242:3 8.20676e-05

*RES
1 *242:2 *242:3 4.61654997
2 *748:I *242:2 0.786003
3 *242 *242:3 0.222177
*END

*D_NET *243 0.0259709

*CONN
*I *654:I I *C 166.3 145.2 *L 0.00105 *D DEL1
*I *711:I I *C 175.5 141.6 *L 0.00105 *D DEL1
*P *243 I *C 15 153 *L 0.5

*CAP
1 *711:I 0.000654779
2 *243 0.000317897
3 *243:3 7.96674e-05
4 *243:4 0.000259981
5 *243:5 9.44683e-05
6 *243:6 0.000574275
7 *243:7 0.000297369
8 *243:8 0.000216608
9 *243:9 5.25754e-05
10 *243:10 0.00031912
11 *243:11 5.11596e-05
12 *243:12 0.00015335
13 *243:13 0.000205604
14 *243:14 0.000848928
15 *243:15 0.000247754
16 *243:16 0.00124476
17 *243:17 0.000858838
18 *243:18 8.66818e-05
19 *243:19 0.00421729
20 *243:17 *275:2 0.00695069
21 *243 *276:2 0.00158202
22 *243:4 *235:2 0.00360684
23 *243:4 *411:2 0.00305026

*RES
1 *243:8 *243:9 1.21343
2 *243:18 *243:19 2.60045
3 *243:13 *243:14 7.71326
4 *243:6 *243:7 6.10562
5 *243:7 *243:8 4.31412
6 *243:15 *243:17 1.86161
7 *243:4 *243:6 12.2027
8 *243:11 *243:12 7.61064
9 *243:9 *243:10 5.19063
10 *243:10 *243:11 1.21343
11 *243:17 *243:19 56.0416985
12 *711:I *243:3 2.88777
13 *243:3 *243:16 6.68112
14 *243:14 *243:15 1.99758
15 *243:12 *243:13 0.0923539
16 *243 *243:18 1.48365
17 *243:4 *243:5 1.38531
18 *654:I *243:5 0.449798
19 *243:5 *243:16 0.224899
*END

*D_NET *244 0.0165931

*CONN
*I *567:I I *C 9.1 139.6 *L 0.000643 *D CKBD0
*I *652:I I *C 11.3 141.6 *L 0.00072 *D BUFFD1
*P *244 I *C 0 5 *L 0.5

*CAP
1 *244 7.46715e-05
2 *244:3 0.000457624
3 *244:4 0.000951203
4 *244:5 0.000148501
5 *244:6 0.000366254
6 *244:7 0.000447019
7 *244:8 0.000224553
8 *244:10 0.000355481
9 *244:11 0.000399112
10 *244:13 0.000206104
11 *244:14 0.000392547
12 *244:16 4.85802e-05
13 *244:17 0.000880605
14 *244:18 2.14453e-05
15 *244:19 1.51498e-06
16 *244:20 0.000248793
17 *244:21 0.000395005
18 *244:23 0.000211928
19 *244:24 0.00220631
20 *244:25 0.000335012
21 *244:26 1.24565e-06
22 *244:27 1.64964e-06
23 *244:28 0.000611916
24 *244:29 0.000374266
25 *244:30 1.45438e-05
26 *244:31 0.000144192
27 *244:32 0.000211558
28 *244:33 0.000286869
29 *244:34 2.35663e-06
30 *244:35 0.000130389
31 *244:36 0.000756545
32 *244:37 0.000268925
33 *244:23 *252:3 0.00135009
34 *244:4 *295:2 0.00089221
35 *244:4 *310:2 0.0014258
36 *244:4 *312:4 0.000514217969
37 *244:3 *307 0.000512758008
38 *244:4 *311:5 0.000721243984

*RES
1 *244:4 *244:8 2.64361
2 *244:9 *244:11 2.87076
3 *244:21 *244:23 0.285209
4 *244:31 *244:32 1.63689
5 *244:22 *244:25 2.49286
6 *244:31 *244:33 2.99469
7 *244:27 *244:28 5.91468
8 *244:12 *244:13 0.159241
9 *244:30 *244:36 6.38765
10 *244:26 *244:29 3.24017
11 *244:12 *244:14 2.8694
12 *244 *244:36 0.256009
13 *244:29 *244:30 0.285209
14 *244:11 *244:13 1.76388
15 *244:6 *244:7 1.0074
16 *244:5 *244:37 1.07904
17 *244:15 *244:17 0.159241
18 *244:15 *244:3 7.39505
19 *244:10 *244:34 2.57231
20 *244:25 *244:27 0.159241
21 *244:33 *244:35 1.51127
22 *244:16 *244:17 8.40686
23 *244:3 *244:19 0.159241
24 *244:4 *244:7 5.24784
25 *244:26 *244:28 0.285209
26 *244:6 *244:37 2.61713
27 *244:18 *244:21 3.36614
28 *567:I *244:7 1.70887
29 *244:8 *244:32 2.42937
30 *244:34 *244:35 0.159241
31 *244:18 *244:20 0.285209
32 *244:23 *244:24 22.2516994
33 *244:14 *244:16 0.159241
34 *244:22 *244:24 0.159241
35 *244:9 *244:10 0.159241
36 *244:19 *244:20 3.65135
37 *652:I *244:5 0.225111
*END

*D_NET *245 0.0229708

*CONN
*P *245 I *C 0 37.4 *L 0.5
*I *824:B1 I *C 176.1 139.4 *L 0.000863 *D AO22D0

*CAP
1 *245 0.000122646
2 *245:2 0.0111789
3 *245:3 0.00014738
4 *245:4 0.000250581
5 *245:5 0.000379538
6 *245:7 0.000491779
7 *245:8 0.00193351
8 *245:9 0.00116847
9 *245:10 0.000450499
10 *245:11 0.000456981
11 *245:12 0.00220798
12 *245:13 6.90845e-05
13 *245:14 9.29656e-05
14 *245:12 *248:2 0.00128383992
15 *245:2 *247:8 0.00246382
16 *245:3 *85:16 0.000272720996

*RES
1 *245:3 *245:14 2.52292
2 *824:B1 *245:4 0.450288
3 *245:7 *245:8 16.6026
4 *245:7 *245:2 61.3515015
5 *245:9 *245:13 2.51637
6 *245:2 *245:12 42.7446
7 *245:6 *245:9 6.14863
8 *245:10 *245:11 2.55101
9 *245:11 *245:3 2.36378
10 *245:6 *245:8 0.159145
11 *245:5 *245:10 2.47424
12 *245:12 *245:14 36.4415
13 *245 *245:13 0.71241
14 *245:4 *245:5 1.4838
*END

*D_NET *246 0.0225434

*CONN
*P *246 I *C 0 33.8 *L 0.5
*I *823:B1 I *C 174.5 139.4 *L 0.000863 *D AO22D0

*CAP
1 *246 0.000443484
2 *246:2 0.00850313
3 *246:4 0.000537811
4 *246:5 0.000717514
5 *246:6 0.00371122
6 *246:7 0.000873344
7 *246:8 0.000225375
8 *246:9 0.00288848
9 *246:8 *326:2 0.00199712
10 *246:4 *396:3 0.000464676992
11 *246 *251:9 0.000669745
12 *246:2 *325:9 0.00151155

*RES
1 *246:8 *246:9 35.6882
2 *246:2 *246:9 41.3324
3 *246:3 *246:4 1.983
4 *246 *246:6 2.57384
5 *246:5 *246:6 29.1258
6 *246:4 *246:7 6.46337
7 *246:5 *246:2 61.8550987
8 *823:B1 *246:3 0.224632
9 *246:7 *246:8 0.224632
*END

*D_NET *247 0.0212435

*CONN
*P *247 I *C 0 30.2 *L 0.5
*I *829:B1 I *C 172.3 139.4 *L 0.000863 *D AO22D0

*CAP
1 *247 4.93705e-05
2 *247:2 0.000409554
3 *247:3 5.15811e-05
4 *247:4 0.00965819
5 *247:5 0.000513158
6 *247:6 4.93705e-05
7 *247:8 0.00436553
8 *247:9 7.97296e-05
9 *247:10 4.61282e-05
10 *247:8 *245:2 0.00246382
11 *247 *248 0.000628041016
12 *247:5 *323:2 0.00265015
13 *247:5 *85:2 0.000278865996

*RES
1 *247:9 *247:10 2.52256
2 *247:6 *247:8 44.3056
3 *247:5 *247:10 1.27277
4 *247:3 *247:5 4.1219
5 *247:8 *247:9 20.554
6 *829:B1 *247:2 1.58306
7 *247:4 *247:7 62.7631989
8 *247:4 *247:6 42.3673
9 *247 *247:7 0.225057
10 *247:2 *247:3 0.225057
*END

*D_NET *248 0.0200912

*CONN
*P *248 I *C 0 26.6 *L 0.5
*I *822:B1 I *C 170.7 139.4 *L 0.000863 *D AO22D0

*CAP
1 *248 0.000447894
2 *248:2 9.16148e-05
3 *248:3 0.000268675
4 *248:4 4.87378e-05
5 *248:5 0.000251401
6 *248:6 7.60372e-05
7 *248:7 0.0101077006
8 *248:8 5.39818e-05
9 *248:9 0.00437715
10 *248 *247 0.000628041016
11 *248:2 *324:6 0.00245593
12 *248:2 *245:12 0.00128383992

*RES
1 *248:2 *248:9 25.076
2 *248:8 *248:9 42.4114
3 *248:6 *248:2 1.93658
4 *248:4 *248:7 62.7364006
5 *822:B1 *248:3 0.577241
6 *248:7 *248:8 43.3744
7 *248:4 *248:5 1.63312
8 *248 *248:5 3.07192
9 *248:3 *248:6 0.224961
*END

*D_NET *249 0.018441

*CONN
*P *249 I *C 0 23 *L 0.5
*I *827:B1 I *C 166.3 139.4 *L 0.000863 *D AO22D0

*CAP
1 *249 7.66616e-05
2 *249:2 0.000311123
3 *249:3 7.77808e-05
4 *249:4 0.000237399
5 *249:5 0.00916792
6 *249:7 0.0063257
7 *249:2 *251:15 0.000709822031
8 *249:3 *87:19 0.00077059
9 *249:4 *471:37 0.000213415
10 *249:3 *393:7 0.000550573008

*RES
1 *249:2 *249:7 25.7072
2 *249:3 *249:2 10.8011
3 *249 *249:5 62.9882011
4 *249:6 *249:7 48.852
5 *827:B1 *249:4 0.929407
6 *249:5 *249:6 31.5393
7 *249:4 *249:3 0.224903
*END

*D_NET *250 0.0214282

*CONN
*P *250 I *C 0 19.4 *L 0.5
*I *830:B1 I *C 167.9 139.4 *L 0.000863 *D AO22D0

*CAP
1 *250 0.000201892
2 *250:2 0.000300355
3 *250:3 0.000232963
4 *250:4 5.6893e-05
5 *250:5 0.00929796
6 *250:6 8.07285e-05
7 *250:7 0.000381084
8 *250:8 9.36393e-06
9 *250:9 2.01466e-05
10 *250:11 0.000206858
11 *250:12 0.00455711
12 *250:2 *327:2 0.00121417
13 *250 *251:10 0.000690231016
14 *250 *252:3 0.000848891953
15 *250:2 *253:3 0.00286731
16 *250:3 *408:2 0.000462291016

*RES
1 *830:B1 *250:3 0.863474
2 *250:5 *250:10 35.8195
3 *250:9 *250:12 24.6974
4 *250:4 *250:11 10.9443
5 *250:8 *250:2 3.30636
6 *250:6 *250:7 3.3754
7 *250:7 *250:8 0.092684
8 *250:2 *250:9 0.487064
9 *250:10 *250:12 40.5171
10 *250 *250:11 1.33068
11 *250:4 *250:5 61.980999
12 *250:3 *250:6 0.937243
*END

*D_NET *251 0.0216101

*CONN
*P *251 I *C 0 15.8 *L 0.5
*I *825:B1 I *C 164.3 139.4 *L 0.000863 *D AO22D0

*CAP
1 *825:B1 0.000247646
2 *251 0.000154311
3 *251:2 9.65445e-05
4 *251:3 0.000463601
5 *251:4 0.000152038
6 *251:5 0.000226786
7 *251:6 4.47956e-05
8 *251:7 1.01626e-05
9 *251:8 0.000390323
10 *251:9 6.43184e-05
11 *251:10 0.00101358
12 *251:11 0.00030568
13 *251:12 0.000436991
14 *251:13 0.00876322
15 *251:14 0.000193758
16 *251:15 0.00401328
17 *251:9 *246 0.000669745
18 *251:15 *249:2 0.000709822031
19 *251:10 *250 0.000690231016
20 *251 *252 0.00138971
21 *251:7 *315:2 0.00113995
22 *825:B1 *403:2 0.000433575

*RES
1 *251:13 *251:15 30.0017
2 *251:10 *251:11 2.7053
3 *251:7 *251:8 6.66172
4 *251:7 *251:13 61.6032982
5 *251:2 *251:3 3.68477
6 *825:B1 *251:2 1.81794
7 *251:4 *251:5 2.55114
8 *251:5 *251:6 0.0930592
9 *251:6 *251:12 3.01173
10 *251:3 *251:4 1.60363
11 *251 *251:11 1.61303
12 *251:14 *251:15 57.4448
13 *251:9 *251:10 9.93007
14 *251:8 *251:9 1.92228
15 *251:12 *251:14 0.224658
*END

*D_NET *252 0.0229086

*CONN
*P *252 I *C 0 12.2 *L 0.5
*I *828:B1 I *C 161.7 139.4 *L 0.000863 *D AO22D0

*CAP
1 *252 0.000205325
2 *252:2 0.000309448
3 *252:3 0.00149159
4 *252:4 0.000247957
5 *252:5 0.000532171
6 *252:6 0.000240121
7 *252:7 0.00870372
8 *252:8 0.000276245
9 *252:9 0.000899657
10 *252:10 0.000164552
11 *252:11 7.96861e-07
12 *252:12 0.00572293
13 *252:3 *250 0.000848891953
14 *252 *251 0.00138971
15 *252:2 *315:2 0.000525641016
16 *252:3 *244:23 0.00135009

*RES
1 *252:9 *252:10 0.487143
2 *828:B1 *252:4 0.450109
3 *252:7 *252:12 28.9941
4 *252:2 *252:3 19.0119
5 *252:3 *252:11 0.728341
6 *252:5 *252:8 0.712198
7 *252:2 *252:7 62.2327995
8 *252:10 *252:12 52.8992
9 *252:6 *252:11 3.80883
10 *252:8 *252:9 8.97274
11 *252 *252:6 2.41862
12 *252:4 *252:5 3.37297
*END

*D_NET *253 0.0198271

*CONN
*P *253 I *C 0 8.6 *L 0.5
*I *826:B1 I *C 158.3 139.4 *L 0.000863 *D AO22D0

*CAP
1 *253 7.67601e-05
2 *253:2 0.000237914
3 *253:3 6.55924e-05
4 *253:4 0.00926422
5 *253:5 0.000600086
6 *253:6 6.82783e-05
7 *253:7 0.00664688
8 *253:3 *250:2 0.00286731

*RES
1 *253:5 *253:7 25.2026
2 *253:3 *253:5 2.4624
3 *253 *253:4 62.9882011
4 *253:6 *253:7 57.9452
5 *826:B1 *253:2 0.449806
6 *253:4 *253:6 35.3165
7 *253:2 *253:3 0.224903
*END

*D_NET *254 0.0247862

*CONN
*P *254 I *C 0 267.8 *L 0.5
*I *876:A2 I *C 10.7 141.6 *L 0.000585 *D CKAN2D0

*CAP
1 *876:A2 0.00104405
2 *254 0.000137424
3 *254:2 0.00580289
4 *254:3 3.4356e-05
5 *254:4 0.000368088
6 *254:5 0.000109001
7 *254:6 0.000114225
8 *254:7 0.000159738
9 *876:A2 *256:3 1.9556e-05
10 *876:A2 *256:4 1.9556e-05
11 *254:4 *256:3 1.667e-05
12 *254:4 *256:5 2.5628e-05
13 *254:5 *256:6 0.0013737
14 *254:2 *256 1.4746e-05
15 *254:2 *256:5 0.00153759
16 *254:2 *256:6 0.00674575
17 *254:2 *256:7 0.00224682
18 *254:7 *256:6 0.00132537998
19 *254:3 *263:3 0.00102239
20 *254:6 *279:3 0.000926945
21 *254:2 *274 0.000697799062
22 *254:3 *266:2 0.0010438

*RES
1 *254:2 *254:7 52.9496002
2 *254:4 *254:5 2.08531
3 *254:3 *254:6 9.02961
4 *876:A2 *254:3 6.11535
5 *254 *254:7 1.13759
6 *254:5 *254:2 38.1682
7 *254:4 *254:6 0.224609
*END

*D_NET *255 0.0291573

*CONN
*P *255 I *C 0 264.2 *L 0.5
*I *863:A2 I *C 13.7 143.2 *L 0.000585 *D CKAN2D0

*CAP
1 *255 0.000105463
2 *255:2 2.62781e-05
3 *255:3 0.00208997016
4 *255:4 0.00141222
5 *255:5 0.000821605
6 *255:6 0.000335843
7 *255:7 5.01006e-05
8 *255:8 8.62011e-05
9 *255:3 *257 9.25e-07
10 *255:3 *257:3 0.00141544
11 *255:3 *257:4 0.00169367
12 *255:3 *257:5 0.00586188
13 *255:5 *257:6 9.991e-06
14 *255:5 *257:7 3.0711e-05
15 *255:5 *257:5 0.00150493
16 *255:6 *257:5 0.00162434019
17 *255:2 *267:2 0.000567072969
18 *255:3 *259 2.0425e-05
19 *255:4 *259:5 3.4117e-05
20 *255:3 *259:5 0.00129358
21 *255:3 *259:6 0.00628747
22 *255:5 *259:6 0.00145938
23 *255:6 *259:6 0.00115986
24 *255:3 *259:7 0.00126584003

*RES
1 *255:3 *255:6 62.4900017
2 *255:2 *255:4 6.49825
3 *255:3 *255:5 49.853
4 *255:7 *255:4 5.63913
5 *255 *255:6 0.759957
6 *255:8 *255:5 3.98477
7 *863:A2 *255:7 0.450062
8 *255:2 *255:8 0.225031
*END

*D_NET *256 0.0311919

*CONN
*P *256 I *C 0 260.6 *L 0.5
*I *882:A2 I *C 17.3 141.6 *L 0.000585 *D CKAN2D0

*CAP
1 *256 0.000202731
2 *256:2 0.000835617
3 *256:3 0.0013867
4 *256:4 8.67547e-06
5 *256:5 0.000230133
6 *256:6 0.00132561
7 *256:7 0.000223002
8 *256:8 8.03645e-05
9 *256:9 0.000214221
10 *256:3 *257:7 4.2376e-05
11 *256:8 *257:7 7.006e-06
12 *256:5 *257:6 4.89e-06
13 *256:5 *257:3 3.5223e-05
14 *256:5 *257:7 3.4e-06
15 *256:5 *257:5 0.00145115
16 *256:6 *257:3 0.00153653
17 *256:6 *257:4 0.00160259
18 *256:6 *257:5 0.00585286
19 *256:7 *257:5 0.00159744007
20 *256:2 *260:3 0.000625397969
21 *256:3 *876:A2 1.9556e-05
22 *256:4 *876:A2 1.9556e-05
23 *256:3 *254:4 1.667e-05
24 *256:5 *254:4 2.5628e-05
25 *256:6 *254:5 0.0013737
26 *256 *254:2 1.4746e-05
27 *256:5 *254:2 0.00153759
28 *256:6 *254:2 0.00674575
29 *256:7 *254:2 0.00224682
30 *256:6 *254:7 0.00132537998
31 *256:2 *262:3 0.00060061

*RES
1 *256:6 *256:7 62.6459007
2 *256 *256:7 2.15938
3 *256:5 *256:6 50.1829
4 *256:2 *256:4 4.37994
5 *256:2 *256:8 0.385228
6 *882:A2 *256:9 0.801045
7 *256:8 *256:9 1.20539
8 *256:3 *256:4 9.91938
9 *256:3 *256:5 2.75777
*END

*D_NET *257 0.0297372

*CONN
*P *257 I *C 0 257 *L 0.5
*I *885:A2 I *C 21.3 141.6 *L 0.000585 *D CKAN2D0

*CAP
1 *257 0.000170675
2 *257:2 1.76319e-05
3 *257:3 8.30753e-05
4 *257:4 0.000233133
5 *257:5 0.0030569
6 *257:6 0.000177719
7 *257:7 0.00115326
8 *257:2 *208:3 0.000569453008
9 *257 *255:3 9.25e-07
10 *257:3 *255:3 0.00141544
11 *257:4 *255:3 0.00169367
12 *257:5 *255:3 0.00586188
13 *257:6 *255:5 9.991e-06
14 *257:7 *255:5 3.0711e-05
15 *257:5 *255:5 0.00150493
16 *257:5 *255:6 0.00162434019
17 *257:7 *256:3 4.2376e-05
18 *257:7 *256:8 7.006e-06
19 *257:6 *256:5 4.89e-06
20 *257:3 *256:5 3.5223e-05
21 *257:7 *256:5 3.4e-06
22 *257:5 *256:5 0.00145115
23 *257:3 *256:6 0.00153653
24 *257:4 *256:6 0.00160259
25 *257:5 *256:6 0.00585286
26 *257:5 *256:7 0.00159744007

*RES
1 *257:6 *257:7 7.86506
2 *257:6 *257:3 0.793579
3 *257:2 *257:7 12.1801
4 *885:A2 *257:2 0.575896
5 *257:4 *257:5 60.1944008
6 *257:3 *257:5 50.1323
7 *257 *257:4 1.45765
*END

*D_NET *258 0.0177023

*CONN
*P *258 I *C 0 253.4 *L 0.5
*I *888:A2 I *C 26.3 141.6 *L 0.000585 *D CKAN2D0

*CAP
1 *258 0.000349945
2 *258:2 6.62328e-05
3 *258:3 0.00128759
4 *258:4 0.00150797
5 *258:5 0.00654686
6 *258:6 2.20776e-05
7 *258:4 *260:2 0.00162324
8 *258:4 *261:2 0.0016162
9 *258:3 *271:2 0.00127114
10 *258:2 *281:2 0.00284584
11 *258:2 *19:2 0.000565240039

*RES
1 *258:5 *258:7 33.5998001
2 *258:2 *258:4 8.42969
3 *258:2 *258:3 20.1662
4 *258 *258:7 3.61448
5 *258:5 *258:6 29.8228
6 *258:3 *258:6 0.370677
7 *888:A2 *258:4 0.450144
*END

*D_NET *259 0.0284562

*CONN
*P *259 I *C 0 249.8 *L 0.5
*I *890:A2 I *C 29.5 141.6 *L 0.000585 *D CKAN2D0

*CAP
1 *890:A2 0.000765913
2 *259 9.80467e-05
3 *259:2 0.000281548
4 *259:3 3.61053e-05
5 *259:4 6.92765e-07
6 *259:5 0.000708332
7 *259:6 0.00267061
8 *259:7 0.000129547
9 *259 *255:3 2.0425e-05
10 *259:5 *255:4 3.4117e-05
11 *259:5 *255:3 0.00129358
12 *259:6 *255:3 0.00628747
13 *259:6 *255:5 0.00145938
14 *259:6 *255:6 0.00115986
15 *259:7 *255:3 0.00126584003
16 *259:5 *263:3 0.0013547
17 *259:6 *263 2.0447e-05
18 *259:6 *263:3 0.00544688
19 *259:6 *263:4 0.0024571
20 *259:7 *263:3 0.000642639799
21 *259:2 *267:2 0.000966741953
22 *259:2 *283:6 0.000795166016
23 *890:A2 *377:3 0.000561125977

*RES
1 *259:3 *259:2 3.55957
2 *259 *259:7 0.634
3 *259:6 *259:7 48.6136
4 *259:4 *259:5 14.9991
5 *259:2 *259:4 0.220231
6 *890:A2 *259:3 4.02924
7 *259:5 *259:6 54.6707993
*END

*D_NET *260 0.0153292

*CONN
*P *260 I *C 0 246.2 *L 0.5
*I *893:A2 I *C 33.7 141.6 *L 0.000585 *D CKAN2D0

*CAP
1 *893:A2 0.000957145
2 *260 2.00639e-05
3 *260:2 0.000119619
4 *260:3 0.00626138
5 *260:5 0.000379304
6 *260:3 *256:2 0.000625397969
7 *893:A2 *264:2 0.000851528984
8 *260:2 *258:4 0.00162324
9 *893:A2 *267:5 0.000719865
10 *893:A2 *261:2 0.00377172

*RES
1 *260:2 *260:3 18.0463
2 *260:4 *260:5 3.84924
3 *260:3 *260:4 61.2885017
4 *893:A2 *260:2 5.23425
5 *260 *260:5 0.449826
*END

*D_NET *261 0.0188532

*CONN
*P *261 I *C 0 242.6 *L 0.5
*I *847:A2 I *C 36.9 141.6 *L 0.000585 *D CKAN2D0

*CAP
1 *847:A2 0.0008626
2 *261 2.10493e-05
3 *261:2 0.00549587
4 *261:3 8.3023e-06
5 *261:5 0.000348864
6 *261:2 *893:A2 0.00377172
7 *261:2 *262:3 0.00102238
8 *261:3 *264:2 0.00155992
9 *261:2 *271:2 0.00126968
10 *261:2 *258:4 0.0016162
11 *847:A2 *267:5 0.00226891
12 *847:A2 *555:I 0.000212087012
13 *847:A2 *366:5 0.000395592969

*RES
1 *261:3 *261:2 20.3066
2 *261:4 *261:5 3.59736
3 *261:2 *261:4 59.8064003
4 *847:A2 *261:3 5.56852
5 *261 *261:5 0.449899
*END

*D_NET *262 0.0170424

*CONN
*P *262 I *C 0 239 *L 0.5
*I *834:A2 I *C 41.9 141.6 *L 0.000585 *D CKAN2D0

*CAP
1 *834:A2 0.000644096
2 *262 2.11146e-05
3 *262:2 0.000678986
4 *262:3 0.00658927
5 *262:4 5.25855e-05
6 *262:5 7.37001e-05
7 *262:6 0.000312496
8 *262:3 *256:2 0.00060061
9 *262:4 *263:3 0.00177816
10 *262:3 *271:2 0.000845618047
11 *262:3 *272:3 0.00108574
12 *262:4 *364:3 0.00103374008
13 *262:2 *267:5 0.00138444
14 *262:3 *261:2 0.00102238
15 *262:3 *269 0.000919515

*RES
1 *262:5 *262:6 3.09416
2 *262:4 *262:3 24.8516
3 *262:2 *262:4 3.20121
4 *834:A2 *262:2 2.59369
5 *262:3 *262:5 57.0404015
6 *262 *262:6 0.44998
*END

*D_NET *263 0.0287383

*CONN
*P *263 I *C 0 235.4 *L 0.5
*I *837:A2 I *C 46.1 143.2 *L 0.000585 *D CKAN2D0

*CAP
1 *837:A2 0.00103932
2 *263 6.43777e-05
3 *263:2 1.9346e-05
4 *263:3 0.00214161984
5 *263:4 0.000129703
6 *837:A2 *264:2 1.6292e-05
7 *837:A2 *264:5 1.6292e-05
8 *263:3 *264 2.2195e-05
9 *263:3 *264:2 2.399e-06
10 *263:3 *264:6 2.95e-07
11 *263:3 *264:3 0.00483421
12 *263:3 *264:4 0.00224695
13 *263:4 *264:3 0.00232310991
14 *837:A2 *280:3 0.000994202031
15 *263:2 *266:3 0.00216564016
16 *263:3 *259:5 0.0013547
17 *263 *259:6 2.0447e-05
18 *263:3 *259:6 0.00544688
19 *263:4 *259:6 0.0024571
20 *263:3 *259:7 0.000642639799
21 *263:3 *254:3 0.00102239
22 *263:3 *262:4 0.00177816

*RES
1 *263:2 *263:3 30.0478
2 *263:3 *263:4 88.1235962
3 *837:A2 *263:2 4.96717
4 *263 *263:4 0.508281
*END

*D_NET *264 0.0269488

*CONN
*P *264 I *C 0 231.8 *L 0.5
*I *840:A2 I *C 49.9 145.2 *L 0.000585 *D CKAN2D0

*CAP
1 *264 7.48957e-05
2 *264:2 0.00300385
3 *264:3 0.000785488
4 *264:4 0.000126415
5 *264:5 0.000155979
6 *264:6 0.000138745
7 *264:7 0.000322913
8 *264:2 *280:4 0.00111374
9 *264:2 *544:Z 0.000354775
10 *264:2 *261:3 0.00155992
11 *264:2 *893:A2 0.000851528984
12 *264:3 *266 2.1972e-05
13 *264:2 *266:2 4.67e-06
14 *264:3 *266:2 0.00463052
15 *264:4 *266:2 0.00215902
16 *264:3 *266:4 0.00218262006
17 *264:2 *837:A2 1.6292e-05
18 *264:5 *837:A2 1.6292e-05
19 *264 *263:3 2.2195e-05
20 *264:2 *263:3 2.399e-06
21 *264:6 *263:3 2.95e-07
22 *264:3 *263:3 0.00483421
23 *264:4 *263:3 0.00224695
24 *264:3 *263:4 0.00232310991

*RES
1 *264:7 *264:5 2.36525
2 *264:2 *264:6 3.77967
3 *264 *264:4 0.381331
4 *264:6 *264:3 0.49598
5 *264:2 *264:5 30.6972
6 *264:3 *264:4 81.6697006
7 *840:A2 *264:7 0.225559
*END

*D_NET *265 0.0129956

*CONN
*P *265 I *C 0 228.2 *L 0.5
*I *844:A2 I *C 54.7 145.2 *L 0.000585 *D CKAN2D0

*CAP
1 *844:A2 0.00104252
2 *265 2.10565e-05
3 *265:2 0.000781279
4 *265:3 0.00010026
5 *265:4 3.45146e-05
6 *265:5 0.00421998969
7 *265:7 0.000933246
8 *265:3 *273:6 0.00347187
9 *265:3 *281:2 0.000425056992
10 *265:2 *268:3 0.00122156
11 *265:2 *277:2 0.000744233047

*RES
1 *265:3 *265:2 23.9882
2 *265:6 *265:7 10.2702
3 *265:4 *265:5 6.72073
4 *265:2 *265:4 0.218733
5 *844:A2 *265:3 5.00964
6 *265:5 *265:6 47.9426994
7 *265 *265:7 0.449902
*END

*D_NET *266 0.0250981

*CONN
*P *266 I *C 0 224.6 *L 0.5
*I *848:A2 I *C 59.1 145.2 *L 0.000585 *D CKAN2D0

*CAP
1 *848:A2 0.00101216
2 *266 4.08208e-05
3 *266:2 0.00377852
4 *266:3 0.00041161
5 *266:4 3.05003e-05
6 *266:2 *254:3 0.0010438
7 *266:3 *263:2 0.00216564016
8 *266 *264:3 2.1972e-05
9 *266:2 *264:2 4.67e-06
10 *266:2 *264:3 0.00463052
11 *266:2 *264:4 0.00215902
12 *266:4 *264:3 0.00218262006
13 *266:3 *270:2 0.00143046
14 *266:2 *278 0.00349751
15 *266:2 *280 0.000655781953
16 *848:A2 *274:4 0.00136813
17 *266:2 *276 0.000664365

*RES
1 *266:3 *266:2 40.0998
2 *266:2 *266:4 66.4841003
3 *848:A2 *266:3 4.00207
4 *266 *266:4 0.255646
*END

*D_NET *267 0.0160696

*CONN
*P *267 I *C 0 221 *L 0.5
*I *851:A2 I *C 61.5 145.2 *L 0.000585 *D CKAN2D0

*CAP
1 *267 0.000324456
2 *267:2 0.00433944
3 *267:3 8.68749e-05
4 *267:4 0.000336971
5 *267:5 0.000883978
6 *267:6 0.0023388
7 *267:7 1.4435e-05
8 *267:2 *255:2 0.000567072969
9 *267:2 *259:2 0.000966741953
10 *267:5 *893:A2 0.000719865
11 *267:5 *847:A2 0.00226891
12 *267:5 *262:2 0.00138444
13 *267:6 *269 0.000912818047
14 *267:2 *542:Z 0.000924752031

*RES
1 *267:4 *267:5 1.86196
2 *267:2 *267:3 4.33975
3 *267 *267:7 3.23676
4 *267:6 *267:7 43.0271988
5 *267:2 *267:5 35.6726
6 *267:3 *267:6 1.53894
7 *851:A2 *267:4 0.225194
*END

*D_NET *268 0.0227914

*CONN
*P *268 I *C 0 217.4 *L 0.5
*I *853:A2 I *C 63.7 145.2 *L 0.000585 *D CKAN2D0

*CAP
1 *853:A2 0.000985288
2 *268 2.63677e-05
3 *268:2 0.000241639
4 *268:3 0.00318821
5 *268:4 0.000357959
6 *268:5 0.00031111
7 *268:3 *265:2 0.00122156
8 *268:2 *269:3 0.00317382
9 *268:3 *270:3 0.00712908
10 *268:2 *273:3 0.00177855
11 *268:3 *276 0.00134323
12 *268:3 *277:3 0.000400576992
13 *268:2 *15:2 0.000313465
14 *853:A2 *274:3 0.00232049984

*RES
1 *268:2 *268:3 40.4401
2 *268:4 *268:5 2.46436
3 *268:3 *268:4 51.2874985
4 *853:A2 *268:2 4.63134
5 *268 *268:5 0.449986
*END

*D_NET *269 0.017619

*CONN
*P *269 I *C 0 213.8 *L 0.5
*I *855:A2 I *C 68.1 145.2 *L 0.000585 *D CKAN2D0

*CAP
1 *269 0.000292859
2 *269:2 0.000414815
3 *269:3 0.000306147
4 *269:4 0.00112241
5 *269:5 0.00245995
6 *269:6 0.000138097
7 *269:7 0.000251607
8 *269:8 0.000661467
9 *269 *262:3 0.000919515
10 *269:3 *270:2 0.00382267
11 *269 *267:6 0.000912818047
12 *269:2 *274:3 0.00197721
13 *269:3 *268:2 0.00317382
14 *269:2 *276:6 0.000573838008
15 *269:4 *275:6 0.000591783984

*RES
1 *269:2 *269:3 4.38005
2 *269:7 *269:8 6.39459
3 *269:3 *269:5 34.6654
4 *269 *269:6 2.60694
5 *269:4 *269:8 1.94773
6 *269:4 *269:6 38.4015007
7 *269:5 *269:7 1.23227
8 *855:A2 *269:2 0.225009
*END

*D_NET *270 0.0219947

*CONN
*P *270 I *C 0 210.2 *L 0.5
*I *858:A2 I *C 65.9 145.2 *L 0.000585 *D CKAN2D0

*CAP
1 *858:A2 0.00099329
2 *270 0.000350512
3 *270:2 0.000321139
4 *270:3 0.00143949
5 *270:4 0.000206434
6 *270:5 0.00192305
7 *270:3 *272:4 0.00169415
8 *858:A2 *274:3 0.000893337031
9 *270:2 *282:3 0.000488733008
10 *270:3 *268:3 0.00712908
11 *270:2 *266:3 0.00143046
12 *270:4 *275:3 0.00130232
13 *270:2 *269:3 0.00382267

*RES
1 *270:2 *270:3 38.2009
2 *270:3 *270:5 2.48308
3 *858:A2 *270:2 4.52389
4 *270:4 *270:5 47.3606987
5 *270 *270:4 2.46429
*END

*D_NET *271 0.0180213

*CONN
*P *271 I *C 0 206.6 *L 0.5
*I *861:A2 I *C 72.5 145.2 *L 0.000585 *D CKAN2D0

*CAP
1 *271 0.000434309
2 *271:2 0.00203062
3 *271:3 0.000316546
4 *271:4 0.00285309
5 *271:6 0.000224817
6 *271:7 0.000149152
7 *271:2 *272 0.00402212
8 *271:2 *258:3 0.00127114
9 *271:3 *110:2 0.000693467969
10 *271:3 *17:3 0.000714588984
11 *271:2 *261:2 0.00126968
12 *271:4 *276:2 0.00319615
13 *271:2 *262:3 0.000845618047

*RES
1 *271:6 *271:7 3.12085
2 *271:4 *271:7 39.5070992
3 *271:2 *271:5 33.9611
4 *861:A2 *271:3 1.33648
5 *271:3 *271:6 5.81912
6 *271:2 *271:4 2.05686
7 *271 *271:5 3.2366
*END

*D_NET *272 0.0164546

*CONN
*P *272 I *C 0 203 *L 0.5
*I *864:A2 I *C 71.3 143.2 *L 0.000585 *D CKAN2D0

*CAP
1 *272 0.000365064
2 *272:2 0.00120176
3 *272:3 0.000381041
4 *272:4 0.000580837
5 *272:5 0.000208106
6 *272:6 0.00383528
7 *272:6 *273:5 0.00121027008
8 *272:2 *275:4 0.00187027
9 *272:3 *262:3 0.00108574
10 *272:4 *270:3 0.00169415
11 *272 *271:2 0.00402212

*RES
1 *272:4 *272:6 42.6066017
2 *272:2 *272:5 5.26146
3 *272 *272:3 2.73313
4 *272:3 *272:6 33.3924
5 *864:A2 *272:2 0.224943
6 *272:5 *272:4 0.224943
*END

*D_NET *273 0.0159052

*CONN
*P *273 I *C 0 199.4 *L 0.5
*I *867:A2 I *C 66.3 143.2 *L 0.000585 *D CKAN2D0

*CAP
1 *273 0.000158773
2 *273:2 0.00084391
3 *273:3 0.000159206
4 *273:5 7.94408e-05
5 *273:6 0.00200812
6 *273:7 0.0035416
7 *273:2 *274:3 0.00135504
8 *273:3 *282:3 0.000598565977
9 *273:3 *268:2 0.00177855
10 *273:4 *279 0.000699811016
11 *273:5 *272:6 0.00121027008
12 *273:6 *265:3 0.00347187

*RES
1 *273:6 *273:5 0.728691
2 *273:2 *273:3 6.22265
3 *273 *273:4 1.07958
4 *273:5 *273:7 17.9379
5 *273:3 *273:6 28.5159
6 *273:4 *273:7 30.4174995
7 *867:A2 *273:2 0.225105
*END

*D_NET *274 0.0158306

*CONN
*P *274 I *C 0 195.8 *L 0.5
*I *869:A2 I *C 70.1 145.2 *L 0.000585 *D CKAN2D0

*CAP
1 *274 0.000170392
2 *274:2 0.00066136
3 *274:3 0.000250319
4 *274:4 0.00145055
5 *274:5 0.000952542
6 *274:7 6.61778e-06
7 *274:8 0.00210532
8 *274 *254:2 0.000697799062
9 *274:4 *848:A2 0.00136813
10 *274:3 *853:A2 0.00232049984
11 *274:3 *269:2 0.00197721
12 *274:3 *858:A2 0.000893337031
13 *274:3 *273:2 0.00135504
14 *274:7 *277:2 0.00114527
15 *274:3 *236:2 0.000476226016

*RES
1 *274:2 *274:3 3.69319
2 *274:7 *274:8 29.4878998
3 *274:3 *274:4 15.1062
4 *274 *274:6 2.48102
5 *274:5 *274:8 0.905749
6 *274:5 *274:6 27.0703
7 *274:4 *274:7 1.23241
8 *869:A2 *274:2 0.224975
*END

*D_NET *275 0.0246175

*CONN
*P *275 I *C 0 192.2 *L 0.5
*I *870:A2 I *C 72.3 141.6 *L 0.000585 *D CKAN2D0

*CAP
1 *870:A2 0.000187099
2 *275 0.00031858
3 *275:2 0.000110258
4 *275:3 0.000148736
5 *275:4 0.00101878
6 *275:6 0.000215684
7 *275:7 0.0037693
8 *275:6 *269:4 0.000591783984
9 *275:3 *270:4 0.00130232
10 *275:4 *272:2 0.00187027
11 *275:2 *243:17 0.00695069
12 *275:3 *276 0.00477292
13 *275:2 *284:4 0.00336094

*RES
1 *275:6 *275:7 2.95794
2 *275:3 *275:5 30.9831
3 *275:4 *275:2 5.08363
4 *870:A2 *275:4 1.28942
5 *275:2 *275:7 52.7486992
6 *275:3 *275:6 0.367831
7 *275 *275:5 2.48145
*END

*D_NET *276 0.0174922

*CONN
*P *276 I *C 0 188.6 *L 0.5
*I *871:A2 I *C 68.3 143.2 *L 0.000585 *D CKAN2D0

*CAP
1 *276 0.000240443
2 *276:2 0.00274424
3 *276:3 0.000655753
4 *276:5 0.000189021
5 *276:6 0.000363972
6 *276:7 0.000316361
7 *276 *266:2 0.000664365
8 *276:6 *269:2 0.000573838008
9 *276:2 *271:4 0.00319615
10 *276 *275:3 0.00477292
11 *276:3 *277 0.000849853984
12 *276:2 *243 0.00158202
13 *276 *268:3 0.00134323

*RES
1 *276:2 *276:7 41.4244003
2 *276:6 *276:7 4.75771
3 *276:3 *276:4 28.5943
4 *871:A2 *276:5 0.450045
5 *276:3 *276:2 1.94809
6 *276 *276:4 2.35515
7 *276:5 *276:6 0.225023
*END

*D_NET *277 0.0121156

*CONN
*P *277 I *C 0 185 *L 0.5
*I *874:A2 I *C 77.3 145.2 *L 0.000585 *D CKAN2D0

*CAP
1 *277 0.000259496
2 *277:2 0.00318347
3 *277:3 0.00228028
4 *277:4 8.24831e-05
5 *277:5 0.000795102
6 *277:6 0.000174244
7 *277:8 0.000465364
8 *277:9 0.0012797
9 *277:10 9.11298e-05
10 *277:2 *265:2 0.000744233047
11 *277:2 *274:7 0.00114527
12 *277:3 *268:3 0.000400576992
13 *277 *276:3 0.000849853984
14 *277:4 *236:7 0.000364385977

*RES
1 *277:8 *277:10 1.60982
2 *277:2 *277:10 40.8919983
3 *277:4 *277:8 3.79494
4 *277:6 *277:9 4.04328
5 *277:3 *277:9 1.70467
6 *277:3 *277:7 20.2713
7 *277:5 *277:4 3.6246
8 *277:6 *277:2 1.23233
9 *277 *277:7 1.97734
10 *874:A2 *277:5 0.22525
*END

*D_NET *278 0.0178496

*CONN
*P *278 I *C 0 181.4 *L 0.5
*I *875:A2 I *C 81.1 143.2 *L 0.000585 *D CKAN2D0

*CAP
1 *278 3.22369e-05
2 *278:2 0.00507847969
3 *278:3 8.22972e-05
4 *278:4 0.000297494
5 *278:5 0.000362976
6 *278:6 0.00010136
7 *278 *280 0.00398713
8 *278:2 *287 0.00272102
9 *278:2 *282 0.000585481992
10 *278:2 *284 0.000524075977
11 *278 *266:2 0.00349751
12 *278:2 *283 0.000579514961

*RES
1 *278:5 *278:6 3.50345
2 *278:2 *278:4 26.5847
3 *278:3 *278:5 0.728379
4 *875:A2 *278:3 0.449949
5 *278 *278:4 0.129985
6 *278:2 *278:6 50.406601
*END

*D_NET *279 0.0151645

*CONN
*P *279 I *C 0 177.8 *L 0.5
*I *877:A2 I *C 82.9 145.2 *L 0.000585 *D CKAN2D0

*CAP
1 *279 0.000203688
2 *279:2 0.000202005
3 *279:3 0.000436742
4 *279:4 0.000375112
5 *279:5 5.85441e-05
6 *279:6 0.000991602
7 *279:8 0.000167776
8 *279:9 0.00612889
9 *279 *273:4 0.000699811016
10 *279:2 *17:6 0.00119293
11 *279:3 *283:6 0.0037804
12 *279:3 *254:6 0.000926945

*RES
1 *279:6 *279:8 3.12592
2 *279:4 *279:5 1.89555
3 *279:6 *279:7 15.7387
4 *279:2 *279:9 49.6511002
5 *279:3 *279:8 3.59413
6 *279 *279:7 1.72585
7 *877:A2 *279:4 0.225012
8 *279:5 *279:2 0.225012
9 *279:3 *279:9 0.225012
*END

*D_NET *280 0.0187687

*CONN
*P *280 I *C 0 174.2 *L 0.5
*I *878:A2 I *C 85.9 143.2 *L 0.000585 *D CKAN2D0

*CAP
1 *280 3.22396e-05
2 *280:2 0.000255442
3 *280:3 0.00405531969
4 *280:4 9.52955e-06
5 *280:5 0.00055983
6 *280:7 0.000494113
7 *280:8 7.21523e-05
8 *280:4 *281:4 0.00256504016
9 *280 *266:2 0.000655781953
10 *280:2 *283:2 0.00397426
11 *280 *278 0.00398713
12 *280:3 *837:A2 0.000994202031
13 *280:4 *264:2 0.00111374

*RES
1 *280:8 *280:3 54.1302986
2 *280:2 *280:6 16.4804
3 *280:4 *280:2 0.603779
4 *280 *280:6 0.970506
5 *280:4 *280:7 3.9927
6 *280:5 *280:8 3.12049
7 *878:A2 *280:5 0.45015
8 *280:7 *280:3 0.224662
*END

*D_NET *281 0.0186381

*CONN
*P *281 I *C 0 170.6 *L 0.5
*I *880:A2 I *C 105.3 141.6 *L 0.00104 *D AN2D2

*CAP
1 *880:A2 0.000557578
2 *281 5.89768e-05
3 *281:2 0.00737604
4 *281:3 0.000389877
5 *281:4 3.05014e-05
6 *281:6 0.000823199
7 *281:2 *258:2 0.00284584
8 *281 *283:2 0.00135692
9 *281:3 *377:4 0.000601295
10 *281:2 *15:3 0.0016078
11 *281:4 *280:4 0.00256504016
12 *281:2 *265:3 0.000425056992

*RES
1 *281:6 *281:7 17.0426
2 *281:2 *281:4 80.3067017
3 *281:2 *281:5 3.93716
4 *281:4 *281:6 0.843064
5 *281:3 *281:5 0.174004
6 *880:A2 *281:3 8.63772
7 *281 *281:7 0.844289
*END

*D_NET *282 0.0131973

*CONN
*P *282 I *C 0 167 *L 0.5
*I *881:A2 I *C 78.5 143.2 *L 0.000585 *D CKAN2D0

*CAP
1 *282 2.69013e-05
2 *282:2 0.000132236
3 *282:3 0.00450889
4 *282:4 0.00103154
5 *282:5 0.000343593
6 *282:6 0.000772019
7 *282:8 0.000103546
8 *282:3 *270:2 0.000488733008
9 *282:3 *273:3 0.000598565977
10 *282 *278:2 0.000585481992
11 *282:4 *284:2 0.000427183008
12 *282:2 *15:2 0.00166647
13 *282:2 *20:2 0.00251212

*RES
1 *282:6 *282:7 8.90562
2 *282:2 *282:4 5.38703
3 *282:2 *282:3 59.3550987
4 *282 *282:7 0.71821
5 *282:6 *282:8 1.56956
6 *282:5 *282:8 0.912027
7 *282:3 *282:5 0.450126
8 *881:A2 *282:4 0.22461
*END

*D_NET *283 0.0154509

*CONN
*P *283 I *C 0 163.4 *L 0.5
*I *883:A2 I *C 79.7 145.2 *L 0.000585 *D CKAN2D0

*CAP
1 *283 1.9013e-06
2 *283:2 0.00061917
3 *283:3 6.00266e-05
4 *283:5 0.000245647
5 *283:6 0.00356004
6 *283:7 0.000389494
7 *283:8 8.83831e-05
8 *283:6 *259:2 0.000795166016
9 *283 *278:2 0.000579514961
10 *283:6 *279:3 0.0037804
11 *283:2 *280:2 0.00397426
12 *283:2 *281 0.00135692

*RES
1 *283:7 *283:8 2.1129
2 *283:2 *283:4 8.6172
3 *883:A2 *283:5 0.45013
4 *283 *283:4 0.7181
5 *283:6 *283:8 49.3306007
6 *283:3 *283:6 3.91944
7 *283:2 *283:3 1.35792
8 *283:5 *283:7 0.225065
*END

*D_NET *284 0.0131696

*CONN
*P *284 I *C 0 159.8 *L 0.5
*I *884:A2 I *C 78.9 141.6 *L 0.000585 *D CKAN2D0

*CAP
1 *284 2.91069e-05
2 *284:2 0.000676176
3 *284:3 7.51759e-05
4 *284:4 0.00444644031
5 *284:5 0.000159376
6 *284:6 0.000308235
7 *284:7 0.000413061
8 *284:8 0.00019866
9 *284:4 *275:2 0.00336094
10 *284 *278:2 0.000524075977
11 *284:4 *287 0.00255124
12 *284:2 *282:4 0.000427183008

*RES
1 *284:6 *284:8 2.8687
2 *284:2 *284:3 2.86205
3 *284:4 *284:5 2.47291
4 *284:5 *284:7 2.4862
5 *284:4 *284:8 48.3919983
6 *284 *284:7 4.98275
7 *884:A2 *284:2 0.449688
8 *284:3 *284:6 0.225213
*END

*D_NET *285 0.0134247

*CONN
*P *285 I *C 0 156.2 *L 0.5
*I *886:A2 I *C 74.9 145.2 *L 0.000585 *D CKAN2D0

*CAP
1 *886:A2 0.000925767
2 *285 7.36708e-05
3 *285:2 0.00528808
4 *285:3 9.24718e-05
5 *285:4 0.000323571
6 *285:2 *869:Z 0.000464108008
7 *886:A2 *28:3 0.00416884
8 *285:2 *24:3 0.00208821016

*RES
1 *285:2 *285:3 66.5294037
2 *886:A2 *285:2 3.60077
3 *285 *285:4 2.62418
4 *285:3 *285:4 0.225365
*END

*D_NET *286 0.00256572

*CONN
*I *728:I I *C 5.7 145.2 *L 0.00105 *D DEL1
*P *286 I *C 0 152.6 *L 0.5

*CAP
1 *728:I 0.000398041
2 *286 9.58545e-05
3 *286:2 0.000242703
4 *286:3 0.000475555
5 *286:4 0.00135355

*RES
1 *286:2 *286:3 2.65744
2 *286:2 *286:4 4.80925989
3 *728:I *286:3 2.13025
4 *286 *286:4 0.963745
*END

*D_NET *287 0.0199374

*CONN
*I *746:I I *C 146.7 145.2 *L 0.00105 *D DEL1
*P *287 I *C 0 149 *L 0.5

*CAP
1 *746:I 0.000694155
2 *287 0.00362597
3 *287:2 5.36689e-05
4 *287:3 0.00120827
5 *287:4 4.53143e-05
6 *287:5 0.000179708
7 *287:6 3.08734e-05
8 *287:7 0.00060004
9 *287:8 5.52734e-05
10 *287:9 0.000663226
11 *287:10 3.71256e-05
12 *287:11 0.000661455
13 *287:12 0.000359692
14 *746:I *140:3 0.000458121016
15 *746:I *235:4 0.00302517
16 *287:2 *237:4 0.00199764
17 *287 *284:4 0.00255124
18 *287:3 *241:8 0.000969576016
19 *287 *278:2 0.00272102

*RES
1 *287:7 *287:8 0.092605
2 *287 *287:12 34.0952988
3 *287:2 *287:3 27.2711
4 *287:5 *287:6 0.092605
5 *287:4 *287:5 7.58737
6 *287:6 *287:7 12.9044
7 *287:10 *287:11 5.27797
8 *287:8 *287:9 6.07655
9 *287:9 *287:10 0.092605
10 *746:I *287:2 2.96336
11 *287:11 *287:12 0.728874
12 *287:3 *287:4 0.092605
*END

*D_NET *288 0.014725

*CONN
*I *743:I I *C 145.7 141.6 *L 0.00105 *D DEL1
*P *288 I *C 0 145.4 *L 0.5

*CAP
1 *743:I 0.000205761
2 *288 0.0010167
3 *288:2 0.000146341
4 *288:3 0.00933835
5 *288:4 0.000515116
6 *288:5 0.000105446
7 *288:6 1.65293e-05
8 *288:4 *223:7 0.000521163984
9 *288:2 *85:6 0.000302885
10 *288:3 *300:5 0.00140668
11 *288:3 *33:5 0.000670401016
12 *288:4 *132:2 0.000479425

*RES
1 *288:5 *288:6 0.0929985
2 *288:2 *288:3 28.8786
3 *288:4 *288:2 2.11744
4 *743:I *288:4 1.94005
5 *288:3 *288:5 56.4328995
6 *288 *288:6 6.78889
*END

*D_NET *289 0.00077568

*CONN
*I *733:I I *C 5.7 141.6 *L 0.00105 *D DEL1
*P *289 I *C 0 141.8 *L 0.5

*CAP
1 *733:I 0.000290474
2 *289 0.000485208984

*RES
1 *289 *733:I 4.68999
*END

*D_NET *290 0.0168203

*CONN
*I *745:I I *C 151.1 141.6 *L 0.00105 *D DEL1
*P *290 I *C 0 138.2 *L 0.5

*CAP
1 *745:I 0.000261081
2 *290 0.00014615
3 *290:2 0.00530047
4 *290:3 0.000308072
5 *290:4 0.00197606
6 *290:5 3.54254e-05
7 *290:6 0.000694193
8 *290:7 0.000351666
9 *290:8 0.000281058
10 *290:9 0.000152378
11 *290:10 0.000534051
12 *290:4 *294:3 0.00155675
13 *290 *295:2 0.000908305
14 *290:3 *325:2 0.00162706
15 *290:3 *408:2 0.00114944992
16 *290:2 *412:2 0.000486135
17 *290:2 *315:3 0.00105187

*RES
1 *290:8 *290:9 2.35865
2 *290:7 *290:8 5.5728
3 *290:3 *290:4 16.9869
4 *745:I *290:3 2.51744
5 *290 *290:2 0.617317
6 *290:9 *290:10 4.08571
7 *290:6 *290:7 2.30156
8 *290:5 *290:6 9.47652
9 *290:4 *290:5 0.0927759
10 *290:2 *290:10 58.4631004
*END

*D_NET *291 0.0188928

*CONN
*I *741:I I *C 153.1 139.6 *L 0.00105 *D DEL1
*P *291 I *C 0 134.6 *L 0.5

*CAP
1 *291 0.000107657
2 *291:2 0.000686564
3 *291:3 0.000278567
4 *291:4 0.000988112
5 *291:5 0.00255256016
6 *291:6 0.000629542
7 *291:7 0.000160784
8 *291:8 0.000434794
9 *291:9 0.000272335
10 *291:10 1.88516e-05
11 *291:11 0.000218507
12 *291:12 1.76052e-05
13 *291:13 0.000623816
14 *291:14 8.32352e-05
15 *291:15 0.00020616
16 *291:16 0.00019319
17 *291:17 0.00129725
18 *291:18 3.4003e-05
19 *291:14 *313:2 0.000716628047
20 *291:9 *432:4 0.00168223
21 *291:2 *56:4 0.00064558
22 *291:3 *130:6 0.000983031953
23 *291:9 *430:2 0.0015717
24 *291:2 *82:15 0.00110186008
25 *291:3 *435:3 0.000524565977
26 *291 *292 0.00140943
27 *291:4 *428:8 0.000476251992
28 *291:5 *317:4 0.000977995

*RES
1 *291:16 *291:17 9.47655
2 *291:2 *291:6 8.17355
3 *291:7 *291:8 3.60121
4 *291:17 *291:18 0.0925088
5 *291:4 *291:10 0.0925088
6 *291:10 *291:11 5.19584
7 *291:13 *291:14 1.47765
8 *291:14 *291:15 9.8777
9 *291:5 *291:18 27.1868
10 *741:I *291:2 3.16687
11 *291:12 *291:13 6.45487
12 *291:8 *291:9 1.60335
13 *291:3 *291:7 1.50088
14 *291:9 *291:4 21.1974
15 *291:15 *291:16 0.0925088
16 *291:11 *291:12 0.0925088
17 *291 *291:5 0.738826
18 *291:6 *291:3 3.59208
*END

*D_NET *292 0.0189268

*CONN
*I *737:I I *C 149.1 143.2 *L 0.00105 *D DEL1
*P *292 I *C 0 131 *L 0.5

*CAP
1 *737:I 0.000315664
2 *292 0.000673237
3 *292:2 0.000494736
4 *292:3 9.72252e-05
5 *292:4 0.000224741
6 *292:5 0.00169956
7 *292:6 0.000262163
8 *292:7 0.00119209
9 *292:8 0.000180213
10 *292:9 6.97874e-05
11 *292:10 0.00144567
12 *292:11 0.00162495
13 *292:12 0.0003125
14 *292 *291 0.00140943
15 *292 *295:2 0.00104271992
16 *292:10 *304:2 0.00121791992
17 *292 *310:2 0.000727657969
18 *292:8 *314:3 0.00172541
19 *292:2 *396:2 0.00130122992
20 *292:2 *403:4 0.00177282
21 *292:2 *435:3 0.000165193008
22 *292:3 *308:2 0.000971858984

*RES
1 *737:I *292:4 2.56476
2 *292:10 *292:12 1.20768
3 *292:9 *292:10 21.4303
4 *292:5 *292:6 0.0926891
5 *292:2 *292:5 23.1161
6 *292:6 *292:7 9.85394
7 *292:3 *292:8 3.30682
8 *292 *292:11 3.90276
9 *292:11 *292:12 35.7322006
10 *292:8 *292:9 0.0926891
11 *292:4 *292:2 1.86741
12 *292:7 *292:3 0.973781
*END

*D_NET *293 0.0145558

*CONN
*I *736:I I *C 150.1 145.2 *L 0.00105 *D DEL1
*P *293 I *C 0 127.4 *L 0.5

*CAP
1 *293 8.28081e-05
2 *293:2 0.00021395
3 *293:3 0.0113532
4 *293:4 0.00175647
5 *293:5 0.00114944

*RES
1 *293:4 *293:6 11.3314
2 *293:2 *293:5 3.4862
3 *293 *293:3 62.9919014
4 *736:I *293:2 0.674748
5 *293:3 *293:4 29.2737
6 *293:5 *293:6 0.224916
*END

*D_NET *294 0.0134565

*CONN
*I *735:I I *C 142.3 141.6 *L 0.00105 *D DEL1
*P *294 I *C 0 123.8 *L 0.5

*CAP
1 *735:I 0.000132666
2 *294 7.35805e-05
3 *294:2 0.00111423
4 *294:3 8.8075e-05
5 *294:4 0.000380458
6 *294:5 9.78611e-05
7 *294:6 0.000255085
8 *294:7 5.72395e-05
9 *294:8 0.000395599
10 *294:9 0.000202092
11 *294:10 0.000155378
12 *294:11 3.82212e-05
13 *294:12 0.00605031
14 *294:13 0.00129343
15 *294:2 *87:8 0.000765654063
16 *294:3 *290:4 0.00155675
17 *294:2 *144:3 0.000272812988
18 *294:3 *325:2 0.000527018008

*RES
1 *294:6 *294:7 0.0926016
2 *735:I *294:4 2.43371
3 *294:8 *294:9 1.85563
4 *294:12 *294:13 58.9197998
5 *294:2 *294:5 0.0926016
6 *294:3 *294:2 18.6273
7 *294:5 *294:6 2.55149
8 *294:10 *294:11 0.487282
9 *294:7 *294:8 5.57318
10 *294:11 *294:13 9.94703
11 *294 *294:12 0.460311
12 *294:9 *294:10 2.55149
13 *294:4 *294:3 0.224761
*END

*D_NET *295 0.0168243

*CONN
*I *734:I I *C 137.5 139.6 *L 0.00105 *D DEL1
*P *295 I *C 0 120.2 *L 0.5

*CAP
1 *295 5.6049e-05
2 *295:2 0.000420551
3 *295:3 0.000736818
4 *295:4 0.000196843
5 *295:5 0.000399914
6 *295:6 0.000100497
7 *295:7 0.00800255
8 *295:4 *77:3 0.00186802
9 *295:2 *290 0.000908305
10 *295:2 *244:4 0.00089221
11 *295:2 *292 0.00104271992
12 *295:2 *310:2 0.000809023984
13 *295:3 *408:15 0.000667388047
14 *295:4 *301:3 0.00072318

*RES
1 *295:4 *295:7 19.3284
2 *295:5 *295:3 5.13565
3 *295:6 *295:7 62.3624001
4 *295:3 *295:4 0.728906
5 *734:I *295:5 1.24942
6 *295:2 *295:6 11.4208
7 *295 *295:2 0.980122
*END

*D_NET *296 0.0105219

*CONN
*I *732:I I *C 129.5 141.6 *L 0.00105 *D DEL1
*P *296 I *C 0 116.6 *L 0.5

*CAP
1 *732:I 0.00017147
2 *296 0.000530654
3 *296:2 5.82396e-05
4 *296:3 8.12226e-05
5 *296:4 0.00788581
6 *296:5 0.00154864
7 *296:6 7.37621e-05
8 *732:I *433:6 0.000172139004

*RES
1 *296:4 *296:5 18.3196
2 *732:I *296:3 1.1287
3 *296 *296:2 2.58098
4 *296:5 *296:6 13.6028
5 *296:3 *296:6 0.449949
6 *296:2 *296:4 62.7401009
*END

*D_NET *297 0.0267484

*CONN
*I *729:I I *C 126.7 143.2 *L 0.00105 *D DEL1
*P *297 I *C 0 113 *L 0.5

*CAP
1 *729:I 7.93585e-05
2 *297 6.28871e-05
3 *297:2 0.000280089
4 *297:3 0.00247544
5 *297:4 0.000385482
6 *297:5 0.000218036
7 *297:6 0.000943459
8 *297:8 4.73266e-05
9 *297:9 0.000126685
10 *297:10 0.00248721
11 *297:11 0.000399069
12 *297:12 0.000422904
13 *297:13 0.00102843
14 *297:14 0.000348175
15 *297:3 *305:4 0.00172763
16 *297:2 *375:2 0.00680305
17 *297:3 *311:2 0.00360255
18 *297:4 *407:9 0.00192878
19 *297:3 *308:2 0.00166259
20 *297:4 *388:4 0.000396470977
21 *297:2 *303:4 0.00132272

*RES
1 *297:6 *297:7 0.115427
2 *297:11 *297:12 1.5918
3 *297:5 *297:6 6.99581
4 *297:8 *297:3 51.1123009
5 *297:7 *297:2 4.52193
6 *297:2 *297:8 0.131805
7 *297:10 *297:13 15.9313
8 *297:4 *297:12 2.6361
9 *297:3 *297:9 2.07457
10 *729:I *297:11 2.23133
11 *297:4 *297:5 3.19218
12 *297:13 *297:14 1.988
13 *297:9 *297:10 37.1191
14 *297 *297:14 0.224615
*END

*D_NET *298 0.0115191

*CONN
*I *731:I I *C 132.9 143.2 *L 0.00105 *D DEL1
*P *298 I *C 0 109.4 *L 0.5

*CAP
1 *731:I 0.000154701
2 *298 0.000750338
3 *298:2 7.00016e-05
4 *298:3 0.00816291063
5 *298:4 0.00042848
6 *298:5 0.0019527

*RES
1 *298:4 *298:5 17.5157
2 *298:3 *298:5 20.5769
3 *298 *298:2 4.19089
4 *731:I *298:4 1.52439
5 *298:2 *298:3 62.7924004
*END

*D_NET *299 0.0205879

*CONN
*I *575:I I *C 117.5 141.6 *L 0.00103 *D DEL01
*P *299 I *C 0 105.8 *L 0.5

*CAP
1 *575:I 6.11098e-06
2 *299 5.37152e-05
3 *299:2 0.000503333
4 *299:3 0.000513657
5 *299:4 0.00030594
6 *299:5 0.000118592
7 *299:6 0.00136719
8 *299:7 0.000235594
9 *299:8 0.000172977
10 *299:9 0.000331583
11 *299:10 0.000257722
12 *299:11 0.000323268
13 *299:12 0.000173144
14 *299:13 0.000264195
15 *299:14 0.000304321
16 *299:15 0.000408487
17 *299:16 0.000196109
18 *299:17 0.000522698
19 *299:18 0.000352205
20 *299:19 0.000116137
21 *299:20 0.00182869
22 *299:21 9.67153e-05
23 *299:22 0.000309232
24 *299:23 7.0653e-05
25 *299:24 0.000360994
26 *299:25 0.000537041
27 *299:26 0.000317576
28 *299:27 0.00037609
29 *299:28 0.000568712
30 *299:29 0.00112353
31 *299:30 0.000307726
32 *299:5 *305:2 0.00537714
33 *299:26 *309:3 0.00142584
34 *299:2 *434:5 0.000191609004
35 *299:2 *143:6 0.000463248008
36 *299:3 *316:3 0.0007061

*RES
1 *299:16 *299:17 4.57634
2 *299:9 *299:10 2.47329
3 *299:25 *299:26 2.4539
4 *299:18 *299:19 1.19771
5 *299:27 *299:28 2.4847
6 *299:14 *299:15 2.12045
7 *299:13 *299:14 2.03859
8 *299:10 *299:11 3.4913
9 *299:29 *299:30 1.60988
10 *299:24 *299:25 5.91297
11 *299:11 *299:12 1.50691
12 *299:4 *299:3 6.55133
13 *299:2 *299:28 2.69406
14 *299:5 *299:6 16.4254
15 *299:20 *299:21 0.888514
16 *575:I *299:27 1.46098
17 *299:22 *299:23 0.772993
18 *299:17 *299:18 3.09169
19 *299:15 *299:16 2.16438
20 *299:23 *299:24 2.93709
21 *299:21 *299:22 2.62789
22 *299:12 *299:13 3.13989
23 *299:6 *299:7 2.4345
24 *299:26 *299:29 18.6933002
25 *299:7 *299:8 2.00978
26 *299:19 *299:20 15.4972
27 *299:2 *299:4 2.66041
28 *299:8 *299:9 3.09169
29 *299:3 *299:5 2.5891
30 *299 *299:30 0.225052
*END

*D_NET *300 0.0146714

*CONN
*I *723:I I *C 124.3 145.2 *L 0.00103 *D DEL2
*P *300 I *C 0 102.2 *L 0.5

*CAP
1 *300 0.000737616
2 *300:2 0.00497423969
3 *300:3 0.000274386
4 *300:4 0.00295509
5 *300:5 0.000536855
6 *300:6 0.00153656
7 *300:7 0.000605926
8 *300:9 0.000339738
9 *300:10 0.000313931
10 *300:5 *288:3 0.00140668
11 *300:2 *110:2 0.00022316
12 *300:2 *17:3 0.000767273047

*RES
1 *300:5 *300:2 49.5700989
2 *300:9 *300:10 3.50204
3 *300:8 *300:10 0.159596
4 *300:2 *300:7 5.38921
5 *300:4 *300:6 28.573
6 *300:3 *300:5 0.810839
7 *723:I *300:3 1.30475
8 *300:7 *300:9 0.159596
9 *300:6 *300:8 15.62
10 *300 *300:4 4.06478
*END

*D_NET *301 0.0167689

*CONN
*I *730:I I *C 141.9 143.2 *L 0.00105 *D DEL1
*P *301 I *C 0 98.6 *L 0.5

*CAP
1 *730:I 0.000127561
2 *301 9.95561e-05
3 *301:2 0.000451293
4 *301:3 0.000821232
5 *301:4 5.27885e-05
6 *301:5 0.00917638
7 *301:6 0.00111724
8 *301:7 0.00277399
9 *301:3 *295:4 0.00072318
10 *301:3 *77:5 0.00107179
11 *730:I *343:3 0.000353864023

*RES
1 *301:5 *301:7 10.9895
2 *301 *301:4 0.361383
3 *301:6 *301:7 24.3318
4 *301:2 *301:3 3.7503
5 *730:I *301:2 3.6638
6 *301:4 *301:5 62.9882011
7 *301:3 *301:6 14.1602
*END

*D_NET *302 0.022769

*CONN
*I *744:I I *C 113.9 139.6 *L 0.00105 *D DEL1
*P *302 I *C 0 95 *L 0.5

*CAP
1 *302 0.000292732
2 *302:2 0.000745546
3 *302:3 0.000454335
4 *302:4 0.000464004
5 *302:5 0.000144818
6 *302:6 0.000167687
7 *302:7 0.00355988
8 *302:8 0.00248602
9 *302 *305:3 0.00466974031
10 *302:2 *143:8 0.000476596016
11 *302 *311:5 0.00204017
12 *302 *309:10 0.00606862
13 *302:2 *137:5 0.00101447
14 *302:3 *429:2 0.000184339004

*RES
1 *302:7 *302:8 25.2796
2 *302:6 *302:7 69.8243027
3 *302:3 *302:6 2.43452
4 *302:2 *302:4 7.07661
5 *302 *302:8 1.8187
6 *302:5 *302:3 6.24344
7 *302:4 *302:5 2.58901
8 *302:2 *302:9 3.01198
9 *744:I *302:9 0.449613
*END

*D_NET *303 0.0213671

*CONN
*I *742:I I *C 106.3 141.6 *L 0.00105 *D DEL1
*P *303 I *C 0 91.4 *L 0.5

*CAP
1 *303 0.000102052
2 *303:2 0.00235235
3 *303:3 0.000147183
4 *303:4 0.000196794
5 *303:5 0.00253841
6 *303:6 0.00276935
7 *303:4 *297:2 0.00132272
8 *303:2 *406:4 0.00146716
9 *303:5 *413:2 0.000310413984
10 *303:2 *375:2 0.00291119
11 *303 *311:6 0.00227271016
12 *303 *312:7 0.0049768

*RES
1 *303:5 *303:6 29.3091
2 *303:2 *303:3 2.07487
3 *303 *303:6 0.47671
4 *742:I *303:4 3.4108
5 *303:3 *303:5 39.0444
6 *303:2 *303:4 41.7112007
*END

*D_NET *304 0.0168532

*CONN
*P *304 I *C 0 87.8 *L 0.5
*I *850:A2 I *C 85.9 141.6 *L 0.00104 *D AN2XD1

*CAP
1 *304 0.000267286
2 *304:2 0.000711316
3 *304:3 0.000782683
4 *304:4 0.000900339
5 *304:5 0.00103769
6 *304:6 0.000202136
7 *304:7 0.000201979
8 *304:8 0.000151772
9 *304:9 0.00044633
10 *304:11 0.0002013
11 *304:12 0.000388285
12 *304:13 9.09064e-05
13 *304:14 0.000354169
14 *304:15 0.000618059
15 *304:16 0.000137822
16 *304:17 0.00342388
17 *304:9 *109:2 0.000218298008
18 *304:2 *292:10 0.00121791992
19 *304:3 *306:2 0.00128273
20 *304:4 *25:2 0.00231885
21 *304 *312:3 0.000772971953
22 *304:5 *412:6 0.000172380996
23 *304:4 *413:2 0.000954062969

*RES
1 *304:12 *304:13 0.847865
2 *304:6 *304:7 1.88851
3 *850:A2 *304:2 3.51663
4 *304:13 *304:14 4.81766
5 *304:11 *304:12 5.06937
6 *304:9 *304:4 8.56544
7 *304:2 *304:6 1.72953
8 *304:5 *304:11 1.98124
9 *304:7 *304:3 7.46176
10 *304:15 *304:17 29.9384003
11 *304 *304:16 2.09682
12 *304:4 *304:10 0.0927352
13 *304:16 *304:17 1.98764
14 *304:14 *304:15 0.486974
15 *304:3 *304:8 0.843753
16 *304:8 *304:9 2.67105
17 *304:10 *304:5 19.7576
*END

*D_NET *305 0.021669

*CONN
*P *305 I *C 0 84.2 *L 0.5
*I *845:A2 I *C 101.3 139.6 *L 0.00104 *D AN2XD1

*CAP
1 *305 5.265e-05
2 *305:2 0.00500786031
3 *305:3 0.00212457
4 *305:4 0.000322395
5 *305:5 4.10349e-05
6 *305:6 0.000292975
7 *305:8 0.000307571
8 *305:2 *308:3 0.000901348984
9 *305:2 *306:2 0.000641446992
10 *305:2 *299:5 0.00537714
11 *305:2 *429:2 0.000202737012
12 *305:3 *302 0.00466974031
13 *305:4 *297:3 0.00172763

*RES
1 *305:3 *305:6 17.8947
2 *305:4 *305:2 76.3904037
3 *305:2 *305:5 1.19243
4 *305:4 *305:7 3.06326
5 *305:5 *305:6 14.2999
6 *305:3 *305:8 1.8615
7 *305 *305:8 0.224966
8 *845:A2 *305:7 0.449931
*END

*D_NET *306 0.0163664

*CONN
*P *306 I *C 0 80.6 *L 0.5
*I *852:A2 I *C 73.5 139.6 *L 0.00104 *D AN2XD1

*CAP
1 *306 6.56284e-05
2 *306:2 0.000417348
3 *306:3 0.00247808
4 *306:4 0.000279772
5 *306:5 0.00398237
6 *306:2 *304:3 0.00128273
7 *306:2 *305:2 0.000641446992
8 *306:3 *310:2 0.0015147
9 *306:2 *317:4 0.00101838008
10 *306:2 *369:3 0.00152186
11 *306:2 *316:4 0.00316408

*RES
1 *306:2 *306:3 45.3734016
2 *306:4 *306:5 1.6097
3 *306:3 *306:5 34.8664
4 *852:A2 *306:2 3.28863
5 *306 *306:4 0.225012
*END

*D_NET *307 0.011428

*CONN
*P *307 I *C 0 77 *L 0.5
*I *842:A2 I *C 100.1 139.6 *L 0.00104 *D AN2XD1

*CAP
1 *307 0.000256957
2 *307:2 0.000212341
3 *307:3 0.000246305
4 *307:4 0.000302883
5 *307:5 0.000322877
6 *307:6 0.000518979
7 *307:7 0.00572195
8 *307:8 0.00333285
9 *307 *244:3 0.000512758008

*RES
1 *307:6 *307:8 31.5478
2 *307:4 *307:5 2.44558
3 *307:3 *307:7 2.30803
4 *307:7 *307:8 62.1697998
5 *842:A2 *307:2 0.449653
6 *307 *307:5 2.10692
7 *307:3 *307:4 2.58598
8 *307:2 *307:6 1.07955
*END

*D_NET *308 0.0199947

*CONN
*P *308 I *C 0 73.4 *L 0.5
*I *854:A2 I *C 96.9 139.6 *L 0.00104 *D AN2XD1

*CAP
1 *308 0.000381985
2 *308:2 0.000424252
3 *308:3 0.00247511
4 *308:4 0.00294996
5 *308:5 0.00043492
6 *308:6 4.10073e-05
7 *308:7 0.00073471
8 *308:8 0.000114289
9 *308:2 *292:3 0.000971858984
10 *308:2 *297:3 0.00166259
11 *308:3 *305:2 0.000901348984
12 *308 *310:3 0.00298156
13 *308:3 *314:2 0.00338152
14 *308 *317:3 0.00253956016

*RES
1 *308:2 *308:5 11.6991
2 *308:7 *308:8 0.0925852
3 *308:6 *308:7 7.54755
4 *308:3 *308:4 39.5339
5 *854:A2 *308:2 2.11341
6 *308:5 *308:6 0.0925852
7 *308:3 *308:8 40.4510994
8 *308 *308:4 2.69978
*END

*D_NET *309 0.0242269

*CONN
*P *309 I *C 0 69.8 *L 0.5
*I *856:A2 I *C 90.9 139.6 *L 0.00104 *D AN2XD1

*CAP
1 *309 0.00025164
2 *309:2 0.00019962
3 *309:3 0.00122841
4 *309:4 0.000586618
5 *309:5 0.000666908
6 *309:6 0.000221269
7 *309:7 0.000244494
8 *309:8 0.00344357
9 *309:9 7.55604e-05
10 *309:10 0.000773522
11 *309:11 1.734e-06
12 *309:13 0.00185622
13 *309:10 *302 0.00606862
14 *309 *311:8 0.00240428
15 *309:2 *112:2 0.0047785
16 *309:3 *299:26 0.00142584

*RES
1 *309:4 *309:5 5.73883
2 *309:6 *309:7 2.08667
3 *309:7 *309:2 2.39839
4 *309:9 *309:10 6.01023
5 *309:9 *309:3 0.159303
6 *309 *309:13 1.23214
7 *309:5 *309:6 1.76511
8 *309:11 *309:13 16.4534
9 *309:2 *309:8 64.4448013
10 *309:8 *309:3 19.723
11 *309:4 *309:12 2.49082
12 *309:10 *309:11 0.159303
13 *856:A2 *309:12 0.225187
*END

*D_NET *310 0.0183484

*CONN
*P *310 I *C 0 66.2 *L 0.5
*I *857:A2 I *C 66.3 139.6 *L 0.00104 *D AN2XD1

*CAP
1 *310 0.000278004
2 *310:2 0.0014966
3 *310:3 0.000226884
4 *310:4 0.000568071
5 *310:5 0.00418251
6 *310:6 0.000283812
7 *310:7 0.000377948
8 *310:2 *295:2 0.000809023984
9 *310:4 *317:4 0.00252493
10 *310:4 *369:4 0.000950926016
11 *310:2 *244:4 0.0014258
12 *310:3 *308 0.00298156
13 *310:2 *292 0.000727657969
14 *310:2 *306:3 0.0015147

*RES
1 *310:4 *310:2 42.2748985
2 *310:3 *310:7 3.93553
3 *310:3 *310:6 1.50042
4 *310:2 *310:5 36.0913
5 *857:A2 *310:4 2.36545
6 *310 *310:7 2.2674
7 *310:5 *310:6 2.40093
*END

*D_NET *311 0.0234482

*CONN
*P *311 I *C 0 62.6 *L 0.5
*I *859:A2 I *C 77.9 139.6 *L 0.00104 *D AN2XD1

*CAP
1 *311 9.36025e-05
2 *311:2 0.00284916
3 *311:3 0.000374584
4 *311:5 0.00224668
5 *311:6 0.000149729
6 *311:7 1.47816e-06
7 *311:8 0.00130231
8 *311:5 *244:4 0.000721243984
9 *311:2 *297:3 0.00360255
10 *311:5 *302 0.00204017
11 *311:6 *303 0.00227271016
12 *311:8 *309 0.00240428
13 *311 *312:3 0.000608715
14 *311:2 *112:2 0.00478096

*RES
1 *311:7 *311:8 17.2319
2 *311:6 *311:7 0.159296
3 *311:4 *311:6 2.74423
4 *311:2 *311:3 67.7895966
5 *311 *311:8 1.56606
6 *311:4 *311:5 0.159296
7 *311:2 *311:5 26.1441
8 *859:A2 *311:3 1.85362
*END

*D_NET *312 0.0187254

*CONN
*P *312 I *C 0 59 *L 0.5
*I *860:A2 I *C 75.5 139.6 *L 0.00104 *D AN2XD1

*CAP
1 *312 2.8172e-05
2 *312:2 0.000409323
3 *312:3 0.0019086
4 *312:4 0.00517157969
5 *312:6 9.46959e-06
6 *312:7 0.00263065
7 *312:7 *303 0.0049768
8 *312:3 *304 0.000772971953
9 *312:2 *375:4 0.0016949
10 *312:3 *311 0.000608715
11 *312:4 *244:4 0.000514217969

*RES
1 *312:2 *312:4 61.0875015
2 *312:6 *312:7 29.1791
3 *312:5 *312:3 20.3529
4 *312:4 *312:6 0.747561
5 *860:A2 *312:2 1.88848
6 *312:5 *312:7 0.159393
7 *312 *312:3 0.224641
*END

*D_NET *313 0.0127116

*CONN
*P *313 I *C 0 55.4 *L 0.5
*I *862:A2 I *C 81.9 139.6 *L 0.00104 *D AN2XD1

*CAP
1 *313 0.000215428
2 *313:2 0.000541473
3 *313:3 7.83376e-05
4 *313:4 0.000384435
5 *313:5 0.000219273
6 *313:6 6.83278e-05
7 *313:7 0.000394227
8 *313:8 0.000101404
9 *313:9 0.00393139
10 *313:10 0.00475357
11 *313:2 *291:14 0.000716628047
12 *313:3 *862:A1 0.000792928984
13 *313:2 *77:32 0.000514251992

*RES
1 *313:6 *313:7 8.59528
2 *313:2 *313:6 1.21564
3 *313:4 *313:5 2.44495
4 *313:3 *313:4 3.31435
5 *313 *313:9 1.59301
6 *313:9 *313:10 36.8633
7 *313:8 *313:10 49.7615013
8 *313:5 *313:2 2.61731
9 *313:7 *313:8 1.18603
10 *862:A2 *313:3 0.224753
*END

*D_NET *314 0.0195224

*CONN
*P *314 I *C 0 51.8 *L 0.5
*I *879:A2 I *C 84.7 139.6 *L 0.00104 *D AN2XD1

*CAP
1 *314 0.000484464
2 *314:2 0.00159954
3 *314:3 0.000509827
4 *314:4 0.0017984
5 *314:5 0.00541428
6 *314:2 *413:2 0.00183993
7 *314:2 *308:3 0.00338152
8 *314 *316:9 0.00276911
9 *314:3 *292:8 0.00172541

*RES
1 *314:3 *314:4 20.2151
2 *314 *314:5 3.24645
3 *314:2 *314:4 31.0262
4 *879:A2 *314:3 2.02728
5 *314:2 *314:5 53.9860992
*END

*D_NET *315 0.0135081

*CONN
*P *315 I *C 0 48.2 *L 0.5
*I *865:A2 I *C 87.9 139.6 *L 0.00104 *D AN2XD1

*CAP
1 *315 9.21053e-05
2 *315:2 0.00170607
3 *315:3 0.00015724
4 *315:4 5.72477e-05
5 *315:5 0.000186076
6 *315:6 0.000502847
7 *315:7 0.00202386
8 *315:8 0.00555812
9 *315:2 *252:2 0.000525641016
10 *315:3 *290:2 0.00105187
11 *315:7 *109:2 0.000200029004
12 *315:3 *154:2 0.000306998008
13 *315:2 *251:7 0.00113995

*RES
1 *315:7 *315:8 57.7216988
2 *315:2 *315:8 26.5392
3 *315:6 *315:7 24.066
4 *315:4 *315:5 5.02652
5 *865:A2 *315:3 0.45007
6 *315:5 *315:6 0.0924801
7 *315 *315:2 0.711657
8 *315:3 *315:4 0.224595
*END

*D_NET *316 0.0233543

*CONN
*P *316 I *C 0 44.6 *L 0.5
*I *866:A2 I *C 111.9 139.6 *L 0.00104 *D AN2XD1

*CAP
1 *866:A2 0.000226227
2 *316 0.000447386
3 *316:2 0.000100856
4 *316:3 0.000357805
5 *316:4 0.00677906
6 *316:5 0.000386562
7 *316:6 3.03085e-05
8 *316:7 7.5616e-05
9 *316:8 0.000764642
10 *316:9 0.00275
11 *316:3 *299:3 0.0007061
12 *316:4 *306:2 0.00316408
13 *316:9 *314 0.00276911
14 *316 *317:3 0.00354654
15 *316:3 *429:2 0.000903532031
16 *316:3 *434:4 0.000346425

*RES
1 *316:6 *316:7 2.92887
2 *316:4 *316:8 62.3810997
3 *316:7 *316:8 0.0923304
4 *316:3 *316:6 1.28501
5 *316:2 *316:5 0.619661
6 *316:2 *316:3 3.19635
7 *866:A2 *316:5 3.27154
8 *316 *316:9 2.86891
9 *316:4 *316:9 57.1335
*END

*D_NET *317 0.0269495

*CONN
*P *317 I *C 0 41 *L 0.5
*I *868:A2 I *C 108.1 139.6 *L 0.00104 *D AN2XD1

*CAP
1 *317 0.000407828
2 *317:2 0.000366519
3 *317:3 0.00344688
4 *317:4 0.00410175
5 *317:5 0.000323083
6 *317:6 0.000593341
7 *317:7 7.42302e-05
8 *317:4 *291:5 0.000977995
9 *317:4 *369:3 0.00599815
10 *317:2 *429:2 0.000859655938
11 *317:2 *435:7 0.000170646992
12 *317:3 *308 0.00253956016
13 *317:3 *316 0.00354654
14 *317:4 *306:2 0.00101838008
15 *317:4 *310:4 0.00252493

*RES
1 *317:4 *317:7 56.2502
2 *317:2 *317:5 2.81205
3 *317 *317:3 2.49146
4 *317:6 *317:7 0.0925137
5 *868:A2 *317:2 3.04837
6 *317:5 *317:6 15.7713
7 *317:4 *317:3 60.0294991
*END

*D_NET *318 0.0227974

*CONN
*P *318 I *C 324 5 *L 0.5
*I *873:A2 I *C 163.7 139.6 *L 0.000664 *D NR2D0

*CAP
1 *318 6.52266e-05
2 *318:2 0.000236702
3 *318:3 0.0019142
4 *318:4 0.0103002994
5 *318:5 2.38902e-05
6 *318:6 0.00012338
7 *318:7 0.00707386
8 *318:2 *325:7 0.00305976

*RES
1 *318:5 *318:7 60.2183
2 *318 *318:3 15.1444
3 *318:6 *318:7 25.2025
4 *318:4 *318:5 22.852
5 *873:A2 *318:2 0.816487
6 *318:3 *318:4 62.9520988
7 *318:2 *318:6 0.449548
*END

*D_NET *319 0.0206794

*CONN
*I *571:I I *C 206.7 141.6 *L 0.00103 *D DEL01
*P *319 I *C 324 48.2 *L 0.5

*CAP
1 *319 6.51741e-05
2 *319:2 0.000928826
3 *319:3 0.00203297
4 *319:4 0.000792046
5 *319:5 0.00031901
6 *319:6 0.00043659
7 *319:7 0.00169405
8 *319:8 3.17771e-05
9 *319:9 2.61077e-05
10 *319:10 0.000361411
11 *319:11 6.26014e-05
12 *319:12 0.000516486
13 *319:13 0.000147785
14 *319:14 0.00312221
15 *319:2 *331:5 0.00441519031
16 *319:3 *338:17 0.000719705
17 *319:4 *78:5 0.00112159
18 *319:3 *332 0.00230714984
19 *319:2 *334:3 0.000754715
20 *319:2 *130:8 0.00082399

*RES
1 *319:6 *319:7 18.3987
2 *319:10 *319:11 0.0926572
3 *319:3 *319:14 17.5742
4 *319:6 *319:14 38.6776009
5 *319:2 *319:13 3.13736
6 *319:5 *319:2 4.12826
7 *571:I *319:5 0.576009
8 *319:4 *319:9 0.0926572
9 *319:7 *319:8 0.0926572
10 *319:8 *319:4 15.7712
11 *319:11 *319:12 4.06216
12 *319:9 *319:10 3.35218
13 *319:12 *319:13 0.0926572
14 *319 *319:3 29.9383
*END

*D_NET *320 0.0250103

*CONN
*I *570:I I *C 209.5 145.2 *L 0.00103 *D DEL01
*P *320 I *C 324 44.6 *L 0.5

*CAP
1 *320 6.51947e-05
2 *320:2 0.00232208
3 *320:3 0.000104199
4 *320:4 0.000461713
5 *320:5 0.00186291
6 *320:6 0.00922793
7 *320:7 0.00496423
8 *320:3 *234:5 0.00428716
9 *320:2 *86:15 0.000338470977
10 *320:3 *48:3 0.00137651

*RES
1 *320:7 *320:2 62.7129
2 *320 *320:5 15.1444
3 *320:3 *320:2 26.1161
4 *320:6 *320:7 14.4163
5 *570:I *320:4 1.56862
6 *320:5 *320:6 62.9520988
7 *320:4 *320:3 0.449548
*END

*D_NET *321 0.0181796

*CONN
*P *321 I *C 324 41 *L 0.5
*I *829:A2 I *C 172.5 139.6 *L 0.000745 *D AO22D0

*CAP
1 *321 6.51505e-05
2 *321:2 0.000234215
3 *321:3 0.00103316
4 *321:4 0.00189113
5 *321:5 0.00891364938
6 *321:6 7.72557e-05
7 *321:7 0.00596501

*RES
1 *321:5 *321:7 11.8708
2 *321 *321:4 15.1444
3 *321:6 *321:7 62.3373
4 *829:A2 *321:2 0.576344
5 *321:4 *321:5 62.9520988
6 *321:3 *321:6 5.89023
7 *321:2 *321:3 0.224774
*END

*D_NET *322 0.0191944

*CONN
*P *322 I *C 324 37.4 *L 0.5
*I *822:A2 I *C 170.9 139.6 *L 0.000745 *D AO22D0

*CAP
1 *822:A2 0.000183595
2 *322 6.5215e-05
3 *322:2 0.000178126
4 *322:3 0.000666024
5 *322:4 0.00663644
6 *322:5 0.000163848
7 *322:6 0.000257417
8 *322:7 0.000213164
9 *322:8 0.000618024
10 *322:10 0.00081539
11 *322:11 0.000206177
12 *322:12 0.00135888
13 *322:13 0.00565913
14 *322:8 *86:2 0.000622994023
15 *322:3 *130:3 0.00155012

*RES
1 *322:10 *322:11 0.0928968
2 *322:5 *322:6 0.864222
3 *322:6 *322:7 2.01464
4 *822:A2 *322:2 1.34841
5 *322:11 *322:12 1.63648
6 *322:7 *322:8 2.77001
7 *322:4 *322:13 54.1748
8 *322:5 *322:13 61.4958
9 *322:8 *322:9 5.03613
10 *322:3 *322:12 10.7957
11 *322:9 *322:10 7.18214
12 *322:2 *322:3 2.99991
13 *322 *322:4 15.145
*END

*D_NET *323 0.0200325

*CONN
*P *323 I *C 324 33.8 *L 0.5
*I *827:A2 I *C 166.5 139.6 *L 0.000745 *D AO22D0

*CAP
1 *323 6.51433e-05
2 *323:2 0.00466818
3 *323:3 0.000256103
4 *323:4 0.00151267
5 *323:5 0.00697576
6 *323:6 5.21572e-05
7 *323:7 0.000115917
8 *323:6 *326:3 0.00373643
9 *323:2 *247:5 0.00265015

*RES
1 *323:6 *323:2 42.0327
2 *323 *323:4 15.1444
3 *323:7 *323:2 25.2025
4 *323:5 *323:6 21.0894
5 *827:A2 *323:3 0.449548
6 *323:4 *323:5 62.9520988
7 *323:3 *323:7 0.449548
*END

*D_NET *324 0.0192476

*CONN
*P *324 I *C 324 30.2 *L 0.5
*I *830:A2 I *C 168.1 139.6 *L 0.000745 *D AO22D0

*CAP
1 *324 6.51401e-05
2 *324:2 0.00020102
3 *324:3 0.00151262
4 *324:4 0.0074894
5 *324:5 1.40566e-05
6 *324:6 0.000137251
7 *324:7 0.00737203
8 *324:6 *248:2 0.00245593

*RES
1 *324:5 *324:7 44.3055
2 *324 *324:3 15.1444
3 *324:6 *324:7 25.2025
4 *324:4 *324:5 18.9483
5 *830:A2 *324:2 0.449548
6 *324:3 *324:4 62.9520988
7 *324:2 *324:6 1.77514
*END

*D_NET *325 0.0245821

*CONN
*I *569:I I *C 137.9 141.6 *L 0.00103 *D DEL01
*P *325 I *C 324 26.6 *L 0.5

*CAP
1 *325 5.75754e-05
2 *325:2 0.00236965
3 *325:3 0.000192984
4 *325:4 0.00151263
5 *325:5 0.00698741
6 *325:7 0.000122081
7 *325:8 0.000556562
8 *325:9 0.00416302
9 *325:9 *246:2 0.00151155
10 *325:2 *294:3 0.000527018008
11 *325:7 *318:2 0.00305976
12 *325:2 *326:2 0.00126470992
13 *325:2 *87:19 0.000629975039
14 *325:2 *290:3 0.00162706

*RES
1 *325:7 *325:8 1.19495
2 *325:2 *325:8 20.0933
3 *325 *325:4 15.1444
4 *325:7 *325:9 24.9499
5 *325:6 *325:9 46.5791
6 *325:5 *325:6 22.3477
7 *325:3 *325:2 1.48408
8 *569:I *325:3 0.449548
9 *325:4 *325:5 62.9520988
*END

*D_NET *326 0.0214835

*CONN
*P *326 I *C 324 23 *L 0.5
*I *828:A2 I *C 161.5 139.6 *L 0.000745 *D AO22D0

*CAP
1 *326 6.52091e-05
2 *326:2 0.000353962
3 *326:3 0.0053048
4 *326:4 0.000263786
5 *326:5 0.00151256
6 *326:6 0.00690384
7 *326:7 5.67814e-05
8 *326:8 2.42295e-05
9 *326:2 *325:2 0.00126470992
10 *326:2 *246:8 0.00199712
11 *326:3 *323:6 0.00373643

*RES
1 *326 *326:5 15.1444
2 *326:8 *326:3 25.0767
3 *326:8 *326:2 1.9855
4 *326:7 *326:3 48.8519
5 *326:6 *326:7 21.4669
6 *326:4 *326:2 1.96245
7 *828:A2 *326:4 0.449548
8 *326:5 *326:6 62.9520988
*END

*D_NET *327 0.0179062

*CONN
*P *327 I *C 324 19.4 *L 0.5
*I *826:A2 I *C 158.5 139.6 *L 0.000745 *D AO22D0

*CAP
1 *327 5.76358e-05
2 *327:2 0.000568215
3 *327:4 0.00151265
4 *327:5 0.00833811
5 *327:6 6.85777e-05
6 *327:7 4.27498e-05
7 *327:8 0.00610418
8 *327:2 *250:2 0.00121417

*RES
1 *327:6 *327:8 51.1255
2 *327:3 *327:2 2.15456
3 *327 *327:4 15.1444
4 *327:7 *327:8 23.8145
5 *327:5 *327:6 25.873
6 *327:4 *327:5 62.9520988
7 *826:A2 *327:3 0.224774
8 *327:2 *327:7 0.224774
*END

*D_NET *328 0.0112601

*CONN
*I *572:I I *C 288.7 143.2 *L 0.00103 *D DEL015
*P *328 I *C 324 15.8 *L 0.5

*CAP
1 *328 6.51288e-05
2 *328:2 0.000398223
3 *328:3 0.00290869
4 *328:4 1.30979e-05
5 *328:5 0.00787494

*RES
1 *572:I *328:2 1.8434
2 *328 *328:3 22.7614
3 *328:4 *328:5 27.3801
4 *328:3 *328:5 53.4790993
5 *328:2 *328:4 0.225223
*END

*D_NET *329 0.0126353

*CONN
*I *573:I I *C 279.7 139.6 *L 0.000968 *D CKBD1
*P *329 I *C 324 12.2 *L 0.5

*CAP
1 *573:I 2.43039e-05
2 *329 5.76014e-05
3 *329:2 6.24194e-05
4 *329:3 7.76227e-05
5 *329:4 0.00344195
6 *329:5 0.00701656
7 *329:2 *335:3 0.00195482

*RES
1 *329:4 *329:5 55.7557983
2 *573:I *329:3 0.450055
3 *329:2 *329:5 25.2329
4 *329 *329:4 27.9238
5 *329:3 *329:2 0.450055
*END

*D_NET *330 0.0220926

*CONN
*I *568:I I *C 216.1 141.6 *L 0.00103 *D DEL01
*P *330 I *C 324 8.6 *L 0.5

*CAP
1 *568:I 0.000452715
2 *330 6.52401e-05
3 *330:2 4.66914e-05
4 *330:3 0.000402953
5 *330:4 1.93162e-05
6 *330:5 0.00041242
7 *330:6 3.32597e-05
8 *330:7 0.000438004
9 *330:8 0.00151267
10 *330:9 0.00671052
11 *330:10 0.000965937
12 *330:11 2.87824e-05
13 *330:12 0.00838335063
14 *330:3 *192:4 0.000846068984
15 *568:I *128:3 0.00177477

*RES
1 *330:2 *330:3 5.70772
2 *330:5 *330:6 0.345806
3 *330:4 *330:5 7.25521
4 *330:6 *330:7 3.0114
5 *330:8 *330:9 62.9520988
6 *330 *330:8 15.1444
7 *568:I *330:2 2.46483
8 *330:11 *330:12 57.9446
9 *330:9 *330:11 8.87665
10 *330:10 *330:12 28.9872
11 *330:3 *330:4 0.109505
12 *330:7 *330:10 6.72881
*END

*D_NET *331 0.0211386

*CONN
*I *758:Z O *C 192.9 142 *L 0 *D BUFFD16
*P *331 O *C 324 77 *L 0.5

*CAP
1 *331 6.51493e-05
2 *331:2 0.000472236
3 *331:3 0.000135951
4 *331:4 0.000141795
5 *331:5 0.00061202
6 *331:6 0.00041638
7 *331:7 0.000217771
8 *331:8 0.0012593
9 *331:9 0.0001234
10 *331:10 0.000609912
11 *331:12 0.00627876
12 *331:5 *319:2 0.00441519031
13 *331:6 *337:2 0.000627915039
14 *331:6 *338:2 0.00342129
15 *331:6 *60:3 0.00041742
16 *331:6 *61:2 0.000210122012
17 *331:5 *80:2 0.00114549992
18 *331:2 *201:7 0.000568406992

*RES
1 *331:7 *331:8 0.218231
2 *331:6 *331:7 20.665
3 *331:2 *331:4 4.31457
4 *331:11 *331:12 29.6864
5 *331:9 *331:10 3.96249
6 *331:8 *331:9 14.4713
7 *331:6 *331:12 38.1385994
8 *331:5 *331:10 10.0625
9 *331:3 *331:4 1.01143
10 *331:3 *331:5 2.86901
11 *331 *331:11 0.225214
12 *758:Z *331:2 0.225214
*END

*D_NET *332 0.0174362

*CONN
*I *757:Z O *C 195.5 145.6 *L 0 *D BUFFD12
*P *332 O *C 324 73.4 *L 0.5

*CAP
1 *332 0.00395246
2 *332:2 0.00013417
3 *332:3 0.0048472
4 *332:4 8.3209e-05
5 *332:5 0.000125368
6 *332:6 0.00267408
7 *332:7 0.000139643
8 *332 *319:3 0.00230714984
9 *332 *333:2 0.00105178
10 *332:3 *132:3 0.00161505
11 *332:3 *192:2 0.000506198984

*RES
1 *332:6 *332:7 38.8947
2 *332:5 *332:7 0.159408
3 *332:3 *332:4 50.960701
4 *332 *332:6 31.4438
5 *332:4 *332:5 5.89186
6 *757:Z *332:2 0.45023
7 *332:2 *332:3 0.224726
*END

*D_NET *333 0.0197703

*CONN
*I *756:Z O *C 202.5 145.6 *L 0 *D BUFFD12
*P *333 O *C 324 69.8 *L 0.5

*CAP
1 *333 6.51719e-05
2 *333:2 0.00773739
3 *333:3 0.000284891
4 *333:4 0.000230463
5 *333:5 0.0023757
6 *333:6 0.000250298
7 *333:6 *334:2 0.00362389
8 *333:6 *335:3 0.00226719
9 *333:2 *332 0.00105178
10 *333:3 *193:3 0.000907596016
11 *333:3 *192:2 0.000975935

*RES
1 *333:5 *333:6 38.2546
2 *333:4 *333:5 4.66356
3 *333:7 *333:2 28.805
4 *333:3 *333:4 6.5097
5 *333:6 *333:2 48.6287003
6 *333 *333:7 0.224831
7 *756:Z *333:3 0.224831
*END

*D_NET *334 0.0201804

*CONN
*I *755:Z O *C 207.9 142.8 *L 0 *D BUFFD12
*P *334 O *C 324 66.2 *L 0.5

*CAP
1 *334 5.75909e-05
2 *334:2 6.67397e-05
3 *334:3 0.00101001
4 *334:4 0.00381601
5 *334:5 0.000469172
6 *334:6 0.000217109
7 *334:8 0.0038434
8 *334:3 *319:2 0.000754715
9 *334:4 *335:2 0.00149206
10 *334:4 *337:4 0.0014767
11 *334:3 *56:2 0.000607198008
12 *334:2 *338:17 0.00237767
13 *334:3 *477:9 0.000368169023
14 *334:2 *333:6 0.00362389

*RES
1 *334:2 *334:8 44.3381996
2 *334:3 *334:5 3.09656
3 *334:7 *334:8 29.057
4 *334:4 *334:6 41.8647
5 *334:4 *334:5 0.092687
6 *755:Z *334:3 5.14041
7 *334 *334:7 0.22529
8 *334:6 *334:2 0.22529
*END

*D_NET *335 0.0163025

*CONN
*I *754:Z O *C 227.9 139.2 *L 0 *D BUFFD16
*P *335 O *C 324 62.6 *L 0.5

*CAP
1 *335 6.58257e-05
2 *335:2 0.00244612
3 *335:3 0.00461872
4 *335:5 0.000554726
5 *335:6 0.000854676
6 *335:8 8.10487e-06
7 *335:3 *329:2 0.00195482
8 *335:2 *78:4 0.00024845
9 *335:2 *59:2 0.00149097
10 *335:2 *67:14 0.000300864004
11 *335:3 *333:6 0.00226719
12 *335:2 *334:4 0.00149206

*RES
1 *335:7 *335:3 22.1429
2 *335:4 *335:2 2.61753
3 *335 *335:6 6.7886
4 *335:8 *335:3 46.3628006
5 *335:2 *335:5 32.359
6 *335:6 *335:7 0.0926747
7 *754:Z *335:4 0.224966
8 *335:5 *335:8 0.224966
*END

*D_NET *336 0.00634652

*CONN
*I *753:Z O *C 318.3 139.2 *L 0 *D BUFFD12
*P *336 O *C 324 59 *L 0.5

*CAP
1 *336 5.75321e-05
2 *336:2 9.27063e-05
3 *336:3 6.55773e-05
4 *336:5 0.00613068

*RES
1 *336:4 *336:5 3.87627
2 *336:2 *336:3 0.701598
3 *753:Z *336:2 0.449862
4 *336:3 *336:5 50.9191017
5 *336 *336:4 0.22532
*END

*D_NET *337 0.015577

*CONN
*I *752:Z O *C 226.1 142 *L 0 *D BUFFD16
*P *337 O *C 324 55.4 *L 0.5

*CAP
1 *337 6.52125e-05
2 *337:2 0.00337447
3 *337:3 0.00088571
4 *337:4 0.000886931
5 *337:5 1.65829e-05
6 *337:6 0.000909719
7 *337:7 7.50808e-05
8 *337:9 5.59546e-06
9 *337:10 0.00666724
10 *337:2 *331:6 0.000627915039
11 *337:3 *68:4 0.00038021
12 *337:2 *61:6 0.000205801992
13 *337:4 *334:4 0.0014767

*RES
1 *337:9 *337:10 51.5480995
2 *337:8 *337:10 16.8442
3 *337:5 *337:6 6.45452
4 *337:3 *337:7 5.72381
5 *337:3 *337:5 0.0928143
6 *337:4 *337:2 33.314
7 *752:Z *337:4 2.86938
8 *337:6 *337:2 0.0928143
9 *337 *337:8 0.224957
10 *337:7 *337:9 0.224957
*END

*D_NET *338 0.0190687

*CONN
*I *751:Z O *C 222.5 142.8 *L 0 *D BUFFD16
*P *338 O *C 324 51.8 *L 0.5

*CAP
1 *338 3.52066e-05
2 *338:2 0.000677423
3 *338:3 0.00119095
4 *338:4 8.48079e-05
5 *338:5 3.05239e-05
6 *338:6 0.000862214
7 *338:8 4.69132e-05
8 *338:9 4.65663e-05
9 *338:10 0.000523502
10 *338:11 2.91365e-05
11 *338:12 0.000591054
12 *338:13 0.000248527
13 *338:14 1.81236e-05
14 *338:15 0.000188607
15 *338:17 0.00568291
16 *338:17 *319:3 0.000719705
17 *338:17 *334:2 0.00237767
18 *338:2 *61:3 0.00129621992
19 *338:3 *131:2 0.000303465996
20 *338:6 *482:9 0.000216636992
21 *338:3 *495:2 0.000477038008
22 *338:2 *331:6 0.00342129

*RES
1 *338:6 *338:7 0.0922522
2 *338:15 *338:17 54.9622002
3 *338:11 *338:12 8.97279
4 *338:2 *338:5 0.0922522
5 *338:4 *338:2 3.46365
6 *338:5 *338:6 6.83924
7 *338:9 *338:10 5.19548
8 *338:7 *338:8 3.05523
9 *338:8 *338:9 0.0922522
10 *338:12 *338:13 0.0922522
11 *338 *338:16 0.460422
12 *338:16 *338:17 29.4419
13 *338:13 *338:14 1.95826
14 *751:Z *338:3 3.12064
15 *338:3 *338:14 4.90027
16 *338:10 *338:11 0.0922522
17 *338:4 *338:15 1.33263
*END

*D_NET *339 0.00147621

*CONN
*I *649:I I *C 185.1 139.6 *L 0.00103 *D DEL015
*I *824:Z O *C 177.1 140.2 *L 0 *D AO22D0

*CAP
1 *649:I 0.000109216
2 *339:2 0.00116382
3 *339:3 0.00020316

*RES
1 *339:2 *339:3 5.05593014
2 *649:I *339:3 1.82963
3 *824:Z *339:2 0.224962
*END

*D_NET *340 0.00161167

*CONN
*I *648:I I *C 183.3 143.2 *L 0.00103 *D DEL015
*I *823:Z O *C 175.5 140.2 *L 0 *D AO22D0

*CAP
1 *823:Z 0.000432251
2 *340:2 0.000732869063
3 *340:3 0.000446543

*RES
1 *823:Z *340:3 2.64157
2 *340:2 *340:3 2.6773
3 *648:I *340:2 3.21667004
*END

*D_NET *341 0.00346707

*CONN
*I *639:I I *C 192.3 143.2 *L 0.00104 *D DEL0
*I *829:Z O *C 173.3 140.2 *L 0 *D AO22D0

*CAP
1 *341:2 0.000798952
2 *341:3 0.00145657
3 *341:4 0.000735186
4 *341:5 0.000476366

*RES
1 *341:2 *341:4 4.7791
2 *639:I *341:2 3.12272
3 *341:4 *341:5 2.51804
4 *341:3 *341:5 6.60695982
5 *829:Z *341:3 0.225017
*END

*D_NET *342 0.00391092

*CONN
*I *644:I I *C 153.9 143.2 *L 0.00104 *D DEL0
*I *822:Z O *C 171.7 140.2 *L 0 *D AO22D0

*CAP
1 *342:2 0.00124201
2 *342:3 0.000131753
3 *342:4 0.00122039
4 *342:5 0.000311038
5 *342:6 0.00100576

*RES
1 *644:I *342:2 3.02544
2 *342:5 *342:6 4.43264
3 *342:4 *342:5 1.20227
4 *342:3 *342:4 5.20147991
5 *342:2 *342:6 2.38311
6 *822:Z *342:3 0.225009
*END

*D_NET *343 0.0058901

*CONN
*I *615:I I *C 139.3 143.2 *L 0.00104 *D DEL0
*I *827:Z O *C 167.3 140.2 *L 0 *D AO22D0

*CAP
1 *827:Z 0.000485716
2 *343:2 0.000214416
3 *343:3 0.000704699
4 *343:4 0.000388765
5 *343:5 0.00100105
6 *343:6 0.000958677
7 *343:7 1.29685e-05
8 *343:3 *730:I 0.000353864023
9 *343:3 *197:76 0.000478591992
10 *343:3 *84:2 0.000819058984
11 *343:3 *481:10 0.000472293984

*RES
1 *343:2 *343:4 2.72782
2 *827:Z *343:2 2.1135
3 *343:6 *343:7 2.39223
4 *343:5 *343:6 4.9292
5 *343:4 *343:5 2.83552
6 *343:3 *343:7 9.41094971
7 *615:I *343:3 0.450041
*END

*D_NET *344 0.00423542

*CONN
*I *647:I I *C 154.7 141.6 *L 0.00104 *D DEL0
*I *830:Z O *C 168.9 140.2 *L 0 *D AO22D0

*CAP
1 *830:Z 0.000230712
2 *344:2 0.000206719
3 *344:3 0.00379797

*RES
1 *344:2 *344:3 13.8290997
2 *830:Z *344:2 1.58662
3 *344:3 *344:4 2.74299
4 *647:I *344:4 0.450096
*END

*D_NET *345 0.00249618

*CONN
*I *646:I I *C 157.7 145.2 *L 0.00103 *D DEL015
*I *825:Z O *C 165.3 140.2 *L 0 *D AO22D0

*CAP
1 *646:I 6.75222e-05
2 *825:Z 0.000690976
3 *345:2 6.23711e-05
4 *345:3 0.00140657
5 *345:4 0.000268737

*RES
1 *345:2 *345:4 1.28472
2 *646:I *345:3 0.728582
3 *345:3 *345:4 5.57808018
4 *825:Z *345:2 2.86896
*END

*D_NET *346 0.00211609

*CONN
*I *632:I I *C 153.9 145.2 *L 0.00104 *D DEL0
*I *828:Z O *C 160.7 140.2 *L 0 *D AO22D0

*CAP
1 *828:Z 0.000395273
2 *346:2 9.46269e-05
3 *346:3 5.6618e-05
4 *346:4 0.00156957

*RES
1 *346:2 *346:4 5.08502007
2 *346:3 *346:4 2.14703
3 *828:Z *346:2 1.60994
4 *632:I *346:3 0.225015
*END

*D_NET *347 0.00391976

*CONN
*I *625:I I *C 142.9 145.2 *L 0.00104 *D DEL0
*I *826:Z O *C 159.3 140.2 *L 0 *D AO22D0

*CAP
1 *625:I 0.000650705
2 *826:Z 0.000214569
3 *347:2 0.000311846
4 *347:3 0.000536794
5 *347:4 0.000406158
6 *347:5 0.000614724
7 *347:6 0.00118495

*RES
1 *347:5 *347:6 5.04622984
2 *347:4 *347:5 1.70723
3 *347:2 *347:3 2.64092
4 *826:Z *347:3 1.12296
5 *347:2 *347:4 3.51517
6 *625:I *347:6 2.97102
*END

*D_NET *348 0.000267914

*CONN
*I *631:I I *C 10.1 143.2 *L 0.00104 *D DEL0
*I *876:Z O *C 10.1 141.8 *L 0 *D CKAN2D0

*CAP
1 *631:I 0.000267914004

*RES
1 *876:Z *631:I 1.33472
*END

*D_NET *349 0.000362017

*CONN
*I *561:I I *C 14.1 145.2 *L 0.00103 *D DEL01
*I *863:Z O *C 13.1 143 *L 0 *D CKAN2D0

*CAP
1 *561:I 6.79058e-05
2 *863:Z 0.000294111992

*RES
1 *863:Z *561:I 2.2844
*END

*D_NET *350 0.000791436

*CONN
*I *630:I I *C 17.9 141.6 *L 0.00104 *D DEL0
*I *882:Z O *C 16.7 141.8 *L 0 *D CKAN2D0

*CAP
1 *882:Z 0.000131293
2 *350:2 0.000660141016

*RES
1 *882:Z *350:2 0.728602
2 *630:I *350:2 2.61929011
*END

*D_NET *351 0.00087696

*CONN
*I *565:I I *C 23.9 139.6 *L 0.00103 *D DEL01
*I *885:Z O *C 20.7 141.8 *L 0 *D CKAN2D0

*CAP
1 *565:I 0.00020712
2 *351:2 0.00066984

*RES
1 *565:I *351:2 2.74251008
2 *885:Z *351:2 1.20541
*END

*D_NET *352 0.000518631

*CONN
*I *628:I I *C 25.9 143.2 *L 0.00104 *D DEL0
*I *888:Z O *C 25.7 141.8 *L 0 *D CKAN2D0

*CAP
1 *628:I 0.000254636
2 *888:Z 0.000263994004

*RES
1 *888:Z *628:I 2.43148
*END

*D_NET *353 1.0685e-05

*CONN
*I *626:I I *C 30.3 141.6 *L 0.00104 *D DEL0
*I *890:Z O *C 30.1 141.8 *L 0 *D CKAN2D0

*CAP
1 *890:Z 1.0685e-05

*RES
1 *890:Z *626:I 0.156113
*END

*D_NET *354 0.00040276

*CONN
*I *629:I I *C 34.3 143.2 *L 0.00104 *D DEL0
*I *893:Z O *C 34.3 141.8 *L 0 *D CKAN2D0

*CAP
1 *629:I 0.00040276

*RES
1 *893:Z *629:I 1.78305
*END

*D_NET *355 0.000299207

*CONN
*I *627:I I *C 37.5 143.2 *L 0.00104 *D DEL0
*I *847:Z O *C 37.5 141.8 *L 0 *D CKAN2D0

*CAP
1 *627:I 0.000299206992

*RES
1 *847:Z *627:I 1.33133
*END

*D_NET *356 1.1317e-05

*CONN
*I *564:Z O *C 42.3 139.2 *L 0 *D DEL01
*I *645:I I *C 42.5 139.6 *L 0.00103 *D DEL015

*CAP
1 *564:Z 1.13169995e-05

*RES
1 *564:Z *645:I 0.162773
*END

*D_NET *357 0.001127

*CONN
*I *562:I I *C 49.9 141.6 *L 0.00103 *D DEL01
*I *837:Z O *C 46.7 143 *L 0 *D CKAN2D0

*CAP
1 *562:I 0.000296745
2 *357:2 0.000830259063

*RES
1 *562:I *357:2 3.27023005
2 *837:Z *357:2 1.06701
*END

*D_NET *358 0.0021405

*CONN
*I *559:Z O *C 41.1 145.6 *L 0 *D DEL01
*I *641:I I *C 50.3 143.2 *L 0.00103 *D DEL015

*CAP
1 *559:Z 0.00020648
2 *358:2 4.12198e-05
3 *358:3 0.00131388
4 *358:4 0.000578901

*RES
1 *358:2 *358:4 2.33001
2 *358:2 *358:3 7.48379993
3 *559:Z *358:3 0.953632
4 *641:I *358:4 0.450037
*END

*D_NET *359 0.00172236

*CONN
*I *563:I I *C 59.3 143.2 *L 0.00103 *D DEL01
*I *844:Z O *C 55.3 145.4 *L 0 *D CKAN2D0

*CAP
1 *844:Z 0.000331204
2 *359:2 6.50304e-05
3 *359:3 0.000663207031
4 *359:4 0.000662914

*RES
1 *359:2 *359:4 2.35774
2 *359:2 *359:3 3.34190989
3 *844:Z *359:3 1.24909
4 *563:I *359:4 0.224983
*END

*D_NET *360 0.00237212

*CONN
*I *560:Z O *C 69.1 139.2 *L 0 *D DEL01
*I *636:I I *C 60.5 141.6 *L 0.00103 *D DEL015

*CAP
1 *360:2 0.00133959
2 *360:3 9.86883e-05
3 *360:4 0.000933839

*RES
1 *360:2 *360:5 3.69038
2 *360:4 *360:5 0.252885
3 *360:3 *360:4 3.70099998
4 *636:I *360:2 1.86219
5 *560:Z *360:3 0.224988
*END

*D_NET *361 0.00284982

*CONN
*I *634:I I *C 51.9 139.6 *L 0.00103 *D DEL015
*I *851:Z O *C 62.1 145.4 *L 0 *D CKAN2D0

*CAP
1 *361:2 0.000824567
2 *361:3 0.00202526

*RES
1 *361:2 *361:3 7.36483002
2 *634:I *361:3 1.675
3 *851:Z *361:2 2.99028
*END

*D_NET *362 0.00375214

*CONN
*I *619:I I *C 46.1 141.6 *L 0.00103 *D DEL015
*I *853:Z O *C 64.3 145.4 *L 0 *D CKAN2D0

*CAP
1 *619:I 0.000275582
2 *362:2 0.000900946
3 *362:3 0.00257562

*RES
1 *362:2 *362:3 9.74411964
2 *619:I *362:3 4.02308
3 *853:Z *362:2 1.4171
*END

*D_NET *363 0.00156994

*CONN
*I *635:I I *C 70.7 139.6 *L 0.00103 *D DEL015
*I *855:Z O *C 68.7 145.4 *L 0 *D CKAN2D0

*CAP
1 *363:2 0.000923592969
2 *363:3 0.000579326
3 *363:4 6.70128e-05

*RES
1 *363:2 *363:4 1.95037
2 *855:Z *363:2 1.86175
3 *363:3 *363:4 2.17192006
4 *635:I *363:3 0.449987
*END

*D_NET *364 0.011726

*CONN
*I *544:Z O *C 27.9 145.6 *L 0 *D DEL01
*I *623:I I *C 96.9 143.2 *L 0.00103 *D DEL015

*CAP
1 *544:Z 0.000597698
2 *623:I 0.000354805
3 *364:2 8.87115e-05
4 *364:3 0.0026816
5 *364:4 0.00124744
6 *364:5 0.000394783
7 *364:6 1.70631e-05
8 *364:7 0.000101928
9 *364:8 7.05437e-05
10 *364:9 0.000113017
11 *364:10 0.000485295
12 *364:11 0.000178364
13 *364:12 9.28034e-05
14 *364:4 *223:6 0.000908988984
15 *623:I *373:4 0.00115296992
16 *364:2 *887:A2 0.000562277969
17 *364:3 *262:4 0.00103374008
18 *364:3 *766:Z 0.00128925
19 *544:Z *264:2 0.000354775

*RES
1 *364:7 *364:8 0.914694
2 *364:11 *364:12 2.60937
3 *364:6 *364:7 4.28521
4 *364:4 *364:3 22.8712006
5 *364:10 *364:2 2.08973
6 *364:8 *364:9 3.12553
7 *364:9 *364:10 4.42585
8 *364:5 *364:13 5.18769
9 *364:4 *364:12 3.4445
10 *364:3 *364:13 0.218466
11 *623:I *364:6 2.86099
12 *364:2 *364:11 0.934587
13 *544:Z *364:5 2.86902
*END

*D_NET *365 0.00207803

*CONN
*I *637:I I *C 78.7 139.6 *L 0.00103 *D DEL015
*I *861:Z O *C 73.1 145.4 *L 0 *D CKAN2D0

*CAP
1 *637:I 0.000294487
2 *861:Z 0.000489808
3 *365:2 0.000227834
4 *365:3 0.0010659

*RES
1 *861:Z *365:3 2.95997
2 *637:I *365:2 1.95907
3 *365:2 *365:3 4.11176014
*END

*D_NET *366 0.0125001

*CONN
*I *552:Z O *C 36.7 145.6 *L 0 *D DEL01
*I *633:I I *C 83.1 141.6 *L 0.00103 *D DEL015

*CAP
1 *633:I 0.000148307
2 *366:2 0.000101845
3 *366:3 0.000477201
4 *366:4 0.00337944
5 *366:5 0.000339981
6 *366:6 0.00029027
7 *366:7 0.000955381
8 *366:5 *847:A2 0.000395592969
9 *366:2 *19:3 0.00292
10 *633:I *369:2 0.000669806016
11 *633:I *378:2 0.0028223

*RES
1 *366:2 *366:4 4.84192
2 *366:2 *366:3 26.7352009
3 *633:I *366:6 3.80329
4 *366:6 *366:7 5.65904
5 *366:4 *366:7 10.2937
6 *366:3 *366:5 2.94986
7 *552:Z *366:5 0.225187
*END

*D_NET *367 0.00525653

*CONN
*I *614:I I *C 46.5 139.6 *L 0.00104 *D DEL0
*I *867:Z O *C 66.9 143 *L 0 *D CKAN2D0

*CAP
1 *614:I 0.000488077
2 *867:Z 0.00022929
3 *367:2 0.000293182
4 *367:3 0.00071808
5 *614:I *412:3 0.000381428008
6 *367:2 *484:11 0.00132742
7 *614:I *789:A2 0.00181905

*RES
1 *367:2 *367:3 15.4685001
2 *614:I *367:3 3.55273
3 *867:Z *367:2 2.53568
*END

*D_NET *368 0.0135959

*CONN
*I *548:Z O *C 32.3 145.6 *L 0 *D DEL01
*I *624:I I *C 95.3 145.2 *L 0.00103 *D DEL015

*CAP
1 *548:Z 0.000260814
2 *624:I 0.000277619
3 *368:2 0.00195969
4 *368:3 8.65989e-05
5 *368:4 4.88614e-05
6 *368:5 0.000641628
7 *368:6 0.000173766
8 *368:7 0.000504852
9 *368:8 2.69725e-05
10 *368:9 0.000374744
11 *368:10 2.87965e-05
12 *624:I *239:2 0.00178909
13 *624:I *33:2 0.00128980008
14 *548:Z *377:3 0.00135776
15 *548:Z *379:4 0.00458299031
16 *368:2 *110:2 0.000191892988

*RES
1 *368:8 *368:9 4.48594
2 *368:7 *368:8 0.0925623
3 *368:6 *368:7 5.57309
4 *368:3 *368:2 39.6481018
5 *548:Z *368:2 1.62075
6 *368:9 *368:10 0.0925623
7 *368:4 *368:6 2.67523
8 *368:3 *368:5 0.544484
9 *368:5 *368:10 6.7268
10 *624:I *368:4 1.4574
*END

*D_NET *369 0.0180201

*CONN
*I *543:Z O *C 24.3 142.8 *L 0 *D BUFFD2
*I *622:I I *C 99.3 143.2 *L 0.00103 *D DEL015

*CAP
1 *369:2 0.000112786
2 *369:3 0.000811344
3 *369:4 0.00092384
4 *369:5 0.00127914
5 *369:6 0.000345034
6 *369:7 0.000875918
7 *369:8 0.000301792
8 *369:9 0.000180879
9 *369:10 1.88643e-06
10 *369:11 0.00237744
11 *369:12 0.000477084
12 *369:13 0.000228874
13 *369:2 *633:I 0.000669806016
14 *369:3 *306:2 0.00152186
15 *369:4 *310:4 0.000950926016
16 *369:5 *378:7 0.000963328984
17 *369:3 *317:4 0.00599815

*RES
1 *369:8 *369:9 1.63664
2 *369:11 *369:13 26.2759991
3 *369:9 *369:2 4.32654
4 *369:5 *369:8 2.25328
5 *369:3 *369:4 14.9017
6 *543:Z *369:7 2.9862
7 *622:I *369:6 1.33152
8 *369:6 *369:5 7.0802
9 *369:4 *369:13 0.476718
10 *369:3 *369:12 3.87629
11 *369:2 *369:10 0.0926171
12 *369:7 *369:11 4.44442
13 *369:10 *369:12 3.13735
*END

*D_NET *370 0.00798459

*CONN
*I *551:Z O *C 69.7 142.8 *L 0 *D CKBD0
*I *616:I I *C 109.7 141.6 *L 0.00103 *D DEL015

*CAP
1 *551:Z 6.10763e-05
2 *616:I 0.000522334
3 *370:2 0.00034525
4 *370:3 0.00185565
5 *370:4 0.000447638
6 *370:5 0.000833294
7 *370:6 0.000419294
8 *370:7 0.000821203
9 *370:5 *869:Z 0.00047887
10 *370:3 *140:3 0.000536816016
11 *370:3 *398:5 0.00109835008
12 *370:2 *378:3 0.000309394004
13 *370:3 *241:8 0.000255394004

*RES
1 *370:5 *370:7 4.08315
2 *370:2 *370:5 5.79906
3 *616:I *370:6 4.58941
4 *370:4 *370:2 3.05288
5 *370:3 *370:6 19.7252998
6 *370:3 *370:4 3.74906
7 *551:Z *370:7 0.875864
*END

*D_NET *371 0.00409414

*CONN
*I *621:I I *C 101.7 145.2 *L 0.00104 *D DEL0
*I *874:Z O *C 77.9 145.4 *L 0 *D CKAN2D0

*CAP
1 *371:2 0.000211356
2 *371:3 0.000338541
3 *371:4 0.0026469
4 *371:5 0.000394117
5 *371:6 0.000503248

*RES
1 *371:2 *371:3 2.17929
2 *371:4 *371:6 2.89563
3 *371:3 *371:4 16.1161995
4 *371:2 *371:5 2.11363
5 *874:Z *371:6 0.225011
6 *621:I *371:5 0.450022
*END

*D_NET *372 0.00540754

*CONN
*I *618:I I *C 110.5 143.2 *L 0.00104 *D DEL0
*I *875:Z O *C 81.7 143 *L 0 *D CKAN2D0

*CAP
1 *372:2 0.00219964
2 *372:3 8.0588e-05
3 *372:4 0.000617483
4 *372:5 0.000709383
5 *372:2 *671:I 0.000733992969
6 *372:2 *673:I 0.000810742031
7 *372:2 *481:14 0.000255703008

*RES
1 *372:3 *372:4 2.6252
2 *372:4 *372:5 2.10535
3 *372:2 *372:5 17.2061996
4 *875:Z *372:2 0.225002
5 *618:I *372:3 0.450003
*END

*D_NET *373 0.0133347

*CONN
*I *549:Z O *C 34.5 145.6 *L 0 *D DEL01
*I *676:I I *C 98.3 145.2 *L 0.00105 *D DEL1

*CAP
1 *676:I 4.45723e-05
2 *373:2 9.17939e-05
3 *373:3 2.41685e-06
4 *373:4 0.000147474
5 *373:5 0.0012384
6 *373:6 0.000868254
7 *373:7 0.00304593
8 *373:8 0.000357833
9 *373:9 0.000816478
10 *373:10 0.000164439
11 *373:11 4.09006e-06
12 *373:2 *379:4 0.00288024
13 *373:2 *30:2 0.0009083
14 *373:3 *239:9 0.00161149
15 *373:4 *623:I 0.00115296992

*RES
1 *373:9 *373:10 0.0924987
2 *373:3 *373:6 1.80287
3 *373:5 *373:8 1.60996
4 *373:2 *373:5 21.6946
5 *676:I *373:4 0.959717
6 *373:10 *373:11 1.51093
7 *373:6 *373:11 3.49569
8 *373:4 *373:9 6.07741
9 *373:2 *373:7 0.854496
10 *373:3 *373:7 22.5352993
11 *549:Z *373:8 0.224885
*END

*D_NET *374 0.0140393

*CONN
*I *545:Z O *C 28.9 142 *L 0 *D DEL01
*I *673:I I *C 102.5 143.2 *L 0.00105 *D DEL1

*CAP
1 *673:I 0.000236542
2 *374:2 0.000646136
3 *374:3 0.000493572
4 *374:5 0.00136882
5 *374:6 0.00221200984
6 *374:6 *208:4 0.000446468008
7 *374:6 *109:3 0.00105651
8 *374:6 *154:2 0.00415004
9 *673:I *372:2 0.000810742031
10 *374:2 *18:2 0.00261852

*RES
1 *374:5 *374:2 4.86367
2 *545:Z *374:6 1.17852
3 *673:I *374:3 2.06631
4 *374:4 *374:5 4.2575
5 *374:6 *374:2 42.6244011
6 *374:3 *374:4 2.65622
*END

*D_NET *375 0.0173054

*CONN
*I *558:I I *C 40.3 143.2 *L 0.00103 *D DEL01
*I *880:Z O *C 105.9 141.8 *L 0 *D AN2D2

*CAP
1 *880:Z 0.000288967
2 *375:2 0.000437817
3 *375:3 3.7888e-05
4 *375:4 3.07879e-06
5 *375:5 0.000572216
6 *375:6 0.00411773
7 *375:2 *297:2 0.00680305
8 *375:2 *303:2 0.00291119
9 *375:4 *312:2 0.0016949
10 *375:5 *28:2 0.000438635

*RES
1 *375:2 *375:3 0.776236
2 *375:4 *375:6 0.854714
3 *375:3 *375:6 50.9222984
4 *880:Z *375:2 6.07313
5 *375:5 *375:7 4.30465
6 *375:4 *375:5 12.4788
7 *558:I *375:7 0.225334
*END

*D_NET *376 0.0119065

*CONN
*I *541:Z O *C 23.5 142.8 *L 0 *D DEL01
*I *671:I I *C 90.1 143.2 *L 0.00105 *D DEL1

*CAP
1 *541:Z 0.000105472
2 *671:I 2.94477e-05
3 *376:2 3.94261e-05
4 *376:3 0.000481889
5 *376:4 2.34996e-05
6 *376:5 0.000286286
7 *376:6 2.47672e-05
8 *376:7 0.000518162
9 *376:8 0.000155527
10 *376:9 0.000678141
11 *376:10 0.000924189
12 *376:11 0.000270034
13 *376:12 0.000122991
14 *376:13 0.00213008
15 *376:5 *875:A1 0.00101973
16 *376:9 *234:3 0.00112452992
17 *671:I *372:2 0.000733992969
18 *376:9 *417:3 0.00306809
19 *376:9 *419:3 0.000170296992

*RES
1 *541:Z *376:10 0.450077
2 *376:6 *376:7 4.26836
3 *376:9 *376:11 0.980495
4 *376:4 *376:5 2.80332
5 *376:3 *376:4 0.0925729
6 *376:5 *376:6 0.218506
7 *376:2 *376:3 3.94477
8 *376:11 *376:13 18.2187996
9 *671:I *376:2 0.576009
10 *376:12 *376:13 0.350832
11 *376:7 *376:8 0.841496
12 *376:10 *376:12 8.97068
13 *376:8 *376:9 11.0965
*END

*D_NET *377 0.0121012

*CONN
*I *542:Z O *C 25.7 145.6 *L 0 *D DEL01
*I *672:I I *C 105.7 145.2 *L 0.00105 *D DEL1

*CAP
1 *542:Z 0.00029013
2 *672:I 2.0867e-05
3 *377:2 0.0020294
4 *377:3 0.00171734
5 *377:4 0.000476191
6 *377:5 0.00248188
7 *377:6 0.000256993
8 *377:7 8.02109e-05
9 *377:3 *890:A2 0.000561125977
10 *377:4 *281:3 0.000601295
11 *377:4 *398:2 0.000493941016
12 *542:Z *267:2 0.000924752031
13 *377:2 *110:2 0.000809436016
14 *377:3 *548:Z 0.00135776

*RES
1 *377:2 *377:7 11.3545
2 *672:I *377:4 0.328877
3 *377:3 *377:7 25.7199001
4 *377:5 *377:6 20.1934
5 *377:5 *377:2 2.25504
6 *377:4 *377:6 3.901
7 *542:Z *377:3 1.23231
*END

*D_NET *378 0.0139135

*CONN
*I *540:Z O *C 23.5 145.6 *L 0 *D DEL01
*I *669:I I *C 90.1 141.6 *L 0.00105 *D DEL1

*CAP
1 *378:2 0.00127759
2 *378:3 0.000182583
3 *378:4 0.00354851
4 *378:5 0.000598268
5 *378:6 0.000794279
6 *378:7 9.7735e-05
7 *378:8 0.000493602
8 *378:3 *19:3 0.000875546016
9 *378:4 *869:Z 0.0019503
10 *378:7 *369:5 0.000963328984
11 *378:3 *370:2 0.000309394004
12 *378:2 *633:I 0.0028223

*RES
1 *378:3 *378:5 2.40272
2 *378:3 *378:4 48.3168983
3 *378:7 *378:2 8.0796
4 *378:6 *378:2 1.1457
5 *378:5 *378:6 2.89742
6 *378:4 *378:8 2.65486
7 *540:Z *378:8 0.224863
8 *669:I *378:7 0.449727
*END

*D_NET *379 0.015183

*CONN
*I *547:Z O *C 30.1 145.6 *L 0 *D DEL01
*I *670:I I *C 109.1 145.2 *L 0.00105 *D DEL1

*CAP
1 *547:Z 0.000356633
2 *379:2 5.12756e-05
3 *379:3 0.000385993
4 *379:4 0.00455949031
5 *379:5 0.000340562
6 *379:3 *30:2 0.000362935
7 *379:2 *239:2 0.00166288
8 *379:4 *548:Z 0.00458299031
9 *379:4 *373:2 0.00288024

*RES
1 *379:2 *379:3 1.54595
2 *379:3 *379:4 72.6274033
3 *379:2 *379:5 2.33499
4 *547:Z *379:4 1.74653
5 *670:I *379:5 0.449932
*END

*D_NET *380 0.00475949

*CONN
*I *602:I I *C 42.3 143.2 *L 0.00105 *D DEL1
*I *887:Z O *C 76.7 143 *L 0 *D CKAN2D0

*CAP
1 *602:I 0.000441825
2 *380:2 8.39872e-05
3 *380:3 0.000804627
4 *380:4 0.000501544
5 *380:5 4.47456e-05
6 *380:6 0.000407929
7 *380:7 3.48162e-05
8 *380:8 0.000719324
9 *380:9 0.000421316
10 *380:10 0.00103949
11 *380:11 0.000259908

*RES
1 *380:10 *380:11 6.7177701
2 *380:7 *380:8 3.9651
3 *380:6 *380:7 0.092562
4 *380:5 *380:6 2.55135
5 *380:8 *380:9 0.092562
6 *380:4 *380:5 2.44792
7 *380:3 *380:4 0.092562
8 *380:2 *380:3 3.58388
9 *380:9 *380:10 2.26628
10 *602:I *380:11 3.05055
11 *887:Z *380:2 0.224999
*END

*D_NET *381 0.00229382

*CONN
*I *651:I I *C 162.9 145.2 *L 0.00105 *D DEL1
*I *872:Z O *C 146.5 145.4 *L 0 *D CKAN2D0

*CAP
1 *651:I 0.000413905
2 *872:Z 0.000217917
3 *381:2 0.000772206016
4 *381:3 4.85935e-05
5 *381:4 0.000708236
6 *381:5 0.000132949

*RES
1 *872:Z *381:2 0.70444
2 *381:4 *381:5 0.0925934
3 *381:3 *381:4 5.19538021
4 *651:I *381:3 2.84685
5 *381:2 *381:5 3.89289
*END

*D_NET *382 0.00265403

*CONN
*I *610:I I *C 136.1 145.2 *L 0.00105 *D DEL1
*I *889:Z O *C 146.3 143 *L 0 *D CKAN2D0

*CAP
1 *610:I 0.000724482
2 *889:Z 8.58723e-05
3 *382:2 0.0014833
4 *382:3 0.000238197
5 *382:4 0.000122177

*RES
1 *382:3 *382:4 1.51081
2 *889:Z *382:2 0.350874
3 *382:2 *382:3 6.15329981
4 *610:I *382:4 3.6861
*END

*D_NET *383 0.000811423

*CONN
*I *604:I I *C 113.7 145.2 *L 0.00105 *D DEL1
*I *891:Z O *C 113.7 141.8 *L 0 *D CKAN2D0

*CAP
1 *604:I 5.13804e-05
2 *891:Z 0.000128229
3 *383:2 0.000170364
4 *383:3 0.000461451992

*RES
1 *891:Z *383:3 0.831099
2 *383:2 *383:3 2.72852993
3 *604:I *383:2 0.953628
*END

*D_NET *384 0.00301036

*CONN
*I *611:I I *C 139.5 145.2 *L 0.00105 *D DEL1
*I *892:Z O *C 151.7 139.4 *L 0 *D CKAN2D0

*CAP
1 *611:I 0.00034339
2 *892:Z 0.0010361
3 *384:2 0.000121293
4 *384:3 0.000419879
5 *384:4 0.000720061
6 *384:5 0.000369651

*RES
1 *384:2 *384:4 3.98274
2 *892:Z *384:2 4.50574017
3 *384:4 *384:5 0.0926091
4 *384:3 *384:5 4.41162
5 *611:I *384:3 1.56872
*END

*D_NET *385 0.00377224

*CONN
*I *609:I I *C 132.7 145.2 *L 0.00105 *D DEL1
*I *894:Z O *C 150.3 139.4 *L 0 *D CKAN2D0

*CAP
1 *609:I 0.000148783
2 *894:Z 0.000172056
3 *385:2 0.000629063
4 *385:3 0.000309166
5 *385:4 0.000564046
6 *385:5 0.00121049
7 *385:6 7.87229e-05
8 *385:7 0.000659928

*RES
1 *385:5 *385:6 0.596228
2 *385:4 *385:5 5.59884977
3 *385:6 *385:7 2.26625
4 *385:3 *385:4 2.14493
5 *894:Z *385:2 1.8912
6 *609:I *385:7 2.29845
7 *385:2 *385:3 2.81224
*END

*D_NET *386 0.00480076

*CONN
*I *608:I I *C 120.5 139.6 *L 0.00105 *D DEL1
*I *895:Z O *C 147.3 139.4 *L 0 *D CKAN2D0

*CAP
1 *386:2 0.000692819
2 *386:3 9.00623e-05
3 *386:4 0.00118021
4 *386:5 0.000484078
5 *386:6 3.17496e-05
6 *386:7 0.00101251
7 *386:8 0.000426269
8 *386:9 3.50632e-05
9 *386:10 0.000848019

*RES
1 *386:9 *386:10 3.53017
2 *386:8 *386:9 2.14038
3 *386:7 *386:8 0.0925768
4 *386:6 *386:7 3.99618
5 *386:4 *386:5 0.0925768
6 *386:3 *386:4 4.66700983
7 *386:5 *386:6 2.51809
8 *386:2 *386:10 3.02755
9 *895:Z *386:3 0.225033
10 *608:I *386:2 0.449994
*END

*D_NET *387 0.00487711

*CONN
*I *607:I I *C 123.3 143.2 *L 0.00105 *D DEL1
*I *832:Z O *C 149.1 139.4 *L 0 *D CKAN2D0

*CAP
1 *607:I 0.00048061
2 *832:Z 0.000750873
3 *387:2 9.93047e-05
4 *387:3 0.00288089
5 *387:4 0.00066546

*RES
1 *387:2 *387:3 13.7293997
2 *832:Z *387:2 2.61511
3 *387:3 *387:4 2.63774
4 *607:I *387:4 2.70603
*END

*D_NET *388 0.00519791

*CONN
*I *606:I I *C 120.9 145.2 *L 0.00105 *D DEL1
*I *833:Z O *C 143.3 139.4 *L 0 *D CKAN2D0

*CAP
1 *388:2 0.000315861
2 *388:3 0.000778487031
3 *388:4 0.000757069
4 *388:5 0.000759718
5 *388:6 3.81196e-05
6 *388:4 *297:4 0.000396470977
7 *388:2 *396:4 0.000195685996
8 *388:2 *407:8 0.000785011016
9 *388:2 *410:14 0.00117148992

*RES
1 *388:2 *388:6 2.54683
2 *388:2 *388:3 12.2519999
3 *606:I *388:5 3.5816
4 *388:4 *388:5 7.06842
5 *388:3 *388:4 0.115722
6 *833:Z *388:6 0.225089
*END

*D_NET *389 0.00363996

*CONN
*I *605:I I *C 117.5 145.2 *L 0.00105 *D DEL1
*I *835:Z O *C 137.3 139.4 *L 0 *D CKAN2D0

*CAP
1 *605:I 7.20904e-05
2 *835:Z 0.000343128
3 *389:2 0.000636062
4 *389:3 5.06767e-05
5 *389:4 0.000615487
6 *389:5 0.000257803
7 *389:6 0.00166471

*RES
1 *605:I *389:4 0.728584
2 *389:5 *389:6 9.09842014
3 *389:2 *389:3 2.49951
4 *835:Z *389:2 1.18589
5 *389:4 *389:6 2.75024
6 *389:3 *389:5 1.36526
*END

*D_NET *390 0.00096355

*CONN
*I *581:I I *C 133.7 139.6 *L 0.00104 *D DEL0
*I *836:Z O *C 130.9 139.4 *L 0 *D CKAN2D0

*CAP
1 *836:Z 0.000102989
2 *390:2 9.72354e-05
3 *390:3 0.000763335

*RES
1 *390:2 *390:3 2.92042994
2 *836:Z *390:3 0.449989
3 *581:I *390:2 0.449989
*END

*D_NET *391 0.00223809

*CONN
*I *580:I I *C 136.3 143.2 *L 0.00104 *D DEL0
*I *838:Z O *C 127.3 139.4 *L 0 *D CKAN2D0

*CAP
1 *838:Z 0.000229295
2 *391:2 0.000685078
3 *391:3 0.00132372

*RES
1 *391:2 *391:3 6.22453022
2 *580:I *391:2 2.59682
3 *838:Z *391:3 0.82774
*END

*D_NET *392 0.00953528

*CONN
*I *579:I I *C 201.9 141.6 *L 0.00104 *D DEL0
*I *839:Z O *C 133.5 139.4 *L 0 *D CKAN2D0

*CAP
1 *839:Z 0.000493162
2 *392:2 0.000181967
3 *392:3 0.000955859
4 *392:4 0.000254033
5 *392:5 0.000642714
6 *392:6 1.48858e-05
7 *392:7 0.000694458
8 *392:8 0.000417458
9 *392:9 0.000344867
10 *392:10 0.0002704
11 *392:11 0.00122863992
12 *392:2 *238:5 0.00174765
13 *392:3 *5:3 0.000622169961
14 *392:4 *135:3 0.001667

*RES
1 *392:4 *392:11 3.1766
2 *579:I *392:9 0.674954
3 *839:Z *392:8 1.54309
4 *392:10 *392:11 14.2605
5 *392:3 *392:10 2.04931
6 *392:2 *392:3 17.2250004
7 *392:6 *392:7 3.1808
8 *392:5 *392:6 0.344311
9 *392:9 *392:2 2.25405
10 *392:7 *392:8 2.06008
11 *392:4 *392:5 2.46642
*END

*D_NET *393 0.0117237

*CONN
*I *526:I I *C 227.9 145.2 *L 0.00103 *D DEL015
*I *841:Z O *C 126.1 139.4 *L 0 *D CKAN2D0

*CAP
1 *393:2 5.10573e-05
2 *393:4 0.00045678
3 *393:5 0.00039818
4 *393:6 0.00034704
5 *393:7 0.00543188
6 *393:7 *249:3 0.000550573008
7 *393:2 *135:3 0.00308366
8 *393:2 *87:11 0.00140453

*RES
1 *393:2 *393:7 17.857
2 *393:4 *393:6 1.31215
3 *393:3 *393:5 2.86868
4 *393:6 *393:7 46.9651985
5 *841:Z *393:4 0.225022
6 *526:I *393:3 0.450045
7 *393:5 *393:2 0.225022
*END

*D_NET *394 0.0171268

*CONN
*I *843:Z O *C 124.9 139.4 *L 0 *D CKAN2D0
*I *767:D[17] I *C 243.055 134.265 *L 0.00183 *D sram00

*CAP
1 *394:2 0.000252227
2 *394:3 0.000394278
3 *394:4 5.50587e-05
4 *394:5 0.000511737
5 *394:6 1.41028e-06
6 *394:7 0.00093082
7 *394:8 5.60246e-05
8 *394:9 8.79007e-06
9 *394:10 0.000603308
10 *394:11 1.23447e-05
11 *394:13 0.000794352
12 *394:14 0.000107181
13 *394:15 0.00126606
14 *394:16 1.73097e-05
15 *394:17 7.37014e-05
16 *394:18 1.23254e-05
17 *394:19 0.000386782
18 *394:20 0.000688118
19 *394:21 0.000137086
20 *394:22 2.29315e-05
21 *394:23 0.000184688
22 *394:24 1.98984e-05
23 *394:25 2.54043e-05
24 *394:26 6.62636e-06
25 *394:27 0.00100726
26 *394:28 3.75172e-05
27 *394:17 *77:2 0.000811761953
28 *394:20 *197:75 0.000589221016
29 *394:13 *32:2 0.000305548008
30 *394:13 *46:2 0.000284478984
31 *394:6 *60:4 0.000533159023
32 *394:7 *403:3 0.000542092031
33 *394:7 *408:3 0.002023
34 *394:2 *12:3 0.00442426

*RES
1 *394:21 *394:22 0.092595
2 *394:8 *394:9 0.092595
3 *394:3 *394:4 3.42145
4 *394:27 *394:28 0.092598
5 *394:22 *394:23 3.18091
6 *394:18 *394:19 2.62011
7 *394:12 *394:13 21.7522
8 *394:7 *394:28 7.25607
9 *394:24 *394:25 0.914638
10 *394:23 *394:24 0.092595
11 *394:4 *394:7 0.980425
12 *394:5 *394:6 2.35126
13 *394:11 *394:2 1.8653
14 *394:9 *394:10 6.07671
15 *394:10 *394:11 0.092595
16 *394:13 *394:14 0.092595
17 *394:26 *394:27 11.7425
18 *394:25 *394:26 0.092595
19 *394:19 *394:20 4.25457
20 *394:17 *394:18 0.092595
21 *394:6 *394:8 0.619367
22 *843:Z *394:3 0.350904
23 *394:16 *394:17 3.81043
24 *394:15 *394:16 0.092595
25 *394:2 *394:12 0.092595
26 *394:20 *394:21 1.41825
27 *394:14 *394:15 12.3719
28 *394:28 *767:D[17] 0.0001
*END

*D_NET *395 0.0120057

*CONN
*I *603:I I *C 214.9 143.2 *L 0.00105 *D DEL1
*I *846:Z O *C 145.3 139.4 *L 0 *D CKAN2D0

*CAP
1 *395:2 0.000286395
2 *395:3 0.000690686
3 *395:4 0.000162292
4 *395:5 0.000299831
5 *395:6 0.000911717
6 *395:7 0.000507086
7 *395:8 0.000268001
8 *395:9 0.00248036
9 *395:10 0.000738109
10 *395:2 *407:2 0.00189076
11 *395:3 *506:2 0.000527517969
12 *395:4 *410:4 0.00324298

*RES
1 *395:9 *395:11 1.73606
2 *395:2 *395:7 3.40889
3 *395:6 *395:2 2.95832
4 *395:5 *395:4 2.4729
5 *395:3 *395:10 2.39623
6 *395:3 *395:5 1.47319
7 *603:I *395:10 3.13557
8 *395:8 *395:9 32.6282005
9 *395:7 *395:8 2.36537
10 *395:4 *395:6 10.0853
11 *846:Z *395:11 0.225036
*END

*D_NET *396 0.0138717

*CONN
*I *613:I I *C 217.9 139.6 *L 0.00105 *D DEL1
*I *831:Z O *C 113.7 139.2 *L 0 *D AN2XD1

*CAP
1 *831:Z 0.000683547
2 *396:2 0.00027964
3 *396:3 0.00200637
4 *396:4 0.00159447
5 *396:5 0.000562065
6 *396:6 2.72476e-05
7 *396:7 0.00028264
8 *396:8 8.29673e-05
9 *396:9 0.000871157
10 *396:3 *77:2 0.00066827
11 *396:5 *32:3 0.000264082988
12 *396:5 *46:2 0.00153571
13 *396:4 *56:3 0.00248157
14 *831:Z *435:7 0.000570366016
15 *396:2 *292:2 0.00130122992
16 *396:3 *246:4 0.000464676992
17 *396:4 *388:2 0.000195685996

*RES
1 *396:8 *396:9 11.4905
2 *396:4 *396:8 0.0925828
3 *396:2 *396:4 20.5844
4 *831:Z *396:9 2.6898
5 *396:7 *396:2 0.0925828
6 *396:6 *396:7 6.70634
7 *396:3 *396:6 0.0925828
8 *396:5 *396:3 26.7290993
9 *613:I *396:5 2.71508
*END

*D_NET *397 0.00193689

*CONN
*I *612:I I *C 113.9 141.6 *L 0.00105 *D DEL1
*I *849:Z O *C 106.9 139.2 *L 0 *D AN2XD1

*CAP
1 *849:Z 0.000419303
2 *397:2 9.46863e-05
3 *397:3 0.0014229

*RES
1 *397:2 *397:3 5.85616016
2 *849:Z *397:3 1.56877
3 *612:I *397:2 0.450006
*END

*D_NET *398 0.0127233

*CONN
*I *666:I I *C 169.7 145.2 *L 0.00105 *D DEL1
*I *850:Z O *C 86.5 142 *L 0 *D AN2XD1

*CAP
1 *850:Z 0.000193602
2 *398:2 0.00118304
3 *398:4 0.00119797
4 *398:5 0.000170807
5 *398:6 1.9596e-05
6 *398:7 0.000835883
7 *398:9 0.000621954
8 *398:11 7.22054e-06
9 *398:12 0.0010518
10 *398:13 0.000683465
11 *398:2 *377:4 0.000493941016
12 *398:3 *491:2 0.00217104
13 *398:4 *241:2 0.000674408984
14 *398:5 *370:3 0.00109835008
15 *398:3 *510:7 0.00159879
16 *398:4 *140:3 0.000721391953

*RES
1 *850:Z *398:12 0.874243
2 *398:9 *398:10 0.115822
3 *398:3 *398:4 25.2175999
4 *398:3 *398:13 2.98366
5 *398:7 *398:8 0.115822
6 *398:6 *398:7 14.5708
7 *398:8 *398:9 6.37751
8 *398:11 *398:2 15.1696
9 *398:10 *398:5 3.28534
10 *398:5 *398:11 0.115822
11 *398:2 *398:12 4.32312
12 *398:4 *398:6 0.115822
13 *666:I *398:13 0.44982
*END

*D_NET *399 1.0719e-05

*CONN
*I *668:I I *C 102.1 139.6 *L 0.00105 *D DEL1
*I *845:Z O *C 101.9 139.2 *L 0 *D AN2XD1

*CAP
1 *845:Z 1.07190002e-05

*RES
1 *845:Z *668:I 0.154595
*END

*D_NET *400 0.0035778

*CONN
*I *662:I I *C 91.7 139.6 *L 0.00105 *D DEL1
*I *852:Z O *C 74.1 139.2 *L 0 *D AN2XD1

*CAP
1 *400:2 0.000420916
2 *400:3 0.00315687

*RES
1 *400:2 *400:3 14.4912004
2 *852:Z *400:3 0.953683
3 *662:I *400:2 1.61527
*END

*D_NET *401 0.000327214

*CONN
*I *667:I I *C 100.5 141.6 *L 0.00105 *D DEL1
*I *842:Z O *C 100.7 139.2 *L 0 *D AN2XD1

*CAP
1 *667:I 0.000327214004

*RES
1 *842:Z *667:I 1.55633
*END

*D_NET *402 0.000367731

*CONN
*I *665:I I *C 97.1 141.6 *L 0.00105 *D DEL1
*I *854:Z O *C 97.5 139.2 *L 0 *D AN2XD1

*CAP
1 *854:Z 0.000367731016

*RES
1 *854:Z *665:I 1.69041
*END

*D_NET *403 0.013799

*CONN
*I *664:I I *C 196.5 139.6 *L 0.00105 *D DEL1
*I *856:Z O *C 91.5 139.2 *L 0 *D AN2XD1

*CAP
1 *403:2 0.00226235016
2 *403:3 0.000907909
3 *403:4 0.000242546
4 *403:5 0.000605572
5 *403:6 0.000254145
6 *403:7 4.03553e-05
7 *403:8 0.000281141
8 *403:9 0.00015217
9 *403:10 1.82963e-06
10 *403:11 0.000893168
11 *403:12 9.48989e-05
12 *403:13 0.00101247
13 *403:6 *32:2 0.000583178984
14 *403:6 *45:2 0.00167464
15 *403:7 *46:2 0.000541886992
16 *403:5 *406:3 0.000752215
17 *403:2 *825:B1 0.000433575
18 *403:3 *394:7 0.000542092031
19 *403:4 *292:2 0.00177282
20 *403:5 *408:5 0.000750028047

*RES
1 *403:8 *403:2 24.6651001
2 *403:11 *403:12 0.0925845
3 *403:6 *403:7 6.0895
4 *403:7 *403:8 0.0925845
5 *664:I *403:6 2.2623
6 *403:5 *403:13 4.48922
7 *403:2 *403:4 2.23294
8 *856:Z *403:5 1.17161
9 *403:12 *403:13 9.47598
10 *403:10 *403:11 10.1056
11 *403:9 *403:3 8.84671
12 *403:4 *403:9 2.51822
13 *403:3 *403:10 0.0925845
*END

*D_NET *404 0.00373488

*CONN
*I *655:I I *C 48.5 141.6 *L 0.00103 *D BUFFD2
*I *857:Z O *C 66.9 139.2 *L 0 *D AN2XD1

*CAP
1 *857:Z 0.000509144
2 *404:2 0.000727448
3 *404:3 0.000315084
4 *404:4 0.00181578
5 *404:5 0.000367423

*RES
1 *404:2 *404:5 2.57161
2 *404:4 *404:5 1.82596
3 *404:3 *404:4 8.59115982
4 *857:Z *404:3 2.71292
5 *655:I *404:2 0.224952
*END

*D_NET *405 0.00248296

*CONN
*I *660:I I *C 93.5 141.6 *L 0.00105 *D DEL1
*I *859:Z O *C 78.5 139.2 *L 0 *D AN2XD1

*CAP
1 *405:2 0.0012782
2 *405:3 0.000568388
3 *405:4 0.000590701
4 *405:5 4.56591e-05

*RES
1 *405:2 *405:5 5.97547007
2 *405:4 *405:5 0.0926373
3 *405:3 *405:4 3.30686
4 *660:I *405:3 2.60843
5 *859:Z *405:2 0.225028
*END

*D_NET *406 0.0200846

*CONN
*I *656:I I *C 203.3 139.6 *L 0.00105 *D DEL1
*I *860:Z O *C 76.1 139.2 *L 0 *D AN2XD1

*CAP
1 *406:2 0.000343789
2 *406:3 0.00338513
3 *406:4 0.00016902
4 *406:5 0.00418622031
5 *406:7 0.000975859
6 *406:8 2.07602e-05
7 *406:9 0.000687387
8 *406:10 0.000196296
9 *406:11 0.000261579
10 *406:12 0.000213543
11 *406:13 0.00120901
12 *406:2 *489:2 0.00541747
13 *406:2 *410:6 0.000799091016
14 *406:3 *403:5 0.000752215
15 *406:4 *303:2 0.00146716

*RES
1 *406:2 *406:5 43.5808983
2 *406:11 *406:12 2.16455
3 *406:4 *406:3 26.6941
4 *406:7 *406:8 0.115709
5 *406:6 *406:7 8.6961
6 *406:8 *406:9 6.64393
7 *406:13 *406:4 1.66181
8 *860:Z *406:3 1.20563
9 *656:I *406:2 1.93513
10 *406:10 *406:11 2.99113
11 *406:5 *406:6 0.115709
12 *406:12 *406:13 10.3406
13 *406:9 *406:10 2.43453
*END

*D_NET *407 0.0171612

*CONN
*I *659:I I *C 196.9 141.6 *L 0.00105 *D DEL1
*I *862:Z O *C 82.5 139.2 *L 0 *D AN2XD1

*CAP
1 *862:Z 7.74499e-05
2 *407:2 0.000750279
3 *407:3 0.000449961
4 *407:4 0.000440738
5 *407:5 0.0003755
6 *407:6 0.000212356
7 *407:7 2.05605e-05
8 *407:8 0.00296948
9 *407:9 6.73499e-05
10 *407:10 0.00337703
11 *407:9 *297:4 0.00192878
12 *407:8 *56:3 0.000403109023
13 *407:2 *124:2 0.000352351016
14 *407:7 *137:2 0.00279111
15 *407:8 *388:2 0.000785011016
16 *407:2 *395:2 0.00189076
17 *407:8 *435:3 0.00026935

*RES
1 *407:8 *407:9 2.58929
2 *407:6 *407:7 0.115797
3 *862:Z *407:10 2.71079
4 *407:9 *407:10 31.6423
5 *407:7 *407:8 41.4692001
6 *407:5 *407:6 5.91323
7 *407:3 *407:4 3.90356
8 *407:2 *407:3 2.89745
9 *407:4 *407:5 2.02803
10 *407:2 *407:11 3.37266
11 *659:I *407:11 0.449899
*END

*D_NET *408 0.0144482

*CONN
*I *658:I I *C 199.9 139.6 *L 0.00105 *D DEL1
*I *879:Z O *C 85.3 139.2 *L 0 *D AN2XD1

*CAP
1 *658:I 0.000251385
2 *408:2 0.00345233
3 *408:3 0.000126219
4 *408:4 7.20651e-05
5 *408:5 0.000400362
6 *408:6 0.000653485
7 *408:7 0.000311123
8 *408:8 0.000742618
9 *408:9 0.000360378
10 *408:10 0.000237214
11 *408:11 4.92024e-05
12 *408:12 0.00126219
13 *408:13 0.000548548
14 *408:14 3.04486e-05
15 *408:15 0.000348947
16 *408:16 3.84558e-06
17 *408:2 *250:3 0.000462291016
18 *408:15 *295:3 0.000667388047
19 *408:5 *865:A1 0.000545714023
20 *408:5 *403:5 0.000750028047
21 *408:2 *290:3 0.00114944992
22 *408:3 *394:7 0.002023

*RES
1 *408:7 *408:8 3.12848
2 *408:2 *408:14 0.0924942
3 *408:10 *408:13 1.48409
4 *408:6 *408:7 1.50669
5 *408:3 *408:16 11.7673
6 *408:4 *408:6 3.29338
7 *408:5 *408:12 2.47474
8 *408:11 *408:12 13.7691
9 *879:Z *408:5 0.354073
10 *408:14 *408:15 7.33592
11 *658:I *408:4 1.02204
12 *408:11 *408:3 0.479212
13 *408:8 *408:9 1.88839
14 *408:9 *408:10 2.66057
15 *408:15 *408:16 0.0924942
16 *408:13 *408:2 27.4284992
*END

*D_NET *409 0.00167063

*CONN
*I *657:I I *C 93.5 143.2 *L 0.00105 *D DEL1
*I *865:Z O *C 88.5 139.2 *L 0 *D AN2XD1

*CAP
1 *865:Z 0.000400307
2 *409:2 0.00077082
3 *409:3 0.000499507

*RES
1 *409:2 *409:3 2.79367
2 *657:I *409:2 2.8652401
3 *865:Z *409:3 1.66954
*END

*D_NET *410 0.017231

*CONN
*I *663:I I *C 211.5 143.2 *L 0.00105 *D DEL1
*I *866:Z O *C 112.5 139.2 *L 0 *D AN2XD1

*CAP
1 *663:I 0.000258916
2 *866:Z 6.96771e-05
3 *410:2 0.00092147
4 *410:3 0.000161368
5 *410:4 0.000402175
6 *410:5 1.34229e-06
7 *410:6 0.0004791
8 *410:8 0.000246981
9 *410:9 0.000228677
10 *410:10 0.000173082
11 *410:11 1.23003e-05
12 *410:12 1.27152e-05
13 *410:13 0.0015994
14 *410:14 0.000642493
15 *410:15 1.8548e-06
16 *410:16 0.000783702
17 *410:18 0.000281393
18 *410:19 0.00124557
19 *410:20 0.000315048
20 *663:I *570:Z 0.000420426016
21 *410:14 *388:2 0.00117148992
22 *410:4 *395:4 0.00324298
23 *410:6 *406:2 0.000799091016
24 *663:I *500:2 0.000398849023
25 *410:2 *489:2 0.0033609

*RES
1 *410:4 *410:5 0.115656
2 *410:18 *410:19 0.0384039
3 *410:9 *410:10 2.78262
4 *410:12 *410:13 12.3767
5 *410:15 *410:16 12.0087
6 *410:3 *410:4 4.83001
7 *410:14 *410:15 10.1471
8 *410:7 *410:8 3.43992
9 *866:Z *410:19 8.37583
10 *410:5 *410:6 4.67595
11 *410:6 *410:7 0.115656
12 *663:I *410:20 1.90843
13 *410:17 *410:18 4.8602
14 *410:3 *410:20 4.525
15 *410:16 *410:17 0.0384039
16 *410:13 *410:14 0.0384039
17 *410:2 *410:12 0.0384039
18 *410:10 *410:11 2.31889
19 *410:11 *410:2 14.5481997
20 *410:8 *410:9 0.115656
*END

*D_NET *411 0.0167542

*CONN
*I *661:I I *C 211.5 145.2 *L 0.00105 *D DEL1
*I *868:Z O *C 108.7 139.2 *L 0 *D AN2XD1

*CAP
1 *661:I 0.000339911
2 *868:Z 0.00037147
3 *411:2 0.00046932
4 *411:3 0.000247105
5 *411:4 5.01448e-05
6 *411:5 0.00266524
7 *411:6 0.000159788
8 *411:7 7.63356e-05
9 *411:8 0.000250724
10 *411:9 3.91235e-05
11 *411:10 9.38233e-05
12 *411:11 0.000466554
13 *411:12 9.76055e-06
14 *411:13 0.000247593
15 *411:14 8.13379e-06
16 *411:15 0.000223273
17 *411:16 3.41619e-05
18 *411:17 0.000644237
19 *411:6 *239:4 0.000763868984
20 *411:6 *235:3 0.00128624
21 *411:2 *243:4 0.00305026
22 *411:3 *81:5 0.000405351992
23 *411:4 *605:Z 0.00133617
24 *411:5 *121:4 0.00351561

*RES
1 *411:4 *411:17 6.45466
2 *411:16 *411:3 5.83952
3 *411:11 *411:12 0.0928035
4 *411:7 *411:8 2.35863
5 *411:7 *411:17 2.812
6 *411:2 *411:10 0.0928035
7 *411:5 *411:9 0.21857
8 *411:9 *411:2 9.09829
9 *411:12 *411:13 5.57683
10 *661:I *411:6 1.709
11 *411:3 *411:4 0.769305
12 *411:14 *411:15 4.81767
13 *411:10 *411:11 3.43271
14 *411:15 *411:16 0.769305
15 *411:13 *411:14 0.0928035
16 *868:Z *411:8 1.46102
17 *411:6 *411:5 33.2347984
*END

*D_NET *412 0.00548475

*CONN
*I *789:B1 I *C 50.3 139.6 *L 0.000663 *D AOI22D0
*I *767:Q[63] O *C 9.945 134.195 *L 0 *D sram00

*CAP
1 *789:B1 0.000122603
2 *412:2 0.000372878
3 *412:3 0.000127986
4 *412:4 8.90443e-05
5 *412:5 0.000288745
6 *412:6 0.00257524984
7 *412:7 0.000324976
8 *412:8 3.65451e-06
9 *412:9 1.96872e-05
10 *412:10 0.000519962
11 *412:6 *304:5 0.000172380996
12 *412:2 *290:2 0.000486135
13 *412:3 *614:I 0.000381428008

*RES
1 *412:9 *412:10 3.88642
2 *412:7 *412:10 3.51536
3 *412:4 *412:6 18.7673
4 *412:3 *412:2 3.38142
5 *412:7 *412:8 0.344431
6 *412:2 *412:4 0.472394
7 *789:B1 *412:3 0.476808
8 *412:5 *412:8 2.13033
9 *412:6 *412:9 0.225
10 *412:10 *767:Q[63] 0.0001
*END

*D_NET *413 0.00656277

*CONN
*I *799:B1 I *C 51.7 139.6 *L 0.000663 *D AOI22D0
*I *767:Q[62] O *C 12.535 134.195 *L 0 *D sram00

*CAP
1 *413:2 0.000430704
2 *413:3 0.00153754
3 *413:4 0.000273372
4 *413:6 9.57223e-06
5 *413:7 5.8583e-05
6 *413:8 0.000396473
7 *413:9 0.000222531
8 *413:2 *304:4 0.000954062969
9 *413:2 *314:2 0.00183993
10 *413:3 *25:3 0.000529618984
11 *413:2 *303:5 0.000310413984

*RES
1 *413:7 *413:9 1.12042
2 *413:6 *413:8 2.19855
3 *413:3 *413:5 0.09311
4 *413:2 *413:9 2.2441
5 *413:2 *413:3 24.2823
6 *413:4 *413:7 1.016
7 *413:5 *413:6 0.32782
8 *799:B1 *413:4 0.225
9 *413:9 *767:Q[62] 0.0001
*END

*D_NET *414 0.00479987

*CONN
*I *806:B1 I *C 56.9 139.6 *L 0.000663 *D AOI22D0
*I *767:Q[61] O *C 18.345 134.195 *L 0 *D sram00

*CAP
1 *414:2 0.00045055
2 *414:3 0.000272666
3 *414:4 0.000236324
4 *414:5 0.000508091
5 *414:6 2.00188e-05
6 *414:7 0.00019218
7 *414:8 0.00168196
8 *414:9 3.36982e-05
9 *414:10 0.000748804
10 *414:11 7.44287e-07
11 *414:12 0.000642576
12 *414:13 1.22166e-05

*RES
1 *414:7 *414:8 11.869
2 *414:2 *414:3 1.35814
3 *414:12 *414:13 0.092607
4 *414:5 *414:6 0.493475
5 *414:6 *414:7 0.218653
6 *414:3 *414:5 2.11356
7 *414:10 *414:11 0.092607
8 *414:8 *414:9 0.218519
9 *414:9 *414:10 6.07708
10 *806:B1 *414:2 1.48404
11 *414:4 *414:13 1.62668
12 *414:11 *414:12 3.68475
13 *414:13 *767:Q[61] 0.0001
*END

*D_NET *415 0.00483622

*CONN
*I *796:B1 I *C 54.3 139.6 *L 0.000663 *D AOI22D0
*I *767:Q[60] O *C 20.935 134.195 *L 0 *D sram00

*CAP
1 *415:3 3.60236e-05
2 *415:4 0.000440289
3 *415:5 0.00065033
4 *415:6 0.000505525
5 *415:7 8.19247e-05
6 *415:8 0.00211542016
7 *415:9 1.98195e-05
8 *415:10 0.00085724
9 *415:11 2.42094e-05
10 *415:12 8.23443e-05
11 *415:13 2.31119e-05

*RES
1 *415:11 *415:12 0.480696
2 *415:10 *415:11 0.092607
3 *415:9 *415:10 5.69934
4 *415:2 *415:4 1.69019
5 *415:12 *415:13 0.093079
6 *415:8 *415:9 0.092607
7 *415:6 *415:7 0.210889
8 *415:4 *415:5 1.98766
9 *415:3 *415:4 0.270695
10 *415:6 *415:13 3.64128
11 *415:5 *415:8 12.1353
12 *796:B1 *415:2 0.225
13 *415:13 *767:Q[60] 0.0001
*END

*D_NET *416 0.00483469

*CONN
*I *800:B1 I *C 59.1 139.6 *L 0.000663 *D AOI22D0
*I *767:Q[59] O *C 26.745 134.195 *L 0 *D sram00

*CAP
1 *416:3 0.000503386
2 *416:4 0.000561773
3 *416:5 0.000686436
4 *416:6 2.76291e-05
5 *416:7 0.0018143
6 *416:8 8.0008e-05
7 *416:9 5.46214e-05
8 *416:10 0.00023828
9 *416:11 2.40855e-06
10 *416:12 0.000865859

*RES
1 *416:10 *416:11 0.159389
2 *416:7 *416:10 1.7235
3 *416:2 *416:3 2.74308
4 *416:8 *416:12 5.5133
5 *416:8 *416:11 0.594531
6 *416:5 *416:9 5.26148
7 *416:3 *416:4 0.350904
8 *416:9 *416:12 1.48756
9 *416:5 *416:6 0.084985
10 *416:4 *416:7 10.2407
11 *800:B1 *416:2 0.225
12 *416:12 *767:Q[59] 0.0001
*END

*D_NET *417 0.00776455

*CONN
*I *778:B1 I *C 63.1 141.6 *L 0.000663 *D AOI22D0
*I *767:Q[58] O *C 29.335 134.195 *L 0 *D sram00

*CAP
1 *417:2 1.52462e-05
2 *417:3 4.8656e-05
3 *417:4 0.000285457
4 *417:5 6.12928e-05
5 *417:6 1.54222e-05
6 *417:7 0.000960732969
7 *417:8 4.98435e-06
8 *417:9 3.16066e-05
9 *417:10 6.77431e-05
10 *417:11 0.000883725
11 *417:12 1.02179e-05
12 *417:2 *16:4 0.00207585
13 *417:3 *376:9 0.00306809
14 *417:4 *238:2 0.000235503008

*RES
1 *417:11 *417:12 0.092607
2 *417:10 *417:11 21.9958
3 *417:9 *417:10 0.092605
4 *417:4 *417:5 1.10633
5 *417:8 *417:9 2.73347
6 *417:2 *417:8 0.092605
7 *417:3 *417:2 0.99712
8 *417:6 *417:12 0.493476
9 *417:6 *417:7 5.37296
10 *778:B1 *417:4 0.225
11 *417:5 *417:3 0.225
12 *417:12 *767:Q[58] 0.0001
*END

*D_NET *418 0.00463457

*CONN
*I *785:B1 I *C 69.3 139.6 *L 0.000663 *D AOI22D0
*I *767:Q[57] O *C 35.145 134.195 *L 0 *D sram00

*CAP
1 *418:2 6.22712e-05
2 *418:3 4.81394e-05
3 *418:4 0.000621342
4 *418:5 5.39162e-05
5 *418:6 2.1932e-05
6 *418:7 0.00213886
7 *418:8 0.000515598
8 *418:9 4.41904e-05
9 *418:10 3.93275e-05
10 *418:11 0.000108779
11 *418:12 0.000980217

*RES
1 *418:10 *418:11 0.159389
2 *418:7 *418:10 0.590262
3 *418:8 *418:12 6.89834
4 *418:8 *418:11 3.23857
5 *418:5 *418:9 0.476824
6 *418:3 *418:4 0.980425
7 *418:9 *418:12 1.10879
8 *418:5 *418:6 0.084985
9 *418:4 *418:7 14.7691
10 *785:B1 *418:2 0.225
11 *418:2 *418:3 0.225
12 *418:12 *767:Q[57] 0.0001
*END

*D_NET *419 0.00528692

*CONN
*I *795:B1 I *C 69.3 141.6 *L 0.000663 *D AOI22D0
*I *767:Q[56] O *C 37.735 134.195 *L 0 *D sram00

*CAP
1 *419:2 0.000126443
2 *419:3 0.000229145
3 *419:4 0.00188585
4 *419:5 2.89201e-05
5 *419:6 0.000628991
6 *419:2 *16:4 0.00166407
7 *419:3 *376:9 0.000170296992
8 *419:4 *33:4 0.000553219023

*RES
1 *419:2 *419:4 20.1871
2 *419:3 *419:2 1.60995
3 *419:6 *419:4 6.22748
4 *795:B1 *419:5 0.225
5 *419:5 *419:3 0.225
6 *419:4 *767:Q[56] 0.0001
*END

*D_NET *420 0.00165089

*CONN
*I *789:A1 I *C 49.3 139.6 *L 0.000665 *D AOI22D0
*I *767:Q[55] O *C 43.545 134.195 *L 0 *D sram00

*CAP
1 *420:2 0.000840565
2 *420:3 6.5901e-05
3 *420:4 0.000654688
4 *420:5 5.07533e-05
5 *420:6 3.89788e-05

*RES
1 *420:2 *420:3 0.619392
2 *420:4 *420:5 0.382698
3 *420:3 *420:4 2.99832
4 *789:A1 *420:2 3.47568011
5 *420:5 *420:6 0.194213
6 *420:6 *767:Q[55] 0.000106069
*END

*D_NET *421 0.00154901

*CONN
*I *799:A1 I *C 50.7 139.6 *L 0.000665 *D AOI22D0
*I *767:Q[54] O *C 46.135 134.195 *L 0 *D sram00

*CAP
1 *421:2 0.000116163
2 *421:3 0.000165618
3 *421:4 4.98127e-05
4 *421:5 0.000438992
5 *421:6 0.000651332031
6 *421:7 6.808e-05
7 *421:8 5.90159e-05

*RES
1 *421:2 *421:3 0.881886
2 *421:7 *421:8 0.194239
3 *421:6 *421:7 0.38897
4 *421:4 *421:5 2.0277
5 *421:3 *421:4 0.0926096
6 *421:5 *421:6 3.23005009
7 *799:A1 *421:2 0.224994
8 *421:8 *767:Q[54] 9.85733e-05
*END

*D_NET *422 0.00150578

*CONN
*I *806:A1 I *C 55.9 139.6 *L 0.000665 *D AOI22D0
*I *767:Q[53] O *C 51.945 134.195 *L 0 *D sram00

*CAP
1 *422:2 0.00092754
2 *422:3 0.000529194
3 *422:4 1.30352e-05
4 *422:5 3.60203e-05

*RES
1 *422:2 *422:5 3.37406
2 *422:2 *422:3 3.39092994
3 *422:3 *422:4 0.23946
4 *806:A1 *422:5 0.225024
5 *422:5 *767:Q[53] 0.000103483
*END

*D_NET *423 0.00104254

*CONN
*I *796:A1 I *C 55.3 139.6 *L 0.000665 *D AOI22D0
*I *767:Q[52] O *C 54.535 134.195 *L 0 *D sram00

*CAP
1 *423:2 0.00039521
2 *423:3 0.000196759
3 *423:4 0.000450576992

*RES
1 *423:2 *423:3 0.514882
2 *423:3 *423:4 1.83098996
3 *796:A1 *423:2 1.80869
4 *423:4 *767:Q[52] 0.000111755
*END

*D_NET *424 0.000880394

*CONN
*I *800:A1 I *C 60.1 139.6 *L 0.000665 *D AOI22D0
*I *767:Q[51] O *C 60.345 134.195 *L 0 *D sram00

*CAP
1 *800:A1 4.64321e-05
2 *424:2 0.000250466
3 *424:4 0.000583495039

*RES
1 *424:2 *424:3 1.20173
2 *800:A1 *424:4 2.3501699
3 *424:3 *424:4 0.159222
4 *424:4 *767:Q[51] 0.000107582
*END

*D_NET *425 0.00137772

*CONN
*I *778:A1 I *C 64.1 141.6 *L 0.000665 *D AOI22D0
*I *767:Q[50] O *C 62.935 134.195 *L 0 *D sram00

*CAP
1 *425:2 0.00121695992
2 *425:3 0.000112198
3 *425:4 3.44466e-05
4 *425:5 1.40943e-05

*RES
1 *425:2 *425:5 4.57446003
2 *425:2 *425:3 0.944264
3 *425:3 *425:4 0.243395
4 *778:A1 *425:5 0.224968
5 *425:5 *767:Q[50] 6.98007e-05
*END

*D_NET *426 0.00103396

*CONN
*I *785:A1 I *C 70.3 139.6 *L 0.000665 *D AOI22D0
*I *767:Q[49] O *C 68.745 134.195 *L 0 *D sram00

*CAP
1 *785:A1 3.602e-05
2 *426:2 0.000125049
3 *426:3 4.69469e-05
4 *426:4 0.000825951016

*RES
1 *426:2 *426:4 1.50188
2 *426:2 *426:3 0.23943
3 *785:A1 *426:4 3.81042004
4 *426:4 *767:Q[49] 0.000116285
*END

*D_NET *427 0.00134135

*CONN
*I *795:A1 I *C 70.3 141.6 *L 0.000665 *D AOI22D0
*I *767:Q[48] O *C 71.335 134.195 *L 0 *D sram00

*CAP
1 *427:2 0.000982556016
2 *427:3 0.000299827
3 *427:4 5.89669e-05

*RES
1 *427:2 *427:4 4.71662998
2 *427:3 *427:4 0.923232
3 *795:A1 *427:3 0.224978
4 *427:4 *767:Q[48] 7.19701e-05
*END

*D_NET *428 0.00599145

*CONN
*I *803:B1 I *C 119.1 139.6 *L 0.00099 *D AOI22D1
*I *767:Q[47] O *C 77.145 134.195 *L 0 *D sram00

*CAP
1 *428:2 7.31531e-05
2 *428:4 3.65766e-05
3 *428:5 0.000471354
4 *428:6 5.73048e-06
5 *428:7 0.000153626
6 *428:8 0.00146698
7 *428:9 3.34427e-05
8 *428:10 0.000409214
9 *428:11 8.19279e-06
10 *428:8 *291:4 0.000476251992
11 *428:5 *77:3 0.00134198
12 *428:5 *432:3 0.00123386
13 *428:2 *431:2 0.000281098984

*RES
1 *428:10 *428:11 0.092605
2 *428:9 *428:10 4.31429
3 *428:2 *428:3 0.183795
4 *428:8 *428:9 0.092605
5 *428:6 *428:7 1.46993
6 *428:4 *428:5 2.33028
7 *428:6 *428:11 0.619386
8 *428:5 *428:8 22.0238
9 *803:B1 *428:3 0.225
10 *428:3 *428:4 0.225
11 *428:11 *767:Q[47] 0.0001
*END

*D_NET *429 0.0056666

*CONN
*I *801:B1 I *C 116.1 143.2 *L 0.00099 *D AOI22D1
*I *767:Q[46] O *C 79.735 134.195 *L 0 *D sram00

*CAP
1 *801:B1 2.27745e-06
2 *429:2 0.000245678
3 *429:4 0.000501983
4 *429:5 0.000616943
5 *429:6 1.80555e-06
6 *429:7 0.00134462
7 *429:8 8.40811e-05
8 *429:9 0.000141305
9 *429:2 *302:3 0.000184339004
10 *429:2 *305:2 0.000202737012
11 *429:7 *430:2 0.000197022012
12 *429:2 *434:4 0.000190792988
13 *429:2 *435:7 0.000189872988
14 *429:2 *316:3 0.000903532031
15 *429:2 *317:2 0.000859655938

*RES
1 *429:3 *429:5 2.61838
2 *429:3 *429:4 0.159213
3 *429:8 *429:9 0.813602
4 *429:7 *429:8 0.235155
5 *429:2 *429:7 23.1563
6 *429:5 *429:6 0.159213
7 *801:B1 *429:4 1.80341
8 *429:6 *429:2 1.11058
9 *429:9 *767:Q[46] 0.0001
*END

*D_NET *430 0.00627975

*CONN
*I *777:B1 I *C 119.5 143.2 *L 0.00099 *D AOI22D1
*I *767:Q[45] O *C 85.545 134.195 *L 0 *D sram00

*CAP
1 *430:2 0.000212533
2 *430:4 0.000272594
3 *430:6 0.000121198
4 *430:7 2.8454e-05
5 *430:8 0.000237129
6 *430:9 0.000241729
7 *430:10 8.99805e-05
8 *430:11 6.64606e-05
9 *430:12 0.0012156
10 *430:6 *431:4 0.000298970996
11 *430:2 *291:9 0.0015717
12 *430:2 *130:49 0.00172638
13 *430:2 *429:7 0.000197022012

*RES
1 *430:11 *430:12 0.939506
2 *430:10 *430:2 1.11058
3 *430:4 *430:8 1.08967
4 *430:3 *430:4 0.728617
5 *430:2 *430:12 21.6294
6 *430:9 *430:10 0.411021
7 *430:7 *430:8 0.285117
8 *430:5 *430:6 0.159213
9 *430:6 *430:7 0.855041
10 *430:5 *430:9 1.72935
11 *777:B1 *430:3 0.225
12 *430:12 *767:Q[45] 0.0001
*END

*D_NET *431 0.00564651

*CONN
*I *798:B1 I *C 119.5 141.6 *L 0.00099 *D AOI22D1
*I *767:Q[44] O *C 88.135 134.195 *L 0 *D sram00

*CAP
1 *431:2 0.000147539
2 *431:3 0.000219776
3 *431:4 0.000229948
4 *431:5 0.000185919
5 *431:6 8.14122e-06
6 *431:8 0.00022441
7 *431:9 2.80605e-06
8 *431:10 0.000156492
9 *431:11 7.7277e-05
10 *431:12 1.50086e-05
11 *431:13 1.13903e-05
12 *431:14 0.000101571
13 *431:15 0.000115472
14 *431:16 0.00120983008
15 *431:17 1.19442e-05
16 *431:3 *434:4 0.000199435996
17 *431:2 *428:2 0.000281098984
18 *431:3 *433:12 0.000766578047
19 *431:3 *130:49 0.0013829
20 *431:4 *430:6 0.000298970996

*RES
1 *431:8 *431:9 0.159213
2 *431:5 *431:6 0.162147
3 *431:12 *431:13 0.092598
4 *431:7 *431:2 0.159213
5 *431:3 *431:12 0.619373
6 *431:10 *431:17 1.64911
7 *431:10 *431:11 0.084985
8 *431:9 *431:3 2.18231
9 *431:13 *431:14 5.06957
10 *431:7 *431:8 1.102
11 *798:B1 *431:5 0.376647
12 *431:16 *431:17 0.092605
13 *431:15 *431:16 13.0993
14 *431:4 *431:2 1.09918
15 *431:14 *431:15 0.092598
16 *431:6 *431:4 0.821755
17 *431:17 *767:Q[44] 0.0001
*END

*D_NET *432 0.00582239

*CONN
*I *802:B1 I *C 127.3 141.6 *L 0.00099 *D AOI22D1
*I *767:Q[43] O *C 93.945 134.195 *L 0 *D sram00

*CAP
1 *432:2 0.000611733
2 *432:3 6.39301e-05
3 *432:4 5.77489e-05
4 *432:5 0.000139716
5 *432:7 6.62438e-05
6 *432:8 2.93406e-05
7 *432:9 0.000297009
8 *432:11 2.90183e-05
9 *432:12 0.00075435
10 *432:13 2.51853e-05
11 *432:14 1.80487e-05
12 *432:15 3.36111e-06
13 *432:16 7.8986e-05
14 *432:17 4.39707e-06
15 *432:2 *77:5 0.00024958
16 *432:7 *79:2 0.000224902012
17 *432:2 *435:7 0.000252745
18 *432:3 *428:5 0.00123386
19 *432:4 *291:9 0.00168223

*RES
1 *432:5 *432:6 0.169126
2 *432:12 *432:13 0.092605
3 *432:7 *432:2 3.49851
4 *432:8 *432:9 1.09222
5 *432:8 *432:17 1.19216
6 *432:11 *432:3 0.092598
7 *432:4 *432:10 0.092598
8 *432:10 *432:11 4.06231
9 *432:2 *432:4 1.14593
10 *432:13 *432:14 0.495838
11 *432:16 *432:17 0.092605
12 *432:15 *432:16 1.92197
13 *432:3 *432:12 13.2535
14 *432:14 *432:15 0.092605
15 *802:B1 *432:6 0.225
16 *432:6 *432:7 0.225
17 *432:17 *767:Q[43] 0.0001
*END

*D_NET *433 0.00534877

*CONN
*I *780:B1 I *C 132.9 141.6 *L 0.00099 *D AOI22D1
*I *767:Q[42] O *C 96.535 134.195 *L 0 *D sram00

*CAP
1 *433:2 3.21794e-05
2 *433:3 0.000108014
3 *433:4 0.000459059
4 *433:5 7.47628e-05
5 *433:6 0.000304175
6 *433:8 3.78781e-05
7 *433:9 0.000255501
8 *433:10 3.43752e-05
9 *433:11 0.000272989
10 *433:12 0.00171314
11 *433:13 0.000292333
12 *433:14 0.000615068
13 *433:16 0.000210564
14 *433:6 *732:I 0.000172139004
15 *433:12 *431:3 0.000766578047

*RES
1 *433:2 *433:3 0.270694
2 *433:6 *433:8 0.159213
3 *433:7 *433:9 0.159213
4 *433:7 *433:13 1.34148
5 *433:10 *433:13 0.270699
6 *433:12 *433:16 1.4871
7 *433:8 *433:9 1.10156
8 *433:14 *433:16 8.2831
9 *433:11 *433:15 2.24435
10 *433:4 *433:6 1.72489
11 *433:11 *433:12 12.9672
12 *433:3 *433:4 2.30819
13 *780:B1 *433:3 0.225
14 *433:5 *433:14 0.225
15 *433:13 *433:15 0.225
16 *433:16 *767:Q[42] 0.0001
*END

*D_NET *434 0.00536678

*CONN
*I *782:B1 I *C 136.3 141.6 *L 0.00099 *D AOI22D1
*I *767:Q[41] O *C 102.345 134.195 *L 0 *D sram00

*CAP
1 *434:2 0.000302231
2 *434:3 0.000182175
3 *434:4 0.00089336
4 *434:5 0.000327395
5 *434:6 0.000692795
6 *434:8 2.76726e-06
7 *434:9 9.05424e-05
8 *434:10 9.88305e-06
9 *434:11 0.000542423
10 *434:12 2.6064e-05
11 *434:13 8.73798e-06
12 *434:14 2.63094e-06
13 *434:15 9.58452e-05
14 *434:16 1.10009e-05
15 *434:17 1.92481e-05
16 *434:18 0.000147919
17 *434:19 1.13553e-05
18 *434:20 2.8027e-05
19 *434:2 *143:4 0.000172832988
20 *434:3 *515:13 0.000216751992
21 *434:4 *316:3 0.000346425
22 *434:5 *299:2 0.000191609004
23 *434:4 *429:2 0.000190792988
24 *434:3 *83:2 0.000443497969
25 *434:4 *431:3 0.000199435996
26 *434:6 *56:3 0.000211044004

*RES
1 *434:9 *434:10 0.092595
2 *434:7 *434:6 0.159213
3 *782:B1 *434:6 2.84178
4 *434:18 *434:19 0.382693
5 *434:13 *434:4 8.97252
6 *434:8 *434:3 0.864929
7 *434:2 *434:8 0.159213
8 *434:3 *434:9 1.04594
9 *434:12 *434:5 3.93634
10 *434:10 *434:11 3.75309
11 *434:7 *434:2 1.35164
12 *434:11 *434:12 0.093084
13 *434:4 *434:14 0.092595
14 *434:19 *434:20 0.194235
15 *434:17 *434:18 1.79597
16 *434:16 *434:17 0.411022
17 *434:15 *434:16 0.092595
18 *434:5 *434:13 0.092595
19 *434:14 *434:15 1.94494
20 *434:20 *767:Q[41] 0.0001
*END

*D_NET *435 0.00543022

*CONN
*I *790:B1 I *C 139.9 141.6 *L 0.00099 *D AOI22D1
*I *767:Q[40] O *C 104.935 134.195 *L 0 *D sram00

*CAP
1 *435:2 5.03074e-05
2 *435:3 0.000708207
3 *435:4 0.000204249
4 *435:5 1.81195e-05
5 *435:6 5.26938e-05
6 *435:7 0.000965415
7 *435:8 7.63081e-05
8 *435:9 0.000131742
9 *435:10 2.37763e-05
10 *435:11 4.13065e-05
11 *435:12 0.00026372
12 *435:3 *291:3 0.000524565977
13 *435:3 *292:2 0.000165193008
14 *435:7 *317:2 0.000170646992
15 *435:7 *432:2 0.000252745
16 *435:4 *56:3 0.000314516016
17 *435:3 *137:3 0.000198122988
18 *435:7 *831:Z 0.000570366016
19 *435:7 *429:2 0.000189872988
20 *435:2 *82:8 0.000238993008
21 *435:3 *407:8 0.00026935

*RES
1 *435:11 *435:12 1.56903
2 *435:10 *435:11 0.394367
3 *435:9 *435:10 0.092595
4 *435:3 *435:4 3.36431
5 *435:8 *435:9 1.92187
6 *435:7 *435:8 0.092595
7 *435:2 *435:7 15.5883
8 *435:5 *435:6 1.54416
9 *435:4 *435:5 0.092595
10 *790:B1 *435:3 3.3726
11 *435:6 *435:2 0.092595
12 *435:12 *767:Q[40] 0.0001
*END

*D_NET *436 0.00250389

*CONN
*I *803:A1 I *C 120.1 139.6 *L 0.000982 *D AOI22D1
*I *767:Q[39] O *C 110.745 134.195 *L 0 *D sram00

*CAP
1 *436:2 0.000428376
2 *436:3 0.00154599
3 *436:4 0.000529531

*RES
1 *436:2 *436:5 1.16529
2 *436:2 *436:3 7.64712
3 *436:3 *436:4 2.82807
4 *803:A1 *436:5 0.225
5 *436:5 *767:Q[39] 0.0001
*END

*D_NET *437 0.00221561

*CONN
*I *801:A1 I *C 117.1 143.2 *L 0.000982 *D AOI22D1
*I *767:Q[38] O *C 113.335 134.195 *L 0 *D sram00

*CAP
1 *801:A1 6.00166e-06
2 *437:2 0.00135161
3 *437:3 0.000485227
4 *437:4 4.7807e-05
5 *437:6 0.000324956

*RES
1 *437:2 *437:5 5.36878014
2 *437:2 *437:3 3.287
3 *437:3 *437:4 0.243388
4 *801:A1 *437:6 1.21555
5 *437:5 *437:6 0.159173
6 *437:6 *767:Q[38] 8.19211e-05
*END

*D_NET *438 0.00199837

*CONN
*I *777:A1 I *C 120.5 143.2 *L 0.000982 *D AOI22D1
*I *767:Q[37] O *C 119.145 134.195 *L 0 *D sram00

*CAP
1 *777:A1 0.000158321
2 *438:2 5.45474e-05
3 *438:3 0.000678452031
4 *438:5 0.000211212
5 *438:6 0.000225799
6 *438:7 6.00446e-07
7 *438:8 8.4373e-06
8 *438:9 0.000331011
9 *438:10 0.000329986

*RES
1 *438:7 *438:9 0.159226
2 *438:6 *438:8 0.159226
3 *438:8 *438:9 1.36377
4 *438:4 *438:5 0.159226
5 *438:3 *438:4 3.09002995
6 *438:2 *438:10 1.50357
7 *777:A1 *438:2 0.350891
8 *438:6 *438:10 0.973603
9 *438:5 *438:7 0.68825
10 *438:10 *767:Q[37] 9.43002e-05
*END

*D_NET *439 0.0015092

*CONN
*I *798:A1 I *C 120.5 141.6 *L 0.000982 *D AOI22D1
*I *767:Q[36] O *C 121.735 134.195 *L 0 *D sram00

*CAP
1 *798:A1 6.94409e-06
2 *439:2 0.000227219
3 *439:3 4.05e-05
4 *439:4 0.000157685
5 *439:5 0.000200964
6 *439:6 3.29844e-05
7 *439:7 0.000356199
8 *439:8 1.25094e-05
9 *439:9 6.00821e-06
10 *439:10 0.00046819

*RES
1 *439:9 *439:10 0.553593
2 *439:4 *439:6 0.344394
3 *439:2 *439:3 1.20148
4 *439:7 *439:8 1.35248005
5 *439:6 *439:7 0.159216
6 *439:5 *439:9 0.727812
7 *439:3 *439:4 0.285124
8 *439:5 *439:8 0.159216
9 *798:A1 *439:10 1.17576
10 *439:10 *767:Q[36] 0.000103186
*END

*D_NET *440 0.00118163

*CONN
*I *802:A1 I *C 128.3 141.6 *L 0.000982 *D AOI22D1
*I *767:Q[35] O *C 127.545 134.195 *L 0 *D sram00

*CAP
1 *440:2 0.000356585
2 *440:3 0.000141946
3 *440:4 0.000683098984

*RES
1 *440:2 *440:3 0.51007
2 *440:3 *440:4 3.09002995
3 *802:A1 *440:2 1.5933
4 *440:4 *767:Q[35] 9.43002e-05
*END

*D_NET *441 0.00163587

*CONN
*I *780:A1 I *C 133.9 141.6 *L 0.000982 *D AOI22D1
*I *767:Q[34] O *C 130.135 134.195 *L 0 *D sram00

*CAP
1 *780:A1 1.63191e-06
2 *441:2 0.000848787031
3 *441:3 0.000433479
4 *441:4 5.3853e-05
5 *441:6 0.000298108

*RES
1 *441:2 *441:5 3.67648005
2 *441:2 *441:3 3.10147
3 *441:3 *441:4 0.243412
4 *780:A1 *441:6 1.09757
5 *441:5 *441:6 0.159208
6 *441:6 *767:Q[34] 0.000112197
*END

*D_NET *442 0.00160796

*CONN
*I *782:A1 I *C 137.3 141.6 *L 0.000982 *D AOI22D1
*I *767:Q[33] O *C 135.945 134.195 *L 0 *D sram00

*CAP
1 *782:A1 5.86516e-06
2 *442:2 0.00117906
3 *442:3 0.000170827
4 *442:4 2.03482e-05
5 *442:5 6.8187e-06
6 *442:6 0.000225035

*RES
1 *442:2 *442:5 4.72407007
2 *442:2 *442:3 1.26982
3 *442:3 *442:4 0.239462
4 *782:A1 *442:6 0.536446
5 *442:5 *442:6 0.161395
6 *442:6 *767:Q[33] 7.20836e-05
*END

*D_NET *443 0.00190687

*CONN
*I *790:A1 I *C 140.9 141.6 *L 0.000982 *D AOI22D1
*I *767:Q[32] O *C 138.535 134.195 *L 0 *D sram00

*CAP
1 *443:2 0.000254308
2 *443:3 0.000266561
3 *443:5 3.73156e-05
4 *443:6 0.000650739023
5 *443:7 0.00012273
6 *443:8 0.000575214

*RES
1 *443:4 *443:6 0.159219
2 *443:2 *443:4 0.947923
3 *443:7 *443:8 2.14288
4 *443:3 *443:5 0.159219
5 *443:5 *443:6 2.7365799
6 *443:3 *443:8 1.11224
7 *790:A1 *443:7 0.224986
8 *443:8 *767:Q[32] 8.35138e-05
*END

*D_NET *444 0.00143893

*CONN
*I *776:B1 I *C 188.3 139.6 *L 0.000663 *D AOI22D0
*I *767:Q[31] O *C 184.925 134.265 *L 0 *D sram00

*CAP
1 *444:2 0.000976472969
2 *444:3 0.00041723
3 *444:4 4.52216e-05

*RES
1 *444:2 *444:5 3.54439998
2 *444:2 *444:3 2.85235
3 *444:3 *444:4 0.239427
4 *776:B1 *444:5 0.224986
5 *444:5 *767:Q[31] 0.000108167
*END

*D_NET *445 0.00307132

*CONN
*I *794:B1 I *C 195.5 141.6 *L 0.000663 *D AOI22D0
*I *767:Q[30] O *C 187.515 134.265 *L 0 *D sram00

*CAP
1 *445:2 0.000420549
2 *445:3 0.000160492
3 *445:4 2.26573e-05
4 *445:5 0.000774568047
5 *445:7 0.000484881
6 *445:8 0.000371334
7 *445:10 3.04934e-06
8 *445:11 0.000364077
9 *445:12 0.000469717

*RES
1 *445:10 *445:11 1.35514
2 *445:8 *445:10 0.159192
3 *445:2 *445:3 1.14134
4 *794:B1 *445:8 1.18804
5 *445:9 *445:11 0.159192
6 *445:6 *445:7 1.72702
7 *445:4 *445:5 4.04841995
8 *445:3 *445:4 0.0382999
9 *445:7 *445:12 2.069
10 *445:5 *445:6 0.0382999
11 *445:2 *445:9 1.17574
12 *445:12 *767:Q[30] 0.000123548
*END

*D_NET *446 0.00238989

*CONN
*I *779:B1 I *C 200.5 141.6 *L 0.000663 *D AOI22D0
*I *767:Q[29] O *C 193.325 134.265 *L 0 *D sram00

*CAP
1 *446:2 0.00045319
2 *446:3 0.000803934
3 *446:4 0.00113276008

*RES
1 *446:2 *446:4 5.17448997
2 *446:3 *446:4 3.76196
3 *779:B1 *446:2 1.23219
4 *446:4 *767:Q[29] 7.89565e-05
*END

*D_NET *447 0.00254085

*CONN
*I *787:B1 I *C 207.1 139.6 *L 0.000663 *D AOI22D0
*I *767:Q[28] O *C 195.915 134.265 *L 0 *D sram00

*CAP
1 *447:2 0.00010819
2 *447:3 0.00011361
3 *447:4 0.000144988
4 *447:5 7.71688e-05
5 *447:6 0.000396954
6 *447:7 5.85911e-05
7 *447:8 0.000463814
8 *447:9 1.86648e-05
9 *447:10 0.000178466
10 *447:11 0.000409336
11 *447:12 0.000571053984

*RES
1 *447:11 *447:12 1.98305
2 *447:9 *447:10 1.02387
3 *447:4 *447:6 2.63382
4 *447:10 *447:12 3.37867999
5 *447:8 *447:9 0.092592
6 *447:7 *447:8 2.29959
7 *447:6 *447:7 0.092592
8 *447:3 *447:4 0.35088
9 *787:B1 *447:2 0.224984
10 *447:2 *447:3 0.224984
11 *447:5 *447:11 0.224984
12 *447:12 *767:Q[28] 0.000103109
*END

*D_NET *448 0.00189568

*CONN
*I *804:B1 I *C 209.5 139.6 *L 0.000663 *D AOI22D0
*I *767:Q[27] O *C 201.725 134.265 *L 0 *D sram00

*CAP
1 *448:2 0.000831627
2 *448:3 0.00102132
3 *448:4 1.87012e-05
4 *448:5 2.40155e-05

*RES
1 *448:2 *448:5 3.37264
2 *448:2 *448:3 6.43688011
3 *448:3 *448:4 0.23936
4 *804:B1 *448:5 0.22502
5 *448:5 *767:Q[27] 9.8219e-05
*END

*D_NET *449 0.00224629

*CONN
*I *791:B1 I *C 212.7 139.6 *L 0.000663 *D AOI22D0
*I *767:Q[26] O *C 204.315 134.265 *L 0 *D sram00

*CAP
1 *791:B1 4.20721e-05
2 *449:2 4.38359e-05
3 *449:3 0.000703525
4 *449:4 0.00140961
5 *449:5 4.72559e-05

*RES
1 *449:2 *449:3 3.37263
2 *449:4 *449:5 0.194204
3 *449:3 *449:4 6.29442978
4 *791:B1 *449:2 0.624775
5 *449:5 *767:Q[26] 9.60454e-05
*END

*D_NET *450 0.00160038

*CONN
*I *784:B1 I *C 215.1 139.6 *L 0.000663 *D AOI22D0
*I *767:Q[25] O *C 210.125 134.265 *L 0 *D sram00

*CAP
1 *784:B1 1.72091e-05
2 *450:2 4.15956e-05
3 *450:3 0.000576784
4 *450:4 4.78776e-05
5 *450:5 0.000916908047

*RES
1 *450:2 *450:5 3.6663
2 *450:3 *450:5 3.91619992
3 *450:3 *450:4 0.239384
4 *784:B1 *450:2 0.314439
5 *450:5 *767:Q[25] 0.000119513
*END

*D_NET *451 0.00147894

*CONN
*I *793:B1 I *C 216.5 139.6 *L 0.000663 *D AOI22D0
*I *767:Q[24] O *C 212.715 134.265 *L 0 *D sram00

*CAP
1 *793:B1 1.0288e-05
2 *451:2 0.000747473984
3 *451:4 8.4505e-05
4 *451:5 0.000591489
5 *451:6 4.51895e-05

*RES
1 *451:2 *451:5 3.07075
2 *451:2 *451:3 3.21271992
3 *793:B1 *451:4 0.611944
4 *451:3 *451:4 0.159224
5 *451:5 *451:6 0.194226
6 *451:6 *767:Q[24] 9.80444e-05
*END

*D_NET *452 0.00447587

*CONN
*I *776:A1 I *C 189.3 139.6 *L 0.000665 *D AOI22D0
*I *767:Q[23] O *C 218.525 134.265 *L 0 *D sram00

*CAP
1 *452:2 0.000163609
2 *452:4 6.04373e-05
3 *452:5 0.000319175
4 *452:6 9.61811e-05
5 *452:7 0.00246316
6 *452:8 0.000799216
7 *452:9 0.00057408

*RES
1 *452:7 *452:9 14.217
2 *452:6 *452:8 4.85376
3 *452:2 *452:3 0.446438
4 *452:8 *452:9 0.092595
5 *452:5 *452:6 1.09222
6 *452:4 *452:7 2.49127
7 *776:A1 *452:3 0.45
8 *452:3 *452:4 0.225
9 *452:9 *767:Q[23] 0.0001
*END

*D_NET *453 0.00390968

*CONN
*I *794:A1 I *C 196.5 141.6 *L 0.000665 *D AOI22D0
*I *767:Q[22] O *C 221.115 134.265 *L 0 *D sram00

*CAP
1 *453:3 0.000297544
2 *453:4 0.000553103
3 *453:5 0.000112257
4 *453:6 0.000343104
5 *453:7 0.00118907
6 *453:8 3.76852e-05
7 *453:9 0.000616154
8 *453:10 1.55313e-05
9 *453:11 0.000423772
10 *453:12 3.46733e-05
11 *453:13 0.000283555
12 *453:14 3.24778e-06

*RES
1 *453:7 *453:8 0.2185
2 *453:2 *453:3 0.728617
3 *453:6 *453:14 0.997079
4 *453:12 *453:13 1.54416
5 *453:3 *453:6 1.10633
6 *453:4 *453:5 3.10669
7 *453:10 *453:11 1.86408
8 *453:8 *453:9 2.9291
9 *453:9 *453:10 0.2185
10 *453:13 *453:14 0.092595
11 *453:5 *453:7 8.80314
12 *453:11 *453:12 0.092595
13 *794:A1 *453:2 0.225
14 *453:14 *767:Q[22] 0.0001
*END

*D_NET *454 0.0054538

*CONN
*I *779:A1 I *C 201.5 141.6 *L 0.000665 *D AOI22D0
*I *767:Q[21] O *C 226.925 134.265 *L 0 *D sram00

*CAP
1 *454:2 0.000479123
2 *454:3 0.000492755
3 *454:4 6.48921e-05
4 *454:5 0.00099595
5 *454:6 0.000452072
6 *454:8 2.10785e-05
7 *454:10 0.000101821
8 *454:11 7.73539e-06
9 *454:12 1.82215e-05
10 *454:13 2.54857e-05
11 *454:14 8.15027e-05
12 *454:16 4.43455e-05
13 *454:17 3.3054e-05
14 *454:18 2.851e-05
15 *454:19 2.90875e-05
16 *454:20 0.000168993
17 *454:13 *5:2 0.000273173984
18 *454:3 *54:2 0.000552146953
19 *454:5 *504:4 0.000634436016
20 *454:2 *768:ZN 0.000363633984
21 *454:3 *779:A2 0.000165454004
22 *454:4 *134:4 0.000420356992

*RES
1 *454:8 *454:9 0.0925638
2 *454:5 *454:4 4.86934
3 *454:18 *454:19 0.495785
4 *454:13 *454:14 0.495785
5 *454:6 *454:7 0.0927262
6 *454:7 *454:8 0.412721
7 *454:4 *454:6 3.72918
8 *454:11 *454:12 0.467934
9 *454:9 *454:10 2.04777
10 *454:10 *454:11 0.0925638
11 *454:14 *454:15 0.218499
12 *454:3 *454:20 3.64409
13 *454:19 *454:20 1.85363
14 *454:17 *454:18 0.218499
15 *454:16 *454:17 0.411016
16 *454:2 *454:16 0.218499
17 *454:12 *454:13 0.219717
18 *454:15 *454:2 5.32128
19 *779:A1 *454:3 0.224995
20 *454:20 *767:Q[21] 8.11963e-05
*END

*D_NET *455 0.00413006

*CONN
*I *787:A1 I *C 208.1 139.6 *L 0.000665 *D AOI22D0
*I *767:Q[20] O *C 229.515 134.265 *L 0 *D sram00

*CAP
1 *455:2 0.000388648
2 *455:3 8.05753e-05
3 *455:4 6.97079e-05
4 *455:5 2.91592e-05
5 *455:6 3.239e-05
6 *455:7 0.000117567
7 *455:8 0.00106936
8 *455:9 9.91118e-05
9 *455:10 7.68549e-05
10 *455:11 1.47183e-05
11 *455:12 9.13121e-05
12 *455:13 5.61481e-05
13 *455:14 0.000705074
14 *455:15 0.000112427
15 *455:16 3.94065e-05
16 *455:17 0.000970607
17 *455:18 5.56423e-05
18 *455:19 0.000121369

*RES
1 *455:7 *455:8 5.72270012
2 *455:18 *455:19 0.685124
3 *455:12 *455:13 0.0849638
4 *455:5 *455:6 0.411022
5 *455:4 *455:5 0.0925608
6 *455:6 *455:7 0.0925608
7 *455:10 *455:11 0.0925608
8 *455:8 *455:9 0.0925608
9 *455:9 *455:10 0.411022
10 *455:3 *455:14 2.99486
11 *455:17 *455:18 0.0925608
12 *455:14 *455:19 0.350945
13 *787:A1 *455:2 0.704422
14 *455:16 *455:17 5.32128
15 *455:15 *455:16 0.0925608
16 *455:13 *455:15 1.00769
17 *455:2 *455:11 0.619371
18 *455:3 *455:4 0.394344
19 *455:19 *767:Q[20] 8.73215e-05
*END

*D_NET *456 0.00373838

*CONN
*I *804:A1 I *C 210.5 139.6 *L 0.000665 *D AOI22D0
*I *767:Q[19] O *C 235.325 134.265 *L 0 *D sram00

*CAP
1 *456:2 0.000249219
2 *456:3 5.35988e-07
3 *456:4 1.49924e-05
4 *456:5 0.000271976
5 *456:6 0.000276432
6 *456:7 0.00013193
7 *456:8 0.00071095
8 *456:9 6.78714e-05
9 *456:10 3.43645e-05
10 *456:11 6.61103e-05
11 *456:12 3.15774e-05
12 *456:13 0.000375636
13 *456:14 2.80245e-06
14 *456:15 8.76264e-05
15 *456:16 9.84687e-06
16 *456:17 0.0010036
17 *456:18 3.65544e-05
18 *456:19 0.000351869
19 *456:20 1.4487e-05

*RES
1 *456:6 *456:8 0.476808
2 *456:7 *456:9 0.619367
3 *456:18 *456:19 2.42549
4 *456:12 *456:13 2.04778
5 *456:3 *456:6 1.21558
6 *456:4 *456:5 1.22658
7 *456:3 *456:5 0.159213
8 *456:10 *456:11 0.411021
9 *456:2 *456:4 0.159213
10 *456:9 *456:10 0.092595
11 *456:13 *456:14 0.092595
12 *456:8 *456:20 2.97154
13 *456:19 *456:20 0.346252
14 *456:17 *456:18 0.2185
15 *804:A1 *456:2 1.15504
16 *456:16 *456:17 7.20985
17 *456:15 *456:16 0.092595
18 *456:11 *456:12 0.092595
19 *456:14 *456:15 0.66283
20 *456:20 *767:Q[19] 0.0001
*END

*D_NET *457 0.00436513

*CONN
*I *791:A1 I *C 213.7 139.6 *L 0.000665 *D AOI22D0
*I *767:Q[18] O *C 237.915 134.265 *L 0 *D sram00

*CAP
1 *457:2 5.16787e-05
2 *457:3 0.00295529
3 *457:4 3.87816e-06
4 *457:5 0.000339248
5 *457:6 3.59406e-05
6 *457:7 0.000510744
7 *457:8 0.000389214
8 *457:9 7.91414e-05

*RES
1 *457:7 *457:10 1.51986
2 *457:2 *457:3 15.9382
3 *457:8 *457:9 1.9902
4 *457:6 *457:7 0.499851
5 *457:4 *457:5 2.35725
6 *457:3 *457:4 0.115567
7 *457:5 *457:6 0.115567
8 *457:2 *457:9 0.367559
9 *791:A1 *457:10 0.225
10 *457:10 *767:Q[18] 0.0001
*END

*D_NET *458 0.00433927

*CONN
*I *784:A1 I *C 216.1 139.6 *L 0.000665 *D AOI22D0
*I *767:Q[17] O *C 243.725 134.265 *L 0 *D sram00

*CAP
1 *458:2 0.000135134
2 *458:4 7.58912e-05
3 *458:5 0.000378899
4 *458:6 0.000100335
5 *458:8 0.00364896

*RES
1 *458:6 *458:8 17.8381
2 *458:2 *458:3 0.23958
3 *458:7 *458:8 1.86175
4 *458:5 *458:6 1.84764
5 *784:A1 *458:3 0.45
6 *458:3 *458:4 0.225
7 *458:4 *458:7 0.225
8 *458:8 *767:Q[17] 0.0001
*END

*D_NET *459 0.00446965

*CONN
*I *793:A1 I *C 217.5 139.6 *L 0.000665 *D AOI22D0
*I *767:Q[16] O *C 246.315 134.265 *L 0 *D sram00

*CAP
1 *459:2 0.000316806
2 *459:4 3.10638e-05
3 *459:5 9.08584e-05
4 *459:6 0.00159701
5 *459:7 0.00209441
6 *459:8 1.64907e-05
7 *459:9 0.00027021
8 *459:10 5.27957e-05

*RES
1 *459:9 *459:10 0.092595
2 *459:2 *459:3 1.45328
3 *459:8 *459:9 1.67006
4 *459:7 *459:8 0.092595
5 *459:4 *459:5 0.235561
6 *459:3 *459:4 0.159213
7 *793:A1 *459:6 2.05638
8 *459:6 *459:10 5.66556
9 *459:5 *459:7 11.3212
10 *459:10 *767:Q[16] 0.0001
*END

*D_NET *460 0.000909372

*CONN
*I *805:B1 I *C 252.3 139.6 *L 0.000663 *D AOI22D0
*I *767:Q[15] O *C 252.125 134.265 *L 0 *D sram00

*CAP
1 *805:B1 2.99185e-06
2 *460:3 0.00025484
3 *460:4 0.000290906016
4 *460:5 3.5911e-06
5 *460:6 0.000135255
6 *460:7 3.09439e-05
7 *460:8 0.000190839

*RES
1 *460:2 *460:4 1.10023999
2 *460:2 *460:3 0.159221
3 *460:7 *460:8 0.825331
4 *460:6 *460:7 0.143473
5 *460:4 *460:5 0.159221
6 *805:B1 *460:3 0.968149
7 *460:5 *460:6 0.596204
8 *460:8 *767:Q[15] 0.00010073
*END

*D_NET *461 0.00100662

*CONN
*I *786:B1 I *C 255.3 139.6 *L 0.00099 *D AOI22D1
*I *767:Q[14] O *C 254.715 134.265 *L 0 *D sram00

*CAP
1 *786:B1 4.09716e-05
2 *461:2 3.72935e-05
3 *461:3 0.000251367
4 *461:4 0.000311608
5 *461:6 3.24521e-05
6 *461:7 0.000332928984

*RES
1 *461:4 *461:6 0.159216
2 *461:2 *461:4 1.16355
3 *461:6 *461:7 1.47754002
4 *461:3 *461:5 1.07625
5 *786:B1 *461:2 0.46464
6 *461:5 *461:7 0.159216
7 *461:7 *767:Q[14] 9.01819e-05
*END

*D_NET *462 0.000840121

*CONN
*I *783:B1 I *C 260.3 139.6 *L 0.000663 *D AOI22D0
*I *767:Q[13] O *C 260.525 134.265 *L 0 *D sram00

*CAP
1 *783:B1 1.94733e-05
2 *462:2 0.000305847
3 *462:4 0.000514797969

*RES
1 *462:2 *462:3 1.45329
2 *783:B1 *462:4 2.16988993
3 *462:3 *462:4 0.159225
4 *462:4 *767:Q[13] 9.93297e-05
*END

*D_NET *463 0.000874408

*CONN
*I *807:B1 I *C 262.7 139.6 *L 0.000663 *D AOI22D0
*I *767:Q[12] O *C 263.115 134.265 *L 0 *D sram00

*CAP
1 *807:B1 2.13242e-05
2 *463:2 0.000138185
3 *463:3 9.24208e-05
4 *463:4 0.000622486992

*RES
1 *463:2 *463:3 1.07554
2 *807:B1 *463:4 2.48071003
3 *463:3 *463:4 0.285106
4 *463:4 *767:Q[12] 0.000113558
*END

*D_NET *464 0.000813841

*CONN
*I *792:B1 I *C 269.1 139.6 *L 0.00099 *D AOI22D1
*I *767:Q[11] O *C 268.925 134.265 *L 0 *D sram00

*CAP
1 *464:2 0.000447958008
2 *464:3 3.74853e-05
3 *464:4 0.000328393

*RES
1 *464:2 *464:3 0.143481
2 *464:3 *464:4 1.70509
3 *792:B1 *464:2 1.91510999
4 *464:4 *767:Q[11] 8.76668e-05
*END

*D_NET *465 0.000924309

*CONN
*I *781:B1 I *C 271.9 139.6 *L 0.00099 *D AOI22D1
*I *767:Q[10] O *C 271.515 134.265 *L 0 *D sram00

*CAP
1 *465:2 0.000495571992
2 *465:3 8.10867e-05
3 *465:4 0.000347653

*RES
1 *465:2 *465:3 0.275684
2 *465:3 *465:4 1.831
3 *781:B1 *465:2 1.89244998
4 *465:4 *767:Q[10] 8.66295e-05
*END

*D_NET *466 0.00110461

*CONN
*I *788:B1 I *C 274.5 139.6 *L 0.000663 *D AOI22D0
*I *767:Q[9] O *C 277.325 134.265 *L 0 *D sram00

*CAP
1 *466:2 6.06792e-05
2 *466:3 2.3406e-06
3 *466:4 6.26317e-05
4 *466:5 2.10537e-06
5 *466:6 0.000181426
6 *466:7 2.46175e-05
7 *466:8 0.000770811016

*RES
1 *466:2 *466:3 0.2394
2 *466:8 *466:9 3.37260008
3 *466:7 *466:8 0.483226
4 *466:6 *466:7 0.115583
5 *466:4 *466:5 0.115583
6 *466:3 *466:4 0.348139
7 *466:5 *466:6 1.43012
8 *788:B1 *466:9 0.224991
9 *466:9 *767:Q[9] 0.000102924
*END

*D_NET *467 0.00121286

*CONN
*I *797:B1 I *C 276.7 139.6 *L 0.000663 *D AOI22D0
*I *767:Q[8] O *C 279.915 134.265 *L 0 *D sram00

*CAP
1 *797:B1 1.97424e-05
2 *467:2 0.00113692
3 *467:3 5.62085e-05

*RES
1 *467:2 *467:4 2.45385
2 *467:3 *467:4 0.194217
3 *797:B1 *467:2 3.37260008
4 *467:4 *767:Q[8] 0.000102924
*END

*D_NET *468 0.00158104

*CONN
*I *724:I I *C 176.5 145.2 *L 0.00105 *D DEL1
*I *820:Q O *C 183.1 142 *L 0 *D DFCNQD1

*CAP
1 *820:Q 0.000530413
2 *468:2 7.19354e-05
3 *468:3 0.000978676953

*RES
1 *820:Q *468:2 1.7812
2 *468:2 *468:3 4.19675016
3 *724:I *468:3 1.4304
*END

*D_NET *469 0.00145271

*CONN
*I *725:I I *C 189.7 139.6 *L 0.00105 *D DEL1
*I *821:Q O *C 184.9 139.2 *L 0 *D DFCNQD1

*CAP
1 *469:2 0.000327826
2 *469:3 0.00112487992

*RES
1 *469:2 *469:3 4.06740999
2 *821:Q *469:3 0.955968
3 *725:I *469:2 1.43045
*END

*D_NET *470 0.00219428

*CONN
*I *726:I I *C 188.9 143.2 *L 0.00105 *D DEL1
*I *897:Q O *C 184.1 145.6 *L 0 *D DFCND1

*CAP
1 *897:Q 0.000243448
2 *470:2 7.79342e-05
3 *470:3 0.000990769063
4 *470:4 0.00088213

*RES
1 *470:2 *470:4 3.38879
2 *470:2 *470:3 4.72165012
3 *897:Q *470:3 1.20541
4 *726:I *470:4 0.450003
*END

*D_NET *471 0.00659356

*CONN
*I *896:ZN O *C 148.5 143 *L 0 *D CKND0
*I *830:A1 I *C 167.7 139.8 *L 0.00073 *D AO22D0
*I *829:A1 I *C 172.1 139.8 *L 0.00073 *D AO22D0
*I *828:A1 I *C 161.9 139.8 *L 0.00073 *D AO22D0
*I *827:A1 I *C 166.1 139.8 *L 0.00073 *D AO22D0
*I *826:A1 I *C 158.1 139.8 *L 0.00073 *D AO22D0
*I *825:A1 I *C 164.1 139.8 *L 0.00073 *D AO22D0
*I *824:A1 I *C 175.9 139.8 *L 0.00073 *D AO22D0
*I *823:A1 I *C 174.3 139.8 *L 0.00073 *D AO22D0
*I *822:A1 I *C 170.5 139.8 *L 0.00073 *D AO22D0
*I *767:WEN I *C 148.34 134.195 *L 0.00612 *D sram00

*CAP
1 *471:11 6.22436e-05
2 *471:12 7.46022e-05
3 *471:13 7.3588e-05
4 *471:14 0.00123088
5 *471:15 0.000788958
6 *471:16 8.22653e-05
7 *471:17 7.76261e-05
8 *471:18 0.000146256
9 *471:19 0.000136714
10 *471:20 0.000142518
11 *471:21 0.000180458
12 *471:22 0.000168437
13 *471:23 0.000138799
14 *471:24 0.000131831
15 *471:25 5.21577e-05
16 *471:26 7.38134e-06
17 *471:27 0.000302541
18 *471:28 1.31662e-05
19 *471:29 0.000151853
20 *471:30 1.44622e-06
21 *471:31 0.000262141
22 *471:32 0.000149881
23 *471:33 0.000166014
24 *471:34 0.000263944
25 *471:35 0.000137898
26 *471:36 0.000147589
27 *471:37 0.000335879
28 *471:38 0.000243133
29 *471:39 0.000275044
30 *471:40 6.48355e-05
31 *471:37 *249:4 0.000213415
32 *471:33 *823:B2 0.000370091992

*RES
1 *471:30 *471:31 2.17369
2 *471:36 *471:37 1.88858
3 *471:33 *471:36 0.881352
4 *471:24 *471:40 0.476779
5 *471:19 *471:36 0.476779
6 *471:31 *471:32 0.0925664
7 *471:27 *471:28 0.0925664
8 *896:ZN *471:12 0.376621
9 *471:16 *471:35 1.47906
10 *471:20 *471:37 0.476779
11 *471:22 *471:34 0.476779
12 *471:14 *471:15 3.85660005
13 *471:13 *471:14 2.19499
14 *471:29 *471:40 0.900478
15 *471:28 *471:40 0.394393
16 *471:34 *471:39 1.40356
17 *471:25 *471:39 0.394393
18 *471:14 *471:32 3.38924
19 *471:26 *471:27 1.67008
20 *471:23 *471:39 0.476779
21 *471:21 *471:38 0.544629
22 *471:37 *471:38 1.13292
23 *471:34 *471:38 1.30364
24 *471:25 *471:26 0.0925664
25 *471:18 *471:33 0.476779
26 *471:29 *471:30 0.0925664
27 *471:11 *471:17 0.251806
28 *471:11 *471:33 1.65019
29 *471:12 *471:13 0.15924
30 *826:A1 *471:24 0.450003
31 *828:A1 *471:23 0.450003
32 *825:A1 *471:22 0.450003
33 *827:A1 *471:21 0.450003
34 *830:A1 *471:20 0.450003
35 *822:A1 *471:19 0.450003
36 *829:A1 *471:18 0.450003
37 *823:A1 *471:17 0.450003
38 *824:A1 *471:16 0.450003
39 *471:17 *471:35 0.224972
40 *471:40 *767:WEN 0.000117694
*END

*D_NET *472 0.00499145

*CONN
*I *897:QN O *C 184.5 145.6 *L 0 *D DFCND1
*I *814:A2 I *C 160.7 145.2 *L 0.000996 *D NR2D1
*I *812:A2 I *C 188.1 145.2 *L 0.000996 *D NR2D1
*I *808:A2 I *C 159.7 143.2 *L 0.00217 *D NR2D2

*CAP
1 *897:QN 0.000103056
2 *812:A2 0.000260074
3 *808:A2 0.000536204
4 *472:4 0.000128509
5 *472:5 0.000307399
6 *472:6 0.000298359
7 *472:7 5.05694e-05
8 *472:8 0.000499267
9 *472:9 0.00101611
10 *472:10 0.00138086
11 *472:11 0.000411045

*RES
1 *472:9 *472:10 3.23439
2 *472:7 *472:8 2.80321
3 *808:A2 *472:5 2.0021
4 *812:A2 *472:11 2.99455
5 *897:QN *472:11 0.449995
6 *472:8 *472:9 2.01134
7 *472:6 *472:11 0.612853
8 *472:4 *472:5 1.40892
9 *472:6 *472:7 2.14041
10 *472:4 *472:10 5.60556984
11 *814:A2 *472:4 0.22504
*END

*D_NET *473 0.00440619

*CONN
*I *819:ZN O *C 178.1 142.8 *L 0 *D CKND2D0
*I *811:A1 I *C 156.7 143.2 *L 0.00132 *D NR2XD1
*I *808:A1 I *C 159.3 143.2 *L 0.00172 *D NR2D2

*CAP
1 *819:ZN 0.000319804
2 *811:A1 0.000882427
3 *473:3 4.54153e-05
4 *473:4 0.000717288
5 *473:5 0.000542982
6 *473:6 0.000282903
7 *473:7 0.000234263
8 *473:8 0.00138111

*RES
1 *473:7 *473:8 4.93330002
2 *808:A1 *473:8 1.60986
3 *811:A1 *473:8 3.96721
4 *473:5 *473:6 3.16175
5 *473:4 *473:5 0.0925897
6 *473:3 *473:4 3.51141
7 *473:6 *473:7 1.51087
8 *819:ZN *473:3 1.59525
*END

*D_NET *474 0.000835632

*CONN
*I *818:ZN O *C 187.3 142.8 *L 0 *D IND2D0
*I *815:A1 I *C 190.3 145.2 *L 0.00093 *D NR2D1
*I *812:A1 I *C 188.5 145.2 *L 0.00093 *D NR2D1

*CAP
1 *818:ZN 0.000360956016
2 *815:A1 9.82488e-05
3 *474:3 6.67495e-05
4 *474:4 0.000309673

*RES
1 *815:A1 *474:4 1.58314
2 *818:ZN *474:3 1.80457997
3 *812:A1 *474:3 0.224994
4 *474:3 *474:4 0.224994
*END

*D_NET *475 0.00340201

*CONN
*I *817:ZN O *C 176.7 142.8 *L 0 *D IND2D0
*I *814:A1 I *C 160.3 145.2 *L 0.00093 *D NR2D1
*I *813:A1 I *C 158.3 143.2 *L 0.00093 *D NR2D1

*CAP
1 *817:ZN 3.65533e-05
2 *475:3 0.000524112
3 *475:4 0.000255458
4 *475:5 0.000222482
5 *475:6 0.000664466
6 *475:7 0.00169895

*RES
1 *475:6 *475:7 2.58097
2 *813:A1 *475:7 1.88248
3 *814:A1 *475:7 1.67705
4 *475:5 *475:6 2.54005
5 *475:4 *475:5 3.05501008
6 *475:3 *475:4 2.85232
7 *817:ZN *475:3 0.688748
*END

*D_NET *476 0.00799831

*CONN
*I *816:ZN O *C 188.5 143 *L 0 *D NR2D0
*I *810:A1 I *C 242.1 143.2 *L 0.000556 *D CKAN2D0
*I *809:A1 I *C 242.1 141.6 *L 0.00069 *D INR2D0

*CAP
1 *809:A1 0.000399719
2 *476:3 0.000495673
3 *476:4 0.00254178
4 *476:6 0.00131338
5 *476:7 0.000266027
6 *476:8 0.000152387
7 *476:9 0.000158166
8 *476:10 9.42865e-05
9 *476:11 0.00035977
10 *476:12 6.23276e-05
11 *476:3 *659:Z 0.00172456
12 *476:4 *48:2 0.000430218984

*RES
1 *476:10 *476:11 2.26628
2 *476:9 *476:3 3.39266
3 *476:7 *476:8 1.63689
4 *476:6 *476:11 4.87837
5 *809:A1 *476:5 1.46193
6 *476:8 *476:9 1.25908
7 *476:3 *476:10 0.596219
8 *476:4 *476:12 19.2387009
9 *476:4 *476:7 2.04992
10 *816:ZN *476:6 0.644363
11 *810:A1 *476:5 0.450026
12 *476:5 *476:12 0.224866
*END

*D_NET *477 0.00723

*CONN
*I *815:ZN O *C 190.3 145.4 *L 0 *D NR2D1
*I *804:A2 I *C 210.1 139.6 *L 0.000728 *D AOI22D0
*I *794:A2 I *C 196.1 141.6 *L 0.000728 *D AOI22D0
*I *793:A2 I *C 217.1 139.6 *L 0.000728 *D AOI22D0
*I *791:A2 I *C 213.3 139.6 *L 0.000728 *D AOI22D0
*I *787:A2 I *C 207.7 139.6 *L 0.000728 *D AOI22D0
*I *784:A2 I *C 215.7 139.6 *L 0.000728 *D AOI22D0
*I *779:A2 I *C 201.1 141.6 *L 0.000728 *D AOI22D0
*I *776:A2 I *C 188.9 139.6 *L 0.000728 *D AOI22D0

*CAP
1 *794:A2 0.000124261
2 *793:A2 7.0202e-05
3 *791:A2 6.12837e-05
4 *784:A2 3.08021e-05
5 *779:A2 0.000108494
6 *776:A2 0.000510835
7 *477:9 1.38078e-05
8 *477:10 0.000268301
9 *477:11 0.000382884
10 *477:13 7.97888e-05
11 *477:14 0.000366539
12 *477:15 0.000353922
13 *477:16 0.000191414
14 *477:17 0.000118667
15 *477:18 0.000600063984
16 *477:19 0.000541655
17 *477:20 0.000436421
18 *477:9 *334:3 0.000368169023
19 *477:10 *585:Z 0.000733085
20 *791:A2 *131:3 0.000599394961
21 *477:9 *134:2 0.000204188008
22 *791:A2 *139:4 0.000320369004
23 *779:A2 *454:3 0.000165454004
24 *776:A2 *776:B2 0.000580007031

*RES
1 *477:9 *477:11 2.1932
2 *779:A2 *477:18 0.926788
3 *477:16 *477:17 1.51089
4 *804:A2 *477:15 0.67501
5 *477:13 *477:19 0.487418
6 *776:A2 *477:10 2.76211
7 *477:9 *477:18 4.78553009
8 *791:A2 *477:17 0.67501
9 *477:15 *477:17 2.01444
10 *794:A2 *477:19 1.10679
11 *793:A2 *477:16 1.78486
12 *477:18 *477:19 3.38841
13 *477:14 *477:20 0.492967
14 *477:13 *477:14 3.66786
15 *477:12 *477:20 1.65145
16 *784:A2 *477:16 0.67501
17 *477:11 *477:15 2.28068
18 *477:10 *477:20 1.3387
19 *815:ZN *477:12 0.224979
20 *787:A2 *477:11 0.450031
*END

*D_NET *478 0.0097269

*CONN
*I *814:ZN O *C 160.3 145.4 *L 0 *D NR2D1
*I *803:B2 I *C 119.5 139.6 *L 0.00105 *D AOI22D1
*I *802:B2 I *C 127.7 141.6 *L 0.00105 *D AOI22D1
*I *801:B2 I *C 116.5 143.2 *L 0.00105 *D AOI22D1
*I *798:B2 I *C 119.9 141.6 *L 0.00105 *D AOI22D1
*I *790:B2 I *C 140.3 141.6 *L 0.00105 *D AOI22D1
*I *782:B2 I *C 136.7 141.6 *L 0.00105 *D AOI22D1
*I *780:B2 I *C 133.3 141.6 *L 0.00105 *D AOI22D1
*I *777:B2 I *C 119.9 143.2 *L 0.00105 *D AOI22D1

*CAP
1 *814:ZN 0.000178062
2 *803:B2 0.000403985
3 *802:B2 0.000294402
4 *801:B2 0.000766549
5 *798:B2 3.6073e-05
6 *790:B2 4.6042e-05
7 *777:B2 1.87865e-06
8 *478:9 5.58746e-05
9 *478:10 0.000106447
10 *478:11 0.00063927
11 *478:12 0.000296826
12 *478:13 6.87373e-05
13 *478:14 0.000623711
14 *478:15 0.000410227
15 *478:16 0.000263798
16 *478:17 0.000413105
17 *478:18 0.000467722
18 *478:19 0.000477934
19 *478:20 0.000652254
20 *478:21 0.000289706
21 *478:22 0.000122097
22 *478:23 0.000195803
23 *478:24 0.00099288
24 *801:B2 *479:9 0.00156084
25 *478:14 *502:2 0.00036271

*RES
1 *478:15 *478:21 3.99605
2 *478:13 *478:14 4.64269018
3 *801:B2 *478:23 3.36973
4 *782:B2 *478:20 0.674981
5 *478:9 *478:10 0.950768
6 *478:14 *478:15 0.0925903
7 *478:18 *478:19 2.47521
8 *798:B2 *478:10 1.06744
9 *803:B2 *478:10 2.69929
10 *478:19 *478:23 0.647494
11 *802:B2 *478:22 1.99349
12 *478:16 *478:17 2.23301
13 *478:17 *478:22 0.402807
14 *777:B2 *478:9 0.599534
15 *478:12 *478:24 2.80293
16 *478:11 *478:20 2.36534
17 *814:ZN *478:24 2.97458
18 *478:11 *478:16 2.99038
19 *478:20 *478:21 2.67853
20 *478:18 *478:22 2.55243
21 *478:12 *478:13 2.2663
22 *790:B2 *478:21 0.674981
23 *780:B2 *478:11 0.449987
24 *478:9 *478:23 0.224994
*END

*D_NET *479 0.00865045

*CONN
*I *813:ZN O *C 158.3 143 *L 0 *D NR2D1
*I *803:A2 I *C 119.7 139.6 *L 0.00105 *D AOI22D1
*I *802:A2 I *C 127.9 141.6 *L 0.00105 *D AOI22D1
*I *801:A2 I *C 116.7 143.2 *L 0.00105 *D AOI22D1
*I *798:A2 I *C 120.1 141.6 *L 0.00105 *D AOI22D1
*I *790:A2 I *C 140.5 141.6 *L 0.00105 *D AOI22D1
*I *782:A2 I *C 136.9 141.6 *L 0.00105 *D AOI22D1
*I *780:A2 I *C 133.5 141.6 *L 0.00105 *D AOI22D1
*I *777:A2 I *C 120.1 143.2 *L 0.00105 *D AOI22D1

*CAP
1 *803:A2 0.000386432
2 *802:A2 5.10518e-05
3 *790:A2 9.13457e-05
4 *782:A2 0.000242327
5 *780:A2 0.000113248
6 *777:A2 3.52692e-06
7 *479:9 0.000627229
8 *479:10 0.00105542008
9 *479:11 0.000459724
10 *479:12 0.000218347
11 *479:13 7.00231e-05
12 *479:14 0.000480225
13 *479:15 0.00027977
14 *479:16 1.46875e-05
15 *479:17 0.000361792
16 *479:18 0.000339583
17 *479:19 0.000207106
18 *479:20 9.09753e-05
19 *479:21 0.000334848
20 *479:22 0.000261733
21 *479:23 0.000222196
22 *479:24 0.000148662
23 *802:A2 *494:5 0.000485166016
24 *479:9 *801:B2 0.00156084
25 *479:10 *790:ZN 0.000544205

*RES
1 *479:21 *479:22 2.14033
2 *782:A2 *479:21 1.44417
3 *479:9 *479:24 2.45127
4 *801:A2 *479:9 1.12459
5 *479:10 *479:20 0.14307
6 *813:ZN *479:11 1.37459
7 *479:12 *479:13 0.628835
8 *479:18 *479:23 2.4442
9 *802:A2 *479:23 1.15881
10 *790:A2 *479:20 1.38099
11 *803:A2 *479:13 2.38753
12 *479:14 *479:15 0.0925747
13 *479:20 *479:21 2.14033
14 *479:19 *479:24 0.983873
15 *479:17 *479:22 2.19239
16 *479:11 *479:14 3.58393
17 *479:18 *479:19 1.88852
18 *479:15 *479:16 2.39213
19 *479:16 *479:10 7.35390997
20 *479:17 *479:23 1.65344
21 *777:A2 *479:12 1.3103
22 *780:A2 *479:22 1.31434
23 *798:A2 *479:13 0.449969
24 *479:12 *479:24 0.224985
*END

*D_NET *480 0.00841535

*CONN
*I *812:ZN O *C 188.5 145.4 *L 0 *D NR2D1
*I *804:B2 I *C 209.9 139.6 *L 0.000718 *D AOI22D0
*I *794:B2 I *C 195.9 141.6 *L 0.000718 *D AOI22D0
*I *793:B2 I *C 216.9 139.6 *L 0.000718 *D AOI22D0
*I *791:B2 I *C 213.1 139.6 *L 0.000718 *D AOI22D0
*I *787:B2 I *C 207.5 139.6 *L 0.000718 *D AOI22D0
*I *784:B2 I *C 215.5 139.6 *L 0.000718 *D AOI22D0
*I *779:B2 I *C 200.9 141.6 *L 0.000718 *D AOI22D0
*I *776:B2 I *C 188.7 139.6 *L 0.000718 *D AOI22D0

*CAP
1 *812:ZN 2.34817e-05
2 *804:B2 7.00286e-05
3 *793:B2 0.000124636
4 *791:B2 0.000232214
5 *784:B2 0.00013628
6 *776:B2 0.000412944
7 *480:9 0.00037242
8 *480:10 0.000974586016
9 *480:11 0.000554399
10 *480:12 0.000194664
11 *480:13 0.000549893
12 *480:14 0.000311954
13 *480:15 0.000795997
14 *480:16 0.000406565
15 *480:17 0.000302882
16 *480:18 6.26376e-05
17 *480:10 *585:Z 0.000384493008
18 *776:B2 *776:A2 0.000580007031
19 *804:B2 *139:3 0.00121443
20 *812:ZN *140:2 0.000410748008
21 *480:10 *506:2 0.000300060996

*RES
1 *812:ZN *480:10 3.37206
2 *804:B2 *480:16 1.0689
3 *791:B2 *480:14 1.1545
4 *480:14 *480:17 1.80838
5 *779:B2 *480:15 1.80811
6 *480:10 *480:18 4.44856024
7 *480:13 *480:15 2.69163
8 *480:9 *480:12 1.19312
9 *793:B2 *480:17 2.71919
10 *776:B2 *480:10 2.83024
11 *480:11 *480:13 3.05519
12 *784:B2 *480:17 1.1545
13 *480:14 *480:16 2.28449
14 *480:9 *480:16 2.59993
15 *480:12 *480:15 3.73623
16 *794:B2 *480:11 0.449974
17 *787:B2 *480:9 0.449974
18 *480:11 *480:18 0.225021
*END

*D_NET *481 0.0172504

*CONN
*I *811:ZN O *C 157.1 142.8 *L 0 *D NR2XD1
*I *806:A2 I *C 56.3 139.6 *L 0.000728 *D AOI22D0
*I *800:A2 I *C 59.7 139.6 *L 0.000728 *D AOI22D0
*I *799:A2 I *C 51.1 139.6 *L 0.000728 *D AOI22D0
*I *796:A2 I *C 54.9 139.6 *L 0.000728 *D AOI22D0
*I *795:A2 I *C 69.9 141.6 *L 0.000728 *D AOI22D0
*I *789:A2 I *C 49.7 139.6 *L 0.000728 *D AOI22D0
*I *785:A2 I *C 69.9 139.6 *L 0.000728 *D AOI22D0
*I *778:A2 I *C 63.7 141.6 *L 0.000728 *D AOI22D0

*CAP
1 *811:ZN 5.35723e-05
2 *806:A2 5.49236e-05
3 *800:A2 6.58843e-05
4 *796:A2 4.46235e-05
5 *789:A2 0.000364526
6 *481:9 0.000577193
7 *481:10 0.000362814
8 *481:11 0.000305068
9 *481:12 0.000232427
10 *481:13 0.000534311
11 *481:14 0.000490619
12 *481:15 0.000891209
13 *481:16 0.000180566
14 *481:17 0.000794996
15 *481:18 0.000445845
16 *481:19 0.000200956
17 *481:20 0.000439929
18 *481:21 8.53733e-05
19 *481:22 0.000493562
20 *481:23 0.00196797
21 *481:24 0.000263147
22 *481:14 *234:2 0.00207577984
23 *789:A2 *614:I 0.00181905
24 *481:14 *372:2 0.000255703008
25 *811:ZN *484:10 0.00095321
26 *481:9 *238:10 0.00282487
27 *481:10 *343:3 0.000472293984

*RES
1 *481:22 *481:24 5.40418
2 *481:16 *481:17 3.05305
3 *811:ZN *481:9 0.450155
4 *481:18 *481:20 4.04965
5 *481:19 *481:21 1.11901
6 *481:13 *481:21 3.26188
7 *481:17 *481:18 1.47693
8 *481:14 *481:22 1.16599
9 *481:11 *481:12 1.32552
10 *778:A2 *481:18 1.83426
11 *481:12 *481:16 1.28433
12 *796:A2 *481:21 0.675232
13 *481:23 *481:24 1.83485
14 *481:10 *481:23 38.0172005
15 *481:19 *481:20 2.71717
16 *800:A2 *481:20 0.675232
17 *481:9 *481:10 3.76889
18 *789:A2 *481:13 2.44453
19 *806:A2 *481:19 0.675232
20 *481:11 *481:15 6.44487
21 *481:14 *481:15 2.18
22 *799:A2 *481:13 0.450155
23 *785:A2 *481:12 0.450155
24 *795:A2 *481:11 0.450155
*END

*D_NET *482 0.00610181

*CONN
*I *810:Z O *C 242.9 143 *L 0 *D CKAN2D0
*I *807:B2 I *C 263.1 139.6 *L 0.000718 *D AOI22D0
*I *805:B2 I *C 252.7 139.6 *L 0.000718 *D AOI22D0
*I *797:B2 I *C 277.1 139.6 *L 0.000718 *D AOI22D0
*I *792:B2 I *C 269.5 139.6 *L 0.00105 *D AOI22D1
*I *788:B2 I *C 274.9 139.6 *L 0.000718 *D AOI22D0
*I *786:B2 I *C 255.7 139.6 *L 0.00105 *D AOI22D1
*I *783:B2 I *C 260.7 139.6 *L 0.000718 *D AOI22D0
*I *781:B2 I *C 272.3 139.6 *L 0.00105 *D AOI22D1

*CAP
1 *810:Z 0.000579184
2 *797:B2 0.000157221
3 *788:B2 0.000118981
4 *781:B2 0.000104903
5 *482:9 0.000384136
6 *482:10 5.22444e-05
7 *482:11 0.000969102031
8 *482:12 0.000474518
9 *482:13 6.17676e-05
10 *482:14 0.000100422
11 *482:15 0.000451124
12 *482:16 0.000584848
13 *482:17 0.000485372
14 *482:18 0.000500544
15 *482:19 0.000191129
16 *781:B2 *483:9 0.000669685
17 *482:9 *338:6 0.000216636992

*RES
1 *805:B2 *482:15 1.05274
2 *482:9 *482:12 2.81326
3 *482:16 *482:17 2.03858
4 *482:15 *482:18 1.9573
5 *482:12 *482:17 2.1237
6 *783:B2 *482:16 0.979837
7 *810:Z *482:10 4.32742023
8 *482:13 *482:16 0.625183
9 *482:10 *482:11 2.74307
10 *786:B2 *482:18 1.05274
11 *482:14 *482:19 1.63678
12 *482:9 *482:19 2.41542
13 *781:B2 *482:19 1.10279
14 *482:13 *482:18 2.66066
15 *788:B2 *482:14 1.10279
16 *482:11 *482:15 2.86899
17 *797:B2 *482:14 2.48773
18 *807:B2 *482:17 1.08852
19 *792:B2 *482:9 0.450003
*END

*D_NET *483 0.00567008

*CONN
*I *809:ZN O *C 242.7 141 *L 0 *D INR2D0
*I *807:A2 I *C 263.3 139.6 *L 0.000728 *D AOI22D0
*I *805:A2 I *C 252.9 139.6 *L 0.000728 *D AOI22D0
*I *797:A2 I *C 277.3 139.6 *L 0.000728 *D AOI22D0
*I *792:A2 I *C 269.7 139.6 *L 0.00105 *D AOI22D1
*I *788:A2 I *C 275.1 139.6 *L 0.000728 *D AOI22D0
*I *786:A2 I *C 255.9 139.6 *L 0.00105 *D AOI22D1
*I *783:A2 I *C 260.9 139.6 *L 0.000728 *D AOI22D0
*I *781:A2 I *C 272.5 139.6 *L 0.00105 *D AOI22D1

*CAP
1 *807:A2 5.92112e-06
2 *805:A2 0.000182548
3 *797:A2 0.000112793
4 *786:A2 0.000176584
5 *483:9 0.000371572
6 *483:10 1.83759e-05
7 *483:11 0.000955765
8 *483:12 0.00073995
9 *483:13 0.000234847
10 *483:14 0.000326872
11 *483:15 0.000303683
12 *483:16 0.000344431
13 *483:17 0.000145213
14 *483:18 0.000353371
15 *483:19 0.000327776
16 *797:A2 *228:3 0.000400693008
17 *483:9 *781:B2 0.000669685

*RES
1 *483:15 *483:9 1.63672
2 *483:10 *483:12 0.503621
3 *483:13 *483:14 2.39215
4 *483:9 *483:16 1.76824
5 *483:14 *483:18 0.967147
6 *805:A2 *483:17 1.17866
7 *781:A2 *483:9 0.834825
8 *786:A2 *483:19 1.17866
9 *792:A2 *483:16 0.834825
10 *483:13 *483:16 1.386
11 *483:12 *483:18 2.63769
12 *483:10 *483:19 3.37263
13 *788:A2 *483:15 0.834825
14 *483:17 *483:19 1.88853
15 *483:11 *483:17 6.52020979
16 *797:A2 *483:15 2.21973
17 *807:A2 *483:18 0.816618
18 *809:ZN *483:11 0.492379
19 *783:A2 *483:12 0.449996
*END

*D_NET *484 0.0191217

*CONN
*I *808:ZN O *C 159.015 142.855 *L 0 *D NR2D2
*I *806:B2 I *C 56.5 139.6 *L 0.000718 *D AOI22D0
*I *800:B2 I *C 59.5 139.6 *L 0.000718 *D AOI22D0
*I *799:B2 I *C 51.3 139.6 *L 0.000718 *D AOI22D0
*I *796:B2 I *C 54.7 139.6 *L 0.000718 *D AOI22D0
*I *795:B2 I *C 69.7 141.6 *L 0.000718 *D AOI22D0
*I *789:B2 I *C 49.9 139.6 *L 0.000718 *D AOI22D0
*I *785:B2 I *C 69.7 139.6 *L 0.000718 *D AOI22D0
*I *778:B2 I *C 63.5 141.6 *L 0.000718 *D AOI22D0

*CAP
1 *808:ZN 0.000211348
2 *806:B2 0.000149248
3 *800:B2 0.000169666
4 *796:B2 8.08864e-05
5 *789:B2 0.000386232
6 *785:B2 0.000103717
7 *484:9 0.00427491
8 *484:10 0.00120181
9 *484:11 8.11473e-05
10 *484:12 0.00042511
11 *484:13 0.000138681
12 *484:14 0.000289104
13 *484:15 2.55053e-05
14 *484:16 0.000334243
15 *484:17 0.000260271
16 *484:18 0.000195628
17 *484:19 0.000118198
18 *484:20 0.000612975
19 *484:21 0.000701494
20 *484:22 5.55768e-05
21 *484:23 0.000177885
22 *484:24 0.000227721
23 *484:9 *236:5 0.00217858
24 *484:10 *811:ZN 0.00095321
25 *484:11 *367:2 0.00132742
26 *484:12 *491:5 0.000362796016
27 *484:13 *241:2 0.00407827

*RES
1 *484:9 *484:19 1.32127
2 *808:ZN *484:10 3.01401
3 *800:B2 *484:22 1.11987
4 *806:B2 *484:23 1.11987
5 *484:13 *484:10 2.51402
6 *484:20 *484:21 2.66292
7 *484:13 *484:12 2.62766
8 *484:23 *484:24 1.4545
9 *484:18 *484:24 3.71931
10 *484:14 *484:19 2.5438
11 *484:12 *484:9 51.358799
12 *484:15 *484:16 1.66922
13 *484:22 *484:23 2.39726
14 *789:B2 *484:18 1.88082
15 *484:20 *484:22 0.647314
16 *484:11 *484:21 4.12839
17 *484:11 *484:17 0.799347
18 *796:B2 *484:24 1.11987
19 *484:15 *484:17 2.88784
20 *785:B2 *484:11 1.2335
21 *484:14 *484:16 1.0321
22 *778:B2 *484:21 1.45998
23 *799:B2 *484:18 0.449828
24 *795:B2 *484:17 0.449828
*END

*D_NET *485 0.000741152

*CONN
*I *718:I I *C 262.7 141.6 *L 0.00104 *D DEL0
*I *807:ZN O *C 262.7 139.2 *L 0 *D AOI22D0

*CAP
1 *718:I 0.000379015
2 *807:ZN 0.000115136
3 *485:2 0.000247003

*RES
1 *807:ZN *485:2 1.30702
2 *718:I *485:2 3.42270994
*END

*D_NET *486 0.00100504

*CONN
*I *766:I I *C 56.9 143.2 *L 0.00103 *D BUFFD2
*I *806:ZN O *C 56.9 139.2 *L 0 *D AOI22D0

*CAP
1 *766:I 0.000771595
2 *806:ZN 0.000233451

*RES
1 *766:I *806:ZN 3.93635
*END

*D_NET *487 1.0662e-05

*CONN
*I *574:I I *C 253.7 139.6 *L 0.000643 *D CKBD0
*I *805:ZN O *C 252.3 139.2 *L 0 *D AOI22D0

*CAP
1 *805:ZN 1.06619995e-05

*RES
1 *805:ZN *574:I 0.160925
*END

*D_NET *488 0.00057234

*CONN
*I *804:ZN O *C 209.5 139.2 *L 0 *D AOI22D0
*I *775:A3 I *C 210.5 141.8 *L 0.00103 *D ND4D1

*CAP
1 *804:ZN 0.00057234

*RES
1 *804:ZN *775:A3 2.25206
*END

*D_NET *489 0.0144842

*CONN
*I *803:ZN O *C 119.9 140 *L 0 *D AOI22D1
*I *770:A2 I *C 187.3 141.8 *L 0.00103 *D ND4D1

*CAP
1 *770:A2 0.000117161
2 *489:2 0.000735822
3 *489:3 1.56194e-05
4 *489:4 0.000713907
5 *489:6 0.00196472
6 *489:7 0.00011812
7 *489:9 0.000504498
8 *489:10 1.67886e-06
9 *489:11 0.000438843
10 *489:12 5.99894e-05
11 *489:13 0.000149269
12 *489:15 0.000830438
13 *489:16 5.57323e-05
14 *489:2 *406:2 0.00541747
15 *489:2 *410:2 0.0033609

*RES
1 *489:6 *489:7 0.0381921
2 *489:7 *489:8 1.90202
3 *803:ZN *489:15 2.05928
4 *489:14 *489:15 6.73557
5 *489:10 *489:11 7.2096
6 *489:4 *489:5 0.0381921
7 *489:3 *489:4 13.5604
8 *489:5 *489:6 18.4041004
9 *489:8 *489:9 8.46404
10 *489:2 *489:3 1.00928
11 *489:11 *489:12 0.0384729
12 *489:12 *489:13 1.62316
13 *770:A2 *489:16 0.910152
14 *489:9 *489:10 0.0384729
15 *489:13 *489:14 2.73804
16 *489:2 *489:16 3.17837
*END

*D_NET *490 0.0115688

*CONN
*I *802:ZN O *C 128.1 141.2 *L 0 *D AOI22D1
*I *775:A2 I *C 210.3 141.8 *L 0.00103 *D ND4D1

*CAP
1 *802:ZN 0.00041835
2 *775:A2 0.00108807
3 *490:2 0.000142738
4 *490:3 0.00422508
5 *490:4 7.60753e-06
6 *490:5 0.000107601
7 *490:6 0.00083599
8 *490:3 *494:2 0.00206259984
9 *490:2 *29:2 0.00268071

*RES
1 *490:5 *490:6 4.62494
2 *490:2 *490:3 62.8969002
3 *802:ZN *490:6 2.00776
4 *490:2 *490:4 2.25729
5 *775:A2 *490:4 5.124
6 *490:3 *490:5 0.99716
*END

*D_NET *491 0.0115396

*CONN
*I *801:ZN O *C 116.9 143.6 *L 0 *D AOI22D1
*I *769:A4 I *C 196.1 143.2 *L 0.00102 *D ND4D1

*CAP
1 *801:ZN 0.000112528
2 *769:A4 0.00091189
3 *491:2 3.09194e-05
4 *491:3 6.82395e-05
5 *491:4 0.000533631
6 *491:5 0.000418625
7 *491:6 0.00338281
8 *491:7 6.8033e-05
9 *769:A4 *141:3 0.00103845
10 *491:3 *241:3 0.000432771992
11 *491:2 *398:3 0.00217104
12 *491:5 *484:12 0.000362796016
13 *491:2 *142:2 0.00200781984

*RES
1 *491:2 *491:6 52.8051987
2 *491:5 *491:6 4.04403
3 *491:3 *491:4 5.75865
4 *491:4 *491:2 1.22634
5 *491:3 *491:7 1.31658
6 *769:A4 *491:7 4.13105
7 *801:ZN *491:5 1.08292
*END

*D_NET *492 0.000734386

*CONN
*I *765:I I *C 59.5 141.6 *L 0.000968 *D CKBD1
*I *800:ZN O *C 59.1 139.2 *L 0 *D AOI22D0

*CAP
1 *765:I 0.000146063
2 *800:ZN 5.57539e-06
3 *492:2 0.000582748008

*RES
1 *800:ZN *492:2 0.328095
2 *765:I *492:2 2.95723009
*END

*D_NET *493 0.00105616

*CONN
*I *764:I I *C 52.7 143.2 *L 0.000968 *D CKBD1
*I *799:ZN O *C 51.7 139.2 *L 0 *D AOI22D0

*CAP
1 *799:ZN 0.000200167
2 *493:2 0.000855985

*RES
1 *799:ZN *493:2 1.13887
2 *764:I *493:2 3.36777997
*END

*D_NET *494 0.0117345

*CONN
*I *798:ZN O *C 120.3 141.2 *L 0 *D AOI22D1
*I *774:A4 I *C 205.1 141.6 *L 0.00102 *D ND4D1

*CAP
1 *774:A4 0.00039846
2 *494:2 0.000519568
3 *494:4 0.0043205
4 *494:5 0.000302076
5 *494:6 6.07843e-05
6 *494:7 0.000836147
7 *494:8 0.000610414
8 *494:9 0.000401889
9 *494:2 *240:3 0.00173684
10 *494:5 *802:A2 0.000485166016
11 *494:2 *490:3 0.00206259984

*RES
1 *494:8 *494:9 2.50959
2 *494:6 *494:7 4.37609
3 *494:5 *494:9 3.04989
4 *494:4 *494:6 0.871398
5 *494:2 *494:3 0.289253
6 *494:5 *494:7 1.49175
7 *494:3 *494:4 59.611599
8 *774:A4 *494:2 6.88204
9 *798:ZN *494:8 0.224671
*END

*D_NET *495 0.00881832

*CONN
*I *797:ZN O *C 276.7 139.2 *L 0 *D AOI22D0
*I *773:A4 I *C 215.7 141.6 *L 0.00102 *D ND4D1

*CAP
1 *797:ZN 2.68024e-05
2 *773:A4 1.04437e-05
3 *495:2 0.00605688
4 *495:3 0.000202035
5 *495:4 0.000451759
6 *495:2 *338:3 0.000477038008
7 *495:2 *61:5 0.000184469004
8 *495:3 *500:6 0.000330624023
9 *495:3 *69:6 0.00107831

*RES
1 *797:ZN *495:3 1.54304
2 *495:2 *495:4 2.53331
3 *495:3 *495:2 45.5107002
4 *773:A4 *495:4 1.75693
*END

*D_NET *496 0.00169273

*CONN
*I *763:I I *C 58.3 143.2 *L 0.000968 *D CKBD1
*I *796:ZN O *C 54.3 139.2 *L 0 *D AOI22D0

*CAP
1 *763:I 8.01177e-05
2 *496:2 0.000524427
3 *496:3 0.00108818992

*RES
1 *496:2 *496:3 2.46251011
2 *796:ZN *496:3 1.56875
3 *763:I *496:2 2.00545
*END

*D_NET *497 0.00496634

*CONN
*I *762:I I *C 103.9 141.6 *L 0.000968 *D CKBD1
*I *795:ZN O *C 69.3 142 *L 0 *D AOI22D0

*CAP
1 *762:I 0.000169834
2 *497:2 0.00116813
3 *497:3 0.000369397
4 *497:4 0.00119451
5 *497:5 2.04546e-05
6 *497:6 0.000631978
7 *497:7 3.99671e-05
8 *497:8 0.00137205

*RES
1 *497:7 *497:8 5.96445
2 *795:ZN *497:2 0.929263
3 *497:6 *497:7 0.0925578
4 *497:5 *497:6 3.43274
5 *497:4 *497:5 0.0925578
6 *497:3 *497:4 6.90086985
7 *497:2 *497:8 4.55776
8 *762:I *497:3 2.54686
*END

*D_NET *498 0.000334389

*CONN
*I *794:ZN O *C 195.5 142 *L 0 *D AOI22D0
*I *769:A2 I *C 195.5 143 *L 0.00103 *D ND4D1

*CAP
1 *769:A2 0.000334388984

*RES
1 *794:ZN *769:A2 1.84823
*END

*D_NET *499 0.000815331

*CONN
*I *793:ZN O *C 216.5 139.2 *L 0 *D AOI22D0
*I *773:A3 I *C 215.3 141.8 *L 0.00103 *D ND4D1

*CAP
1 *773:A3 0.000815331016

*RES
1 *773:A3 *793:ZN 3.64004
*END

*D_NET *500 0.0102098

*CONN
*I *792:ZN O *C 269.9 140 *L 0 *D AOI22D1
*I *775:A4 I *C 210.9 141.6 *L 0.00102 *D ND4D1

*CAP
1 *500:2 0.000910655
2 *500:3 0.000429043
3 *500:4 0.000870614
4 *500:6 0.000827058
5 *500:7 2.47479e-05
6 *500:8 0.00223704
7 *500:9 0.000348894
8 *500:3 *69:2 0.00142223
9 *500:6 *495:3 0.000330624023
10 *500:3 *511:2 0.00241003984
11 *500:2 *663:I 0.000398849023

*RES
1 *500:9 *500:2 1.79656
2 *500:8 *500:9 2.05612
3 *500:3 *500:4 16.2973
4 *500:7 *500:8 17.8122997
5 *500:5 *500:6 9.30243
6 *500:4 *500:5 0.115513
7 *500:2 *500:11 3.33029
8 *500:6 *500:7 0.115513
9 *500:3 *500:10 1.93816
10 *775:A4 *500:11 0.225046
11 *792:ZN *500:10 0.225046
*END

*D_NET *501 0.000787525

*CONN
*I *791:ZN O *C 212.7 139.2 *L 0 *D AOI22D0
*I *768:A2 I *C 212.9 141.8 *L 0.00103 *D ND4D1

*CAP
1 *791:ZN 0.000787525

*RES
1 *768:A2 *791:ZN 2.6261
*END

*D_NET *502 0.014114

*CONN
*I *790:ZN O *C 140.7 141.2 *L 0 *D AOI22D1
*I *773:A1 I *C 214.7 141.8 *L 0.000996 *D ND4D1

*CAP
1 *790:ZN 0.000275091
2 *773:A1 0.00042581
3 *502:2 0.00121797
4 *502:3 0.0033079
5 *502:4 0.000735627
6 *502:5 2.54396e-05
7 *502:6 0.000389569
8 *502:7 2.57424e-06
9 *502:8 9.11079e-05
10 *502:7 *239:5 0.00249165016
11 *790:ZN *479:10 0.000544205
12 *502:4 *512:3 0.00185309
13 *502:2 *478:14 0.00036271
14 *502:3 *44:2 0.00239123984

*RES
1 *502:2 *502:8 3.22389
2 *502:3 *502:2 4.39236
3 *502:4 *502:5 0.907764
4 *502:7 *502:3 41.3708
5 *502:5 *502:6 13.7951
6 *773:A1 *502:4 4.64803
7 *790:ZN *502:8 2.17219
8 *502:6 *502:7 0.115522
*END

*D_NET *503 0.00246947

*CONN
*I *761:I I *C 61.3 143.2 *L 0.000643 *D CKBD0
*I *789:ZN O *C 50.3 139.2 *L 0 *D AOI22D0

*CAP
1 *503:2 0.000692018
2 *503:3 0.00177744

*RES
1 *503:2 *503:3 8.16364956
2 *761:I *503:2 2.96807
3 *789:ZN *503:3 0.609882
*END

*D_NET *504 0.00748315

*CONN
*I *788:ZN O *C 274.5 139.2 *L 0 *D AOI22D0
*I *771:A4 I *C 219.5 141.6 *L 0.00102 *D ND4D1

*CAP
1 *788:ZN 0.000486145
2 *771:A4 0.000272307
3 *504:2 2.00413e-05
4 *504:3 0.00114110008
5 *504:4 0.000147863
6 *504:5 0.000612574
7 *504:6 0.000240687
8 *504:7 0.000111542
9 *504:8 3.30829e-07
10 *504:9 0.000361022
11 *504:10 8.9498e-06
12 *504:11 0.000526175
13 *504:12 4.58286e-05
14 *504:2 *228:3 0.0021346
15 *504:3 *134:3 0.000443603008
16 *504:4 *454:5 0.000634436016
17 *504:5 *135:2 0.000295955

*RES
1 *504:6 *504:7 2.26635
2 *504:10 *504:11 3.44211
3 *504:5 *504:6 0.0925878
4 *504:2 *504:5 5.30651
5 *504:8 *504:9 6.83216
6 *504:7 *504:3 12.1843996
7 *504:3 *504:8 0.0925878
8 *504:11 *504:12 0.0925878
9 *788:ZN *504:2 2.41955
10 *504:9 *504:10 0.0925878
11 *504:12 *504:4 4.50073
12 *771:A4 *504:4 2.99497
*END

*D_NET *505 0.00078461

*CONN
*I *787:ZN O *C 207.1 139.2 *L 0 *D AOI22D0
*I *774:A1 I *C 206.1 141.8 *L 0.000996 *D ND4D1

*CAP
1 *787:ZN 0.00078461

*RES
1 *787:ZN *774:A1 2.92705
*END

*D_NET *506 0.0101673

*CONN
*I *786:ZN O *C 256.1 140 *L 0 *D AOI22D1
*I *769:A3 I *C 195.7 143 *L 0.00103 *D ND4D1

*CAP
1 *506:2 0.0048044
2 *506:3 0.000157984
3 *506:4 0.000579006
4 *506:6 0.000398955
5 *506:3 *65:4 0.000648940039
6 *506:2 *124:3 0.000718598984
7 *506:2 *395:3 0.000527517969
8 *506:3 *511:2 0.00203181
9 *506:2 *480:10 0.000300060996

*RES
1 *506:4 *506:6 2.28736
2 *506:2 *506:5 5.68039
3 *506:3 *506:4 2.88487
4 *506:3 *506:2 43.7038994
5 *786:ZN *506:6 1.45711
6 *769:A3 *506:5 0.224735
*END

*D_NET *507 0.00103057

*CONN
*I *760:I I *C 74.3 141.6 *L 0.000968 *D CKBD1
*I *785:ZN O *C 69.3 139.2 *L 0 *D AOI22D0

*CAP
1 *760:I 0.000125872
2 *507:2 0.000904693984

*RES
1 *760:I *507:2 1.82302
2 *785:ZN *507:2 3.11160994
*END

*D_NET *508 0.00136812

*CONN
*I *784:ZN O *C 215.1 139.2 *L 0 *D AOI22D0
*I *771:A3 I *C 219.1 141.8 *L 0.00103 *D ND4D1

*CAP
1 *784:ZN 0.000305093
2 *771:A3 0.000241608
3 *508:2 0.000821423984

*RES
1 *771:A3 *508:2 3.79436994
2 *784:ZN *508:2 1.36343
*END

*D_NET *509 0.000451269

*CONN
*I *717:I I *C 260.1 141.6 *L 0.00104 *D DEL0
*I *783:ZN O *C 260.3 139.2 *L 0 *D AOI22D0

*CAP
1 *717:I 6.22598e-05
2 *783:ZN 3.51605e-05
3 *509:2 0.000353846016

*RES
1 *783:ZN *509:2 0.491074
2 *717:I *509:2 2.2922399
*END

*D_NET *510 0.0133501

*CONN
*I *782:ZN O *C 137.1 141.2 *L 0 *D AOI22D1
*I *771:A1 I *C 218.5 141.8 *L 0.000996 *D ND4D1

*CAP
1 *782:ZN 0.000524501
2 *771:A1 0.000747728
3 *510:2 0.00116315
4 *510:3 0.000171241
5 *510:4 4.42439e-05
6 *510:5 0.000123785
7 *510:6 0.00108524
8 *510:7 7.99201e-05
9 *510:8 0.00146219
10 *510:9 0.000392572
11 *510:10 0.000506451
12 *510:11 4.27267e-05
13 *510:6 *140:4 0.00248329
14 *510:2 *591:I 0.00180511
15 *510:7 *398:3 0.00159879
16 *510:4 *512:4 0.000712486016
17 *510:2 *237:2 0.000406673984

*RES
1 *510:10 *510:11 2.52682
2 *510:5 *510:6 17.1874
3 *510:8 *510:11 0.619545
4 *510:3 *510:4 1.54558
5 *510:7 *510:8 25.2975006
6 *510:6 *510:7 1.81617
7 *510:2 *510:5 2.29405
8 *510:4 *510:2 15.4948
9 *510:3 *510:9 2.59167
10 *771:A1 *510:9 2.8916
11 *782:ZN *510:10 2.10028
*END

*D_NET *511 0.00935521

*CONN
*I *781:ZN O *C 272.7 140 *L 0 *D AOI22D1
*I *768:A4 I *C 213.5 141.6 *L 0.00102 *D ND4D1

*CAP
1 *781:ZN 0.00014924
2 *768:A4 2.25363e-05
3 *511:2 0.0036467
4 *511:3 4.34032e-06
5 *511:4 0.000237716
6 *511:5 0.000406543
7 *511:2 *68:10 0.000446326992
8 *511:2 *506:3 0.00203181
9 *511:2 *500:3 0.00241003984

*RES
1 *511:3 *511:5 3.12052
2 *781:ZN *511:4 2.65017
3 *768:A4 *511:3 0.467637
4 *511:2 *511:4 44.5451012
5 *511:2 *511:5 0.224982
*END

*D_NET *512 0.013688

*CONN
*I *780:ZN O *C 133.7 141.2 *L 0 *D AOI22D1
*I *768:A3 I *C 213.1 141.8 *L 0.00103 *D ND4D1

*CAP
1 *512:2 0.00190185
2 *512:3 0.000901605
3 *512:4 0.00102224
4 *512:5 1.95307e-05
5 *512:8 8.06476e-05
6 *512:9 3.80167e-06
7 *512:10 0.000630874
8 *512:11 7.94288e-05
9 *512:12 0.000819158
10 *512:2 *44:2 0.00265117
11 *512:3 *502:4 0.00185309
12 *512:4 *510:4 0.000712486016
13 *512:5 *140:4 0.00244458
14 *512:4 *235:3 0.000567570977

*RES
1 *512:6 *512:4 13.157
2 *512:9 *512:10 9.08529
3 *512:2 *512:9 0.123401
4 *512:5 *512:2 37.0974007
5 *512:7 *512:8 4.98587
6 *512:4 *512:7 0.115477
7 *512:11 *512:12 3.87639
8 *512:10 *512:11 0.927775
9 *512:8 *512:5 0.115477
10 *512:6 *512:3 4.34282
11 *780:ZN *512:12 0.224726
12 *768:A3 *512:3 0.450019
*END

*D_NET *513 0.00084296

*CONN
*I *779:ZN O *C 200.5 142 *L 0 *D AOI22D0
*I *772:A3 I *C 200.5 143 *L 0.00103 *D ND4D1

*CAP
1 *779:ZN 5.93124e-05
2 *772:A3 0.000327096
3 *513:2 0.000456546992

*RES
1 *779:ZN *513:2 0.992679
2 *772:A3 *513:2 2.42259002
*END

*D_NET *514 0.000313326

*CONN
*I *759:I I *C 63.9 143.2 *L 0.000968 *D CKBD1
*I *778:ZN O *C 63.1 142 *L 0 *D AOI22D0

*CAP
1 *759:I 2.34095e-07
2 *778:ZN 0.00031309

*RES
1 *778:ZN *759:I 1.68468
*END

*D_NET *515 0.0130955

*CONN
*I *777:ZN O *C 120.3 143.6 *L 0 *D AOI22D1
*I *772:A2 I *C 200.3 143 *L 0.00103 *D ND4D1

*CAP
1 *777:ZN 0.000232573
2 *515:2 0.000819111
3 *515:3 0.00131974
4 *515:4 0.00026427
5 *515:5 0.000232734
6 *515:6 0.000395952
7 *515:7 3.27242e-05
8 *515:8 0.00116742
9 *515:9 0.000102361
10 *515:10 0.000928399
11 *515:11 2.90792e-05
12 *515:12 0.000442169
13 *515:13 0.000319166
14 *515:14 0.000352897
15 *515:15 3.37713e-05
16 *515:16 0.000467925
17 *515:17 0.00126976
18 *515:19 0.000641132
19 *515:3 *49:3 0.000620741016
20 *515:12 *55:2 0.000628791992
21 *515:8 *196:2 0.000203851992
22 *515:13 *434:3 0.000216751992
23 *515:2 *143:2 0.00237416

*RES
1 *515:14 *515:15 0.115719
2 *515:3 *515:2 9.76839
3 *515:4 *515:5 2.93712
4 *515:17 *515:18 3.77622
5 *515:16 *515:17 2.84746
6 *515:15 *515:16 5.31156
7 *515:9 *515:10 7.30483
8 *515:2 *515:4 2.43449
9 *515:7 *515:8 17.9710007
10 *515:5 *515:6 3.59442
11 *515:6 *515:7 0.115719
12 *515:18 *515:19 2.28312
13 *515:12 *515:13 3.11153
14 *777:ZN *515:19 0.970998
15 *515:10 *515:11 0.115719
16 *772:A2 *515:3 6.21784
17 *515:8 *515:9 0.115719
18 *515:13 *515:14 3.44004
19 *515:11 *515:12 4.58132
*END

*D_NET *516 0.000900877

*CONN
*I *776:ZN O *C 188.3 139.2 *L 0 *D AOI22D0
*I *770:A3 I *C 187.5 141.8 *L 0.00103 *D ND4D1

*CAP
1 *770:A3 0.000589371016
2 *516:2 0.000311507

*RES
1 *770:A3 *516:2 3.53688002
2 *776:ZN *516:2 0.224995
*END

*D_NET *517 0.00441295

*CONN
*I *805:A1 I *C 253.3 139.6 *L 0.000665 *D AOI22D0
*I *767:Q[7] O *C 285.725 134.265 *L 0 *D sram00

*CAP
1 *517:2 0.000126206
2 *517:3 3.32945e-05
3 *517:4 8.91162e-05
4 *517:5 0.000936283
5 *517:6 0.00111268
6 *517:7 3.94944e-06
7 *517:8 0.00144596
8 *517:9 2.68297e-05
9 *517:10 0.000243718
10 *517:11 2.22625e-05
11 *517:12 0.000357105
12 *517:13 1.5533e-05

*RES
1 *517:11 *517:12 2.04778
2 *517:10 *517:11 0.092595
3 *517:9 *517:10 1.17798
4 *517:5 *517:13 1.82122
5 *517:4 *517:6 6.97223
6 *517:12 *517:13 0.220189
7 *517:8 *517:9 0.092595
8 *517:7 *517:8 9.60203
9 *517:6 *517:7 0.092595
10 *517:3 *517:5 3.2467
11 *805:A1 *517:2 0.225
12 *517:2 *517:3 0.225
13 *517:13 *767:Q[7] 0.0001
*END

*D_NET *518 0.00486686

*CONN
*I *786:A1 I *C 256.3 139.6 *L 0.000982 *D AOI22D1
*I *767:Q[6] O *C 288.315 134.265 *L 0 *D sram00

*CAP
1 *518:2 0.00194224
2 *518:3 5.06962e-05
3 *518:4 0.000201385
4 *518:5 4.26915e-05
5 *518:6 0.00213246016
6 *518:7 0.000145548
7 *518:8 0.000351847

*RES
1 *518:6 *518:7 0.092595
2 *518:4 *518:5 0.092595
3 *518:3 *518:4 0.967107
4 *518:2 *518:7 8.42543
5 *786:A1 *518:2 1.82175
6 *518:5 *518:6 11.2388
7 *518:3 *518:8 2.07264
8 *518:8 *767:Q[6] 0.0001
*END

*D_NET *519 0.00485088

*CONN
*I *783:A1 I *C 261.3 139.6 *L 0.000665 *D AOI22D0
*I *767:Q[5] O *C 294.125 134.265 *L 0 *D sram00

*CAP
1 *783:A1 6.94384e-06
2 *519:2 0.00109075
3 *519:3 7.29291e-05
4 *519:4 0.00245981
5 *519:5 0.000349069
6 *519:6 0.000103482
7 *519:7 1.52765e-05
8 *519:8 0.000271973
9 *519:9 4.42905e-06
10 *519:10 0.000476198

*RES
1 *519:9 *519:10 0.821899
2 *519:8 *519:9 1.45328
3 *519:6 *519:7 0.092595
4 *519:4 *519:5 1.46395
5 *519:3 *519:4 14.6287
6 *519:2 *519:7 4.60901
7 *783:A1 *519:2 0.350904
8 *519:5 *519:6 0.66283
9 *519:3 *519:10 1.84896
10 *519:10 *767:Q[5] 0.0001
*END

*D_NET *520 0.00447503

*CONN
*I *807:A1 I *C 263.7 139.6 *L 0.000665 *D AOI22D0
*I *767:Q[4] O *C 296.715 134.265 *L 0 *D sram00

*CAP
1 *520:2 0.000466906
2 *520:3 4.39381e-05
3 *520:4 2.3188e-05
4 *520:5 0.00107138
5 *520:6 0.00185773
6 *520:7 1.23027e-05
7 *520:8 0.000954335
8 *520:9 4.5242e-05

*RES
1 *520:4 *520:6 12.2669
2 *520:2 *520:3 2.49382
3 *520:8 *520:9 0.092595
4 *520:7 *520:8 4.88794
5 *520:6 *520:7 0.092595
6 *520:5 *520:9 4.27059
7 *520:3 *520:4 0.142559
8 *807:A1 *520:5 1.01624
9 *520:9 *767:Q[4] 0.0001
*END

*D_NET *521 0.00488726

*CONN
*I *792:A1 I *C 270.1 139.6 *L 0.000982 *D AOI22D1
*I *767:Q[3] O *C 302.525 134.265 *L 0 *D sram00

*CAP
1 *521:2 0.000374619
2 *521:4 4.52365e-06
3 *521:5 0.000375501
4 *521:6 0.000691428
5 *521:7 0.00251235016
6 *521:8 0.000347708
7 *521:9 0.000327466
8 *521:10 0.000253631

*RES
1 *521:9 *521:10 1.07655
2 *521:2 *521:3 1.95689
3 *521:8 *521:9 1.54416
4 *521:7 *521:8 1.34745
5 *521:4 *521:5 0.237325
6 *521:3 *521:4 0.159213
7 *792:A1 *521:6 1.64476
8 *521:6 *521:10 1.38052
9 *521:5 *521:7 15.7279
10 *521:10 *767:Q[3] 0.0001
*END

*D_NET *522 0.0047396

*CONN
*I *781:A1 I *C 272.9 139.6 *L 0.000982 *D AOI22D1
*I *767:Q[2] O *C 305.115 134.265 *L 0 *D sram00

*CAP
1 *522:2 0.00270105
2 *522:3 2.34516e-05
3 *522:4 9.71034e-05
4 *522:5 6.35953e-05
5 *522:6 0.000441746
6 *522:7 6.75932e-06
7 *522:8 0.000686731
8 *522:9 3.26426e-05
9 *522:10 0.000390557
10 *522:11 1.14167e-05
11 *522:12 0.000256813
12 *522:13 2.76967e-05

*RES
1 *522:7 *522:8 3.37493
2 *522:12 *522:13 1.8643
3 *522:3 *522:13 0.367559
4 *522:5 *522:6 3.05501
5 *522:4 *522:5 0.092595
6 *522:6 *522:7 0.092595
7 *522:10 *522:11 0.092595
8 *522:8 *522:9 0.092595
9 *522:9 *522:10 2.42549
10 *781:A1 *522:2 1.60995
11 *522:2 *522:11 10.6247
12 *522:3 *522:4 1.5275
13 *522:13 *767:Q[2] 0.0001
*END

*D_NET *523 0.00417402

*CONN
*I *788:A1 I *C 275.5 139.6 *L 0.000665 *D AOI22D0
*I *767:Q[1] O *C 310.925 134.265 *L 0 *D sram00

*CAP
1 *523:2 0.000820781
2 *523:3 4.72041e-05
3 *523:5 2.56471e-05
4 *523:6 2.42024e-06
5 *523:7 5.4765e-05
6 *523:9 0.000204163
7 *523:10 1.71856e-05
8 *523:11 5.45962e-06
9 *523:12 5.71665e-05
10 *523:13 0.00122954
11 *523:14 1.71856e-05
12 *523:15 0.000334031
13 *523:16 3.93993e-06
14 *523:17 0.000879149
15 *523:18 4.15757e-05
16 *523:19 0.00011287
17 *523:20 1.56284e-05
18 *523:21 0.000269848
19 *523:22 3.54781e-05

*RES
1 *523:21 *523:22 0.092595
2 *523:7 *523:8 0.092595
3 *523:18 *523:19 0.495816
4 *523:12 *523:13 8.7207
5 *523:5 *523:6 0.092595
6 *523:4 *523:5 0.285117
7 *523:6 *523:7 0.411021
8 *523:10 *523:11 0.411021
9 *523:8 *523:9 1.67006
10 *523:9 *523:10 0.092595
11 *523:13 *523:14 0.092595
12 *523:19 *523:20 0.092595
13 *523:17 *523:18 0.092595
14 *788:A1 *523:2 3.2467
15 *523:16 *523:17 6.70623
16 *523:15 *523:16 0.092595
17 *523:11 *523:12 0.092595
18 *523:20 *523:21 1.41825
19 *523:14 *523:15 1.8603
20 *523:2 *523:22 0.997079
21 *523:3 *523:4 0.194235
22 *523:22 *767:Q[1] 0.0001
*END

*D_NET *524 0.00409892

*CONN
*I *797:A1 I *C 277.7 139.6 *L 0.000665 *D AOI22D0
*I *767:Q[0] O *C 313.515 134.265 *L 0 *D sram00

*CAP
1 *524:2 0.00374521
2 *524:3 3.41746e-05
3 *524:4 0.00026774
4 *524:5 5.17763e-05

*RES
1 *524:2 *524:4 22.9269
2 *524:3 *524:5 0.939506
3 *524:3 *524:4 0.235154
4 *797:A1 *524:2 2.61718
5 *524:5 *767:Q[0] 0.0001
*END

*D_NET *525 0.00125751

*CONN
*I *650:I I *C 157.3 141.6 *L 0.00104 *D DEL0
*I *873:ZN O *C 163.3 139.4 *L 0 *D NR2D0

*CAP
1 *650:I 0.000404087
2 *873:ZN 0.000381814
3 *525:2 0.00047161

*RES
1 *873:ZN *525:2 1.9619
2 *650:I *525:2 4.16019011
*END

