*SPEF "IEEE 1481-1998"
*DESIGN "input_idx_controller"
*DATE "Sun Mar 22 13:39:46 2026"
*VENDOR "Cadence Design Systems, Inc."
*PROGRAM "Innovus"
*VERSION "21.16-s078_1"
*DESIGN_FLOW "COUPLING C" "PIN_CAP NONE" "NAME_SCOPE LOCAL"
*DIVIDER /
*DELIMITER :
*BUS_DELIMITER []
*T_UNIT 1 NS
*C_UNIT 1 PF
*R_UNIT 1 OHM
*L_UNIT 1 HENRY

// MMMC spef file for corner 'RC_BEST'

*NAME_MAP

*1 FE_PHN132_tpu_start
*2 FE_PHN131_rstn
*3 FE_PHN130_rstn
*4 FE_PHN129_tpu_start
*5 FE_PHN128_n_0
*6 FE_PHN127_n_346
*7 FE_PHN126_n_290
*8 FE_PHN125_n_300
*9 FE_PHN124_n_311
*10 FE_PHN123_n_341
*11 FE_PHN122_n_297
*12 FE_PHN121_n_295
*13 FE_PHN120_n_320
*14 FE_PHN119_n_318
*15 FE_PHN118_n_296
*16 FE_PHN117_n_317
*17 FE_PHN116_n_319
*18 FE_PHN115_n_339
*19 FE_PHN114_n_322
*20 FE_PHN113_n_308
*21 FE_PHN112_n_326
*22 FE_PHN111_n_324
*23 FE_PHN110_n_333
*24 FE_PHN109_n_342
*25 FE_PHN108_n_292
*26 FE_PHN107_n_284
*27 FE_PHN106_n_340
*28 FE_PHN105_FE_OFN19_b_col_idx_7
*29 FE_PHN104_FE_OFN21_b_col_idx_6
*30 FE_PHN103_FE_OFN17_b_col_idx_8
*31 FE_PHN102_n_178
*32 FE_PHN101_n_239
*33 FE_PHN100_n_265
*34 FE_PHN99_n_264
*35 FE_PHN98_n_258
*36 FE_PHN97_FE_OFN0_a_row_idx_7
*37 FE_PHN96_FE_OFN2_a_row_idx_6
*38 FE_PHN95_FE_OFN30_a_row_idx_8
*39 FE_PHN94_tpu_start
*40 FE_PHN93_n_180
*41 FE_PHN92_n_237
*42 FE_PHN91_n_260
*43 FE_PHN90_n_266
*44 FE_PHN89_n_280
*45 FE_PHN88_b_col_idx_temp_6
*46 FE_PHN87_last_data_read
*47 FE_PHN86_n_58
*48 FE_PHN85_n_29
*49 FE_PHN84_n_5
*50 FE_PHN83_n_33
*51 FE_PHN82_n_0
*52 FE_PHN81_n_4
*53 FE_PHN80_n_348
*54 FE_PHN79_n_349
*55 FE_PHN78_a_row_idx_temp_5
*56 FE_PHN77_a_row_idx_temp_6
*57 FE_PHN76_b_col_os_5
*58 FE_PHN75_b_col_os_4
*59 FE_PHN74_b_col_idx_temp_5
*60 FE_PHN73_a_row_os_4
*61 FE_PHN72_a_row_os_5
*62 FE_PHN71_n_89
*63 FE_PHN70_n_6
*64 FE_PHN69_n_90
*65 FE_PHN68_n_11
*66 FE_PHN67_b_col_os_6
*67 FE_PHN66_a_row_os_7
*68 FE_PHN65_n_9
*69 FE_PHN64_n_60
*70 FE_PHN63_n_16
*71 FE_PHN62_b_col_idx_temp_4
*72 FE_PHN61_n_30
*73 FE_PHN60_a_row_os_6
*74 FE_PHN59_n_10
*75 FE_PHN58_b_col_idx_temp_7
*76 FE_PHN57_n_75
*77 FE_PHN56_a_row_idx_temp_4
*78 FE_PHN55_n_2
*79 FE_PHN54_a_row_os_3
*80 FE_PHN53_b_col_os_3
*81 FE_PHN52_b_col_idx_temp_3
*82 FE_PHN51_FE_OFN11_a_row_idx_1
*83 FE_PHN50_n_7
*84 FE_PHN49_a_row_idx_temp_3
*85 FE_PHN48_u_ac_i_3
*86 FE_PHN47_FE_OFN14_a_row_idx_0
*87 FE_PHN46_FE_OFN8_a_row_idx_2
*88 FE_PHN45_num_computated_3
*89 FE_PHN44_num_computated_0
*90 FE_PHN43_num_computated_5
*91 FE_PHN42_num_computated_2
*92 FE_PHN41_num_computated_4
*93 FE_PHN40_rstn
*94 FE_OFN39_b_col_idx_2
*95 FE_OFN38_a_col_idx_0
*96 FE_OFN37_a_col_idx_1
*97 FE_OFN36_a_col_idx_2
*98 FE_OFN35_b_col_idx_0
*99 FE_OFN34_b_col_idx_1
*100 CTS_6
*101 CTS_5
*102 CTS_2
*103 CTS_1
*104 CTS_4
*105 CTS_3
*106 FE_OFN33_a_row_idx_3
*107 FE_OFN32_a_row_idx_3
*108 FE_OFN31_a_row_idx_8
*109 FE_OFN30_a_row_idx_8
*110 FE_OFN29_sram_rd_en
*111 FE_OFN28_b_col_idx_3
*112 FE_OFN27_b_col_idx_3
*113 FE_OFN26_b_col_idx_4
*114 FE_OFN25_b_col_idx_4
*115 FE_OFN24_b_col_idx_5
*116 FE_OFN23_b_col_idx_5
*117 FE_OFN22_b_col_idx_6
*118 FE_OFN21_b_col_idx_6
*119 FE_OFN20_b_col_idx_7
*120 FE_OFN19_b_col_idx_7
*121 FE_OFN18_b_col_idx_8
*122 FE_OFN17_b_col_idx_8
*123 FE_OFN15_a_row_idx_0
*124 FE_OFN14_a_row_idx_0
*125 FE_OFN12_a_row_idx_1
*126 FE_OFN11_a_row_idx_1
*127 FE_OFN9_a_row_idx_2
*128 FE_OFN8_a_row_idx_2
*129 FE_OFN7_a_row_idx_4
*130 FE_OFN6_a_row_idx_4
*131 FE_OFN5_a_row_idx_5
*132 FE_OFN4_a_row_idx_5
*133 FE_OFN3_a_row_idx_6
*134 FE_OFN2_a_row_idx_6
*135 FE_OFN1_a_row_idx_7
*136 FE_OFN0_a_row_idx_7
*137 clk
*138 rstn
*139 tpu_start
*140 num_computation[6]
*141 num_computation[5]
*142 num_computation[4]
*143 num_computation[3]
*144 num_computation[2]
*145 num_computation[1]
*146 num_computation[0]
*147 m[6]
*148 m[5]
*149 m[4]
*150 m[3]
*151 m[2]
*152 m[1]
*153 m[0]
*154 n[6]
*155 n[5]
*156 n[4]
*157 n[3]
*158 n[2]
*159 n[1]
*160 n[0]
*161 k[6]
*162 k[5]
*163 k[4]
*164 k[3]
*165 k[2]
*166 k[1]
*167 k[0]
*168 a_row_idx[8]
*169 a_row_idx[7]
*170 a_row_idx[6]
*171 a_row_idx[5]
*172 a_row_idx[4]
*173 a_row_idx[3]
*174 a_row_idx[2]
*175 a_row_idx[1]
*176 a_row_idx[0]
*177 a_col_idx[8]
*178 a_col_idx[7]
*179 a_col_idx[6]
*180 a_col_idx[5]
*181 a_col_idx[4]
*182 a_col_idx[3]
*183 a_col_idx[2]
*184 a_col_idx[1]
*185 a_col_idx[0]
*186 b_row_idx[8]
*187 b_row_idx[7]
*188 b_row_idx[6]
*189 b_row_idx[5]
*190 b_row_idx[4]
*191 b_row_idx[3]
*192 b_row_idx[2]
*193 b_row_idx[1]
*194 b_row_idx[0]
*195 b_col_idx[8]
*196 b_col_idx[7]
*197 b_col_idx[6]
*198 b_col_idx[5]
*199 b_col_idx[4]
*200 b_col_idx[3]
*201 b_col_idx[2]
*202 b_col_idx[1]
*203 b_col_idx[0]
*204 alu_start
*205 sram_rd_en
*206 done
*207 b_col_idx_temp[8]
*208 b_col_idx_temp[7]
*209 b_col_idx_temp[6]
*210 b_col_idx_temp[5]
*211 b_col_idx_temp[4]
*212 b_col_idx_temp[3]
*213 num_computated[6]
*214 num_computated[5]
*215 num_computated[4]
*216 num_computated[3]
*217 num_computated[2]
*218 num_computated[1]
*219 num_computated[0]
*220 a_row_idx_temp[8]
*221 a_row_idx_temp[7]
*222 a_row_idx_temp[6]
*223 a_row_idx_temp[5]
*224 a_row_idx_temp[4]
*225 a_row_idx_temp[3]
*226 a_row_os[8]
*227 a_row_os[7]
*228 a_row_os[6]
*229 a_row_os[5]
*230 a_row_os[4]
*231 a_row_os[3]
*232 u_ac_i[8]
*233 u_ac_i[7]
*234 u_ac_i[6]
*235 u_ac_i[5]
*236 u_ac_i[4]
*237 u_ac_i[3]
*238 b_col_os[8]
*239 b_col_os[7]
*240 b_col_os[6]
*241 b_col_os[5]
*242 b_col_os[4]
*243 b_col_os[3]
*244 UNCONNECTED
*245 UNCONNECTED0
*246 last_data_read
*247 n_0
*248 n_1
*249 n_2
*250 n_3
*251 n_4
*252 n_5
*253 n_6
*254 n_7
*255 n_8
*256 n_9
*257 n_10
*258 n_11
*259 n_16
*260 n_19
*261 n_25
*262 n_29
*263 n_30
*264 n_33
*265 n_48
*266 n_52
*267 n_57
*268 n_58
*269 n_59
*270 n_60
*271 n_62
*272 n_63
*273 n_64
*274 n_65
*275 n_67
*276 n_68
*277 n_69
*278 n_70
*279 n_71
*280 n_72
*281 n_74
*282 n_75
*283 n_76
*284 n_77
*285 n_78
*286 n_79
*287 n_80
*288 n_81
*289 n_82
*290 n_83
*291 n_84
*292 n_85
*293 n_86
*294 n_87
*295 n_89
*296 n_90
*297 n_92
*298 n_93
*299 n_94
*300 n_95
*301 n_96
*302 n_97
*303 n_98
*304 n_99
*305 n_101
*306 n_102
*307 n_103
*308 n_104
*309 n_105
*310 n_107
*311 n_109
*312 n_110
*313 n_111
*314 n_112
*315 n_113
*316 n_115
*317 n_116
*318 n_117
*319 n_118
*320 n_119
*321 n_120
*322 n_121
*323 n_122
*324 n_123
*325 n_124
*326 n_125
*327 n_126
*328 n_127
*329 n_128
*330 n_129
*331 n_130
*332 n_131
*333 n_132
*334 n_133
*335 n_137
*336 n_138
*337 n_139
*338 n_140
*339 n_141
*340 n_143
*341 n_144
*342 n_145
*343 n_146
*344 n_147
*345 n_149
*346 n_151
*347 n_152
*348 n_153
*349 n_154
*350 n_155
*351 n_156
*352 n_157
*353 n_158
*354 n_159
*355 n_160
*356 n_161
*357 n_162
*358 n_163
*359 n_164
*360 n_165
*361 n_166
*362 n_167
*363 n_168
*364 n_169
*365 n_171
*366 n_172
*367 n_173
*368 n_174
*369 n_176
*370 n_177
*371 n_178
*372 n_179
*373 n_180
*374 n_183
*375 n_184
*376 n_185
*377 n_187
*378 n_188
*379 n_189
*380 n_190
*381 n_191
*382 n_192
*383 n_193
*384 n_194
*385 n_195
*386 n_196
*387 n_197
*388 n_198
*389 n_199
*390 n_200
*391 n_201
*392 n_202
*393 n_203
*394 n_204
*395 n_205
*396 n_206
*397 n_207
*398 n_208
*399 n_209
*400 n_210
*401 n_211
*402 n_212
*403 n_213
*404 n_214
*405 n_215
*406 n_216
*407 n_217
*408 n_218
*409 n_219
*410 n_220
*411 n_222
*412 n_223
*413 n_226
*414 n_227
*415 n_228
*416 n_229
*417 n_230
*418 n_231
*419 n_232
*420 n_233
*421 n_234
*422 n_235
*423 n_236
*424 n_237
*425 n_238
*426 n_239
*427 n_240
*428 n_241
*429 n_244
*430 n_245
*431 n_246
*432 n_247
*433 n_251
*434 n_253
*435 n_256
*436 n_257
*437 n_258
*438 n_259
*439 n_260
*440 n_262
*441 n_263
*442 n_264
*443 n_265
*444 n_266
*445 n_267
*446 n_268
*447 n_269
*448 n_270
*449 n_271
*450 n_272
*451 n_273
*452 n_275
*453 n_276
*454 n_277
*455 n_278
*456 n_279
*457 n_280
*458 n_281
*459 n_282
*460 n_283
*461 n_284
*462 n_285
*463 n_286
*464 n_287
*465 n_288
*466 n_289
*467 n_290
*468 n_291
*469 n_292
*470 n_293
*471 n_294
*472 n_295
*473 n_296
*474 n_297
*475 n_298
*476 n_299
*477 n_300
*478 n_301
*479 n_302
*480 n_303
*481 n_304
*482 n_305
*483 n_306
*484 n_307
*485 n_308
*486 n_309
*487 n_310
*488 n_311
*489 n_312
*490 n_314
*491 n_315
*492 n_316
*493 n_317
*494 n_318
*495 n_319
*496 n_320
*497 n_321
*498 n_322
*499 n_323
*500 n_324
*501 n_325
*502 n_326
*503 n_327
*504 n_329
*505 n_330
*506 n_331
*507 n_332
*508 n_333
*509 n_334
*510 n_335
*511 n_336
*512 n_337
*513 n_338
*514 n_339
*515 n_340
*516 n_341
*517 n_342
*518 n_343
*519 n_344
*520 n_345
*521 n_346
*522 n_348
*523 n_349
*524 n_360
*525 n_362
*526 n_363
*527 n_364
*528 n_365
*529 n_366
*530 n_367
*531 n_368
*532 n_369
*533 n_466
*534 n_467
*535 n_468
*536 FE_PHC132_tpu_start
*537 FE_PHC131_rstn
*538 FE_PHC130_rstn
*539 FE_PHC129_tpu_start
*540 FE_PHC128_n_0
*541 FE_PHC127_n_346
*542 FE_PHC126_n_290
*543 FE_PHC125_n_300
*544 FE_PHC124_n_311
*545 FE_PHC123_n_341
*546 FE_PHC122_n_297
*547 FE_PHC121_n_295
*548 FE_PHC120_n_320
*549 FE_PHC119_n_318
*550 FE_PHC118_n_296
*551 FE_PHC117_n_317
*552 FE_PHC116_n_319
*553 FE_PHC115_n_339
*554 FE_PHC114_n_322
*555 FE_PHC113_n_308
*556 FE_PHC112_n_326
*557 FE_PHC111_n_324
*558 FE_PHC110_n_333
*559 FE_PHC109_n_342
*560 FE_PHC108_n_292
*561 FE_PHC107_n_284
*562 FE_PHC106_n_340
*563 FE_PHC105_FE_OFN19_b_col_idx_7
*564 FE_PHC104_FE_OFN21_b_col_idx_6
*565 FE_PHC103_FE_OFN17_b_col_idx_8
*566 FE_PHC102_n_178
*567 FE_PHC101_n_239
*568 FE_PHC100_n_265
*569 FE_PHC99_n_264
*570 FE_PHC98_n_258
*571 FE_PHC97_FE_OFN0_a_row_idx_7
*572 FE_PHC96_FE_OFN2_a_row_idx_6
*573 FE_PHC95_FE_OFN30_a_row_idx_8
*574 FE_PHC94_tpu_start
*575 FE_PHC93_n_180
*576 FE_PHC92_n_237
*577 FE_PHC91_n_260
*578 FE_PHC90_n_266
*579 FE_PHC89_n_280
*580 FE_PHC88_b_col_idx_temp_6
*581 FE_PHC87_last_data_read
*582 FE_PHC86_n_58
*583 FE_PHC85_n_29
*584 FE_PHC84_n_5
*585 FE_PHC83_n_33
*586 FE_PHC82_n_0
*587 FE_PHC81_n_4
*588 FE_PHC80_n_348
*589 FE_PHC79_n_349
*590 FE_PHC78_a_row_idx_temp_5
*591 FE_PHC77_a_row_idx_temp_6
*592 FE_PHC76_b_col_os_5
*593 FE_PHC75_b_col_os_4
*594 FE_PHC74_b_col_idx_temp_5
*595 FE_PHC73_a_row_os_4
*596 FE_PHC72_a_row_os_5
*597 FE_PHC71_n_89
*598 FE_PHC70_n_6
*599 FE_PHC69_n_90
*600 FE_PHC68_n_11
*601 FE_PHC67_b_col_os_6
*602 FE_PHC66_a_row_os_7
*603 FE_PHC65_n_9
*604 FE_PHC64_n_60
*605 FE_PHC63_n_16
*606 FE_PHC62_b_col_idx_temp_4
*607 FE_PHC61_n_30
*608 FE_PHC60_a_row_os_6
*609 FE_PHC59_n_10
*610 FE_PHC58_b_col_idx_temp_7
*611 FE_PHC57_n_75
*612 FE_PHC56_a_row_idx_temp_4
*613 FE_PHC55_n_2
*614 FE_PHC54_a_row_os_3
*615 FE_PHC53_b_col_os_3
*616 FE_PHC52_b_col_idx_temp_3
*617 FE_PHC51_FE_OFN11_a_row_idx_1
*618 FE_PHC50_n_7
*619 FE_PHC49_a_row_idx_temp_3
*620 FE_PHC48_u_ac_i_3
*621 FE_PHC47_FE_OFN14_a_row_idx_0
*622 FE_PHC46_FE_OFN8_a_row_idx_2
*623 FE_PHC45_num_computated_3
*624 FE_PHC44_num_computated_0
*625 FE_PHC43_num_computated_5
*626 FE_PHC42_num_computated_2
*627 FE_PHC41_num_computated_4
*628 FE_PHC40_rstn
*629 FE_OFC39_b_col_idx_2
*630 FE_OFC38_a_col_idx_0
*631 FE_OFC37_a_col_idx_1
*632 FE_OFC36_a_col_idx_2
*633 FE_OFC35_b_col_idx_0
*634 FE_OFC34_b_col_idx_1
*635 CTS_ccl_a_inv_00003
*636 CTS_ccl_a_inv_00002
*637 CTS_ccl_a_inv_00001
*638 CTS_ccl_a_inv_00004
*639 CTS_ccl_a_inv_00005
*640 CTS_cmf_inv_00051
*641 LTIELO_5
*642 LTIELO_4
*643 LTIELO_3
*644 LTIELO_2
*645 LTIELO_1
*646 LTIELO
*647 FE_OFC33_a_row_idx_3
*648 FE_OFC32_a_row_idx_3
*649 FE_OFC31_a_row_idx_8
*650 FE_OFC30_a_row_idx_8
*651 FE_OFC29_sram_rd_en
*652 FE_OFC28_b_col_idx_3
*653 FE_OFC27_b_col_idx_3
*654 FE_OFC26_b_col_idx_4
*655 FE_OFC25_b_col_idx_4
*656 FE_OFC24_b_col_idx_5
*657 FE_OFC23_b_col_idx_5
*658 FE_OFC22_b_col_idx_6
*659 FE_OFC21_b_col_idx_6
*660 FE_OFC20_b_col_idx_7
*661 FE_OFC19_b_col_idx_7
*662 FE_OFC18_b_col_idx_8
*663 FE_OFC17_b_col_idx_8
*664 FE_OFC16_a_row_idx_0
*665 FE_OFC15_a_row_idx_0
*666 FE_OFC14_a_row_idx_0
*667 FE_OFC13_a_row_idx_1
*668 FE_OFC12_a_row_idx_1
*669 FE_OFC11_a_row_idx_1
*670 FE_OFC10_a_row_idx_2
*671 FE_OFC9_a_row_idx_2
*672 FE_OFC8_a_row_idx_2
*673 FE_OFC7_a_row_idx_4
*674 FE_OFC6_a_row_idx_4
*675 FE_OFC5_a_row_idx_5
*676 FE_OFC4_a_row_idx_5
*677 FE_OFC3_a_row_idx_6
*678 FE_OFC2_a_row_idx_6
*679 FE_OFC1_a_row_idx_7
*680 FE_OFC0_a_row_idx_7
*681 p18161A__2398
*682 num_computated_reg\[3\]
*683 p18171A__5107
*684 u_ac_z_reg\[2\]
*685 u_ac_z_reg\[1\]
*686 num_computated_reg\[4\]
*687 num_computated_reg\[2\]
*688 a_row_os_reg\[8\]
*689 p18154A__6260
*690 p18177A__4319
*691 p18161A5835__8428
*692 p18163A__5526
*693 p18181A__6783
*694 p18178A__3680
*695 a_row_os_reg\[5\]
*696 a_row_os_reg\[4\]
*697 num_computated_reg\[6\]
*698 b_col_os_reg\[3\]
*699 num_computated_reg\[5\]
*700 a_row_os_reg\[3\]
*701 num_computated_reg\[1\]
*702 p18188A__1617
*703 p18197A__2802
*704 p18177A5821__1705
*705 p18170A__5122
*706 p18187A__8246
*707 p18174A__7098
*708 u_ac_z_reg\[0\]
*709 b_col_os_reg\[5\]
*710 b_col_os_reg\[4\]
*711 b_col_os_reg\[8\]
*712 num_computated_reg\[0\]
*713 p18150A__6131
*714 p18152A5836__1881
*715 p18152A__5115
*716 p18218A__7482
*717 p18135A__4733
*718 Fp18170A
*719 p13989A
*720 p18254A__6161
*721 p18171A5844__9315
*722 p18097A__9945
*723 p18222A__2883
*724 p18097A5847__2346
*725 done_reg
*726 p18191A__1666
*727 p18140A__7410
*728 p18173A__6417
*729 p18178A5837__5477
*730 p18171A5841__2398
*731 p18171A5845__5107
*732 p18171A5839__6260
*733 p18171A5840__4319
*734 p18171A5843__8428
*735 p18171A5842__5526
*736 p18161A5838__6783
*737 p18194A__3680
*738 p18252A__1617
*739 p18225A__2802
*740 Fp18194A
*741 p18247A5846__1705
*742 p18247A__5122
*743 p18182A__8246
*744 p18287A__7098
*745 p18294A__6131
*746 Fp18065A
*747 p18124A__1881
*748 p18159A__5115
*749 p18184A__7482
*750 Fp18219A
*751 p18113A__4733
*752 Fp18126A
*753 p18292A__6161
*754 Fp18150A
*755 p17858A__9315
*756 p18163A5848__9945
*757 p18191A5849__2883
*758 p18101A__2346
*759 p18107A__1666
*760 p18252A5851__7410
*761 p18238A__6417
*762 Fp18109A
*763 p18067A__5477
*764 p18070A__2398
*765 p17796A__5107
*766 p17763A__6260
*767 p18210A__4319
*768 p18196A__8428
*769 p17743A__5526
*770 p17920A__3680
*771 p13248A__1617
*772 p17896A__2802
*773 p18033A__1705
*774 p17708A__5122
*775 p13247A__7098
*776 p13239A__1881
*777 p18396A__5115
*778 p13291A__7482
*779 p13293A__4733
*780 p17770A__6161
*781 p17747A__9315
*782 p18154A5855__9945
*783 p18169A__2883
*784 p13222A__1666
*785 p18008A__7410
*786 p17629A__6417
*787 p13281A__5477
*788 p13290A__2398
*789 p13290A5852__5107
*790 p13282A__6260
*791 p13335A__4319
*792 p13336A__8428
*793 p18357A__5526
*794 p17693A__3680
*795 p18091A__1617
*796 p17617A__2802
*797 p17670A__1705
*798 p18374A__5122
*799 p13196A__8246
*800 p13197A__7098
*801 p18014A__6131
*802 p18093A__1881
*803 p18356A__5115
*804 p13327A5853__7482
*805 p13334A__4733
*806 p13327A__6161
*807 p13336A5854__9315
*808 p18041A__9945
*809 p17886A__2883
*810 p17595A__2346
*811 p17905A__1666
*812 p17562A__7410
*813 p17540A__6417
*814 p17844A__2398
*815 p18270A__5107
*816 p18304A__6260
*817 p13382A__4319
*818 p13383A__8428
*819 p18355A__5526
*820 p18107A5858__6783
*821 p18091A5857__3680
*822 p18434A__1617
*823 p13399A5860__2802
*824 p13184A__1705
*825 p13185A__5122
*826 p17899A__8246
*827 p18275A__7098
*828 p18019A__6131
*829 p17562A5859__5115
*830 p17911A__7482
*831 p17541A__4733
*832 p17584A__6161
*833 p18208A__9945
*834 p13373A__2883
*835 p13375A__2346
*836 p13399A__1666
*837 p17874A__7410
*838 p18328A__6417
*839 p18290A5863__5477
*840 p17811A__2398
*841 p17626A__4319
*842 Fp18204A
*843 Fp17819A
*844 p13380A__8428
*845 p13378A__5526
*846 p18264A__6783
*847 p18226A__3680
*848 p13392A__1617
*849 p17917A__2802
*850 p13397A5862__1705
*851 p13367A__5122
*852 Fp13166A5856
*853 p17804A__7098
*854 Fp13166A
*855 p18170A5865__6131
*856 Fp18360A
*857 p18318A__1881
*858 p17702A__5115
*859 p13469A__7482
*860 Fp13384A5866
*861 Fp13384A
*862 p18568A__4733
*863 p13168A__6161
*864 p18270A5864__9315
*865 p17509A__9945
*866 p13383A5869__2883
*867 p13389A__2346
*868 p13383A5870__1666
*869 p13388A__7410
*870 p17720A__6417
*871 p13167A__5477
*872 p18382A__2398
*873 p13473A__5107
*874 p17516A__6260
*875 p17570A__4319
*876 p17860A__8428
*877 p17490A__5526
*878 p17760A__6783
*879 p17592A__3680
*880 p17612A__1617
*881 p17864A__2802
*882 p17583A__1705
*883 p17502A__5122
*884 p17613A__8246
*885 p17844A5874__7098
*886 p17736A__6131
*887 p18325A__1881
*888 p13989A5868
*889 p18553A__5115
*890 p13360A__7482
*891 p13356A__4733
*892 p13354A__6161
*893 p13356A5871__9315
*894 p18154A5872__9945
*895 p17692A__2883
*896 p18290A__2346
*897 p18494A5873__1666
*898 p18584A__7410
*899 p18488A__6417
*900 p18494A__2398
*901 Fp17858A
*902 Fp17873A
*903 Fp17499A
*904 alu_start_reg
*905 p18431A__6260
*906 p18428A__4319
*907 p17840A__8428
*908 p13274A__6783
*909 p17598A__3680
*910 p13377A__1617
*911 p17516A5877__2802
*912 p13496A__1705
*913 p17568A__5122
*914 p17584A5878__8246
*915 p17545A__7098
*916 p18364A__6131
*917 p18098A__1881
*918 Fp18131A
*919 Fp18167A
*920 Fp18115A
*921 p13343A__7482
*922 p13277A__4733
*923 p13343A5885__6161
*924 p17852A__9315
*925 p17855A__9945
*926 p17503A__2883
*927 p17542A__2346
*928 p17609A__1666
*929 p17557A__7410
*930 p17512A__6417
*931 p17509A5879__5477
*932 p17564A__2398
*933 p13233A5881__5107
*934 p13166A__6260
*935 p18091A5880__4319
*936 p13175A__8428
*937 p13310A__5526
*938 p13312A__6783
*939 p13216A__3680
*940 p13374A5883__1617
*941 p18165A__2802
*942 Fp8914A5895
*943 p18107A5886__1705
*944 p13177A__5122
*945 p13167A5882__8246
*946 p13233A__7098
*947 p13374A__6131
*948 p13216A5884__1881
*949 p18432A__5115
*950 p18275A5876__7482
*951 p13133A__4733
*952 p13132A__6161
*953 Fp18482A
*954 Fp18374A
*955 Fp18108A
*956 Fp18660A
*957 Fp18408A
*958 Fp18190A
*959 g2
*960 g3
*961 g5971
*962 g5972
*963 g5973
*964 g5974
*965 g5975
*966 g5976
*967 g5977
*968 g5978
*969 drc_bufs
*970 drc_bufs5988
*971 drc_bufs5996
*972 drc_bufs6005
*973 drc_bufs6015
*974 drc_bufs6023
*975 drc_bufs6032
*976 drc_bufs6042
*977 drc_bufs6048
*978 drc_bufs6054
*979 drc_bufs6060
*980 drc_bufs6065
*981 b_col_os_reg\[6\]
*982 last_data_read_reg
*983 b_col_os_reg\[7\]
*984 u_ac_j_reg\[6\]
*985 a_row_os_reg\[7\]
*986 a_row_os_reg\[6\]
*987 u_ac_j_reg\[3\]
*988 u_ac_j_reg\[8\]
*989 u_ac_j_reg\[4\]
*990 u_ac_j_reg\[7\]
*991 u_ac_j_reg\[5\]
*992 u_ac_z_reg\[3\]
*993 u_ac_z_reg\[7\]
*994 u_ac_i_reg\[3\]
*995 u_ac_z_reg\[4\]
*996 u_ac_i_reg\[4\]
*997 u_ac_z_reg\[6\]
*998 u_ac_z_reg\[5\]
*999 u_ac_i_reg\[5\]
*1000 u_ac_z_reg\[8\]
*1001 u_ac_i_reg\[7\]
*1002 u_ac_i_reg\[6\]
*1003 u_ac_i_reg\[8\]
*1004 g6120
*1005 g6121
*1006 g6122


*PORTS

*137 I *C 0 26
*138 I *C 0 36
*139 I *C 0 46
*140 I *C 30.2 0
*141 I *C 29.5 0
*142 I *C 28.8 0
*143 I *C 28.1 0
*144 I *C 27.4 0
*145 I *C 26.7 0
*146 I *C 26 0
*147 I *C 35.1 0
*148 I *C 34.4 0
*149 I *C 33.7 0
*150 I *C 33 0
*151 I *C 32.3 0
*152 I *C 31.6 0
*153 I *C 30.9 0
*154 I *C 40 0
*155 I *C 39.3 0
*156 I *C 38.6 0
*157 I *C 37.9 0
*158 I *C 37.2 0
*159 I *C 36.5 0
*160 I *C 35.8 0
*161 I *C 44.9 0
*162 I *C 44.2 0
*163 I *C 43.5 0
*164 I *C 42.8 0
*165 I *C 42.1 0
*166 I *C 41.4 0
*167 I *C 40.7 0
*168 O *C 31.6 100
*169 O *C 30.9 100
*170 O *C 30.2 100
*171 O *C 29.5 100
*172 O *C 28.8 100
*173 O *C 28.1 100
*174 O *C 27.4 100
*175 O *C 26.7 100
*176 O *C 26 100
*177 O *C 37.9 100
*178 O *C 37.2 100
*179 O *C 36.5 100
*180 O *C 35.8 100
*181 O *C 35.1 100
*182 O *C 34.4 100
*183 O *C 33.7 100
*184 O *C 33 100
*185 O *C 32.3 100
*186 O *C 44.2 100
*187 O *C 43.5 100
*188 O *C 42.8 100
*189 O *C 42.1 100
*190 O *C 41.4 100
*191 O *C 40.7 100
*192 O *C 40 100
*193 O *C 39.3 100
*194 O *C 38.6 100
*195 O *C 50.5 100
*196 O *C 49.8 100
*197 O *C 49.1 100
*198 O *C 48.4 100
*199 O *C 47.7 100
*200 O *C 47 100
*201 O *C 46.3 100
*202 O *C 45.6 100
*203 O *C 44.9 100
*204 O *C 100 26
*205 O *C 100 36
*206 O *C 100 46


*D_NET *1 1.1509e-05

*CONN
*I *536:Z O *C 64.5 29.6 *L 0 *D CKBD1
*I *539:I I *C 64.7 30 *L 0.00072 *D BUFFD1

*CAP
1 *536:Z 1.15090002e-05

*RES
1 *536:Z *539:I 0.162353
*END

*D_NET *2 0.000480185

*CONN
*I *537:Z O *C 28.7 29.6 *L 0 *D CKBD1
*I *538:I I *C 28.7 32 *L 0.000643 *D CKBD0

*CAP
1 *537:Z 0.000480185

*RES
1 *537:Z *538:I 2.02357
*END

*D_NET *3 0.00150469

*CONN
*I *538:Z O *C 29.3 32.4 *L 0 *D CKBD0
*I *628:I I *C 27.5 37.2 *L 0.00072 *D BUFFD1

*CAP
1 *628:I 0.000236522
2 *538:Z 0.0002403
3 *3:2 0.000689645
4 *3:3 0.000338219

*RES
1 *628:I *3:3 1.63062
2 *3:2 *3:3 1.89034
3 *538:Z *3:2 3.60080004
*END

*D_NET *4 1.1371e-05

*CONN
*I *539:Z O *C 65.3 29.6 *L 0 *D BUFFD1
*I *574:I I *C 65.5 30 *L 0.00103 *D DEL015

*CAP
1 *539:Z 1.13709998e-05

*RES
1 *539:Z *574:I 0.164489
*END

*D_NET *5 0.00344362

*CONN
*I *540:Z O *C 32.3 32.4 *L 0 *D DEL015
*I *900:A2 I *C 39.3 44.4 *L 0.000651 *D OAI21D0

*CAP
1 *900:A2 1.74283e-06
2 *5:2 0.00211512
3 *5:3 0.000792569
4 *5:4 0.000534178

*RES
1 *5:2 *5:4 2.51065
2 *900:A2 *5:2 8.54965019
3 *5:3 *5:4 2.78579
4 *540:Z *5:3 0.225039
*END

*D_NET *6 0.00512267

*CONN
*I *541:Z O *C 65.3 69.2 *L 0 *D DEL0
*I *988:D I *C 67.7 44.4 *L 0.000958 *D DFD1

*CAP
1 *988:D 0.00111211
2 *6:2 0.00105119
3 *6:3 0.00062723
4 *6:4 6.40444e-06
5 *6:5 0.000947769
6 *6:6 6.48913e-05
7 *6:8 0.00115624
8 *6:6 *496:3 0.000156822998

*RES
1 *6:7 *6:8 3.87971
2 *6:5 *6:6 3.02291
3 *6:4 *6:5 0.413023
4 *988:D *6:3 4.62225008
5 *6:2 *6:3 2.48872
6 *6:6 *6:8 1.66514
7 *6:2 *6:4 4.15308
8 *541:Z *6:7 0.224991
*END

*D_NET *7 0.00445571

*CONN
*I *542:Z O *C 68.9 65.6 *L 0 *D DEL0
*I *984:DB I *C 66.3 53.6 *L 0.00109 *D DFXD1
*I *739:B1 I *C 66.1 50.2 *L 0.000702 *D IND4D0
*I *750:I I *C 62.5 50.2 *L 0.00062 *D CKND0

*CAP
1 *739:B1 0.000148856
2 *7:4 0.00135171
3 *7:5 0.000378772
4 *7:6 0.000548522
5 *7:7 0.00106823
6 *7:8 0.000959614

*RES
1 *7:6 *7:8 1.99461
2 *7:4 *7:5 1.53194
3 *739:B1 *7:6 0.904044
4 *7:6 *7:7 3.66835
5 *7:5 *7:8 3.66314
6 *542:Z *7:4 5.88531017
7 *984:DB *7:8 0.450001
8 *750:I *7:7 0.224956
*END

*D_NET *8 0.00788026

*CONN
*I *543:Z O *C 72.3 72 *L 0 *D DEL0
*I *698:D I *C 51.3 39.2 *L 0.000885 *D DFKCNQD1

*CAP
1 *698:D 0.000449112
2 *8:2 0.00129796008
3 *8:3 0.000347965
4 *8:4 0.000527562
5 *8:5 0.000791907
6 *8:6 6.59923e-05
7 *8:7 0.00044319
8 *8:8 0.000580423
9 *8:9 0.000228537
10 *8:10 0.000256384
11 *8:11 0.00033109
12 *8:12 0.000193877
13 *8:13 0.000430217
14 *8:10 *64:5 0.000324871992
15 *698:D *682:D 0.000517413984
16 *8:4 *558:Z 0.000286675
17 *698:D *508:2 0.00080711

*RES
1 *8:6 *8:7 0.1593
2 *8:12 *8:13 1.61057
3 *8:4 *8:8 3.18013
4 *8:3 *8:4 3.02449
5 *8:2 *8:3 1.92551
6 *543:Z *8:5 5.62736
7 *698:D *8:13 2.23129
8 *8:11 *8:12 1.16783
9 *8:9 *8:10 1.67197
10 *8:10 *8:11 3.59614
11 *8:2 *8:6 7.99988985
12 *8:8 *8:9 1.85801
13 *8:5 *8:7 2.27792
*END

*D_NET *9 0.00656703

*CONN
*I *544:Z O *C 69.7 72 *L 0 *D DEL0
*I *688:D I *C 44.5 42.8 *L 0.000885 *D DFKCNQD1

*CAP
1 *544:Z 0.000148611
2 *9:2 2.43721e-05
3 *9:3 0.000442445
4 *9:4 0.00113796
5 *9:5 0.000223487
6 *9:6 0.000185007
7 *9:7 0.000844422
8 *9:8 0.000528464
9 *9:9 0.00213533
10 *9:3 *14:3 0.000362865
11 *9:3 *23:2 0.00023696
12 *9:4 *544:I 0.000297109004

*RES
1 *9:5 *9:6 2.01695
2 *9:2 *9:4 9.3175
3 *9:8 *9:9 4.54288
4 *9:3 *9:8 2.36262
5 *544:Z *9:2 0.477054
6 *9:7 *9:9 14.8452997
7 *9:6 *9:7 1.90731
8 *9:4 *9:5 1.35346
9 *688:D *9:3 0.224936
*END

*D_NET *10 0.00640409

*CONN
*I *545:Z O *C 72.5 68.4 *L 0 *D DEL0
*I *682:D I *C 53.1 37.2 *L 0.000885 *D DFKCNQD1

*CAP
1 *682:D 0.000892135
2 *545:Z 1.57747e-05
3 *10:2 4.47958e-05
4 *10:3 0.000341965
5 *10:4 0.00040766
6 *10:6 0.00146638
7 *10:7 0.00116646
8 *10:8 4.40574e-05
9 *10:9 0.000328943
10 *10:10 2.2465e-05
11 *10:11 0.000473936
12 *10:12 0.000374544
13 *10:9 *64:6 0.000307572012
14 *682:D *698:D 0.000517413984

*RES
1 *10:7 *10:8 2.08473
2 *10:10 *10:11 3.25355
3 *10:3 *10:5 2.52049
4 *10:5 *10:6 8.55294037
5 *545:Z *10:2 0.327313
6 *10:2 *10:4 3.23293
7 *10:7 *10:12 3.01498
8 *10:6 *10:9 2.85563
9 *10:11 *10:12 1.58058
10 *682:D *10:8 3.48546
11 *10:9 *10:10 2.64721
12 *10:3 *10:4 0.285289
*END

*D_NET *11 0.00866911

*CONN
*I *546:Z O *C 70.5 69.2 *L 0 *D DEL0
*I *699:D I *C 56.7 33.6 *L 0.000885 *D DFKCNQD1

*CAP
1 *11:2 0.00068323
2 *11:3 0.00066078
3 *11:4 0.000482044
4 *11:5 0.00270956
5 *11:6 0.000200111
6 *11:7 0.000920428
7 *11:8 0.000146073
8 *11:9 0.000566388
9 *11:2 *697:D 0.000402863008
10 *11:7 *22:4 0.000286576992
11 *11:3 *477:3 0.000342720977
12 *11:5 *558:I 0.000212937988
13 *11:3 *516:2 0.000418172969
14 *11:2 *603:Z 0.000637216992

*RES
1 *11:6 *11:9 1.01567
2 *11:6 *11:7 4.34837
3 *699:D *11:2 0.70206
4 *11:8 *11:9 2.26237
5 *11:7 *11:2 6.70046
6 *11:5 *11:8 1.03871
7 *11:4 *11:5 13.3634005
8 *11:3 *11:4 2.05724
9 *546:Z *11:3 4.87853
*END

*D_NET *12 0.00773763

*CONN
*I *547:Z O *C 69.9 68.4 *L 0 *D DEL0
*I *701:D I *C 42.7 37.2 *L 0.000885 *D DFKCNQD1

*CAP
1 *701:D 0.000886914
2 *12:2 0.00260505016
3 *12:3 0.000181819
4 *12:4 0.000416426
5 *12:5 0.000224352
6 *12:6 0.00219967
7 *701:D *63:8 0.000285382988
8 *12:2 *959:A3 0.000492106992
9 *12:2 *494:2 0.000445885

*RES
1 *12:5 *12:6 16.1245
2 *12:3 *12:2 1.82513
3 *701:D *12:3 3.01305
4 *12:2 *12:6 16.4347
5 *547:Z *12:4 1.40985
6 *12:4 *12:5 0.224944
*END

*D_NET *13 0.00719534

*CONN
*I *548:Z O *C 67.9 69.2 *L 0 *D DEL0
*I *686:D I *C 53.3 32 *L 0.000885 *D DFKCNQD1

*CAP
1 *686:D 0.000356172
2 *13:2 0.0012293
3 *13:3 1.3569e-05
4 *13:4 0.000524871
5 *13:5 0.00362957
6 *13:2 *553:I 0.000481096016
7 *13:2 *473:2 0.00029051
8 *13:2 *17:38 0.000434819023
9 *13:2 *472:2 0.000235441992

*RES
1 *13:3 *13:2 7.1105
2 *686:D *13:4 1.23333
3 *548:Z *13:3 0.729163
4 *13:2 *13:5 21.7805004
5 *13:4 *13:5 3.95157
*END

*D_NET *14 0.00666741

*CONN
*I *549:Z O *C 71.5 65.6 *L 0 *D DEL0
*I *687:D I *C 47.7 35.6 *L 0.000885 *D DFKCNQD1

*CAP
1 *14:2 1.04338e-05
2 *14:3 0.00145519
3 *14:4 3.39875e-05
4 *14:5 0.00038378
5 *14:6 0.000370505
6 *14:7 3.06559e-05
7 *14:8 0.000776831
8 *14:10 0.000272623
9 *14:11 0.00169253
10 *14:5 *51:5 0.000213666016
11 *14:2 *514:10 0.000240176016
12 *14:3 *494:2 0.000824136016
13 *14:3 *9:3 0.000362865

*RES
1 *14:7 *14:8 5.14232
2 *14:6 *14:7 0.159294
3 *14:2 *14:11 0.75226
4 *14:2 *14:6 3.25555
5 *14:8 *14:10 1.51725
6 *14:3 *14:9 7.53509
7 *14:9 *14:10 0.159294
8 *14:5 *14:11 15.7458
9 *14:4 *14:5 1.73877
10 *549:Z *14:4 0.45001
11 *687:D *14:3 1.09007
*END

*D_NET *15 0.00655401

*CONN
*I *550:Z O *C 64.5 72 *L 0 *D DEL0
*I *697:D I *C 58.9 32 *L 0.000885 *D DFKCNQD1

*CAP
1 *697:D 0.000233574
2 *15:2 0.000712966
3 *15:3 0.000457868
4 *15:4 0.000284709
5 *15:5 8.51904e-05
6 *15:6 0.00124125
7 *15:7 0.000882297
8 *15:8 0.000193613
9 *15:9 2.38698e-06
10 *15:10 0.00134854
11 *697:D *11:2 0.000402863008
12 *15:2 *474:6 0.00025608998
13 *15:3 *495:7 0.000216951992
14 *697:D *569:I 0.000235710996

*RES
1 *15:6 *15:8 7.04105997
2 *15:5 *15:3 2.55251
3 *15:4 *15:2 2.59162
4 *697:D *15:4 1.3448
5 *15:9 *15:10 6.86497
6 *15:8 *15:10 0.159331
7 *15:2 *15:6 4.03752
8 *15:7 *15:9 0.159331
9 *15:3 *15:7 6.53782
10 *550:Z *15:5 0.224975
*END

*D_NET *16 0.0039886

*CONN
*I *551:Z O *C 61.9 72 *L 0 *D DEL0
*I *991:D I *C 58.7 55.2 *L 0.000958 *D DFD1

*CAP
1 *16:2 0.00070609
2 *16:3 0.00130649992
3 *16:4 3.07013e-06
4 *16:5 0.000422203
5 *16:6 0.000647658
6 *16:7 0.000903077

*RES
1 *16:5 *16:6 2.48719
2 *16:3 *16:4 4.50216007
3 *16:2 *16:5 1.59117
4 *16:4 *16:6 0.285301
5 *16:3 *16:7 3.33499
6 *551:Z *16:2 2.70325
7 *991:D *16:7 0.224984
*END

*D_NET *17 0.0202058

*CONN
*I *552:Z O *C 71.7 64.8 *L 0 *D DEL0
*I *715:A1 I *C 46.7 33.6 *L 0.000688 *D AO21D0
*I *724:B I *C 48.3 33.6 *L 0.000707 *D AOI211D0
*I *734:A1 I *C 58.1 30 *L 0.000721 *D MOAI22D0
*I *734:B1 I *C 57.1 30 *L 0.000689 *D MOAI22D0
*I *733:B1 I *C 55.9 30 *L 0.000689 *D MOAI22D0
*I *733:A1 I *C 54.9 30 *L 0.000721 *D MOAI22D0
*I *714:A1 I *C 52.7 30 *L 0.000688 *D AO21D0
*I *722:B I *C 51.1 30 *L 0.000707 *D AOI211D0
*I *691:A1 I *C 50.3 35.6 *L 0.000669 *D IOA21D0
*I *746:I I *C 54.5 37.2 *L 0.00104 *D INVD1
*I *730:A1 I *C 52.5 40.8 *L 0.000721 *D MOAI22D0
*I *730:B1 I *C 51.5 40.8 *L 0.000689 *D MOAI22D0
*I *735:B1 I *C 40.1 35.6 *L 0.000689 *D MOAI22D0
*I *735:A1 I *C 41.1 35.6 *L 0.000721 *D MOAI22D0
*I *731:A1 I *C 44.3 39.2 *L 0.000721 *D MOAI22D0
*I *732:A1 I *C 41.1 44.4 *L 0.000721 *D MOAI22D0
*I *732:B1 I *C 42.1 44.4 *L 0.000689 *D MOAI22D0
*I *721:B1 I *C 43.5 44.4 *L 0.000689 *D MOAI22D0
*I *721:A1 I *C 44.5 44.4 *L 0.000721 *D MOAI22D0
*I *731:B1 I *C 45.3 39.2 *L 0.000689 *D MOAI22D0

*CAP
1 *721:A1 1.38785e-06
2 *721:B1 0.000110575
3 *732:B1 2.8119e-05
4 *732:A1 7.99521e-06
5 *731:A1 0.000250446
6 *735:A1 8.79171e-05
7 *735:B1 0.000287888
8 *730:B1 0.000181627
9 *730:A1 0.000186213
10 *746:I 0.000189019
11 *691:A1 5.40054e-06
12 *722:B 0.000266799
13 *714:A1 6.86079e-05
14 *733:A1 0.000135556
15 *733:B1 1.68654e-05
16 *734:B1 3.4485e-05
17 *734:A1 0.000145211
18 *552:Z 0.000220185
19 *17:21 0.000113743
20 *17:22 0.000677873
21 *17:23 0.000243537
22 *17:24 0.000109097
23 *17:25 0.000774902
24 *17:26 0.000191101
25 *17:27 0.000444594
26 *17:28 0.000262122
27 *17:29 0.00076926
28 *17:30 0.000195294
29 *17:31 0.0012678
30 *17:32 0.000381266
31 *17:33 0.000890968
32 *17:34 0.000286621
33 *17:35 0.000463209
34 *17:36 0.00051293
35 *17:37 0.000567268
36 *17:38 0.000290513
37 *17:39 0.00197723
38 *17:40 0.000662335
39 *17:41 0.000946964
40 *17:42 0.000209263
41 *17:43 9.46452e-05
42 *17:44 0.000163706
43 *17:45 0.00123654
44 *17:46 0.000110666
45 *17:47 0.000375202
46 *17:38 *13:2 0.000434819023
47 *17:22 *22:2 0.00058984
48 *721:B1 *47:3 0.00049761
49 *17:28 *253:2 0.000231104004
50 *17:36 *443:4 0.000417828008
51 *17:22 *498:3 0.000362853984
52 *734:B1 *500:2 0.000468903008
53 *734:A1 *515:2 0.000533734961
54 *735:B1 *258:7 0.000226345996

*RES
1 *17:45 *17:47 1.6405
2 *746:I *17:22 4.2042
3 *17:27 *17:40 2.75169
4 *17:28 *17:29 3.0061
5 *735:B1 *17:31 1.85034
6 *17:30 *17:31 5.36167
7 *734:B1 *17:21 0.638407
8 *691:A1 *17:27 0.334314
9 *17:46 *17:47 0.159303
10 *17:26 *17:27 0.91723
11 *733:B1 *17:21 0.322533
12 *735:A1 *17:31 0.585819
13 *17:22 *17:24 2.25756
14 *732:A1 *17:30 0.581891
15 *17:39 *17:46 11.1898003
16 *17:39 *17:43 0.640115
17 *17:37 *17:38 1.15115
18 *17:33 *17:40 1.98932
19 *17:23 *17:44 1.9323
20 *17:30 *17:42 1.02514
21 *732:B1 *17:42 0.581209
22 *730:B1 *17:24 0.748878
23 *734:A1 *17:39 1.99393
24 *17:33 *17:41 2.4546
25 *552:Z *17:34 2.45016
26 *722:B *17:25 1.27357
27 *17:35 *17:36 2.29188
28 *17:43 *17:44 0.931743
29 *17:32 *17:41 2.92073
30 *17:36 *17:37 3.29141
31 *732:B1 *721:B1 1.11632
32 *17:38 *17:45 8.02969
33 *731:A1 *17:29 1.33299
34 *17:25 *17:26 2.96734
35 *17:22 *17:26 0.865495
36 *17:34 *17:35 1.86093
37 *730:A1 *17:24 1.35058
38 *17:21 *17:43 0.828103
39 *17:23 *17:25 0.695265
40 *724:B *17:40 0.899985
41 *714:A1 *17:23 0.702094
42 *17:29 *17:32 1.77743
43 *17:28 *17:42 2.14521
44 *721:A1 *17:28 0.576086
45 *733:A1 *17:44 1.1549
46 *715:A1 *17:33 0.450078
47 *731:B1 *17:32 0.225039
*END

*D_NET *18 0.00613214

*CONN
*I *553:Z O *C 67.3 68.4 *L 0 *D DEL0
*I *993:D I *C 45.5 55.2 *L 0.000958 *D DFD1

*CAP
1 *993:D 0.000359001
2 *18:2 0.0010009
3 *18:3 0.000345363
4 *18:4 0.000171162
5 *18:5 0.000198576
6 *18:6 6.6467e-05
7 *18:7 0.000696483
8 *18:8 0.000452639
9 *18:9 0.000430478
10 *18:4 *472:2 0.000342507969
11 *18:2 *35:2 0.000436704023
12 *18:2 *514:3 0.000893695
13 *18:3 *494:2 0.000738155

*RES
1 *18:3 *18:8 2.67553
2 *18:7 *18:9 2.39932
3 *18:6 *18:7 3.33654
4 *18:8 *18:9 5.67959
5 *18:2 *18:6 0.0928005
6 *18:5 *18:2 7.18885994
7 *993:D *18:3 1.46814
8 *18:4 *18:5 1.63871
9 *553:Z *18:4 1.67107
*END

*D_NET *19 0.00963745

*CONN
*I *554:Z O *C 71.7 32.4 *L 0 *D DEL0
*I *762:I I *C 53.3 53.8 *L 0.00062 *D CKND0
*I *756:A1 I *C 56.1 51.6 *L 0.000798 *D NR3D0
*I *713:A1 I *C 64.5 51.6 *L 0.000675 *D IAO21D0
*I *689:A1 I *C 64.1 48 *L 0.0007 *D OAI21D0
*I *727:A1 I *C 59.1 53.6 *L 0.0007 *D OAI21D0
*I *716:A3 I *C 57.1 53.6 *L 0.000714 *D OAI32D0
*I *753:A1 I *C 50.5 53.6 *L 0.000721 *D MOAI22D0

*CAP
1 *753:A1 0.00039991
2 *716:A3 8.97946e-05
3 *689:A1 0.000253105
4 *713:A1 1.67081e-05
5 *762:I 0.000145812
6 *554:Z 0.00032452
7 *19:8 0.00125049
8 *19:9 0.000133145
9 *19:10 0.00106658
10 *19:11 0.00055604
11 *19:12 0.000639287
12 *19:13 0.00147968
13 *19:14 0.000488892
14 *19:15 0.00019912
15 *19:16 1.87401e-06
16 *19:17 0.000111086
17 *19:18 0.000386927
18 *19:19 0.000140461
19 *19:20 9.09235e-05
20 *19:8 *558:Z 0.000386878984
21 *753:A1 *252:8 0.000984170938
22 *753:A1 *452:7 0.000492095

*RES
1 *762:I *19:17 0.884864
2 *19:10 *19:11 1.76787
3 *19:14 *19:19 1.90187
4 *19:13 *19:15 1.63476
5 *19:18 *19:19 0.892867
6 *716:A3 *19:18 0.94215
7 *19:11 *19:12 2.67899
8 *19:10 *19:16 4.61931
9 *713:A1 *19:9 0.477028
10 *753:A1 *19:17 3.88054
11 *554:Z *19:8 1.59494
12 *19:17 *19:19 2.51396
13 *19:13 *19:20 4.08695
14 *19:15 *19:18 2.53504
15 *19:8 *19:16 6.39577007
16 *689:A1 *19:12 1.49745
17 *19:9 *19:12 1.52067
18 *727:A1 *19:15 0.449995
19 *756:A1 *19:14 0.225046
20 *19:9 *19:20 0.225046
*END

*D_NET *20 0.00642929

*CONN
*I *555:Z O *C 67.3 28.8 *L 0 *D DEL0
*I *994:D I *C 37.7 35.6 *L 0.000958 *D DFD1

*CAP
1 *994:D 5.04933e-05
2 *555:Z 0.000421411
3 *20:2 0.00191387
4 *20:3 0.000270018
5 *20:4 6.62342e-05
6 *20:5 0.000158547
7 *20:6 1.48939e-06
8 *20:7 0.000405115
9 *20:8 0.000532268
10 *20:9 7.61927e-05
11 *20:10 0.000463376
12 *20:11 1.33753e-05
13 *20:12 0.000148676
14 *20:2 *515:5 0.000495503984
15 *994:D *74:11 0.000163294004
16 *555:Z *93:68 0.00124941

*RES
1 *20:5 *20:6 1.5127
2 *20:8 *20:9 1.38667
3 *20:2 *20:11 5.6301899
4 *555:Z *20:3 1.93203
5 *20:4 *20:12 0.612366
6 *20:6 *20:7 4.33664
7 *20:10 *20:11 0.0927827
8 *20:7 *20:8 2.48477
9 *20:9 *20:10 3.81491
10 *20:3 *20:5 2.69078
11 *20:2 *20:4 3.03193
12 *994:D *20:12 0.449996
*END

*D_NET *21 0.00530229

*CONN
*I *556:Z O *C 71.7 33.2 *L 0 *D DEL0
*I *999:D I *C 28.7 39.2 *L 0.000958 *D DFD1

*CAP
1 *999:D 0.000125839
2 *21:2 0.000617852
3 *21:3 0.000140629
4 *21:4 0.000266656
5 *21:5 4.43068e-05
6 *21:6 0.004107

*RES
1 *21:5 *21:6 26.2201004
2 *556:Z *21:2 1.45832
3 *999:D *21:3 0.450098
4 *21:4 *21:5 1.75238
5 *21:3 *21:6 0.450098
6 *21:2 *21:4 2.13406
*END

*D_NET *22 0.00841263

*CONN
*I *557:Z O *C 64.7 28.8 *L 0 *D DEL0
*I *1001:D I *C 33.5 42.8 *L 0.000958 *D DFD1

*CAP
1 *557:Z 0.000208193
2 *22:2 0.000139051
3 *22:3 0.00193147
4 *22:4 0.00044571
5 *22:5 0.000561183
6 *22:6 0.000459651
7 *22:7 0.000101061
8 *22:8 0.000520599
9 *22:9 8.63834e-05
10 *22:4 *498:4 0.000657632969
11 *22:3 *508:3 0.000216015
12 *22:7 *511:12 0.000993531016
13 *22:2 *469:4 0.000305109004
14 *22:2 *70:6 0.000615991016
15 *22:2 *17:22 0.00058984
16 *22:3 *156:9 0.000294609004
17 *22:4 *11:7 0.000286576992

*RES
1 *22:2 *22:3 13.9685001
2 *22:7 *22:2 2.41213
3 *22:4 *22:6 2.75018
4 *1001:D *22:8 0.702091
5 *22:8 *22:9 3.16367
6 *22:3 *22:9 3.90733
7 *22:5 *22:6 2.28489
8 *22:4 *22:7 3.80608
9 *557:Z *22:5 0.99772
*END

*D_NET *23 0.0059604

*CONN
*I *558:Z O *C 72.5 36.8 *L 0 *D DEL0
*I *1003:D I *C 39.5 42.8 *L 0.000958 *D DFD1

*CAP
1 *1003:D 0.000302922
2 *558:Z 0.000186768
3 *23:2 0.0005973
4 *23:3 0.000390185
5 *23:4 0.000232426
6 *23:5 0.000318911
7 *23:6 1.47354e-05
8 *23:7 0.000393328
9 *23:8 0.000495552
10 *23:9 0.000126202
11 *23:10 0.000865311016
12 *1003:D *25:5 0.000624673008
13 *558:Z *8:4 0.000286675
14 *23:2 *9:3 0.00023696
15 *558:Z *19:8 0.000386878984
16 *23:3 *598:I 0.000501559023

*RES
1 *23:7 *23:8 3.94106
2 *23:3 *23:6 0.21889
3 *23:5 *23:3 3.56292
4 *1003:D *23:2 1.56056
5 *23:10 *23:2 5.26041985
6 *23:8 *23:9 0.0927894
7 *558:Z *23:4 2.86459
8 *23:9 *23:10 4.53223
9 *23:6 *23:7 2.69491
10 *23:4 *23:5 2.64193
*END

*D_NET *24 0.00393915

*CONN
*I *559:Z O *C 72.3 62 *L 0 *D DEL0
*I *1000:D I *C 50.5 58.8 *L 0.000958 *D DFD1

*CAP
1 *1000:D 0.000127886
2 *559:Z 6.04296e-05
3 *24:2 0.000366325
4 *24:3 0.00236151
5 *24:4 0.00069921
6 *24:5 0.000308778
7 *24:6 1.50263e-05

*RES
1 *24:5 *24:6 1.38668
2 *1000:D *24:3 0.603008
3 *559:Z *24:2 2.19064
4 *24:2 *24:4 4.4014
5 *24:4 *24:5 0.092868
6 *24:3 *24:6 10.3859997
*END

*D_NET *25 0.007331

*CONN
*I *560:Z O *C 62.1 28.8 *L 0 *D DEL0
*I *1002:D I *C 30.5 42.8 *L 0.000958 *D DFD1

*CAP
1 *1002:D 0.000159969
2 *560:Z 0.000490755
3 *25:2 1.27767e-05
4 *25:3 0.000160315
5 *25:4 0.000689869
6 *25:5 0.000134662
7 *25:6 0.000194444
8 *25:7 6.81837e-05
9 *25:8 0.000159277
10 *25:9 6.36612e-05
11 *25:10 0.000384908
12 *25:11 0.000421039
13 *25:12 0.00161958
14 *560:Z *557:I 0.00022859
15 *25:2 *68:7 0.000895906953
16 *25:3 *103:24 0.000395818008
17 *25:4 *1001:QN 0.000626550977
18 *25:5 *1003:D 0.000624673008

*RES
1 *25:6 *25:7 0.915626
2 *25:4 *25:11 3.6451
3 *25:3 *25:6 2.60897
4 *25:7 *25:8 1.96314
5 *25:9 *25:12 7.03887987
6 *25:9 *25:10 4.6647
7 *25:2 *25:3 1.75435
8 *25:10 *25:5 1.3489
9 *1002:D *25:4 0.603078
10 *560:Z *25:2 2.94096
11 *25:5 *25:11 2.5688
12 *25:8 *25:12 2.59683
*END

*D_NET *26 0.00176349

*CONN
*I *561:Z O *C 71.5 39.6 *L 0 *D DEL0
*I *725:D I *C 65.5 43 *L 0.00105 *D DFKCND1
*I *743:A1 I *C 66.1 39.2 *L 0.000681 *D IND2D0

*CAP
1 *743:A1 0.000105059
2 *725:D 0.00036401
3 *26:3 0.000869651953
4 *26:4 0.000424774

*RES
1 *743:A1 *26:3 0.477045
2 *26:3 *26:4 2.85173988
3 *561:Z *26:4 1.57826
4 *725:D *26:3 2.4934
*END

*D_NET *27 0.00652478

*CONN
*I *562:Z O *C 63.7 29.6 *L 0 *D DEL0
*I *996:D I *C 28.7 35.6 *L 0.000958 *D DFD1

*CAP
1 *562:Z 0.000707722
2 *27:2 0.00117783
3 *27:3 3.8587e-05
4 *27:4 0.000248219
5 *27:5 0.000159273
6 *27:6 0.000412559
7 *27:7 0.000357635
8 *27:8 0.000657417
9 *27:9 0.000727402
10 *27:10 0.000235207
11 *27:11 0.000482598
12 *27:12 5.92734e-05
13 *27:6 *162:5 0.000315012988
14 *562:Z *474:2 0.000528989023
15 *27:2 *258:2 0.000417068008

*RES
1 *27:6 *27:7 1.89617
2 *27:5 *27:6 3.3796
3 *27:4 *27:5 1.21503
4 *27:8 *27:9 2.66129
5 *27:3 *27:4 2.68049
6 *27:7 *27:8 3.23562
7 *27:10 *27:11 2.6804
8 *27:9 *27:10 0.909102
9 *996:D *27:2 0.704945
10 *562:Z *27:3 2.99748
11 *27:11 *27:12 0.0928305
12 *27:2 *27:12 5.79956007
*END

*D_NET *28 0.00200005

*CONN
*I *563:Z O *C 69.1 64.8 *L 0 *D DEL01
*I *661:I I *C 61.9 62.4 *L 0.00104 *D INVD1

*CAP
1 *661:I 0.000264211
2 *28:2 0.000313877
3 *28:3 0.00142195

*RES
1 *28:2 *28:3 5.91008997
2 *563:Z *28:2 0.704943
3 *661:I *28:3 0.912179
*END

*D_NET *29 0.00206759

*CONN
*I *564:Z O *C 64.7 68.4 *L 0 *D DEL01
*I *659:I I *C 58.9 62.4 *L 0.00104 *D INVD1

*CAP
1 *659:I 0.000717938984
2 *564:Z 0.000522118
3 *29:2 0.000201759
4 *29:3 0.000625763

*RES
1 *29:2 *29:3 2.52111
2 *564:Z *29:2 3.13208
3 *659:I *29:3 3.19457006
*END

*D_NET *30 0.00139894

*CONN
*I *565:Z O *C 69.7 62 *L 0 *D DEL01
*I *663:I I *C 64.5 60.8 *L 0.00104 *D INVD1

*CAP
1 *663:I 0.000350763
2 *565:Z 7.09925e-06
3 *30:2 0.000153203
4 *30:3 0.000887881016

*RES
1 *30:2 *30:3 3.92221999
2 *565:Z *30:2 0.384944
3 *663:I *30:3 1.24987
*END

*D_NET *31 0.0080801

*CONN
*I *566:Z O *C 59.5 28.8 *L 0 *D DEL0
*I *696:D I *C 28.5 49.8 *L 0.000644 *D EDFKCNQD1

*CAP
1 *566:Z 0.00014639
2 *31:2 0.000130634
3 *31:3 0.0011127
4 *31:4 0.00048043
5 *31:5 0.000627703
6 *31:6 4.5503e-06
7 *31:7 0.000722461
8 *31:8 0.000581504
9 *31:9 0.000799494
10 *31:10 1.01193e-05
11 *31:11 0.000748014
12 *566:Z *560:I 0.00022542
13 *31:2 *58:4 0.000739686016
14 *31:3 *473:3 0.000583087031
15 *566:Z *164:4 0.000339481992
16 *31:4 *93:27 0.000828405

*RES
1 *31:8 *31:9 2.80096
2 *31:3 *31:11 8.22272015
3 *31:5 *31:10 3.64512
4 *31:7 *31:8 0.0928469
5 *31:4 *31:7 4.06694
6 *31:2 *31:4 3.59619
7 *31:9 *31:10 3.40347
8 *31:6 *31:11 4.6239
9 *31:6 *31:2 3.46281
10 *566:Z *31:3 1.56986
11 *696:D *31:5 0.224965
*END

*D_NET *32 0.00771767

*CONN
*I *567:Z O *C 62.7 69.2 *L 0 *D DEL0
*I *695:D I *C 28.3 53.4 *L 0.000644 *D EDFKCNQD1

*CAP
1 *695:D 4.47768e-05
2 *32:2 0.000240619
3 *32:3 0.000207212
4 *32:4 0.000753767
5 *32:5 0.000301351
6 *32:6 0.000422019
7 *32:7 0.00086202
8 *32:8 0.000525562
9 *32:9 0.000467809
10 *32:10 7.80436e-05
11 *32:11 0.000373951
12 *32:12 5.53043e-05
13 *32:13 0.000220734
14 *32:14 0.0010221
15 *32:15 0.000886272
16 *695:D *782:S 0.000218009004
17 *32:2 *667:I 0.000752972031
18 *32:3 *514:2 0.000285142988

*RES
1 *32:5 *32:8 1.38838
2 *695:D *32:9 0.609294
3 *32:12 *32:13 0.218882
4 *32:13 *32:14 5.97944021
5 *32:6 *32:9 2.56418
6 *32:14 *32:2 1.35326
7 *32:5 *32:6 1.61
8 *32:4 *32:15 4.11588
9 *32:2 *32:15 5.83145
10 *32:3 *32:11 2.46491
11 *32:10 *32:3 1.72141
12 *32:4 *32:7 4.18805
13 *32:11 *32:12 2.52112
14 *32:7 *32:8 2.40342
15 *567:Z *32:10 0.224995
*END

*D_NET *33 0.00635083

*CONN
*I *568:Z O *C 66.9 64.8 *L 0 *D DEL0
*I *985:D I *C 44.1 51.8 *L 0.000646 *D EDFKCND1

*CAP
1 *985:D 0.00126702
2 *33:2 0.00123266
3 *33:3 8.29291e-05
4 *33:4 0.00135564
5 *33:5 0.000360904
6 *33:6 0.000170326
7 *33:7 0.000402751
8 *33:8 0.000325531
9 *33:9 0.000251704
10 *33:2 *136:3 0.000578607969
11 *33:3 *495:6 0.00032273502

*RES
1 *33:2 *33:4 3.39796
2 *985:D *33:2 6.13203
3 *33:8 *33:9 0.0928326
4 *33:6 *33:7 1.98289
5 *33:3 *33:5 2.50591
6 *33:7 *33:8 4.06703
7 *33:5 *33:6 1.89082
8 *33:4 *33:9 6.27203989
9 *568:Z *33:3 0.224999
*END

*D_NET *34 0.00488763

*CONN
*I *569:Z O *C 61.1 29.6 *L 0 *D DEL0
*I *764:A1 I *C 49.7 44.4 *L 0.000647 *D NR2D0
*I *765:A1 I *C 50.1 40.8 *L 0.00069 *D INR2D0
*I *763:A1 I *C 49.9 43 *L 0.000693 *D ND3D0

*CAP
1 *764:A1 0.000226367
2 *569:Z 0.000525866
3 *34:4 0.000623938
4 *34:5 0.00175749
5 *34:6 8.61113e-05
6 *34:7 0.000548849
7 *34:8 6.7178e-05
8 *34:9 0.000669018
9 *34:10 0.000382794

*RES
1 *34:9 *34:10 1.57578
2 *34:8 *34:9 2.4263
3 *34:6 *34:7 1.94093
4 *34:5 *34:7 0.328071
5 *34:4 *34:10 2.9734
6 *764:A1 *34:6 1.23422
7 *34:5 *34:8 6.90445995
8 *569:Z *34:4 1.901
9 *765:A1 *34:7 0.225036
10 *763:A1 *34:6 0.225036
*END

*D_NET *35 0.00681152

*CONN
*I *570:Z O *C 62.5 68.4 *L 0 *D DEL0
*I *986:D I *C 33.9 53.4 *L 0.000646 *D EDFKCND1

*CAP
1 *986:D 0.000544426
2 *35:2 0.00031963
3 *35:3 0.000157923
4 *35:4 0.00106916
5 *35:5 0.000168364
6 *35:6 0.000673439
7 *35:7 0.000137546
8 *35:8 0.000441678
9 *35:9 8.03155e-05
10 *35:10 0.000861544
11 *35:8 *179:3 0.000290601992
12 *35:7 *181:2 0.000244242988
13 *35:10 *975:I 0.00116841992
14 *986:D *768:S 0.000217543008
15 *35:2 *18:2 0.000436704023

*RES
1 *35:7 *35:8 3.50546
2 *986:D *35:10 5.07035
3 *35:9 *35:10 2.61657
4 *35:6 *35:7 1.69511
5 *35:5 *35:6 4.44497
6 *35:2 *35:4 5.45126
7 *35:3 *35:2 5.91411018
8 *35:8 *35:9 0.159368
9 *35:4 *35:5 0.911446
10 *570:Z *35:3 0.224974
*END

*D_NET *36 0.00515192

*CONN
*I *571:Z O *C 61.5 62 *L 0 *D DEL01
*I *680:I I *C 35.1 66 *L 0.00104 *D INVD1

*CAP
1 *680:I 0.000182482
2 *571:Z 0.000810735
3 *36:2 0.000195492
4 *36:3 0.000480678
5 *36:4 0.00150106
6 *36:5 0.000439816
7 *36:2 *50:4 0.0013784
8 *36:2 *264:2 0.000163246006

*RES
1 *36:3 *36:5 6.16592
2 *680:I *36:3 0.48563
3 *571:Z *36:2 2.91295
4 *36:2 *36:4 9.08802032
5 *36:4 *36:5 2.77733
*END

*D_NET *37 0.00362918

*CONN
*I *572:Z O *C 34.7 47.6 *L 0 *D DEL01
*I *678:I I *C 29.5 64.4 *L 0.00104 *D INVD1

*CAP
1 *572:Z 0.000308496
2 *37:3 0.000869597969
3 *37:4 0.000789823
4 *37:5 0.000700999
5 *37:6 0.000381039
6 *37:7 0.000579214

*RES
1 *37:2 *37:5 2.61319
2 *37:2 *37:3 0.159277
3 *678:I *37:4 4.21412992
4 *572:Z *37:7 1.37672
5 *37:6 *37:7 2.01492
6 *37:3 *37:4 3.24297
7 *37:5 *37:6 1.48481
*END

*D_NET *38 0.00187212

*CONN
*I *573:Z O *C 32.3 64.8 *L 0 *D DEL015
*I *650:I I *C 42.7 66 *L 0.00104 *D INVD1

*CAP
1 *650:I 0.000183662
2 *573:Z 0.000152319
3 *38:2 0.00133381
4 *38:3 0.000202326

*RES
1 *573:Z *38:2 0.603063
2 *38:2 *38:3 6.36327982
3 *650:I *38:3 1.83375
*END

*D_NET *39 0.000606977

*CONN
*I *574:Z O *C 67.7 29.6 *L 0 *D DEL015
*I *904:CN I *C 65.5 32.2 *L 0.00107 *D DFKCND1

*CAP
1 *39:2 9.34448e-05
2 *39:3 0.000513535039

*RES
1 *904:CN *39:3 1.20614
2 *39:2 *39:3 1.61166
3 *574:Z *39:2 0.224992
*END

*D_NET *40 0.00564192

*CONN
*I *575:Z O *C 59.3 72 *L 0 *D DEL0
*I *710:D I *C 53.9 49.8 *L 0.000644 *D EDFKCNQD1

*CAP
1 *710:D 0.000384978
2 *40:2 0.00161531
3 *40:3 0.000442063
4 *40:4 0.000809516
5 *40:5 0.000368316
6 *40:6 0.000326759
7 *40:7 0.000292474
8 *40:2 *936:A2 0.000211365
9 *40:3 *52:7 0.000250980996
10 *40:3 *264:3 0.000281293008
11 *40:2 *81:10 0.000658875

*RES
1 *40:2 *40:6 7.56640005
2 *40:5 *40:6 1.67362
3 *710:D *40:2 3.55864
4 *40:5 *40:7 1.61128
5 *40:3 *40:4 1.49767
6 *575:Z *40:4 2.82886
7 *40:3 *40:7 2.46887
*END

*D_NET *41 0.00455175

*CONN
*I *576:Z O *C 70.1 61.2 *L 0 *D DEL0
*I *709:D I *C 56.3 49.8 *L 0.000644 *D EDFKCNQD1

*CAP
1 *709:D 0.000392356
2 *41:2 0.000632101
3 *41:3 0.00102044
4 *41:4 0.000961164
5 *41:5 0.000400186
6 *41:6 0.00114549992

*RES
1 *41:3 *41:5 2.38457
2 *709:D *41:4 1.18486
3 *41:5 *41:6 4.22937012
4 *41:2 *41:3 4.01873
5 *576:Z *41:2 2.61625
6 *41:4 *41:6 3.82119
*END

*D_NET *42 0.00455355

*CONN
*I *577:Z O *C 67.5 62 *L 0 *D DEL0
*I *981:D I *C 58.9 51.8 *L 0.000646 *D EDFKCND1

*CAP
1 *981:D 0.000138886
2 *577:Z 0.000468433
3 *42:2 0.000526824
4 *42:3 0.000482461
5 *42:4 0.000861754
6 *42:5 0.00207522016

*RES
1 *42:4 *42:5 7.72011995
2 *42:2 *42:3 2.13559
3 *577:Z *42:2 3.36919
4 *981:D *42:5 0.828014
5 *42:3 *42:4 2.81977
*END

*D_NET *43 0.00340657

*CONN
*I *578:Z O *C 65.7 33.2 *L 0 *D DEL0
*I *983:D I *C 59.7 41 *L 0.000646 *D EDFKCND1

*CAP
1 *983:D 0.000107801
2 *43:2 0.00242027
3 *43:3 0.000821418
4 *43:4 5.70953e-05

*RES
1 *43:3 *43:4 2.88313
2 *43:2 *43:4 6.49666023
3 *983:D *43:2 2.94092
4 *578:Z *43:3 0.225028
*END

*D_NET *44 0.00187864

*CONN
*I *579:Z O *C 62.7 32.4 *L 0 *D DEL0
*I *711:D I *C 59.7 37.4 *L 0.000644 *D EDFKCNQD1

*CAP
1 *711:D 0.000584305
2 *579:Z 0.000471315
3 *44:2 0.000823032969

*RES
1 *579:Z *44:2 2.13195
2 *711:D *44:2 4.73112011
*END

*D_NET *45 0.00468575

*CONN
*I *580:Z O *C 70.7 58.4 *L 0 *D DEL0
*I *938:A2 I *C 62.9 55.2 *L 0.000606 *D CKND2D0
*I *984:SA I *C 67.7 53.6 *L 0.00154 *D DFXD1
*I *739:B3 I *C 66.7 50 *L 0.000676 *D IND4D0
*I *713:A2 I *C 64.9 51.6 *L 0.000712 *D IAO21D0

*CAP
1 *713:A2 0.000180564
2 *739:B3 1.20386e-05
3 *938:A2 0.000659606
4 *45:5 0.000624756
5 *45:6 0.000283275
6 *45:7 0.000612144
7 *45:8 0.000964486016
8 *45:9 0.000642373
9 *45:10 0.000163007
10 *45:11 0.000449917
11 *45:12 9.35861e-05

*RES
1 *45:6 *45:9 0.931137
2 *45:6 *45:7 2.26908
3 *45:8 *45:10 2.0209
4 *45:5 *45:11 2.28203
5 *580:Z *45:5 2.18356
6 *45:9 *45:11 2.0933
7 *45:8 *45:12 2.14518
8 *739:B3 *45:7 0.617226
9 *938:A2 *45:10 2.5718801
10 *713:A2 *45:8 0.612321
11 *984:SA *45:9 0.224985
12 *45:6 *45:12 0.224985
*END

*D_NET *46 0.000786661

*CONN
*I *581:Z O *C 68.9 39.6 *L 0 *D DEL0
*I *982:DB I *C 66.1 37.2 *L 0.00109 *D DFXD1

*CAP
1 *982:DB 0.000243067
2 *581:Z 0.000240398
3 *46:2 0.000303198008

*RES
1 *581:Z *46:2 2.59290004
2 *982:DB *46:2 1.24399
*END

*D_NET *47 0.00677528

*CONN
*I *582:Z O *C 71.3 44 *L 0 *D DEL0
*I *920:I I *C 31.3 46.6 *L 0.00062 *D CKND0
*I *900:B I *C 39.9 44.4 *L 0.00073 *D OAI21D0

*CAP
1 *920:I 8.88741e-05
2 *47:3 9.69149e-05
3 *47:4 0.00107322
4 *47:5 0.000103269
5 *47:6 0.0006072
6 *47:7 0.000394079
7 *47:8 0.000378996
8 *47:9 0.000328132
9 *47:10 0.000467723
10 *47:11 0.000287175
11 *47:12 0.000283408
12 *47:13 0.000168512
13 *47:14 0.000142359
14 *47:4 *980:I 0.000168311992
15 *47:4 *253:2 0.000862752031
16 *47:3 *721:B1 0.00049761
17 *47:4 *900:A1 0.0008267

*RES
1 *47:13 *47:3 4.47111
2 *47:6 *47:7 2.1103
3 *920:I *47:4 2.07783
4 *47:3 *47:14 0.614354
5 *900:B *47:14 1.07769
6 *47:10 *47:11 2.01699
7 *47:8 *47:9 2.14301
8 *47:11 *47:12 1.8908
9 *47:12 *47:13 1.76478
10 *47:7 *47:8 2.52171
11 *47:9 *47:10 1.97037
12 *47:5 *47:6 3.77132
13 *47:4 *47:14 5.26717997
14 *582:Z *47:5 0.225038
*END

*D_NET *48 0.00709692

*CONN
*I *583:Z O *C 71.7 57.6 *L 0 *D DEL0
*I *974:I I *C 40.3 55.2 *L 0.0113 *D INVD12
*I *914:A1 I *C 42.7 51.6 *L 0.000647 *D NR2D0
*I *884:A1 I *C 40.9 51.6 *L 0.00069 *D AOI21D0
*I *908:A1 I *C 39.7 55 *L 0.000617 *D CKND2D0

*CAP
1 *908:A1 0.000248757
2 *884:A1 0.000194475
3 *914:A1 0.000138607
4 *974:I 0.000104075
5 *48:5 0.000590757
6 *48:6 0.000637199
7 *48:7 0.00196106
8 *48:8 0.000831913
9 *48:9 0.00163809
10 *48:10 0.000317522
11 *48:11 0.000165359
12 *48:5 *229:7 0.000269085996

*RES
1 *908:A1 *48:11 1.2629
2 *48:8 *48:9 9.64634037
3 *48:7 *48:8 1.60542
4 *48:5 *48:11 2.36743
5 *48:5 *48:10 1.37698
6 *48:6 *48:7 8.59171
7 *974:I *48:11 0.449964
8 *884:A1 *48:5 1.12513
9 *583:Z *48:6 2.99755
10 *914:A1 *48:10 1.17915
11 *48:9 *48:10 2.25394
*END

*D_NET *49 0.00652795

*CONN
*I *584:Z O *C 62.1 54.8 *L 0 *D DEL015
*I *970:I I *C 45.5 60.8 *L 0.0113 *D INVD12
*I *777:A2 I *C 46.3 58.8 *L 0.000704 *D OAI32D0
*I *915:A1 I *C 44.1 48 *L 0.000647 *D NR2D0
*I *693:B1 I *C 44.5 57.2 *L 0.000684 *D OAI32D0

*CAP
1 *915:A1 0.00033156
2 *970:I 0.000258065
3 *584:Z 0.000536091
4 *49:5 0.00213404016
5 *49:6 0.000845736
6 *49:7 0.000356439
7 *49:8 0.000149629
8 *49:9 0.000569598
9 *49:10 0.000593532
10 *49:11 0.000310524
11 *49:6 *470:6 0.000235795996
12 *49:5 *222:3 0.00020695

*RES
1 *49:8 *49:9 2.16
2 *693:B1 *49:7 0.701996
3 *49:9 *49:10 2.11095
4 *49:7 *49:8 0.772728
5 *49:6 *49:7 3.19288
6 *49:5 *49:6 12.0403004
7 *970:I *49:11 2.3733
8 *49:6 *49:11 0.511845
9 *584:Z *49:5 2.00917
10 *915:A1 *49:10 1.20943
11 *777:A2 *49:11 0.449931
*END

*D_NET *50 0.00893365

*CONN
*I *585:Z O *C 62.5 65.6 *L 0 *D DEL0
*I *975:I I *C 34.9 58.8 *L 0.0113 *D INVD12
*I *882:A1 I *C 37.5 46.4 *L 0.00069 *D AOI21D0
*I *932:A1 I *C 36.3 46.4 *L 0.000647 *D NR2D0

*CAP
1 *975:I 9.82752e-05
2 *585:Z 9.63539e-05
3 *50:4 0.000300502
4 *50:5 0.00190772
5 *50:6 0.000316891
6 *50:8 0.000447332
7 *50:9 0.000551866
8 *50:10 0.000678203
9 *50:11 0.000655323
10 *50:12 0.00039313
11 *50:13 0.000133818
12 *50:14 2.71305e-05
13 *50:12 *932:A2 0.000286727012
14 *975:I *997:Q 0.000230757988
15 *975:I *223:4 0.000262779004
16 *50:4 *36:2 0.0013784
17 *975:I *35:10 0.00116841992

*RES
1 *50:12 *50:13 1.41019
2 *50:5 *50:8 0.269888
3 *975:I *50:11 0.910087
4 *50:7 *50:11 3.17634
5 *50:6 *50:9 2.30682
6 *50:6 *50:11 2.23083
7 *50:7 *50:8 1.89033
8 *585:Z *50:4 0.351033
9 *50:10 *50:12 2.36936
10 *50:5 *50:14 14.6905003
11 *50:4 *50:14 2.62334
12 *50:9 *50:10 2.7715
13 *882:A1 *50:13 0.450112
14 *932:A1 *50:12 0.225056
*END

*D_NET *51 0.00748507

*CONN
*I *586:Z O *C 67.5 61.2 *L 0 *D DEL0
*I *972:I I *C 33.3 62.2 *L 0.0104 *D CKND12
*I *878:A1 I *C 36.9 48 *L 0.00069 *D AOI21D0
*I *928:A1 I *C 35.5 48 *L 0.000647 *D NR2D0

*CAP
1 *878:A1 0.000138161
2 *972:I 0.000112845
3 *51:4 0.00184028
4 *51:5 0.00230743
5 *51:6 0.00038642
6 *51:7 3.84484e-05
7 *51:8 0.00038892
8 *51:9 0.000349767
9 *51:10 9.81278e-05
10 *51:11 0.000552255
11 *51:4 *55:4 0.000568638008
12 *972:I *934:A2 0.000301856992
13 *51:5 *14:5 0.000213666016
14 *972:I *264:12 0.000188272988

*RES
1 *51:8 *51:10 3.03482
2 *51:6 *51:4 1.55633
3 *972:I *51:10 0.450132
4 *51:10 *51:5 1.41095
5 *51:7 *51:8 0.28545
6 *51:4 *51:7 7.5561
7 *586:Z *51:9 0.450132
8 *51:11 *51:5 21.8033009
9 *51:9 *51:11 0.603503
10 *878:A1 *51:6 0.609824
11 *928:A1 *51:4 0.2249
*END

*D_NET *52 0.00727809

*CONN
*I *587:Z O *C 59.9 68.4 *L 0 *D DEL0
*I *977:I I *C 47.1 60.8 *L 0.0113 *D INVD12
*I *907:A1 I *C 48.1 48 *L 0.000647 *D NR2D0
*I *885:A1 I *C 47.1 48 *L 0.00069 *D AOI21D0
*I *777:B2 I *C 45.7 58.8 *L 0.000733 *D OAI32D0

*CAP
1 *885:A1 0.000171965
2 *907:A1 0.000117119
3 *977:I 0.000477448
4 *52:5 0.000214707
5 *52:6 0.000466673
6 *52:7 0.000611701
7 *52:8 0.0015553
8 *52:9 0.000368706
9 *52:10 0.000404233
10 *52:11 0.000186014
11 *52:12 0.00016081
12 *52:13 0.000637997
13 *52:13 *737:A2 0.000322424004
14 *977:I *452:9 0.000350545
15 *52:5 *693:A1 0.000233955996
16 *52:6 *223:3 0.000505154023
17 *52:7 *40:3 0.000250980996
18 *52:5 *222:6 0.000242367988

*RES
1 *52:5 *52:9 1.89006
2 *52:11 *52:12 1.41985
3 *907:A1 *52:8 1.09891
4 *52:7 *52:6 1.39227
5 *885:A1 *52:8 1.14302
6 *52:5 *52:8 6.64557981
7 *977:I *52:9 3.45948
8 *977:I *52:13 3.48341
9 *52:12 *52:13 2.01032
10 *52:10 *52:11 1.71321
11 *587:Z *52:7 2.40336
12 *52:6 *52:10 2.54056
13 *777:B2 *52:9 0.225014
*END

*D_NET *53 0.000696938

*CONN
*I *588:Z O *C 70.3 28.8 *L 0 *D DEL0
*I *888:I I *C 67.9 30 *L 0.0113 *D INVD12

*CAP
1 *53:2 7.87545e-05
2 *53:3 0.000618179023

*RES
1 *888:I *53:3 1.40983
2 *53:2 *53:3 1.73772001
3 *588:Z *53:2 0.225011
*END

*D_NET *54 0.000789844

*CONN
*I *589:Z O *C 71.7 40.4 *L 0 *D DEL0
*I *719:I I *C 69.3 42.8 *L 0.0113 *D INVD12

*CAP
1 *589:Z 0.000182568
2 *54:2 0.000607278008

*RES
1 *719:I *54:2 1.20612
2 *589:Z *54:2 2.54219007
*END

*D_NET *55 0.00564362

*CONN
*I *590:Z O *C 64.9 62 *L 0 *D DEL0
*I *946:A2 I *C 32.3 57.2 *L 0.000606 *D CKND2D0
*I *742:B2 I *C 38.5 57.4 *L 0.000739 *D MOAI22D0

*CAP
1 *946:A2 0.000244776
2 *55:3 0.00083854
3 *55:4 0.000473575
4 *55:5 0.000300556
5 *55:6 0.00182413
6 *55:7 5.45833e-05
7 *55:8 0.000670699
8 *55:4 *51:4 0.000568638008
9 *55:3 *189:5 0.000668106016

*RES
1 *55:7 *55:8 1.73878
2 *55:3 *55:6 2.46753
3 *55:4 *55:3 4.0502
4 *55:6 *55:8 16.8819008
5 *590:Z *55:5 0.450023
6 *742:B2 *55:3 0.450023
7 *946:A2 *55:4 1.44177
8 *55:5 *55:7 0.224882
*END

*D_NET *56 0.00429112

*CONN
*I *591:Z O *C 68.1 58.4 *L 0 *D DEL0
*I *937:A2 I *C 38.3 55.2 *L 0.000606 *D CKND2D0
*I *741:B2 I *C 40.5 57.4 *L 0.000739 *D MOAI22D0

*CAP
1 *937:A2 0.00046825
2 *56:3 0.000148472
3 *56:4 0.0009597
4 *56:5 0.00201119
5 *56:6 2.84485e-05
6 *56:7 0.000335643
7 *56:8 0.000339418

*RES
1 *56:7 *56:8 0.0930913
2 *56:6 *56:7 3.77472
3 *741:B2 *56:4 1.19467
4 *56:4 *56:5 1.86527
5 *937:A2 *56:4 2.95177
6 *56:5 *56:8 14.1223001
7 *56:3 *56:6 0.449941
8 *591:Z *56:3 0.224971
*END

*D_NET *57 0.00498875

*CONN
*I *592:Z O *C 69.1 57.6 *L 0 *D DEL0
*I *939:A2 I *C 57.3 57.2 *L 0.000664 *D NR2D0
*I *933:A1 I *C 59.1 57.4 *L 0.000617 *D CKND2D0
*I *783:A I *C 60.9 48 *L 0.00103 *D FA1D0

*CAP
1 *783:A 0.000297736
2 *933:A1 1.24592e-05
3 *939:A2 0.000307747
4 *592:Z 0.000511434
5 *57:4 0.00158855
6 *57:5 0.000413336
7 *57:6 0.000299457
8 *57:7 0.000778895
9 *57:8 0.000779137

*RES
1 *592:Z *57:6 2.61027
2 *57:7 *57:8 3.61076
3 *57:5 *57:8 1.17937
4 *933:A1 *57:5 0.385012
5 *57:6 *57:7 1.5127
6 *57:4 *57:5 5.65490007
7 *783:A *57:4 1.50415
8 *939:A2 *57:8 3.25095
*END

*D_NET *58 0.00609912

*CONN
*I *593:Z O *C 71.9 47.6 *L 0 *D DEL0
*I *820:A I *C 49.3 48 *L 0.00103 *D FA1D0
*I *936:A1 I *C 53.1 57.4 *L 0.000617 *D CKND2D0
*I *945:A1 I *C 52.3 57.2 *L 0.000647 *D NR2D0

*CAP
1 *945:A1 0.000189659
2 *820:A 0.000150624
3 *593:Z 0.000154798
4 *58:4 0.000303449
5 *58:5 0.000150143
6 *58:6 0.000466924
7 *58:7 0.0016579
8 *58:8 0.000248679
9 *58:9 0.000516584
10 *58:10 9.32735e-05
11 *58:11 0.000549117
12 *820:A *104:15 0.000696062969
13 *58:4 *31:2 0.000739686016
14 *945:A1 *80:6 0.000182229004

*RES
1 *58:6 *58:7 7.18562984
2 *593:Z *58:5 1.44182
3 *820:A *58:4 0.729133
4 *945:A1 *58:9 0.77003
5 *58:9 *58:11 2.73726
6 *58:7 *58:8 3.00775
7 *58:4 *58:10 2.42039
8 *58:8 *58:10 0.790643
9 *58:5 *58:6 2.52115
10 *58:10 *58:11 3.61672
11 *936:A1 *58:9 0.93
*END

*D_NET *59 0.0042567

*CONN
*I *594:Z O *C 70.7 54.8 *L 0 *D DEL0
*I *933:A2 I *C 58.7 57.2 *L 0.000606 *D CKND2D0
*I *939:A1 I *C 56.9 57.2 *L 0.000647 *D NR2D0
*I *727:A2 I *C 58.7 53.6 *L 0.000651 *D OAI21D0
*I *716:A1 I *C 57.7 53.6 *L 0.000702 *D OAI32D0

*CAP
1 *727:A2 0.000110021
2 *939:A1 0.000366642
3 *933:A2 0.000311793
4 *594:Z 0.000202864
5 *59:5 0.00264887
6 *59:6 0.000105373
7 *59:7 0.000328002
8 *59:8 0.000183139

*RES
1 *59:5 *59:8 9.96848011
2 *59:5 *59:6 1.24363
3 *594:Z *59:8 1.81996
4 *933:A2 *59:6 1.47209
5 *939:A1 *59:6 1.27724
6 *59:5 *59:7 0.679157
7 *727:A2 *59:7 1.12939
8 *716:A1 *59:7 0.449932
*END

*D_NET *60 0.00715698

*CONN
*I *595:Z O *C 71.9 50.4 *L 0 *D DEL0
*I *821:A I *C 32.5 48 *L 0.00103 *D FA1D0
*I *944:A1 I *C 31.3 61 *L 0.000617 *D CKND2D0
*I *934:A1 I *C 32.3 62.4 *L 0.000647 *D NR2D0

*CAP
1 *934:A1 0.000274646
2 *944:A1 0.000167681
3 *821:A 0.000338623
4 *60:4 0.000475116
5 *60:5 0.000235275
6 *60:6 0.000413452
7 *60:7 0.000668412
8 *60:8 4.29283e-05
9 *60:9 4.80868e-05
10 *60:10 3.1959e-05
11 *60:11 0.000223476
12 *60:12 0.00388578
13 *60:4 *946:A1 0.000351423008

*RES
1 *60:11 *60:12 25.0841999
2 *60:7 *60:8 2.44695
3 *595:Z *60:9 0.450119
4 *944:A1 *60:8 0.901004
5 *60:4 *60:7 2.7543
6 *60:5 *60:6 1.56126
7 *934:A1 *60:8 1.32165
8 *60:10 *60:12 0.450119
9 *60:4 *60:6 1.71244
10 *821:A *60:5 1.39667
11 *60:5 *60:10 0.22506
12 *60:9 *60:11 0.22506
*END

*D_NET *61 0.00608501

*CONN
*I *596:Z O *C 70.3 54 *L 0 *D DEL0
*I *782:A I *C 32.5 51.6 *L 0.00103 *D FA1D0
*I *948:A2 I *C 30.7 57.2 *L 0.000664 *D NR2D0
*I *946:A1 I *C 31.9 57.4 *L 0.000617 *D CKND2D0

*CAP
1 *946:A1 0.00017167
2 *948:A2 1.11802e-06
3 *782:A 0.000288251
4 *596:Z 6.1162e-06
5 *61:4 0.000356559
6 *61:5 0.000141878
7 *61:6 0.000543947
8 *61:7 0.000529347
9 *61:8 0.00118457
10 *61:9 5.11218e-05
11 *61:10 0.00143665
12 *61:11 0.00030706
13 *61:12 0.00014304
14 *61:7 *105:15 0.000341746992
15 *946:A1 *60:4 0.000351423008
16 *782:A *768:S 0.000230495996

*RES
1 *61:4 *61:7 2.38409
2 *61:11 *61:12 2.01897
3 *596:Z *61:5 0.536088
4 *61:5 *61:9 0.449973
5 *948:A2 *61:4 0.996156
6 *782:A *61:7 2.3068
7 *61:8 *61:12 7.93928
8 *61:6 *61:7 2.2822
9 *61:10 *61:11 0.0930545
10 *61:6 *61:8 2.9574
11 *61:9 *61:10 10.3362999
12 *946:A1 *61:4 1.84753
*END

*D_NET *62 0.00553125

*CONN
*I *597:Z O *C 68.1 54.8 *L 0 *D DEL0
*I *883:A1 I *C 59.1 42.8 *L 0.00069 *D AOI21D0
*I *930:A1 I *C 60.3 42.8 *L 0.000647 *D NR2D0
*I *683:A1 I *C 62.5 48 *L 0.000702 *D OAI32D0
*I *922:A2 I *C 61.3 53.6 *L 0.000606 *D CKND2D0

*CAP
1 *62:5 0.000602268
2 *62:6 0.000776562
3 *62:7 0.00113272
4 *62:8 0.000149214
5 *62:9 0.000148955
6 *62:10 0.000284463
7 *62:11 0.00015516
8 *62:12 0.000431552
9 *62:13 0.000736653
10 *62:7 *683:B1 0.000463296016
11 *62:6 *229:2 0.000460366016
12 *62:5 *205:10 0.000190038984

*RES
1 *62:7 *62:8 1.28357
2 *597:Z *62:11 0.576026
3 *62:8 *62:5 3.47313
4 *62:5 *62:12 0.237649
5 *930:A1 *62:12 0.834245
6 *62:7 *62:9 1.20637
7 *62:6 *62:10 4.21274996
8 *62:11 *62:13 2.92828
9 *922:A2 *62:6 0.544978
10 *62:10 *62:13 1.10802
11 *883:A1 *62:12 2.06247
12 *62:6 *62:7 3.38185
13 *683:A1 *62:9 0.44997
*END

*D_NET *63 0.00915069

*CONN
*I *598:Z O *C 67.1 40.4 *L 0 *D DEL0
*I *822:A2 I *C 36.5 41 *L 0.000645 *D OA32D0
*I *880:A1 I *C 35.3 30 *L 0.00069 *D AOI21D0
*I *909:A1 I *C 36.3 30 *L 0.000647 *D NR2D0
*I *707:B1 I *C 34.7 40.8 *L 0.00103 *D OAI32D1
*I *978:I I *C 35.3 44.4 *L 0.0113 *D INVD12

*CAP
1 *707:B1 5.67312e-05
2 *880:A1 0.000435773
3 *63:6 0.00084868
4 *63:7 0.00092075
5 *63:8 0.00154654
6 *63:9 0.000789754
7 *63:10 0.000389213
8 *63:11 0.00037562
9 *63:12 0.000194359
10 *63:13 7.99524e-05
11 *63:14 0.000148389
12 *63:15 0.00061005
13 *63:16 0.000305556
14 *63:17 0.000465814
15 *63:18 0.000483915
16 *63:19 0.000300907
17 *63:6 *469:5 0.000297904023
18 *63:7 *80:7 0.000615392969
19 *63:8 *701:D 0.000285382988

*RES
1 *63:7 *63:19 1.32376
2 *880:A1 *63:15 1.98626
3 *707:B1 *63:6 0.576085
4 *63:10 *63:11 1.58148
5 *63:19 *63:8 9.13484955
6 *63:9 *63:14 2.87903
7 *63:10 *63:15 1.73383
8 *63:6 *63:8 1.76882
9 *978:I *63:12 0.334389
10 *63:9 *63:11 1.67153
11 *63:16 *63:17 2.00173
12 *63:12 *63:6 2.28497
13 *63:17 *63:18 1.97609
14 *63:14 *63:8 0.402967
15 *63:18 *63:7 5.96213
16 *63:13 *63:16 1.75432
17 *909:A1 *63:15 0.22497
18 *822:A2 *63:14 0.44994
19 *598:Z *63:13 0.22497
*END

*D_NET *64 0.00555104

*CONN
*I *599:Z O *C 69.3 47.6 *L 0 *D DEL0
*I *879:A1 I *C 57.1 39.2 *L 0.00069 *D AOI21D0
*I *913:A1 I *C 58.3 39.2 *L 0.000647 *D NR2D0
*I *921:A1 I *C 62.7 43 *L 0.000617 *D CKND2D0
*I *683:B1 I *C 61.5 48 *L 0.000684 *D OAI32D0

*CAP
1 *683:B1 3.74934e-05
2 *64:5 0.000479221
3 *64:6 0.00071334
4 *64:7 0.000400644
5 *64:8 0.000114211
6 *64:9 0.000530759
7 *64:10 0.000173682
8 *64:11 0.000375594
9 *64:12 0.00077147
10 *64:11 *516:4 0.000167890996
11 *64:5 *8:10 0.000324871992
12 *64:6 *10:9 0.000307572012
13 *64:6 *582:I 0.000493195
14 *64:7 *930:A2 0.0001978
15 *683:B1 *62:7 0.000463296016

*RES
1 *64:10 *64:12 0.544962
2 *64:6 *64:11 4.4250598
3 *64:8 *64:7 0.791819
4 *599:Z *64:11 2.81475
5 *64:9 *64:10 1.6253
6 *64:5 *64:12 3.73655
7 *64:5 *64:8 1.85116
8 *683:B1 *64:6 2.37654
9 *64:6 *64:7 2.3837
10 *921:A1 *64:8 0.694116
11 *913:A1 *64:10 0.22498
12 *879:A1 *64:9 0.450028
*END

*D_NET *65 0.0102549

*CONN
*I *600:Z O *C 64.9 36 *L 0 *D DEL0
*I *973:I I *C 32.3 46.4 *L 0.0113 *D INVD12
*I *889:B1 I *C 32.5 37.2 *L 0.000712 *D AOI32D0
*I *692:B1 I *C 33.3 35.6 *L 0.00103 *D OAI32D1
*I *929:A1 I *C 29.1 33.6 *L 0.000647 *D NR2D0
*I *870:A1 I *C 30.3 33.6 *L 0.00069 *D AOI21D0

*CAP
1 *870:A1 0.000182539
2 *929:A1 0.000289787
3 *692:B1 6.56421e-05
4 *65:6 0.000342923
5 *65:7 0.000861969
6 *65:8 0.000530098
7 *65:9 0.000405161
8 *65:10 0.000715767
9 *65:11 0.000161941
10 *65:12 0.000113133
11 *65:13 0.000470922
12 *65:14 0.000203444
13 *65:15 4.0049e-05
14 *65:16 4.15203e-05
15 *65:17 0.00037293
16 *65:18 0.00011895
17 *65:20 0.00112115
18 *65:13 *442:2 0.00115005008
19 *65:12 *498:4 0.00111148
20 *692:B1 *258:2 0.000805877969
21 *929:A1 *70:5 0.000829538984
22 *692:B1 *68:18 0.000320003984

*RES
1 *929:A1 *65:10 1.44263
2 *65:7 *65:11 0.958219
3 *65:6 *65:11 1.43497
4 *65:15 *65:16 1.75045
5 *973:I *65:8 2.38424
6 *692:B1 *65:6 0.76502
7 *870:A1 *65:10 1.17957
8 *65:9 *65:19 1.95873
9 *65:7 *65:8 3.41703
10 *65:18 *65:20 7.72040987
11 *65:16 *65:17 4.33649
12 *65:14 *65:15 2.13013
13 *65:12 *65:13 4.57233
14 *65:13 *65:14 2.14745
15 *65:9 *65:10 2.85463
16 *65:17 *65:18 1.21915
17 *600:Z *65:12 0.225006
18 *889:B1 *65:11 0.450012
19 *65:6 *65:20 0.225006
20 *65:7 *65:19 0.225006
*END

*D_NET *66 0.00368243

*CONN
*I *601:Z O *C 69.3 50.4 *L 0 *D DEL0
*I *767:A I *C 63.5 46.4 *L 0.00103 *D FA1D0
*I *938:A1 I *C 62.5 55 *L 0.000617 *D CKND2D0

*CAP
1 *767:A 0.000335778
2 *66:3 0.000566565
3 *66:4 0.000188862
4 *66:5 0.000730607
5 *66:6 0.000505135
6 *66:7 0.0013555

*RES
1 *66:6 *66:7 3.6310401
2 *938:A1 *66:6 0.900003
3 *66:3 *66:7 2.78655
4 *66:5 *66:7 2.5467
5 *66:4 *66:5 2.98784
6 *767:A *66:3 0.830359
7 *601:Z *66:4 0.225001
*END

*D_NET *67 0.0059115

*CONN
*I *602:Z O *C 70.9 51.2 *L 0 *D DEL0
*I *761:A I *C 48.3 50 *L 0.00103 *D FA1D0
*I *940:A1 I *C 46.3 53.8 *L 0.000617 *D CKND2D0

*CAP
1 *940:A1 0.000479206
2 *602:Z 4.63995e-05
3 *67:3 0.00186323
4 *67:4 0.000540162
5 *67:5 0.000460868
6 *67:6 0.00027109
7 *67:7 8.84775e-05
8 *67:8 8.91883e-05
9 *67:3 *93:35 0.00112493
10 *67:4 *230:2 0.00024704
11 *67:4 *511:26 0.000700872031

*RES
1 *67:3 *67:7 2.12052
2 *67:4 *67:7 1.19313
3 *940:A1 *67:8 2.34063
4 *67:6 *67:3 12.2042999
5 *67:4 *67:8 1.94919
6 *67:5 *67:6 1.45068
7 *602:Z *67:5 2.11251
8 *761:A *67:4 0.224957
*END

*D_NET *68 0.00840206

*CONN
*I *603:Z O *C 63.1 33.2 *L 0 *D DEL0
*I *706:A2 I *C 28.9 37.2 *L 0.000705 *D OAI22D0
*I *911:A1 I *C 33.3 30 *L 0.000647 *D NR2D0
*I *874:A1 I *C 32.5 30 *L 0.00069 *D AOI21D0
*I *889:A1 I *C 32.3 37.2 *L 0.000719 *D AOI32D0
*I *976:I I *C 33.1 39.2 *L 0.0113 *D INVD12

*CAP
1 *976:I 0.000249606
2 *889:A1 0.000103991
3 *874:A1 0.000237644
4 *911:A1 8.32487e-05
5 *706:A2 0.00060484
6 *603:Z 0.000149982
7 *68:6 0.000427753
8 *68:7 0.000201135
9 *68:8 0.000238767
10 *68:9 0.000216356
11 *68:10 0.000148282
12 *68:11 0.000457712
13 *68:12 0.000293445
14 *68:13 0.00102205
15 *68:14 0.000447637
16 *68:15 8.03167e-05
17 *68:16 0.000496872
18 *68:17 0.000136772
19 *68:18 0.000322936
20 *68:19 0.000302022
21 *68:14 *160 0.000327556016
22 *603:Z *11:2 0.000637216992
23 *68:7 *25:2 0.000895906953
24 *68:18 *692:B1 0.000320003984

*RES
1 *706:A2 *68:17 3.37831
2 *68:16 *68:18 1.75628
3 *68:15 *68:17 0.731018
4 *68:13 *68:14 1.98362
5 *603:Z *68:7 3.6245
6 *874:A1 *68:6 1.30161
7 *68:6 *68:16 1.87336
8 *68:14 *68:16 1.94868
9 *889:A1 *68:17 1.31487
10 *68:18 *68:19 2.6233
11 *976:I *68:15 0.954078
12 *68:9 *68:10 1.45225
13 *68:11 *68:12 1.54823
14 *68:8 *68:9 1.51271
15 *68:12 *68:13 4.75088978
16 *911:A1 *68:6 0.618074
17 *68:10 *68:11 2.7938
18 *68:7 *68:8 2.2836
19 *68:15 *68:19 0.225018
*END

*D_NET *69 0.00365494

*CONN
*I *604:Z O *C 65.5 54.8 *L 0 *D DEL0
*I *1006:B1 I *C 51.3 57.2 *L 0.000658 *D IND2D0
*I *898:B1 I *C 51.7 53.6 *L 0.000663 *D AOI22D0

*CAP
1 *898:B1 0.000659146
2 *1006:B1 1.12603e-05
3 *604:Z 0.000461432
4 *69:3 0.000837494
5 *69:4 1.62316e-05
6 *69:5 0.00130841008
7 *69:6 0.000352064
8 *69:7 8.88445e-06

*RES
1 *69:6 *69:7 1.38677
2 *69:3 *69:7 3.47339
3 *1006:B1 *69:3 0.47703
4 *69:5 *69:6 0.0928206
5 *69:4 *69:5 5.26218987
6 *604:Z *69:4 1.58245
7 *898:B1 *69:3 2.51555
*END

*D_NET *70 0.00733169

*CONN
*I *605:Z O *C 50.3 36.8 *L 0 *D DEL0
*I *931:A1 I *C 28.3 32 *L 0.000647 *D NR2D0
*I *865:A1 I *C 27.9 33.6 *L 0.00069 *D AOI21D0
*I *979:I I *C 28.7 44.4 *L 0.0113 *D INVD12

*CAP
1 *979:I 0.000435338
2 *931:A1 0.000695971
3 *605:Z 0.000106545
4 *70:4 0.00181361
5 *70:5 0.000508647
6 *70:6 0.000300732
7 *70:7 0.000311082
8 *70:8 0.000219648
9 *70:4 *916:A3 0.00051676
10 *979:I *628:Z 0.000525976016
11 *70:6 *22:2 0.000615991016
12 *70:5 *929:A1 0.000829538984
13 *605:Z *498:2 0.0001945
14 *979:I *507:8 0.000257297988

*RES
1 *70:4 *70:8 10.5525999
2 *70:4 *70:5 2.44702
3 *605:Z *70:6 3.32748
4 *979:I *70:4 6.38943
5 *931:A1 *70:5 2.64443
6 *70:7 *70:8 2.39501
7 *70:6 *70:7 2.04721
8 *865:A1 *70:5 0.450051
*END

*D_NET *71 0.00665877

*CONN
*I *606:Z O *C 68.3 51.2 *L 0 *D DEL0
*I *936:A2 I *C 52.7 57.2 *L 0.000606 *D CKND2D0
*I *945:A2 I *C 51.9 57.2 *L 0.000664 *D NR2D0
*I *753:B2 I *C 49.9 53.8 *L 0.000739 *D MOAI22D0
*I *898:B2 I *C 52.1 53.6 *L 0.000718 *D AOI22D0
*I *949:A1 I *C 54.3 51.4 *L 0.000617 *D CKND2D0

*CAP
1 *949:A1 0.000327609
2 *753:B2 0.000299391
3 *936:A2 0.000281631
4 *606:Z 0.000336942
5 *71:6 0.000417479
6 *71:7 6.45886e-05
7 *71:8 0.0017989
8 *71:9 0.000388437
9 *71:10 0.000168238
10 *71:11 0.00056889
11 *71:12 0.000193821
12 *71:13 0.000239249
13 *71:14 0.000129616
14 *753:B2 *80:9 0.000203991992
15 *936:A2 *104:25 0.000385598008
16 *936:A2 *40:2 0.000211365
17 *606:Z *229:3 0.000643020977

*RES
1 *606:Z *71:7 1.8513
2 *71:8 *71:11 3.54823
3 *753:B2 *71:9 2.80221
4 *71:6 *71:13 0.735397
5 *71:7 *71:8 7.56118011
6 *936:A2 *71:10 1.53633
7 *71:13 *71:14 1.61305
8 *71:6 *71:9 0.966607
9 *949:A1 *71:11 2.35364
10 *71:10 *71:12 1.61259
11 *945:A2 *71:10 0.44996
12 *71:11 *71:14 0.44996
13 *898:B2 *71:6 0.22498
14 *71:9 *71:12 0.22498
*END

*D_NET *72 0.000815833

*CONN
*I *607:Z O *C 69.1 33.2 *L 0 *D DEL0
*I *912:A1 I *C 66.7 35.6 *L 0.00098 *D AN2XD1

*CAP
1 *912:A1 0.00041358
2 *72:2 0.000402252

*RES
1 *607:Z *72:2 1.40983
2 *912:A1 *72:2 2.68737006
*END

*D_NET *73 0.00350572

*CONN
*I *608:Z O *C 30.7 46.8 *L 0 *D DEL0
*I *937:A1 I *C 37.9 55 *L 0.000617 *D CKND2D0
*I *768:A I *C 37.7 51.6 *L 0.00103 *D FA1D0

*CAP
1 *608:Z 0.000258478
2 *73:3 0.000415412
3 *73:4 0.000744441
4 *73:5 0.00208741

*RES
1 *73:4 *73:5 6.61221981
2 *937:A1 *73:4 2.51086
3 *608:Z *73:3 1.0382
4 *73:3 *73:5 2.77712
5 *768:A *73:4 0.224995
*END

*D_NET *74 0.00525627

*CONN
*I *609:Z O *C 36.3 50.4 *L 0 *D DEL0
*I *822:B2 I *C 35.9 40.8 *L 0.000709 *D OA32D0
*I *925:A1 I *C 37.1 33.6 *L 0.000647 *D NR2D0
*I *881:A1 I *C 37.9 33.6 *L 0.00069 *D AOI21D0
*I *980:I I *C 38.7 44.4 *L 0.0113 *D INVD12
*I *703:A2 I *C 38.5 40.8 *L 0.000705 *D OAI22D0

*CAP
1 *980:I 7.71479e-05
2 *925:A1 0.00034818
3 *74:6 0.000231376
4 *74:7 0.000526146
5 *74:8 0.000678534
6 *74:9 0.0007482
7 *74:11 0.00111683
8 *74:12 2.56989e-05
9 *74:13 0.000407945
10 *74:8 *932:A2 0.000406652969
11 *74:11 *994:D 0.000163294004
12 *980:I *47:4 0.000168311992
13 *74:6 *507:10 0.000357951992

*RES
1 *74:8 *74:12 2.11581
2 *74:6 *74:11 4.44541979
3 *980:I *74:12 0.449996
4 *74:7 *74:8 2.26382
5 *74:6 *74:10 0.735025
6 *609:Z *74:7 2.32276
7 *925:A1 *74:11 1.64912
8 *74:10 *74:13 2.9749
9 *74:8 *74:9 2.70147
10 *881:A1 *74:11 0.449996
11 *703:A2 *74:10 0.449996
12 *822:B2 *74:9 0.224998
13 *74:9 *74:13 0.224998
*END

*D_NET *75 0.00348289

*CONN
*I *610:Z O *C 70.9 46.8 *L 0 *D DEL0
*I *683:A2 I *C 62.3 48 *L 0.000704 *D OAI32D0
*I *947:A2 I *C 63.5 50 *L 0.000606 *D CKND2D0
*I *739:B2 I *C 66.3 50.2 *L 0.000717 *D IND4D0
*I *689:A2 I *C 64.5 48 *L 0.000651 *D OAI21D0

*CAP
1 *689:A2 0.000368929
2 *683:A2 0.000551053
3 *610:Z 0.000421707
4 *75:5 0.000102557
5 *75:6 0.000331398
6 *75:7 0.000656576
7 *75:8 0.00105066

*RES
1 *75:6 *75:7 1.47976
2 *739:B2 *75:8 1.29184
3 *947:A2 *75:7 0.964103
4 *75:6 *75:8 0.812176
5 *75:5 *75:8 3.16185999
6 *683:A2 *75:7 2.47725
7 *689:A2 *75:6 1.89496
8 *610:Z *75:5 1.883
*END

*D_NET *76 0.00330355

*CONN
*I *611:Z O *C 60.3 44 *L 0 *D DEL0
*I *898:A1 I *C 52.7 53.6 *L 0.000665 *D AOI22D0
*I *877:A1 I *C 51.7 44.4 *L 0.00069 *D AOI21D0
*I *926:A1 I *C 51.7 46.4 *L 0.000647 *D NR2D0

*CAP
1 *877:A1 0.000147329
2 *76:4 0.000423651
3 *76:5 0.000252995
4 *76:6 0.000999493
5 *76:7 7.63206e-05
6 *76:8 0.00140378

*RES
1 *76:7 *76:8 6.00678015
2 *76:5 *76:6 0.941401
3 *76:4 *76:6 3.89007
4 *898:A1 *76:4 1.55825
5 *877:A1 *76:5 0.917937
6 *611:Z *76:7 0.225016
7 *926:A1 *76:6 0.225016
8 *76:5 *76:8 0.225016
*END

*D_NET *77 0.00312965

*CONN
*I *612:Z O *C 30.3 54.8 *L 0 *D DEL0
*I *944:A2 I *C 31.7 60.8 *L 0.000606 *D CKND2D0
*I *839:A2 I *C 39.7 60.8 *L 0.000606 *D CKND2D0
*I *704:B1 I *C 38.7 61 *L 0.000863 *D AO22D0

*CAP
1 *704:B1 0.000106875
2 *839:A2 0.000272567
3 *612:Z 0.000509988
4 *77:4 0.000827319063
5 *77:5 0.000284345
6 *77:6 0.00025233
7 *77:7 0.000493867
8 *77:8 0.000382358

*RES
1 *77:6 *77:8 1.06016
2 *839:A2 *77:8 1.66995
3 *704:B1 *77:8 0.609981
4 *77:6 *77:7 2.52096
5 *77:5 *77:7 1.48345
6 *77:4 *77:5 3.16489005
7 *612:Z *77:4 1.94459
8 *944:A2 *77:5 0.224994
*END

*D_NET *78 0.00466834

*CONN
*I *613:Z O *C 32.9 54.8 *L 0 *D DEL0
*I *858:A2 I *C 39.5 62.4 *L 0.000664 *D NR2D0
*I *1005:B1 I *C 37.1 66 *L 0.000658 *D IND2D0
*I *969:I I *C 38.5 66 *L 0.0113 *D INVD12

*CAP
1 *969:I 0.00012055
2 *1005:B1 0.000292246
3 *78:4 0.000680502
4 *78:5 0.000548232
5 *78:7 0.000170848
6 *78:8 0.00150309
7 *78:9 0.000860363
8 *78:10 0.000492475

*RES
1 *78:6 *78:9 2.57257
2 *78:6 *78:7 0.915367
3 *613:Z *78:8 0.351045
4 *1005:B1 *78:7 1.12502
5 *969:I *78:7 0.826436
6 *78:5 *78:9 2.78814
7 *78:4 *78:10 1.78737
8 *78:8 *78:10 5.78770018
9 *78:4 *78:5 2.52638
10 *858:A2 *78:9 0.225022
*END

*D_NET *79 0.00758633

*CONN
*I *614:Z O *C 50.7 46.8 *L 0 *D DEL0
*I *732:B2 I *C 41.7 44.2 *L 0.000739 *D MOAI22D0
*I *1005:A1 I *C 37.7 66 *L 0.000681 *D IND2D0
*I *951:A1 I *C 38.1 64.6 *L 0.000617 *D CKND2D0
*I *935:A1 I *C 38.7 46.6 *L 0.000617 *D CKND2D0
*I *900:A1 I *C 39.7 44.4 *L 0.0007 *D OAI21D0

*CAP
1 *900:A1 3.7066e-05
2 *1005:A1 0.000162148
3 *732:B2 9.82605e-05
4 *79:6 0.000299622
5 *79:7 0.000450033
6 *79:8 0.000378867
7 *79:9 0.0011925
8 *79:10 0.000302915
9 *79:11 0.00055559
10 *79:12 0.0003753
11 *79:13 0.000885964
12 *79:14 0.000488646
13 *79:15 0.000797584
14 *79:14 *774:A2 0.000735108984
15 *900:A1 *47:4 0.0008267

*RES
1 *79:8 *79:9 5.34664011
2 *1005:A1 *79:10 1.84582
3 *614:Z *79:6 0.864864
4 *79:7 *79:11 1.91517
5 *79:8 *79:10 1.56012
6 *79:6 *79:12 2.68238
7 *732:B2 *79:13 0.588052
8 *79:11 *79:15 1.21469
9 *79:14 *79:15 3.46704
10 *79:7 *79:13 1.94788
11 *79:9 *79:14 3.11289
12 *79:12 *79:13 5.23626
13 *900:A1 *79:7 0.609998
14 *935:A1 *79:11 0.450013
15 *951:A1 *79:10 0.225007
*END

*D_NET *80 0.0056498

*CONN
*I *615:Z O *C 57.9 40.4 *L 0 *D DEL0
*I *1006:A1 I *C 50.7 57.2 *L 0.000681 *D IND2D0
*I *952:A1 I *C 54.5 57.4 *L 0.000617 *D CKND2D0
*I *943:A1 I *C 50.9 43 *L 0.000617 *D CKND2D0
*I *897:A1 I *C 52.3 42.8 *L 0.0007 *D OAI21D0
*I *730:B2 I *C 51.9 40.6 *L 0.000739 *D MOAI22D0

*CAP
1 *730:B2 7.21975e-05
2 *897:A1 0.000343406
3 *952:A1 6.45326e-05
4 *1006:A1 7.45347e-05
5 *80:6 0.000425692
6 *80:7 0.000193203
7 *80:8 3.23265e-05
8 *80:9 0.00104667
9 *80:10 5.86379e-05
10 *80:11 0.00032708
11 *80:12 0.00112627008
12 *80:13 0.000241237
13 *80:14 0.000411788
14 *80:10 *820:B 0.000230588008
15 *80:9 *753:B2 0.000203991992
16 *80:7 *63:7 0.000615392969
17 *80:6 *945:A1 0.000182229004

*RES
1 *615:Z *80:13 1.41821
2 *80:6 *80:9 4.75953007
3 *80:8 *80:12 1.73384
4 *80:10 *80:12 3.17254
5 *80:10 *80:11 1.58438
6 *897:A1 *80:8 1.73057
7 *952:A1 *80:15 0.674974
8 *80:7 *80:8 0.235449
9 *730:B2 *80:7 0.350995
10 *80:13 *80:14 2.41216
11 *80:6 *80:15 3.33841
12 *80:9 *80:11 0.159266
13 *1006:A1 *80:6 0.52268
14 *80:7 *80:14 1.19322
15 *943:A1 *80:12 0.224991
*END

*D_NET *81 0.00663167

*CONN
*I *616:Z O *C 58.1 58.4 *L 0 *D DEL0
*I *781:A2 I *C 55.1 42.6 *L 0.000727 *D AOI221D0
*I *837:B1 I *C 54.5 39.2 *L 0.000663 *D AOI22D0
*I *772:A2 I *C 54.1 40.8 *L 0.00065 *D OAI211D0
*I *831:B2 I *C 54.5 44.4 *L 0.000718 *D OAI22D0
*I *949:A2 I *C 53.9 51.6 *L 0.000606 *D CKND2D0
*I *987:SA I *C 54.9 55.2 *L 0.00154 *D DFXD1
*I *952:A2 I *C 54.1 57.2 *L 0.000606 *D CKND2D0
*I *898:A2 I *C 52.3 53.6 *L 0.000728 *D AOI22D0

*CAP
1 *987:SA 0.000177542
2 *837:B1 0.000312107
3 *781:A2 0.000395512
4 *81:9 0.000299816
5 *81:10 0.000556614
6 *81:11 0.000927996016
7 *81:12 0.000382498
8 *81:13 0.000245526
9 *81:14 0.000662575
10 *81:15 0.000241122
11 *81:16 0.000348995
12 *81:17 0.000288601
13 *81:18 0.000478519
14 *81:19 0.000391419
15 *837:B1 *837:B2 0.000263947988
16 *81:10 *40:2 0.000658875

*RES
1 *81:18 *81:19 1.34743
2 *81:11 *81:13 3.78002
3 *898:A2 *81:18 0.450008
4 *81:15 *81:17 1.79882
5 *987:SA *81:17 1.17918
6 *837:B1 *81:12 1.72834
7 *81:17 *81:19 1.99089
8 *81:13 *81:19 1.79392
9 *81:9 *81:12 2.05434
10 *616:Z *81:16 1.15317
11 *81:10 *81:16 2.74613
12 *81:9 *81:14 1.1384
13 *81:11 *81:14 2.29411
14 *781:A2 *81:9 1.75816
15 *81:10 *81:15 0.379063
16 *952:A2 *81:15 0.225004
17 *831:B2 *81:14 0.450008
18 *949:A2 *81:13 0.225004
19 *772:A2 *81:12 0.225004
*END

*D_NET *82 0.000617738

*CONN
*I *617:Z O *C 60.1 69.2 *L 0 *D DEL0
*I *669:I I *C 57.5 69.6 *L 0.00104 *D INVD1

*CAP
1 *669:I 9.45852e-05
2 *82:2 9.15557e-05
3 *82:3 0.0004316

*RES
1 *82:2 *82:3 1.88743997
2 *669:I *82:3 0.674987
3 *617:Z *82:2 0.224986
*END

*D_NET *83 0.00359397

*CONN
*I *618:Z O *C 47.3 32.4 *L 0 *D DEL0
*I *971:I I *C 33.3 33.6 *L 0.0113 *D INVD12
*I *692:A2 I *C 32.5 35.6 *L 0.00102 *D OAI32D1

*CAP
1 *618:Z 0.000139302
2 *83:3 0.000670249
3 *83:4 0.000323539
4 *83:5 0.00184279
5 *83:6 0.000171133
6 *83:7 0.000438631
7 *83:8 8.29516e-06

*RES
1 *83:5 *83:8 7.44413996
2 *83:5 *83:6 0.274203
3 *618:Z *83:3 0.543976
4 *83:7 *83:8 1.89091
5 *83:4 *83:6 0.504106
6 *83:3 *83:7 2.82972
7 *692:A2 *83:4 1.91772
8 *971:I *83:6 0.225019
*END

*D_NET *84 0.00313926

*CONN
*I *619:Z O *C 44.7 54 *L 0 *D DEL0
*I *853:A2 I *C 41.1 60.8 *L 0.000664 *D NR2D0
*I *840:A2 I *C 39.9 53.6 *L 0.000664 *D NR2D0
*I *963:I1 I *C 39.1 62.2 *L 0.001 *D MUX2ND0

*CAP
1 *963:I1 3.55531e-05
2 *840:A2 0.000107079
3 *853:A2 1.41979e-05
4 *619:Z 9.45595e-05
5 *84:4 0.000417964
6 *84:5 0.00152785
7 *84:6 0.000512244
8 *84:7 0.000398637
9 *84:8 3.11701e-05

*RES
1 *84:6 *84:7 1.45321
2 *84:5 *84:8 3.21009
3 *84:4 *84:6 2.21049
4 *963:I1 *84:7 1.4584
5 *840:A2 *84:5 0.610471
6 *619:Z *84:8 0.450012
7 *84:4 *84:5 3.36398005
8 *853:A2 *84:6 0.543536
*END

*D_NET *85 0.00326062

*CONN
*I *620:Z O *C 32.5 28.8 *L 0 *D DEL0
*I *889:A3 I *C 31.7 37.2 *L 0.000695 *D AOI32D0
*I *748:A2 I *C 34.5 37.2 *L 0.000664 *D NR2D0
*I *968:A1 I *C 32.9 28.4 *L 0.00136 *D XNR2D0
*I *794:B1 I *C 33.1 31.6 *L 0.000899 *D OAI221D0

*CAP
1 *794:B1 3.08233e-05
2 *748:A2 8.96254e-06
3 *889:A3 0.000803502031
4 *85:5 0.00037189
5 *85:6 0.000444093
6 *85:7 0.000441837
7 *85:8 0.00067924
8 *85:9 0.000395136
9 *85:10 8.5138e-05

*RES
1 *968:A1 *85:8 1.10717
2 *748:A2 *85:5 0.702046
3 *85:9 *85:10 1.73922
4 *85:5 *85:6 0.91861
5 *794:B1 *85:7 0.69162
6 *85:8 *85:9 1.59169
7 *85:7 *85:10 0.954113
8 *85:6 *85:7 2.38182
9 *889:A3 *85:5 3.69315004
10 *620:Z *85:8 0.225018
*END

*D_NET *86 0.00298827

*CONN
*I *621:Z O *C 50.9 62 *L 0 *D DEL0
*I *749:A2 I *C 47.9 64.4 *L 0.000664 *D NR2D0
*I *895:A3 I *C 46.7 68 *L 0.000669 *D ND3D0
*I *666:I I *C 47.3 68 *L 0.00104 *D INVD1
*I *862:A3 I *C 48.9 71.6 *L 0.000695 *D AOI32D0

*CAP
1 *895:A3 0.000172072
2 *621:Z 6.05105e-05
3 *86:5 0.000804708
4 *86:6 0.000667921
5 *86:7 0.000321933
6 *86:8 0.000816797969
7 *86:9 6.42122e-05
8 *86:10 8.01156e-05

*RES
1 *86:7 *86:9 0.142663
2 *86:6 *86:7 1.26392
3 *86:5 *86:10 2.25808
4 *895:A3 *86:7 0.745722
5 *86:8 *86:9 3.3765099
6 *86:5 *86:8 0.756129
7 *862:A3 *86:6 2.62476
8 *621:Z *86:10 0.449988
9 *666:I *86:9 0.224994
10 *749:A2 *86:8 0.449988
*END

*D_NET *87 0.00278649

*CONN
*I *622:Z O *C 56.7 72 *L 0 *D DEL0
*I *895:A1 I *C 46.1 68.2 *L 0.000693 *D ND3D0
*I *862:B2 I *C 47.9 71.6 *L 0.000674 *D AOI32D0
*I *672:I I *C 49.7 71.6 *L 0.00104 *D INVD1

*CAP
1 *862:B2 8.46707e-05
2 *895:A1 0.00056398
3 *622:Z 0.00047224
4 *87:4 0.00016797
5 *87:5 0.000665653984
6 *87:6 0.000564427
7 *87:7 0.000267552

*RES
1 *862:B2 *87:7 1.08289
2 *87:6 *87:7 1.55767
3 *87:4 *87:7 1.10734
4 *672:I *87:6 0.828054
5 *87:5 *87:6 4.11958981
6 *622:Z *87:5 1.7631
7 *895:A1 *87:4 2.15698
*END

*D_NET *88 0.00381072

*CONN
*I *623:Z O *C 52.9 36 *L 0 *D DEL0
*I *857:A2 I *C 50.9 33.6 *L 0.000606 *D CKND2D0
*I *785:B1 I *C 43.5 29.8 *L 0.00072 *D AOI221D0
*I *801:A2 I *C 43.7 32 *L 0.00065 *D OAI211D0
*I *717:A1 I *C 49.5 33.6 *L 0.000711 *D OAI211D0
*I *691:A2 I *C 49.9 35.6 *L 0.000712 *D IOA21D0

*CAP
1 *691:A2 5.21917e-05
2 *717:A1 1.97036e-06
3 *785:B1 0.000499754
4 *623:Z 0.000157751
5 *88:6 0.000276584
6 *88:7 0.000486802
7 *88:9 0.000476293
8 *88:10 0.00100099
9 *88:11 0.000858375

*RES
1 *88:10 *88:11 3.95844007
2 *88:6 *88:7 1.73369
3 *857:A2 *88:10 2.72481
4 *717:A1 *88:7 0.685431
5 *785:B1 *88:8 1.87014
6 *88:7 *88:10 1.24982
7 *623:Z *88:9 2.62865
8 *691:A2 *88:6 0.70494
9 *801:A2 *88:8 0.224994
10 *88:6 *88:9 0.224994
11 *88:8 *88:11 0.224994
*END

*D_NET *89 0.00353516

*CONN
*I *624:Z O *C 46.5 40.4 *L 0 *D DEL0
*I *731:B2 I *C 44.9 39.4 *L 0.000739 *D MOAI22D0
*I *826:A1 I *C 41.7 33.6 *L 0.000675 *D AOI221D0
*I *954:I I *C 44.7 32.2 *L 0.00062 *D CKND0
*I *899:A1 I *C 42.5 35.6 *L 0.0007 *D OAI21D0
*I *950:A1 I *C 43.9 35.8 *L 0.000617 *D CKND2D0
*I *731:A2 I *C 44.1 39.2 *L 0.000697 *D MOAI22D0

*CAP
1 *731:A2 1.15179e-05
2 *950:A1 2.09511e-06
3 *954:I 0.000130251
4 *826:A1 0.000346173
5 *624:Z 0.000281183
6 *89:7 0.000227606
7 *89:8 0.000496302
8 *89:9 0.0006831
9 *89:10 0.000188956
10 *89:11 0.000327369
11 *89:12 0.000599639
12 *89:13 0.000240979

*RES
1 *89:8 *89:10 1.63422
2 *624:Z *89:12 2.72895002
3 *89:10 *89:11 0.962145
4 *89:7 *89:12 0.851006
5 *89:7 *89:9 2.62439
6 *826:A1 *89:11 1.58783
7 *89:11 *89:13 0.403246
8 *89:9 *89:13 0.728
9 *954:I *89:8 1.01832
10 *950:A1 *89:10 0.655213
11 *731:A2 *89:7 0.559398
12 *899:A1 *89:13 0.450009
13 *731:B2 *89:12 0.224983
*END

*D_NET *90 0.00439207

*CONN
*I *625:Z O *C 60.5 33.2 *L 0 *D DEL0
*I *733:B2 I *C 55.5 29.8 *L 0.000739 *D MOAI22D0
*I *795:A1 I *C 45.5 30 *L 0.000713 *D MAOI22D0
*I *795:B1 I *C 46.5 30 *L 0.000686 *D MAOI22D0
*I *819:A2 I *C 52.3 28.4 *L 0.000606 *D CKND2D0
*I *798:A2 I *C 53.7 28.4 *L 0.000651 *D OAI21D0

*CAP
1 *798:A2 0.000408947
2 *819:A2 0.00012287
3 *795:B1 0.000109331
4 *795:A1 0.000349975
5 *733:B2 0.000124157
6 *625:Z 0.000658727969
7 *90:6 0.000357915
8 *90:7 0.00047186
9 *90:8 0.000517534
10 *90:9 0.000459667
11 *90:10 0.000540733
12 *90:11 0.000270366

*RES
1 *90:8 *90:10 2.02163
2 *90:7 *90:9 2.22406
3 *625:Z *90:6 3.9483099
4 *795:A1 *90:10 1.62063
5 *819:A2 *90:11 0.449981
6 *90:6 *90:9 2.53782
7 *733:B2 *90:9 0.449981
8 *90:7 *90:11 1.45929
9 *90:7 *90:8 2.32202
10 *795:B1 *90:10 0.449981
11 *798:A2 *90:11 1.70702
*END

*D_NET *91 0.00210434

*CONN
*I *626:Z O *C 47.7 36.8 *L 0 *D DEL0
*I *828:I1 I *C 44.1 33.4 *L 0.001 *D MUX2ND0
*I *957:I I *C 45.3 33.4 *L 0.00062 *D CKND0
*I *715:A2 I *C 46.3 33.6 *L 0.000668 *D AO21D0

*CAP
1 *828:I1 0.000238386
2 *91:4 0.000753113984
3 *91:5 0.00057259
4 *91:6 0.00054024

*RES
1 *91:4 *91:5 2.11624
2 *626:Z *91:6 1.41009
3 *828:I1 *91:5 1.11011
4 *91:4 *91:6 3.15161991
5 *957:I *91:5 0.225013
6 *715:A2 *91:4 0.449977
*END

*D_NET *92 0.0012869

*CONN
*I *627:Z O *C 49.9 32.4 *L 0 *D DEL0
*I *714:A2 I *C 52.3 30 *L 0.000668 *D AO21D0
*I *802:I1 I *C 49.7 29.8 *L 0.001 *D MUX2ND0
*I *953:I I *C 50.1 32.2 *L 0.00062 *D CKND0

*CAP
1 *802:I1 5.98661e-05
2 *714:A2 0.000100929
3 *92:4 0.000826485
4 *92:5 0.000149772
5 *92:6 0.000149848

*RES
1 *802:I1 *92:4 0.351035
2 *92:4 *92:5 0.889836
3 *953:I *92:5 0.778632
4 *92:4 *92:6 2.21718001
5 *714:A2 *92:6 0.449993
6 *627:Z *92:5 0.225013
*END

*D_NET *93 0.0274067

*CONN
*I *628:Z O *C 28.1 36.8 *L 0 *D BUFFD1
*I *688:CN I *C 44.1 42.8 *L 0.000903 *D DFKCNQD1
*I *700:CN I *C 42.9 40.8 *L 0.000903 *D DFKCNQD1
*I *697:CN I *C 59.3 32 *L 0.000903 *D DFKCNQD1
*I *983:CN I *C 60.5 40.6 *L 0.001 *D EDFKCND1
*I *725:CN I *C 65.3 43 *L 0.00107 *D DFKCND1
*I *743:B1 I *C 65.5 39.2 *L 0.000658 *D IND2D0
*I *904:D I *C 65.7 32.2 *L 0.00105 *D DFKCND1
*I *982:DA I *C 65.1 37.2 *L 0.000727 *D DFXD1
*I *711:CN I *C 60.5 37 *L 0.001 *D EDFKCNQD1
*I *699:CN I *C 57.1 33.6 *L 0.000903 *D DFKCNQD1
*I *686:CN I *C 53.7 32 *L 0.000903 *D DFKCNQD1
*I *682:CN I *C 53.5 37.2 *L 0.000903 *D DFKCNQD1
*I *698:CN I *C 50.9 39.2 *L 0.000903 *D DFKCNQD1
*I *981:CN I *C 59.7 51.4 *L 0.001 *D EDFKCND1
*I *709:CN I *C 57.1 50.2 *L 0.001 *D EDFKCNQD1
*I *710:CN I *C 53.1 50.2 *L 0.001 *D EDFKCNQD1
*I *985:CN I *C 44.9 51.4 *L 0.001 *D EDFKCND1
*I *956:I I *C 48.7 43 *L 0.00062 *D CKND0
*I *763:A3 I *C 49.3 42.8 *L 0.000669 *D ND3D0
*I *759:A3 I *C 46.5 39.2 *L 0.000669 *D ND3D0
*I *687:CN I *C 48.1 35.6 *L 0.000903 *D DFKCNQD1
*I *701:CN I *C 43.1 37.2 *L 0.000903 *D DFKCNQD1
*I *712:CN I *C 40.3 39.2 *L 0.000903 *D DFKCNQD1
*I *986:CN I *C 34.7 53.8 *L 0.001 *D EDFKCND1
*I *695:CN I *C 29.1 53.8 *L 0.001 *D EDFKCNQD1
*I *696:CN I *C 29.3 50.2 *L 0.001 *D EDFKCNQD1

*CAP
1 *695:CN 0.000196003
2 *986:CN 0.000132339
3 *712:CN 0.000249984
4 *701:CN 0.000107471
5 *687:CN 0.000191315
6 *710:CN 6.6499e-06
7 *981:CN 2.45311e-05
8 *711:CN 4.8342e-05
9 *982:DA 1.00208e-05
10 *725:CN 0.000309343
11 *983:CN 0.000105188
12 *688:CN 0.00064311
13 *628:Z 0.000615667
14 *93:27 0.000672375
15 *93:28 0.000165466
16 *93:29 5.10847e-05
17 *93:30 0.000167243
18 *93:31 0.000531379
19 *93:32 0.000100775
20 *93:33 0.000106398
21 *93:34 0.000612066
22 *93:35 0.000348537
23 *93:36 0.000285746
24 *93:37 0.000767083
25 *93:38 0.000159904
26 *93:39 0.000469446
27 *93:40 7.88335e-05
28 *93:41 0.000451274
29 *93:42 0.000142743
30 *93:43 0.000306661
31 *93:44 0.000816865
32 *93:45 0.000524775
33 *93:46 0.000436687
34 *93:47 0.000126731
35 *93:48 0.000306447
36 *93:50 0.000690854
37 *93:51 0.000562698
38 *93:52 0.000371383
39 *93:53 8.59124e-05
40 *93:54 8.49011e-05
41 *93:55 0.000628722
42 *93:56 5.30919e-05
43 *93:57 0.00090028
44 *93:58 0.000282069
45 *93:59 0.000210851
46 *93:60 0.000358604
47 *93:61 0.00080712
48 *93:62 0.000805848
49 *93:63 0.000141716
50 *93:64 0.000545996
51 *93:65 1.46788e-05
52 *93:66 0.000337842
53 *93:67 0.000710237
54 *93:68 0.000385127
55 *93:69 3.98994e-05
56 *93:70 0.000240898
57 *93:71 0.00100415
58 *93:68 *555:Z 0.00124941
59 *93:27 *31:4 0.000828405
60 *93:35 *67:3 0.00112493
61 *93:35 *230:3 0.000260053984
62 *711:CN *256:3 0.000443906016
63 *93:36 *496:2 0.000580971016
64 *628:Z *979:I 0.000525976016
65 *628:Z *996:CP 0.000370613008
66 *93:27 *252:7 0.000321521016
67 *628:Z *507:8 0.000359583008
68 *93:28 *515:2 0.00036038
69 *687:CN *103:19 0.000957207031
70 *982:DA *485:2 0.000492395

*RES
1 *93:54 *93:65 0.477059
2 *93:32 *93:48 0.831384
3 *982:DA *93:33 0.544927
4 *981:CN *93:35 1.6255
5 *93:59 *93:67 0.983215
6 *93:49 *93:64 1.7373
7 *709:CN *93:63 0.834952
8 *93:60 *93:63 3.23142
9 *93:42 *93:57 5.09526
10 *725:CN *93:48 2.62442
11 *93:27 *93:42 0.756142
12 *93:58 *93:67 1.40319
13 *93:51 *93:65 2.6199
14 *93:39 *93:52 3.0386
15 *695:CN *93:44 2.25408
16 *93:36 *93:50 2.23283
17 *93:50 *93:64 2.97161
18 *93:37 *93:51 2.1009
19 *93:30 *93:32 0.816161
20 *93:30 *93:31 2.24448
21 *93:45 *93:53 2.42264
22 *93:43 *93:70 1.86368
23 *986:CN *93:67 2.69815
24 *700:CN *93:70 0.450022
25 *93:57 *93:58 1.32993
26 *710:CN *93:60 0.576006
27 *93:40 *93:52 0.437892
28 *93:29 *93:68 5.19603014
29 *93:55 *93:71 3.63047
30 *93:44 *93:53 0.705638
31 *93:37 *93:38 0.681376
32 *701:CN *93:66 0.675034
33 *93:29 *93:47 0.252047
34 *712:CN *93:43 1.35918
35 *93:45 *93:46 2.40131
36 *93:36 *93:54 1.90697
37 *93:31 *93:47 1.15082
38 *93:55 *93:69 2.68111
39 *93:39 *93:61 2.14054
40 *93:37 *93:40 1.95232
41 *687:CN *93:41 0.712456
42 *93:32 *93:33 0.285268
43 *93:28 *93:64 2.36325
44 *93:56 *93:71 1.10825
45 *628:Z *93:46 4.71643
46 *93:66 *93:71 1.61298
47 *93:35 *93:63 2.43152
48 *983:CN *93:34 2.41304
49 *711:CN *93:34 0.544927
50 *93:56 *93:70 0.189095
51 *93:27 *93:61 2.74882
52 *93:33 *93:62 3.90543
53 *93:38 *93:41 2.19683
54 *688:CN *93:56 2.47711
55 *93:60 *93:61 2.89557
56 *93:44 *93:59 3.336
57 *985:CN *93:42 0.869361
58 *763:A3 *93:40 0.384771
59 *759:A3 *93:55 0.225011
60 *682:CN *93:54 0.225011
61 *696:CN *93:53 0.450022
62 *956:I *93:52 0.225011
63 *698:CN *93:51 0.225011
64 *686:CN *93:50 0.225011
65 *699:CN *93:49 0.225011
66 *697:CN *93:28 0.225011
67 *743:B1 *93:48 0.225011
68 *904:D *93:47 0.225011
69 *93:34 *93:62 0.225011
70 *93:28 *93:68 0.225011
71 *93:38 *93:69 0.225011
*END

*D_NET *94 0.000477356

*CONN
*I *643:ZN O *C 44.9 69.2 *L 0 *D TIEL
*I *629:I I *C 45.5 69.6 *L 0.00382 *D BUFFD12

*CAP
1 *629:I 8.13171e-05
2 *643:ZN 0.00039604

*RES
1 *643:ZN *629:I 1.63206
*END

*D_NET *95 0.000206465

*CONN
*I *644:ZN O *C 31.3 69.2 *L 0 *D TIEL
*I *630:I I *C 31.9 69.6 *L 0.00382 *D BUFFD12

*CAP
1 *630:I 0.000206465

*RES
1 *644:ZN *630:I 0.861316
*END

*D_NET *96 0.000443236

*CONN
*I *645:ZN O *C 31.9 68.4 *L 0 *D TIEL
*I *631:I I *C 33.7 68 *L 0.00382 *D BUFFD12

*CAP
1 *645:ZN 8.23797e-05
2 *96:2 0.000360855

*RES
1 *631:I *96:2 1.58443999
2 *645:ZN *96:2 0.45
*END

*D_NET *97 0.0010861

*CONN
*I *646:ZN O *C 34.5 65.6 *L 0 *D TIEL
*I *632:I I *C 34.7 71.6 *L 0.00382 *D BUFFD12

*CAP
1 *632:I 7.2896e-05
2 *646:ZN 0.00101320008

*RES
1 *646:ZN *632:I 4.53551
*END

*D_NET *98 0.000652999

*CONN
*I *641:ZN O *C 44.3 69.2 *L 0 *D TIEL
*I *633:I I *C 44.3 66 *L 0.00382 *D BUFFD12

*CAP
1 *633:I 0.0006508
2 *98:2 2.19466e-06

*RES
1 *633:I *98:2 2.38097
2 *641:ZN *98:2 0.224996
*END

*D_NET *99 0.000211376

*CONN
*I *642:ZN O *C 47.9 68.4 *L 0 *D TIEL
*I *634:I I *C 48.5 68 *L 0.00382 *D BUFFD12

*CAP
1 *634:I 0.000211375996

*RES
1 *642:ZN *634:I 0.861316
*END

*D_NET *100 0.00101733

*CONN
*I *639:I I *C 30.9 33.6 *L 0.00178 *D CKND2
*I *640:ZN O *C 29.5 32.2 *L 0 *D CKND1

*CAP
1 *640:ZN 0.000106746
2 *639:I 0.000227176
3 *100:2 0.000588110039
4 *100:3 9.53037e-05

*RES
1 *639:I *100:3 0.67499
2 *100:2 *100:3 2.31518006
3 *640:ZN *100:2 0.449993
*END

*D_NET *101 0.00217622

*CONN
*I *638:I I *C 38.7 37.2 *L 0.00178 *D CKND2
*I *639:ZN O *C 31.17 33.895 *L 0 *D CKND2

*CAP
1 *639:ZN 6.76877e-05
2 *638:I 0.000484056
3 *101:2 0.00129327
4 *101:3 0.000331216

*RES
1 *639:ZN *101:2 0.575983
2 *638:I *101:3 3.26781
3 *101:2 *101:3 5.32707024
*END

*D_NET *102 0.00341221

*CONN
*I *637:I I *C 43.1 42.8 *L 0.00178 *D CKND2
*I *638:ZN O *C 38.97 37.495 *L 0 *D CKND2
*I *636:I I *C 43.1 48 *L 0.00178 *D CKND2
*I *635:I I *C 44.1 37.2 *L 0.00178 *D CKND2

*CAP
1 *635:I 0.000176157
2 *636:I 0.000249283
3 *638:ZN 5.52234e-05
4 *102:4 0.000603921
5 *102:6 0.000889475
6 *102:7 0.00132421
7 *102:8 0.000113942

*RES
1 *636:I *102:8 1.05998
2 *102:6 *102:8 3.63192
3 *102:5 *102:7 4.03618002
4 *102:4 *102:7 2.78855
5 *635:I *102:7 1.74039
6 *638:ZN *102:4 0.576025
7 *637:I *102:5 0.450018
8 *102:5 *102:6 0.450018
*END

*D_NET *103 0.0130369

*CONN
*I *990:CP I *C 68.3 46.4 *L 0.000693 *D DFD1
*I *635:ZN O *C 44.37 37.495 *L 0 *D CKND2
*I *988:CP I *C 68.7 44.4 *L 0.000693 *D DFD1
*I *983:CP I *C 60.7 40.8 *L 0.000656 *D EDFKCND1
*I *982:CP I *C 66.3 37.2 *L 0.000672 *D DFXD1
*I *904:CP I *C 64.7 32 *L 0.000676 *D DFKCND1
*I *725:CP I *C 64.5 42.8 *L 0.000676 *D DFKCND1
*I *711:CP I *C 60.7 37.2 *L 0.000655 *D EDFKCNQD1
*I *701:CP I *C 43.9 37.2 *L 0.000675 *D DFKCNQD1
*I *700:CP I *C 43.7 40.8 *L 0.000675 *D DFKCNQD1
*I *699:CP I *C 57.9 33.6 *L 0.000675 *D DFKCNQD1
*I *698:CP I *C 50.1 39.2 *L 0.000675 *D DFKCNQD1
*I *697:CP I *C 60.1 32 *L 0.000675 *D DFKCNQD1
*I *687:CP I *C 48.9 35.6 *L 0.000675 *D DFKCNQD1
*I *686:CP I *C 54.5 32 *L 0.000675 *D DFKCNQD1
*I *682:CP I *C 54.3 37.2 *L 0.000675 *D DFKCNQD1

*CAP
1 *682:CP 7.55751e-05
2 *686:CP 8.83634e-05
3 *697:CP 9.6713e-05
4 *699:CP 0.000173344
5 *700:CP 4.43385e-05
6 *711:CP 4.35299e-05
7 *982:CP 5.44371e-05
8 *988:CP 9.83796e-05
9 *635:ZN 8.35121e-05
10 *103:16 0.000319016
11 *103:17 0.0010814
12 *103:18 0.000172041
13 *103:19 0.000373866
14 *103:20 0.000142058
15 *103:21 0.000156084
16 *103:22 0.00011366
17 *103:23 0.000610392
18 *103:24 0.000491304
19 *103:25 0.000879921
20 *103:26 0.000269513
21 *103:27 0.000638065
22 *103:28 0.00021463
23 *103:29 0.00103744
24 *103:30 0.000458533
25 *103:31 0.000725537
26 *103:32 0.00018105
27 *103:33 0.000124204
28 *103:34 0.000401554
29 *103:35 0.000789017
30 *103:36 0.000235487
31 *103:37 0.000291657
32 *103:38 0.000260684
33 *103:26 *167:6 0.00025103
34 *103:19 *687:CN 0.000957207031
35 *103:24 *25:3 0.000395818008
36 *103:22 *555:I 0.000212582012
37 *103:19 *717:B 0.000494925

*RES
1 *103:36 *103:38 1.2616
2 *103:28 *103:29 3.58967
3 *701:CP *103:27 0.995033
4 *103:25 *103:34 2.85931
5 *103:17 *103:28 1.48562
6 *103:26 *103:35 2.71607
7 *103:21 *103:37 0.450019
8 *103:16 *103:17 4.55341
9 *103:29 *103:35 4.60819006
10 *988:CP *103:16 0.510279
11 *103:24 *103:34 2.18723
12 *103:25 *103:38 2.3697
13 *103:24 *103:33 1.47107
14 *103:29 *103:37 2.3697
15 *982:CP *103:28 0.675028
16 *990:CP *103:16 1.3426
17 *700:CP *103:32 0.675028
18 *103:23 *103:37 1.36039
19 *686:CP *103:34 0.450019
20 *711:CP *103:29 0.801033
21 *699:CP *103:33 0.450019
22 *103:27 *103:32 2.97329
23 *697:CP *103:30 0.450019
24 *103:27 *103:31 0.154483
25 *635:ZN *103:31 0.450019
26 *103:26 *103:31 3.66772
27 *103:18 *103:36 1.45926
28 *103:24 *103:30 1.58329
29 *103:22 *103:30 3.12439
30 *103:20 *103:23 2.56286
31 *682:CP *103:35 0.675028
32 *103:19 *103:38 1.4101
33 *904:CP *103:22 0.225009
34 *983:CP *103:21 0.450019
35 *725:CP *103:20 0.450019
36 *687:CP *103:19 0.225009
37 *698:CP *103:18 0.225009
38 *103:26 *103:36 0.225009
*END

*D_NET *104 0.0169101

*CONN
*I *1000:CP I *C 51.5 58.8 *L 0.000693 *D DFD1
*I *636:ZN O *C 43.37 48.295 *L 0 *D CKND2
*I *993:CP I *C 44.5 55.2 *L 0.000693 *D DFD1
*I *992:CP I *C 42.5 64.4 *L 0.000693 *D DFD1
*I *991:CP I *C 59.7 55.2 *L 0.000693 *D DFD1
*I *989:CP I *C 49.1 51.6 *L 0.000693 *D DFD1
*I *987:CP I *C 53.3 55.2 *L 0.000672 *D DFXD1
*I *985:CP I *C 45.1 51.6 *L 0.000656 *D EDFKCND1
*I *984:CP I *C 66.1 53.6 *L 0.000672 *D DFXD1
*I *981:CP I *C 59.9 51.6 *L 0.000656 *D EDFKCND1
*I *710:CP I *C 52.9 50 *L 0.000655 *D EDFKCNQD1
*I *709:CP I *C 57.3 50 *L 0.000655 *D EDFKCNQD1
*I *708:CP I *C 53.1 66 *L 0.000673 *D DFQD1
*I *685:CP I *C 53.7 68 *L 0.000673 *D DFQD1
*I *684:CP I *C 53.5 71.6 *L 0.000673 *D DFQD1

*CAP
1 *684:CP 0.000274053
2 *710:CP 6.8778e-05
3 *984:CP 0.000382011
4 *985:CP 4.38805e-05
5 *991:CP 4.8891e-05
6 *992:CP 0.000405462
7 *993:CP 7.98837e-05
8 *636:ZN 9.3004e-05
9 *1000:CP 0.00066389
10 *104:15 0.00169259
11 *104:16 0.000148249
12 *104:17 0.00105931
13 *104:18 0.000639871
14 *104:19 0.000817123
15 *104:20 9.05504e-05
16 *104:21 0.000151064
17 *104:22 0.000242053
18 *104:23 0.000148326
19 *104:24 0.00105357
20 *104:25 0.000139002
21 *104:26 0.000336658
22 *104:27 0.000165863
23 *104:28 0.000663967
24 *104:29 0.000561175
25 *104:30 0.000973688
26 *104:31 0.000794188
27 *104:32 0.000123506
28 *104:33 0.00117832
29 *104:34 0.000471089
30 *104:35 0.0005081
31 *104:36 0.00112976
32 *104:25 *936:A2 0.000385598008
33 *992:CP *959:A3 0.000220461992
34 *993:CP *262:2 0.00018317
35 *985:CP *443:2 0.000276982988
36 *104:15 *820:A 0.000696062969

*RES
1 *104:27 *104:31 4.18859
2 *684:CP *104:19 2.98374
3 *104:18 *104:15 2.02001
4 *104:23 *104:35 1.45925
5 *104:28 *104:35 3.37654
6 *104:18 *104:29 1.30218
7 *992:CP *104:26 1.32049
8 *104:18 *104:36 2.788
9 *104:16 *104:24 4.34446
10 *984:CP *104:16 1.71401
11 *104:21 *104:29 2.81482
12 *104:26 *104:32 2.26735
13 *104:19 *104:20 1.51743
14 *104:17 *104:25 0.798043
15 *987:CP *104:31 0.674973
16 *1000:CP *104:25 2.79662
17 *991:CP *104:27 0.450022
18 *104:24 *104:27 0.142704
19 *636:ZN *104:15 0.385015
20 *104:25 *104:33 7.84587002
21 *104:17 *104:20 4.2439
22 *710:CP *104:28 1.95189
23 *104:32 *104:36 4.02122
24 *104:30 *104:36 0.855269
25 *104:24 *104:34 2.49565
26 *993:CP *104:30 0.674973
27 *985:CP *104:29 0.674973
28 *104:15 *104:28 6.09822
29 *104:22 *104:34 0.450022
30 *104:30 *104:31 5.68387
31 *709:CP *104:23 0.450022
32 *981:CP *104:22 0.450022
33 *989:CP *104:21 0.224951
34 *708:CP *104:20 0.224951
35 *685:CP *104:19 0.224951
36 *104:28 *104:33 0.224951
*END

*D_NET *105 0.0107759

*CONN
*I *1003:CP I *C 40.5 42.8 *L 0.000693 *D DFD1
*I *637:ZN O *C 42.83 42.505 *L 0 *D CKND2
*I *1002:CP I *C 31.5 42.8 *L 0.000693 *D DFD1
*I *1001:CP I *C 32.5 42.8 *L 0.000693 *D DFD1
*I *999:CP I *C 27.7 39.2 *L 0.000693 *D DFD1
*I *998:CP I *C 37.3 57.2 *L 0.000693 *D DFD1
*I *997:CP I *C 33.1 55.2 *L 0.000693 *D DFD1
*I *996:CP I *C 27.7 35.6 *L 0.000693 *D DFD1
*I *995:CP I *C 36.5 60.8 *L 0.000693 *D DFD1
*I *994:CP I *C 38.7 35.6 *L 0.000693 *D DFD1
*I *986:CP I *C 34.9 53.6 *L 0.000656 *D EDFKCND1
*I *712:CP I *C 39.5 39.2 *L 0.000675 *D DFKCNQD1
*I *696:CP I *C 29.5 50 *L 0.000655 *D EDFKCNQD1
*I *695:CP I *C 29.3 53.6 *L 0.000655 *D EDFKCNQD1
*I *688:CP I *C 43.3 42.8 *L 0.000675 *D DFKCNQD1

*CAP
1 *712:CP 4.17693e-05
2 *994:CP 0.000584355
3 *996:CP 0.000468597
4 *997:CP 7.19484e-05
5 *1001:CP 7.58702e-05
6 *637:ZN 4.62969e-05
7 *1003:CP 5.71378e-05
8 *105:15 0.00016636
9 *105:16 9.84288e-05
10 *105:17 0.000474703
11 *105:18 0.00104479
12 *105:19 0.000409355
13 *105:20 0.000212465
14 *105:21 0.000124957
15 *105:22 0.000270161
16 *105:23 0.000333899
17 *105:24 0.000420371
18 *105:25 0.00023115
19 *105:26 0.000237527
20 *105:27 0.000410726
21 *105:28 0.000318642
22 *105:29 0.000728667
23 *105:30 0.000818487
24 *105:31 0.000346159
25 *105:32 0.00010766
26 *105:33 0.000531379
27 *105:34 0.000245913
28 *105:35 0.000557301
29 *105:18 *979:ZN 0.000355549023
30 *996:CP *628:Z 0.000370613008
31 *105:15 *61:7 0.000341746992
32 *994:CP *156:9 0.000272940996

*RES
1 *105:17 *105:18 4.59978008
2 *105:19 *105:32 2.62001
3 *105:23 *105:31 1.6115
4 *105:34 *105:35 2.60499
5 *105:27 *105:28 1.39553
6 *105:26 *105:28 1.00845
7 *105:26 *105:30 4.03372
8 *637:ZN *105:27 0.449969
9 *105:21 *105:31 2.36783
10 *105:25 *105:29 2.21159
11 *1003:CP *105:28 0.449969
12 *712:CP *105:16 0.973144
13 *105:17 *105:22 1.71053
14 *994:CP *105:16 2.4477
15 *997:CP *105:29 0.449969
16 *105:15 *105:17 2.26838
17 *688:CP *105:27 1.15507
18 *105:20 *105:35 0.965985
19 *996:CP *105:24 2.4934
20 *105:15 *105:29 2.24156
21 *105:19 *105:24 2.14239
22 *105:26 *105:33 3.03706
23 *105:30 *105:32 0.63028
24 *995:CP *105:34 0.449969
25 *1001:CP *105:30 0.449969
26 *105:25 *105:35 1.37244
27 *999:CP *105:24 0.22502
28 *1002:CP *105:18 0.22502
29 *695:CP *105:23 0.449969
30 *696:CP *105:22 0.449969
31 *986:CP *105:21 0.449969
32 *998:CP *105:20 0.22502
33 *105:16 *105:33 0.22502
34 *105:15 *105:31 0.22502
35 *105:18 *105:32 0.22502
*END

*D_NET *106 0.000871212

*CONN
*I *648:ZN O *C 31.1 65.6 *L 0 *D INVD1
*I *647:I I *C 30.7 71.8 *L 0.0104 *D CKND12

*CAP
1 *648:ZN 0.000871212031

*RES
1 *648:ZN *647:I 3.94013
*END

*D_NET *107 0.00110718

*CONN
*I *859:Z O *C 35.5 65.6 *L 0 *D AN2XD1
*I *648:I I *C 31.5 66 *L 0.00104 *D INVD1

*CAP
1 *107:2 0.00102225992
2 *107:3 8.49192e-05

*RES
1 *859:Z *107:3 0.450023
2 *107:2 *107:3 3.9063201
3 *648:I *107:2 0.225012
*END

*D_NET *108 0.000370827

*CONN
*I *650:ZN O *C 42.3 65.6 *L 0 *D INVD1
*I *649:I I *C 42.1 68.2 *L 0.0104 *D CKND12

*CAP
1 *650:ZN 0.000370826992

*RES
1 *650:ZN *649:I 1.45931
*END

*D_NET *109 0.00275876

*CONN
*I *573:I I *C 30.1 64.4 *L 0.00103 *D DEL015
*I *959:Z O *C 42.7 64.8 *L 0 *D XOR3D0

*CAP
1 *959:Z 0.00016885
2 *109:2 0.00162969
3 *109:3 0.000355331
4 *109:4 0.000604901

*RES
1 *959:Z *109:3 1.6923
2 *109:3 *109:4 2.14735
3 *109:2 *109:4 6.48309994
4 *573:I *109:2 0.450006
*END

*D_NET *110 4.8277e-05

*CONN
*I *912:Z O *C 67.5 36 *L 0 *D AN2XD1
*I *651:I I *C 68.1 36 *L 0.00373 *D CKBD12

*CAP
1 *912:Z 4.8277002e-05

*RES
1 *912:Z *651:I 0.466554
*END

*D_NET *111 0.00055784

*CONN
*I *653:ZN O *C 51.5 62 *L 0 *D INVD1
*I *652:I I *C 49.7 64.6 *L 0.0104 *D CKND12

*CAP
1 *652:I 8.04933e-05
2 *653:ZN 0.000477344023

*RES
1 *653:ZN *652:I 2.00211
*END

*D_NET *112 0.000316239

*CONN
*I *873:Z O *C 51.1 61.2 *L 0 *D AN2XD1
*I *653:I I *C 51.1 62.4 *L 0.00104 *D INVD1

*CAP
1 *653:I 0.000316239004

*RES
1 *873:Z *653:I 1.20614
*END

*D_NET *113 0.000402078

*CONN
*I *655:ZN O *C 54.7 64.8 *L 0 *D INVD1
*I *654:I I *C 56.5 65.8 *L 0.0104 *D CKND12

*CAP
1 *654:I 5.7307e-05
2 *655:ZN 0.000344773008

*RES
1 *655:ZN *654:I 2.02457
*END

*D_NET *114 0.000378056

*CONN
*I *836:Z O *C 53.9 62 *L 0 *D OR2XD1
*I *655:I I *C 54.3 64.4 *L 0.00104 *D INVD1

*CAP
1 *836:Z 6.27439e-06
2 *114:2 0.000371783008

*RES
1 *836:Z *114:2 0.327367
2 *655:I *114:2 1.27491999
*END

*D_NET *115 0.000258259

*CONN
*I *657:ZN O *C 56.7 64.8 *L 0 *D INVD1
*I *656:I I *C 56.7 65.8 *L 0.0104 *D CKND12

*CAP
1 *656:I 0.000258259004

*RES
1 *657:ZN *656:I 1.08012
*END

*D_NET *116 0.000406617

*CONN
*I *818:Z O *C 57.5 62 *L 0 *D OR2XD1
*I *657:I I *C 57.1 64.4 *L 0.00104 *D INVD1

*CAP
1 *818:Z 0.000406616992

*RES
1 *818:Z *657:I 1.45819
*END

*D_NET *117 0.00112444

*CONN
*I *659:ZN O *C 59.3 62 *L 0 *D INVD1
*I *658:I I *C 57.5 64.6 *L 0.0104 *D CKND12

*CAP
1 *659:ZN 0.000433603
2 *117:2 0.000690837031

*RES
1 *658:I *117:2 2.2283299
2 *659:ZN *117:2 1.82232
*END

*D_NET *118 0.00220885

*CONN
*I *564:I I *C 62.9 68 *L 0.00103 *D DEL01
*I *792:Z O *C 58.9 61.2 *L 0 *D OR2XD1

*CAP
1 *792:Z 0.00073086
2 *118:2 0.000765627969
3 *118:3 0.000712366

*RES
1 *118:2 *118:3 3.78318
2 *564:I *118:2 2.47203
3 *792:Z *118:3 2.52485
*END

*D_NET *119 0.000558776

*CONN
*I *661:ZN O *C 62.3 62 *L 0 *D INVD1
*I *660:I I *C 61.1 64.6 *L 0.0104 *D CKND12

*CAP
1 *660:I 9.25964e-05
2 *661:ZN 0.000466183008

*RES
1 *661:ZN *660:I 1.78304
*END

*D_NET *120 0.00173532

*CONN
*I *563:I I *C 67.3 64.4 *L 0.00103 *D DEL01
*I *779:Z O *C 62.1 61.2 *L 0 *D OR2XD1

*CAP
1 *120:3 0.00091324
2 *120:4 0.00082209

*RES
1 *120:2 *120:4 2.77001
2 *120:3 *120:4 3.89804006
3 *779:Z *120:3 0.22501
4 *563:I *120:2 0.22501
*END

*D_NET *121 0.00136924

*CONN
*I *663:ZN O *C 64.9 61.2 *L 0 *D INVD1
*I *662:I I *C 63.1 65.8 *L 0.0104 *D CKND12

*CAP
1 *663:ZN 0.000372189
2 *121:2 7.25134e-05
3 *121:3 0.000924546016

*RES
1 *121:2 *121:3 3.12353992
2 *663:ZN *121:3 1.53565
3 *662:I *121:2 0.22501
*END

*D_NET *122 0.00153005

*CONN
*I *565:I I *C 67.9 62.4 *L 0.00103 *D DEL01
*I *771:Z O *C 64.5 58.4 *L 0 *D OR2XD1

*CAP
1 *565:I 0.000237867
2 *771:Z 0.00069948
3 *122:2 0.000592704

*RES
1 *771:Z *122:2 2.78688
2 *565:I *122:2 2.81896996
*END

*D_NET *123 0.00355049

*CONN
*I *720:A2 I *C 47.1 64.4 *L 0.000651 *D OAI21D0
*I *705:A2 I *C 53.1 69.6 *L 0.000704 *D OAI32D0
*I *666:ZN O *C 46.9 68.4 *L 0 *D INVD1
*I *665:I I *C 43.7 69.4 *L 0.0104 *D CKND12
*I *664:I I *C 45.5 68.2 *L 0.0104 *D CKND12

*CAP
1 *720:A2 0.000742917
2 *665:I 0.000467149
3 *123:5 0.000436854
4 *123:6 0.000275905
5 *123:7 0.000128114
6 *123:8 0.00149954

*RES
1 *123:6 *123:8 2.05088
2 *665:I *123:6 2.47764
3 *720:A2 *123:7 3.16936
4 *123:5 *123:8 4.48215008
5 *705:A2 *123:5 1.81458
6 *666:ZN *123:7 0.22501
7 *664:I *123:6 0.22501
8 *123:7 *123:8 0.22501
*END

*D_NET *124 0.000964109

*CONN
*I *621:I I *C 48.5 62.4 *L 0.00104 *D DEL0
*I *708:Q O *C 49.5 65.6 *L 0 *D DFQD1

*CAP
1 *621:I 0.000964108984

*RES
1 *621:I *708:Q 3.72463
*END

*D_NET *125 1.2701e-05

*CONN
*I *669:ZN O *C 57.1 69.2 *L 0 *D INVD1
*I *668:I I *C 56.9 69.4 *L 0.0104 *D CKND12

*CAP
1 *668:I 1.27009998e-05

*RES
1 *669:ZN *668:I 0.13222
*END

*D_NET *126 0.000376609

*CONN
*I *617:I I *C 57.7 69.6 *L 0.00104 *D DEL0
*I *685:Q O *C 57.3 68.4 *L 0 *D DFQD1

*CAP
1 *685:Q 0.000376608984

*RES
1 *685:Q *617:I 1.68436
*END

*D_NET *127 0.00195435

*CONN
*I *862:A1 I *C 48.3 71.6 *L 0.000719 *D AOI32D0
*I *694:B2 I *C 51.1 69.6 *L 0.000718 *D OAI22D0
*I *672:ZN O *C 49.3 72 *L 0 *D INVD1
*I *671:I I *C 43.1 71.8 *L 0.0104 *D CKND12
*I *670:I I *C 44.3 71.8 *L 0.0104 *D CKND12

*CAP
1 *862:A1 0.000124665
2 *694:B2 0.000518937
3 *670:I 4.47776e-06
4 *671:I 9.03294e-05
5 *672:ZN 5.72256e-05
6 *127:5 0.000576523008
7 *127:6 7.02894e-05
8 *127:7 0.00051189

*RES
1 *127:6 *127:7 0.646888
2 *127:5 *127:6 2.80899
3 *694:B2 *127:7 3.78319001
4 *672:ZN *127:7 0.675001
5 *862:A1 *127:6 0.834962
6 *671:I *670:I 0.919763
7 *670:I *127:5 0.225019
*END

*D_NET *128 0.00096389

*CONN
*I *622:I I *C 54.3 71.6 *L 0.00104 *D DEL0
*I *684:Q O *C 49.9 72 *L 0 *D DFQD1

*CAP
1 *684:Q 0.00032485
2 *128:2 0.000639042031

*RES
1 *684:Q *128:2 4.01087999
2 *622:I *128:2 0.450012
*END

*D_NET *129 1.2233e-05

*CONN
*I *674:ZN O *C 30.9 68.4 *L 0 *D INVD1
*I *673:I I *C 30.7 68.2 *L 0.0104 *D CKND12

*CAP
1 *673:I 1.22330005e-05

*RES
1 *674:ZN *673:I 0.132212
*END

*D_NET *130 0.000272121

*CONN
*I *823:Z O *C 32.1 68.4 *L 0 *D OR2XD1
*I *674:I I *C 31.3 68 *L 0.00104 *D INVD1

*CAP
1 *674:I 6.1208e-06
2 *823:Z 0.000265998984

*RES
1 *674:I *823:Z 1.14102
*END

*D_NET *131 0.000332394

*CONN
*I *676:ZN O *C 28.1 64.8 *L 0 *D INVD1
*I *675:I I *C 27.7 65.8 *L 0.0104 *D CKND12

*CAP
1 *675:I 5.37799e-05
2 *676:ZN 0.000278614023

*RES
1 *676:ZN *675:I 1.53354
*END

*D_NET *132 0.000277866

*CONN
*I *817:Z O *C 27.7 62 *L 0 *D OR2XD1
*I *676:I I *C 27.7 64.4 *L 0.00104 *D INVD1

*CAP
1 *676:I 0.000277866016

*RES
1 *817:Z *676:I 1.20613
*END

*D_NET *133 0.000736728

*CONN
*I *678:ZN O *C 29.9 64.8 *L 0 *D INVD1
*I *677:I I *C 30.7 69.4 *L 0.0104 *D CKND12

*CAP
1 *677:I 0.000105812
2 *133:2 0.000630913984

*RES
1 *677:I *133:2 3.24953008
2 *678:ZN *133:2 0.225012
*END

*D_NET *134 0.00337882

*CONN
*I *572:I I *C 32.9 48 *L 0.00103 *D DEL01
*I *791:Z O *C 29.5 62 *L 0 *D OR2XD1

*CAP
1 *134:2 0.000646126
2 *134:3 0.00201599
3 *134:4 0.000596691
4 *134:5 0.000120033

*RES
1 *134:3 *134:5 2.73137
2 *134:2 *134:4 2.27494
3 *791:Z *134:2 2.51933
4 *134:3 *134:4 5.6396699
5 *572:I *134:5 0.225033
*END

*D_NET *135 0.00117642

*CONN
*I *680:ZN O *C 34.7 65.6 *L 0 *D INVD1
*I *679:I I *C 34.1 71.8 *L 0.0104 *D CKND12

*CAP
1 *135:2 0.00117642

*RES
1 *679:I *135:2 3.20383
2 *680:ZN *135:2 1.69304
*END

*D_NET *136 0.00543676

*CONN
*I *571:I I *C 59.7 62.4 *L 0.00103 *D DEL01
*I *778:Z O *C 35.1 64.8 *L 0 *D OR2XD1

*CAP
1 *571:I 0.000422448
2 *136:2 7.64388e-05
3 *136:3 0.00283659
4 *136:4 0.000616791
5 *136:5 0.000377563
6 *136:3 *33:2 0.000578607969
7 *571:I *223:3 0.000278421992
8 *136:4 *512:8 0.00024991

*RES
1 *136:2 *136:4 5.48488
2 *571:I *136:2 1.41815
3 *136:4 *136:5 2.80047
4 *136:3 *136:5 11.6831999
5 *778:Z *136:3 0.224979
*END

*D_NET *137 0.00296173

*CONN
*I *640:I I *C 29.9 32.2 *L 0.000942 *D CKND1
*P *137 I *C 0 26 *L 0.5

*CAP
1 *640:I 0.000148841
2 *137 6.64289e-05
3 *137:2 0.000709976
4 *137:3 0.00192544
5 *137:4 0.000111028

*RES
1 *640:I *137:4 0.450062
2 *137:2 *137:5 4.0164
3 *137:2 *137:3 18.6560993
4 *137 *137:3 0.224889
5 *137:4 *137:5 0.224889
*END

*D_NET *138 0.00383238

*CONN
*I *537:I I *C 28.1 30 *L 0.000968 *D CKBD1
*P *138 I *C 0 36 *L 0.5

*CAP
1 *537:I 6.05697e-05
2 *138 0.00254125
3 *138:2 0.00119239
4 *138:3 3.81566e-05

*RES
1 *138:2 *138:3 5.09341
2 *537:I *138:2 0.867231
3 *138 *138:3 17.5795994
*END

*D_NET *139 0.00828337

*CONN
*I *536:I I *C 63.9 30 *L 0.000968 *D CKBD1
*P *139 I *C 0 46 *L 0.5
*I *912:A2 I *C 66.9 35.6 *L 0.00104 *D AN2XD1

*CAP
1 *912:A2 0.000114151
2 *139 0.00566735
3 *139:3 0.000734719
4 *139:4 1.66038e-05
5 *139:5 0.000720536
6 *139:6 0.00102996

*RES
1 *139:3 *139:5 3.75756
2 *536:I *139:3 1.05301
3 *912:A2 *139:4 0.450134
4 *139 *139:6 40.8586998
5 *139:5 *139:6 6.78505
6 *139:4 *139:5 1.72198
*END

*D_NET *140 0.00416634

*CONN
*P *140 I *C 30.2 0 *L 0.5
*I *808:A2 I *C 46.7 28.4 *L 0.00134 *D XNR3D0

*CAP
1 *140 0.000912233
2 *140:2 0.000290093
3 *140:3 0.00156304
4 *140:4 0.00139914
5 *140:5 1.81264e-06

*RES
1 *140:2 *140:3 10.5614996
2 *140:4 *140:5 9.73993
3 *140:3 *140:5 0.384356
4 *808:A2 *140:2 1.61123
5 *140 *140:4 6.37629
*END

*D_NET *141 0.00428832

*CONN
*P *141 I *C 29.5 0 *L 0.5
*I *833:A2 I *C 43.7 28.4 *L 0.000664 *D NR2D0
*I *815:A2 I *C 45.1 28.4 *L 0.000671 *D AOI21D0

*CAP
1 *141 0.00221446984
2 *141:3 0.000328546
3 *141:4 6.61959e-05
4 *141:5 0.00025762
5 *141:6 0.00131003
6 *141:7 0.000111442

*RES
1 *141:5 *141:7 1.10749
2 *815:A2 *141:7 0.450075
3 *141 *141:6 15.1651001
4 *141:3 *141:5 2.41097
5 *141:3 *141:4 0.24112
6 *141:4 *141:6 9.04871
7 *833:A2 *141:5 0.450075
*END

*D_NET *142 0.00407563

*CONN
*P *142 I *C 28.8 0 *L 0.5
*I *855:A1 I *C 41.5 28.4 *L 0.000682 *D IND3D0
*I *827:A2 I *C 41.9 28.4 *L 0.000671 *D AOI21D0

*CAP
1 *855:A1 8.60695e-05
2 *827:A2 6.76951e-06
3 *142 0.000912238
4 *142:3 0.000453825
5 *142:4 0.00126829
6 *142:5 0.00134845

*RES
1 *142:3 *142:4 8.29254
2 *855:A1 *142:3 2.36739
3 *142:4 *142:5 9.20057964
4 *142 *142:5 6.37622
5 *855:A1 *827:A2 0.360942
*END

*D_NET *143 0.0027946

*CONN
*P *143 I *C 28.1 0 *L 0.5
*I *958:I I *C 28.3 28.6 *L 0.00062 *D CKND0

*CAP
1 *143 0.00263134
2 *143:2 0.000163257

*RES
1 *958:I *143:2 0.449887
2 *143 *143:2 17.9451008
*END

*D_NET *144 0.00463689

*CONN
*P *144 I *C 27.4 0 *L 0.5
*I *917:A2 I *C 37.1 28.4 *L 0.000897 *D NR3D0
*I *847:A2 I *C 39.3 28.4 *L 0.000671 *D AOI21D0

*CAP
1 *847:A2 0.000171808
2 *144 0.000912237
3 *144:3 0.00017927
4 *144:4 0.000735749
5 *144:5 0.000418542
6 *144:6 0.000561538
7 *144:7 0.00165775

*RES
1 *847:A2 *144:6 2.31782
2 *144:4 *144:5 2.37893
3 *144:3 *144:4 3.4367
4 *917:A2 *144:6 0.813175
5 *144 *144:7 6.37624
6 *144:5 *144:7 11.0932999
7 *144:3 *144:6 0.865818
*END

*D_NET *145 0.00478345

*CONN
*P *145 I *C 26.7 0 *L 0.5
*I *941:A1 I *C 38.3 28.4 *L 0.000647 *D NR2D0
*I *917:A3 I *C 36.7 28.4 *L 0.000899 *D NR3D0
*I *894:A1 I *C 38.5 30 *L 0.00069 *D AOI21D0

*CAP
1 *894:A1 0.000365857
2 *145 0.00252224
3 *145:4 0.000145827
4 *145:5 0.00136136
5 *145:6 0.000388179

*RES
1 *145:4 *145:6 1.73765
2 *917:A3 *145:6 1.08003
3 *145 *145:5 17.184
4 *145:5 *145:6 6.38867
5 *894:A1 *145:4 1.96052
6 *941:A1 *145:4 0.224974
*END

*D_NET *146 0.00579303

*CONN
*P *146 I *C 26 0 *L 0.5
*I *955:I I *C 42.1 29.8 *L 0.00062 *D CKND0
*I *941:A2 I *C 37.9 28.4 *L 0.000664 *D NR2D0
*I *917:A1 I *C 37.3 28.4 *L 0.000798 *D NR3D0
*I *894:A2 I *C 38.1 30 *L 0.000671 *D AOI21D0
*I *826:A2 I *C 41.1 33.8 *L 0.000727 *D AOI221D0

*CAP
1 *917:A1 0.000141767
2 *894:A2 6.56685e-06
3 *826:A2 0.00022111
4 *146 0.000771933
5 *146:6 3.92079e-06
6 *146:7 0.000714647
7 *146:8 0.000224567
8 *146:9 0.000623503
9 *146:10 0.000286971
10 *146:11 0.00114669
11 *146:12 0.000101999
12 *146:13 0.00126575992
13 *146:8 *371:2 0.000283607012

*RES
1 *146:8 *146:11 8.13464
2 *146:8 *146:10 0.968079
3 *146:11 *146:13 10.4624004
4 *146:7 *146:12 2.81484
5 *146:7 *146:10 1.20627
6 *146:6 *146:9 2.2845
7 *894:A2 *146:7 0.575994
8 *917:A1 *146:10 0.639532
9 *146 *146:13 6.37616
10 *826:A2 *146:6 1.22463
11 *941:A2 *146:10 0.224938
12 *955:I *146:9 0.224938
13 *146:9 *146:12 0.224938
*END

*D_NET *147 0.00387237

*CONN
*P *147 I *C 35.1 0 *L 0.5
*I *811:A2 I *C 35.5 28.4 *L 0.000709 *D AOI211D0
*I *770:A1 I *C 37.5 30 *L 0.000711 *D OAI211D0

*CAP
1 *811:A2 6.89089e-05
2 *770:A1 0.000333641
3 *147 0.00243054016
4 *147:3 0.000734632
5 *147:4 0.000304638

*RES
1 *811:A2 *147:4 0.811973
2 *147:3 *147:4 0.252049
3 *147 *147:3 18.2926998
4 *770:A1 *147:4 3.29981
*END

*D_NET *148 0.00439421

*CONN
*P *148 I *C 34.4 0 *L 0.5
*I *925:A2 I *C 36.7 33.6 *L 0.000664 *D NR2D0
*I *881:A2 I *C 37.5 33.6 *L 0.000671 *D AOI21D0

*CAP
1 *925:A2 0.000159963
2 *881:A2 0.000129676
3 *148 0.00091225
4 *148:3 0.000103375
5 *148:4 0.000322405
6 *148:5 0.000332416
7 *148:6 0.000313855
8 *148:7 0.00151864
9 *148:8 0.000601616

*RES
1 *148:7 *148:8 10.0945997
2 *148:4 *148:5 2.13426
3 *925:A2 *148:3 0.588708
4 *148:3 *148:4 1.35948
5 *881:A2 *148:3 1.22455
6 *148 *148:7 6.37628
7 *148:6 *148:8 2.53952
8 *148:5 *148:6 1.5263
*END

*D_NET *149 0.00405232

*CONN
*P *149 I *C 33.7 0 *L 0.5
*I *909:A2 I *C 35.9 30 *L 0.000664 *D NR2D0
*I *880:A2 I *C 35.7 30 *L 0.000671 *D AOI21D0

*CAP
1 *909:A2 0.000548037
2 *880:A2 4.97754e-06
3 *149 0.0030204
4 *149:3 0.000478904

*RES
1 *909:A2 *149:3 3.17565
2 *909:A2 *880:A2 0.19284
3 *149 *149:3 19.8397999
*END

*D_NET *150 0.00411534

*CONN
*P *150 I *C 33 0 *L 0.5
*I *931:A2 I *C 27.9 32 *L 0.000664 *D NR2D0
*I *865:A2 I *C 27.5 33.6 *L 0.000671 *D AOI21D0

*CAP
1 *931:A2 2.16386e-06
2 *865:A2 8.87482e-05
3 *150 0.00148179
4 *150:3 0.00196956
5 *150:4 0.000502375
6 *150:5 2.92121e-05
7 *150:6 4.14739e-05

*RES
1 *150:3 *150:5 3.62839
2 *150:3 *150:4 8.95131
3 *931:A2 *150:4 0.536093
4 *150:5 *150:6 0.36785
5 *865:A2 *150:4 1.60845
6 *150 *150:6 11.1711998
*END

*D_NET *151 0.00331159

*CONN
*P *151 I *C 32.3 0 *L 0.5
*I *911:A2 I *C 33.7 30 *L 0.000664 *D NR2D0
*I *874:A2 I *C 32.9 30 *L 0.000671 *D AOI21D0

*CAP
1 *874:A2 0.000263089
2 *151 0.00162564
3 *151:3 0.000971291
4 *151:4 0.000139458
5 *151:5 0.000312105

*RES
1 *911:A2 *151:4 1.14353
2 *151 *151:5 11.8843002
3 *151:3 *151:5 0.8552
4 *151:3 *151:4 6.28452
5 *874:A2 *151:4 1.42134
*END

*D_NET *152 0.0042893

*CONN
*P *152 I *C 31.6 0 *L 0.5
*I *929:A2 I *C 29.5 33.6 *L 0.000664 *D NR2D0
*I *870:A2 I *C 30.7 33.6 *L 0.000671 *D AOI21D0

*CAP
1 *929:A2 0.00039635
2 *152 0.000912239
3 *152:3 0.00050645
4 *152:4 0.00185773
5 *152:5 0.00061655

*RES
1 *152:4 *152:5 12.5253
2 *929:A2 *152:3 1.73633
3 *152 *152:4 6.37618
4 *152:3 *152:5 3.12502
5 *870:A2 *152:3 0.994975
*END

*D_NET *153 0.00321139

*CONN
*P *153 I *C 30.9 0 *L 0.5
*I *968:A2 I *C 34.1 28.6 *L 0.000661 *D XNR2D0

*CAP
1 *153 0.00211604
2 *153:2 5.36315e-05
3 *153:3 0.00104173

*RES
1 *153:2 *153:3 2.24181
2 *153 *153:3 17.8148994
3 *968:A2 *153:2 0.225078
*END

*D_NET *154 0.00573003

*CONN
*P *154 I *C 40 0 *L 0.5
*I *830:B2 I *C 44.5 46.6 *L 0.000739 *D MOAI22D0
*I *769:A1 I *C 41.5 46.4 *L 0.000711 *D OAI211D0

*CAP
1 *830:B2 0.000168717
2 *154 0.000693016
3 *154:3 0.000332573
4 *154:4 0.00196601
5 *154:5 0.000206906
6 *154:6 0.000632507
7 *154 *155 0.00114813008
8 *154 *167 0.000582171016

*RES
1 *154:4 *154:6 15.3669996
2 *154:3 *154:6 1.3607
3 *769:A1 *154:5 1.44441
4 *830:B2 *154:3 2.78729
5 *154 *154:4 14.1083
6 *154:5 *154:6 0.225103
*END

*D_NET *155 0.00666928

*CONN
*P *155 I *C 39.3 0 *L 0.5
*I *907:A2 I *C 47.7 48 *L 0.000664 *D NR2D0
*I *906:B2 I *C 47.1 46.6 *L 0.000739 *D MOAI22D0
*I *906:A2 I *C 47.9 46.4 *L 0.000697 *D MOAI22D0
*I *885:A2 I *C 47.5 48 *L 0.000671 *D AOI21D0

*CAP
1 *907:A2 7.68713e-05
2 *906:B2 0.00017168
3 *906:A2 0.000144872
4 *885:A2 9.13193e-07
5 *155 0.00213736016
6 *155:5 0.000119824
7 *155:6 0.000303702
8 *155:7 0.000152992
9 *155:8 0.000135805
10 *155:9 7.62842e-05
11 *155:10 0.000106159
12 *155:11 0.000630592
13 *155:12 0.000399685
14 *155 *156 0.00106445
15 *155 *154 0.00114813008

*RES
1 *907:A2 *155:5 0.981068
2 *906:A2 *155:5 1.18036
3 *155:6 *155:9 2.69556
4 *155 *155:12 24.0086994
5 *155:10 *155:11 2.75051
6 *155:5 *155:9 0.670043
7 *906:B2 *155:9 0.609962
8 *155:7 *155:8 0.397117
9 *155:11 *155:12 0.159359
10 *155:6 *155:7 2.55415
11 *155:8 *155:10 2.76553
12 *907:A2 *885:A2 0.202588
*END

*D_NET *156 0.00711283

*CONN
*P *156 I *C 38.6 0 *L 0.5
*I *915:A2 I *C 44.5 48 *L 0.000664 *D NR2D0
*I *875:A2 I *C 42.9 48 *L 0.000671 *D AOI21D0
*I *761:B I *C 46.7 50 *L 0.0018 *D FA1D0

*CAP
1 *875:A2 1.58195e-05
2 *156 0.000222587
3 *156:4 0.000861647
4 *156:5 0.000218535
5 *156:6 0.000362816
6 *156:7 0.000463512
7 *156:8 0.00105789008
8 *156:9 0.00093608
9 *156:10 4.97346e-05
10 *156:11 0.000298682
11 *156 *155 0.00106445
12 *156:9 *994:CP 0.000272940996
13 *156:9 *22:3 0.000294609004
14 *156 *157 0.000993548984

*RES
1 *156:5 *156:7 1.53921
2 *761:B *156:4 3.03346
3 *875:A2 *156:7 0.834939
4 *156 *156:8 6.37632
5 *156:10 *156:11 0.159458
6 *156:6 *156:9 7.85772
7 *156:5 *156:6 1.60964
8 *156:4 *156:7 1.31088
9 *156:9 *156:11 1.76666
10 *156:8 *156:10 14.5142002
11 *915:A2 *156:4 0.225013
*END

*D_NET *157 0.0074513

*CONN
*P *157 I *C 37.9 0 *L 0.5
*I *914:A2 I *C 42.3 51.6 *L 0.000664 *D NR2D0
*I *884:A2 I *C 41.3 51.6 *L 0.000671 *D AOI21D0
*I *768:B I *C 36.1 51.6 *L 0.0018 *D FA1D0

*CAP
1 *884:A2 0.000103268
2 *768:B 0.000408404
3 *157 0.000259062
4 *157:4 0.000100248
5 *157:5 0.000563375
6 *157:6 0.000159363
7 *157:7 0.000310261
8 *157:9 0.00149926
9 *157:10 0.000139871
10 *157:11 0.00035931
11 *157:12 0.000191803
12 *157 *156 0.000993548984
13 *157 *158 0.00142546
14 *157:5 *178:4 0.000324125996
15 *768:B *511:11 0.000390448984
16 *768:B *177:3 0.00022347

*RES
1 *157:5 *157:6 1.22808
2 *157:6 *157:7 1.84619
3 *157:8 *157:9 0.15944
4 *884:A2 *157:4 0.35116
5 *157 *157:8 6.34531
6 *157:4 *157:5 3.08072
7 *157:11 *157:12 0.15944
8 *157:9 *157:11 18.3962002
9 *157:10 *157:12 1.51608
10 *914:A2 *884:A2 0.77783
11 *768:B *157:5 1.85601
12 *157:7 *157:10 3.76255
*END

*D_NET *158 0.00793292

*CONN
*P *158 I *C 37.2 0 *L 0.5
*I *932:A2 I *C 35.9 46.4 *L 0.000664 *D NR2D0
*I *882:A2 I *C 37.1 46.4 *L 0.000671 *D AOI21D0
*I *782:B I *C 30.9 51.6 *L 0.0018 *D FA1D0

*CAP
1 *932:A2 7.69925e-05
2 *882:A2 0.000196297
3 *158 0.000238407
4 *158:4 0.00165054
5 *158:5 0.000150937
6 *158:6 7.34161e-05
7 *158:7 0.000106737
8 *158:8 2.52108e-05
9 *158:9 0.00135441
10 *158:4 *980:ZN 0.000245580996
11 *158 *157 0.00142546
12 *932:A2 *50:12 0.000286727012
13 *932:A2 *74:8 0.000406652969
14 *158:5 *179:2 0.000249473008
15 *158 *159 0.0014461

*RES
1 *158:8 *158:4 23.7271004
2 *158:6 *158:5 1.81566
3 *932:A2 *158:5 0.54488
4 *158:7 *158:9 2.37068
5 *158:5 *158:8 0.985491
6 *158:6 *158:9 3.74718
7 *882:A2 *158:8 0.770074
8 *158 *158:4 6.37637
9 *782:B *158:7 0.224831
*END

*D_NET *159 0.00654056

*CONN
*P *159 I *C 36.5 0 *L 0.5
*I *928:A2 I *C 35.1 48 *L 0.000664 *D NR2D0
*I *878:A2 I *C 36.5 48 *L 0.000671 *D AOI21D0
*I *821:B I *C 30.9 48 *L 0.0018 *D FA1D0

*CAP
1 *928:A2 1.86588e-05
2 *878:A2 7.43315e-05
3 *159 0.00180888
4 *159:4 0.000427855
5 *159:5 8.23912e-05
6 *159:6 0.00089046
7 *159 *158 0.0014461
8 *159 *160 0.000795577969
9 *159 *371:2 0.000996292031

*RES
1 *159 *159:6 30.1807995
2 *159:5 *159:6 1.18953
3 *878:A2 *159:6 0.44993
4 *928:A2 *159:5 0.44993
5 *159:4 *159:5 3.36181
6 *821:B *159:4 0.225195
*END

*D_NET *160 0.00932132

*CONN
*I *540:I I *C 30.1 32 *L 0.00103 *D DEL015
*P *160 I *C 35.8 0 *L 0.5
*I *935:A2 I *C 39.1 46.4 *L 0.000606 *D CKND2D0
*I *814:B2 I *C 42.5 46.4 *L 0.000718 *D AOI22D0
*I *786:B1 I *C 37.3 49.6 *L 0.000899 *D OAI221D0

*CAP
1 *540:I 0.000249645
2 *935:A2 9.63271e-05
3 *814:B2 0.000111546
4 *160 0.000567785
5 *160:5 0.00030022
6 *160:7 9.7123e-05
7 *160:8 0.000212117
8 *160:9 0.000383741
9 *160:10 0.000864942
10 *160:11 5.51819e-05
11 *160:12 0.000351013
12 *160:13 0.00102607
13 *160:14 0.00158057
14 *160:15 0.00141459
15 *935:A2 *268:2 0.000542815977
16 *160 *68:14 0.000327556016
17 *160 *159 0.000795577969
18 *160:5 *371:7 0.000344491992

*RES
1 *540:I *160:10 1.30502
2 *160:7 *160:14 14.3740997
3 *160:7 *160:10 4.67066
4 *160:6 *160:13 2.78529
5 *160:8 *160:9 2.20318
6 *160:9 *160:15 8.67916
7 *160 *160:14 6.37618
8 *160:11 *160:12 2.76226
9 *814:B2 *160:11 1.05937
10 *935:A2 *160:12 0.450068
11 *160:5 *160:13 1.31072
12 *160:12 *160:13 1.33682
13 *160:5 *160:8 1.63862
14 *786:B1 *160:6 0.450068
15 *160:10 *160:15 0.225034
*END

*D_NET *161 0.0052616

*CONN
*P *161 I *C 44.9 0 *L 0.5
*I *966:A2 I *C 54.9 35.8 *L 0.000661 *D XNR2D0

*CAP
1 *966:A2 0.000234654
2 *161 0.00175729
3 *161:2 0.000309654
4 *161:3 0.000702433
5 *161:4 0.00027804
6 *161:5 0.000918693
7 *161 *162 0.000748863984
8 *966:A2 *733:ZN 0.000311951016

*RES
1 *161:4 *161:5 4.07527
2 *161:3 *161:4 1.89085
3 *966:A2 *161:2 2.94408
4 *161 *161:5 18.4458008
5 *161:2 *161:3 3.0682
*END

*D_NET *162 0.00666699

*CONN
*P *162 I *C 44.2 0 *L 0.5
*I *924:A2 I *C 57.7 35.6 *L 0.000664 *D NR2D0
*I *905:B2 I *C 61.9 35.8 *L 0.000739 *D MOAI22D0
*I *905:A2 I *C 61.1 35.6 *L 0.000697 *D MOAI22D0
*I *876:A2 I *C 57.7 37.2 *L 0.000671 *D AOI21D0

*CAP
1 *905:B2 0.000227408
2 *162 0.000556309
3 *162:5 0.000398783
4 *162:6 0.000393568
5 *162:7 0.000281088
6 *162:8 0.000374139
7 *162:9 0.000603246
8 *162:10 0.000130456
9 *162:11 0.000700368984
10 *162:12 0.000287928
11 *162:13 0.000642585
12 *162:6 *733:ZN 0.000383738008
13 *162 *161 0.000748863984
14 *905:B2 *258:3 0.000623511016
15 *162:5 *27:6 0.000315012988

*RES
1 *162:8 *162:9 3.34588
2 *162:6 *162:12 3.00304
3 *162:6 *162:7 1.54726
4 *876:A2 *162:5 1.29616
5 *162 *162:13 6.37623
6 *162:10 *162:12 2.766
7 *162:7 *162:8 2.19732
8 *905:B2 *162:10 1.27814
9 *162:11 *162:13 8.94820976
10 *162:9 *162:11 7.15819
11 *924:A2 *162:5 0.225016
12 *905:A2 *162:10 0.450032
13 *162:5 *162:12 0.225016
*END

*D_NET *163 0.00566066

*CONN
*P *163 I *C 43.5 0 *L 0.5
*I *913:A2 I *C 58.7 39.2 *L 0.000664 *D NR2D0
*I *879:A2 I *C 57.5 39.2 *L 0.000671 *D AOI21D0
*I *760:B I *C 62.5 39.2 *L 0.0018 *D FA1D0

*CAP
1 *163 0.000962096
2 *163:4 9.06703e-05
3 *163:5 0.00235423
4 *163:6 0.00101386
5 *163:5 *164:4 0.000656151016
6 *163:5 *256:2 0.000180143008
7 *163:5 *734:ZN 0.000403496016

*RES
1 *163:4 *163:6 2.83473
2 *879:A2 *163:6 1.37485
3 *163:5 *163:6 25.1049995
4 *913:A2 *163:6 0.450109
5 *163 *163:5 9.67946
6 *760:B *163:4 0.224863
*END

*D_NET *164 0.00661297

*CONN
*P *164 I *C 42.8 0 *L 0.5
*I *930:A2 I *C 60.7 42.8 *L 0.000664 *D NR2D0
*I *883:A2 I *C 59.5 42.8 *L 0.000671 *D AOI21D0
*I *767:B I *C 61.9 46.4 *L 0.0018 *D FA1D0

*CAP
1 *930:A2 0.000118824
2 *883:A2 0.000368973
3 *164 0.000277351
4 *164:4 0.00118058
5 *164:5 0.00046726
6 *164:7 0.000404516
7 *164:8 0.000880891
8 *164:9 0.00051952
9 *164:10 0.00117999
10 *164:11 2.16354e-05
11 *930:A2 *64:7 0.0001978
12 *164:4 *566:Z 0.000339481992
13 *164:4 *163:5 0.000656151016

*RES
1 *164:4 *164:11 16.8610992
2 *164:4 *164:8 10.3367
3 *164:7 *164:9 3.20571
4 *930:A2 *164:5 0.978178
5 *164:9 *164:10 6.77933
6 *164:5 *164:6 2.36749
7 *164:10 *164:11 0.285581
8 *883:A2 *164:7 2.20412
9 *164 *164:8 2.12179
10 *930:A2 *164:7 0.22512
11 *767:B *164:6 0.22512
*END

*D_NET *165 0.00678369

*CONN
*P *165 I *C 42.1 0 *L 0.5
*I *927:A2 I *C 56.3 46.4 *L 0.000664 *D NR2D0
*I *886:A2 I *C 53.9 46.4 *L 0.000668 *D AO21D0
*I *783:B I *C 59.3 48 *L 0.0018 *D FA1D0

*CAP
1 *165 0.000643858
2 *165:4 0.000621954
3 *165:5 0.0032773
4 *165:6 0.000528089
5 *165:7 0.000437873
6 *165:8 0.000424321
7 *165 *166 0.000567524023
8 *165:4 *268:4 0.000282840996

*RES
1 *165:7 *165:8 1.51271
2 *165:5 *165:9 22.0501003
3 *927:A2 *165:7 0.576016
4 *886:A2 *165:8 0.609998
5 *783:B *165:4 1.77482
6 *165 *165:6 7.95487
7 *165:5 *165:6 6.57169
8 *165:4 *165:7 2.11598
9 *165:8 *165:9 0.22509
*END

*D_NET *166 0.00567589

*CONN
*P *166 I *C 41.4 0 *L 0.5
*I *926:A2 I *C 51.3 46.4 *L 0.000664 *D NR2D0
*I *877:A2 I *C 51.3 44.4 *L 0.000671 *D AOI21D0
*I *820:B I *C 50.9 48 *L 0.0018 *D FA1D0

*CAP
1 *820:B 8.64541e-05
2 *166 0.000386663
3 *166:4 0.000258962
4 *166:5 0.000209038
5 *166:6 6.92345e-05
6 *166:7 9.6243e-05
7 *166:8 0.000280319
8 *166:10 0.00291599
9 *166 *167 0.000574873984
10 *820:B *80:10 0.000230588008
11 *166 *165 0.000567524023

*RES
1 *166:7 *166:10 1.59486
2 *166:8 *166:9 0.447358
3 *166:7 *166:8 4.55473
4 *166:6 *166:10 21.7978001
5 *166:5 *166:6 0.47696
6 *166:4 *166:5 1.13419
7 *820:B *166:4 1.50173
8 *166 *166:9 6.09072
9 *877:A2 *166:5 0.224843
10 *926:A2 *166:4 0.224843
*END

*D_NET *167 0.00732617

*CONN
*P *167 I *C 40.7 0 *L 0.5
*I *943:A2 I *C 50.5 42.8 *L 0.000606 *D CKND2D0
*I *897:A2 I *C 52.7 42.8 *L 0.000651 *D OAI21D0
*I *837:B2 I *C 54.9 39.2 *L 0.000718 *D AOI22D0
*I *772:A1 I *C 54.5 40.8 *L 0.000711 *D OAI211D0

*CAP
1 *837:B2 0.000370236
2 *167 0.000779702
3 *167:5 0.000156661
4 *167:6 0.000392697
5 *167:7 0.000302606
6 *167:8 0.000463855
7 *167:9 0.000951506016
8 *167:10 0.000422432
9 *167:11 0.000397023
10 *167:13 0.000179455
11 *167:14 0.000585307
12 *167:5 *205:12 0.000233487988
13 *167 *154 0.000582171016
14 *167:6 *103:26 0.00025103
15 *837:B2 *837:B1 0.000263947988
16 *167 *166 0.000574873984
17 *167:6 *498:3 0.000419165

*RES
1 *897:A2 *167:11 0.59263
2 *167:6 *167:13 2.60806
3 *167:8 *167:11 1.6355
4 *167:12 *167:14 0.159401
5 *167:5 *167:11 2.28283
6 *167:5 *167:7 1.09045
7 *837:B2 *167:7 1.90777
8 *167:13 *167:14 3.49987
9 *167:6 *167:8 2.49207
10 *167:9 *167:12 8.67014
11 *167:9 *167:10 5.67244
12 *167 *167:10 11.3795996
13 *943:A2 *167:8 0.225036
14 *772:A1 *167:7 0.450072
*END

*D_NET *168 0.00443359

*CONN
*I *649:ZN O *C 40.7 68.4 *L 0 *D CKND12
*P *168 O *C 31.6 100 *L 0.5

*CAP
1 *649:ZN 0.000680314
2 *168 0.00122044
3 *168:2 4.88309e-05
4 *168:3 0.00241702016
5 *168:4 6.70134e-05

*RES
1 *168:2 *168:3 6.31065
2 *168:3 *168:4 9.07419968
3 *649:ZN *168:2 2.61373
4 *168 *168:4 8.52118
*END

*D_NET *169 0.0029498

*CONN
*I *679:ZN O *C 32.7 72 *L 0 *D CKND12
*P *169 O *C 30.9 100 *L 0.5

*CAP
1 *679:ZN 0.000226861
2 *169 0.00272295

*RES
1 *169 *679:ZN 19.2238
*END

*D_NET *170 0.00305531

*CONN
*I *677:ZN O *C 29.3 69.2 *L 0 *D CKND12
*P *170 O *C 30.2 100 *L 0.5

*CAP
1 *677:ZN 0.000368949
2 *170 0.0012091
3 *170:2 0.00137914
4 *170:3 9.81297e-05

*RES
1 *170:2 *170:3 10.0836
2 *677:ZN *170:2 1.21598
3 *170 *170:3 8.52112
*END

*D_NET *171 0.00318285

*CONN
*I *675:ZN O *C 29.1 65.6 *L 0 *D CKND12
*P *171 O *C 29.5 100 *L 0.5

*CAP
1 *171 0.00267753
2 *171:2 0.000505313

*RES
1 *675:ZN *171:2 0.449855
2 *171 *171:2 21.1035995
*END

*D_NET *172 0.00302985

*CONN
*I *673:ZN O *C 29.3 68.4 *L 0 *D CKND12
*P *172 O *C 28.8 100 *L 0.5

*CAP
1 *172 0.0012091
2 *172:2 0.00172422
3 *172:3 9.65311e-05

*RES
1 *172:2 *172:3 11.3453999
2 *673:ZN *172:2 0.702163
3 *172 *172:3 8.52117
*END

*D_NET *173 0.00269482

*CONN
*I *647:ZN O *C 29.3 72 *L 0 *D CKND12
*P *173 O *C 28.1 100 *L 0.5

*CAP
1 *173 0.00269482

*RES
1 *173 *647:ZN 18.6424
*END

*D_NET *174 0.00432077

*CONN
*I *671:ZN O *C 41.7 72 *L 0 *D CKND12
*P *174 O *C 27.4 100 *L 0.5

*CAP
1 *174 0.00120911
2 *174:2 8.49337e-05
3 *174:3 0.00295756
4 *174:4 6.91835e-05

*RES
1 *174:2 *174:3 9.17451
2 *174:3 *174:4 9.45273972
3 *174 *174:4 8.52111
4 *671:ZN *174:2 0.22501
*END

*D_NET *175 0.00418173

*CONN
*I *667:Z O *C 37.9 69.2 *L 0 *D CKBD12
*P *175 O *C 26.7 100 *L 0.5

*CAP
1 *175 0.00255854016
2 *667:Z 0.000165806
3 *175:2 0.000281836
4 *175:3 0.000281992
5 *175:4 0.000276877
6 *175:5 0.000616689

*RES
1 *175:4 *175:5 1.40323
2 *175:2 *175:3 1.7314
3 *667:Z *175:2 2.9876
4 *175 *175:5 18.3192005
5 *175:3 *175:4 2.14287
*END

*D_NET *176 0.00414566

*CONN
*I *665:ZN O *C 42.3 69.2 *L 0 *D CKND12
*P *176 O *C 26 100 *L 0.5

*CAP
1 *176 0.00102153
2 *176:2 7.3773e-05
3 *176:3 0.000916121
4 *176:4 0.000322163
5 *176:5 0.00177943
6 *176:6 3.26643e-05

*RES
1 *176:2 *176:3 5.15756
2 *176:5 *176:6 10.2097998
3 *176:4 *176:5 4.00441
4 *176:3 *176:4 1.73144
5 *176 *176:6 8.5212
6 *665:ZN *176:2 0.22496
*END

*D_NET *177 0.00664435

*CONN
*P *177 O *C 37.9 100 *L 0.5
*I *980:ZN O *C 37.1 44 *L 0 *D INVD12

*CAP
1 *980:ZN 0.000114951
2 *177 0.00175807
3 *177:2 0.000197443
4 *177:3 0.000267916
5 *177:4 0.000185853
6 *177:5 0.000572637
7 *177:6 0.000481588
8 *177:8 0.000373558
9 *177:3 *768:B 0.00022347
10 *980:ZN *158:4 0.000245580996
11 *177 *178 0.0015031
12 *980:ZN *179:2 0.000720152969

*RES
1 *177:7 *177:8 2.01899
2 *177:2 *177:4 0.413793
3 *980:ZN *177:6 1.3987
4 *177:4 *177:5 9.30412
5 *177:6 *177:7 3.02716
6 *177:3 *177:8 3.4206
7 *177:3 *177:5 0.159436
8 *177 *177:2 17.3279991
*END

*D_NET *178 0.00835676

*CONN
*P *178 O *C 37.2 100 *L 0.5
*I *978:ZN O *C 33.7 44 *L 0 *D INVD12
*I *822:B1 I *C 35.5 40.8 *L 0.000662 *D OA32D0
*I *707:A1 I *C 33.7 40.8 *L 0.00101 *D OAI32D1

*CAP
1 *822:B1 0.0002733
2 *707:A1 0.000148062
3 *178 0.000734826
4 *178:4 0.000831897031
5 *178:5 0.000453377
6 *178:6 0.000755353
7 *178:7 0.000221319
8 *178:8 3.80818e-05
9 *178:9 0.000308018
10 *178:10 0.000328126
11 *178:11 0.000616532
12 *178:13 7.33709e-06
13 *178:14 0.000792762
14 *178 *179 0.00102055
15 *178 *177 0.0015031
16 *178:4 *157:5 0.000324125996

*RES
1 *178:6 *178:7 1.59848
2 *178:9 *178:10 3.75962
3 *178:11 *178:13 0.159442
4 *178:5 *178:9 3.06708
5 *707:A1 *178:6 1.1893
6 *178:4 *178:12 4.69594
7 *178:12 *178:14 0.159442
8 *178 *178:8 17.7707005
9 *178:8 *178:11 4.70678
10 *178:13 *178:14 4.76291
11 *178:5 *178:7 1.00817
12 *822:B1 *178:6 2.58822
13 *178:10 *178:4 0.159442
14 *978:ZN *178:7 0.225062
*END

*D_NET *179 0.00751943

*CONN
*P *179 O *C 36.5 100 *L 0.5
*I *979:ZN O *C 30.3 44 *L 0 *D INVD12

*CAP
1 *979:ZN 0.000419282
2 *179 0.000988901953
3 *179:2 0.000526343
4 *179:3 0.000314559
5 *179:4 0.000186176
6 *179:5 0.000717212
7 *179:6 0.000261564
8 *179:7 0.000173335
9 *179:8 8.19973e-05
10 *179:9 0.000150565
11 *179:11 0.000654454
12 *179:12 0.000408719
13 *179:2 *158:5 0.000249473008
14 *179:2 *980:ZN 0.000720152969
15 *179 *178 0.00102055
16 *179:3 *35:8 0.000290601992
17 *979:ZN *105:18 0.000355549023

*RES
1 *179:8 *179:12 0.507374
2 *179:5 *179:9 7.19892
3 *179:10 *179:11 8.29467
4 *179:2 *179:4 1.24389
5 *179 *179:10 9.1677103
6 *979:ZN *179:4 3.61793
7 *179:3 *179:5 0.159333
8 *179:7 *179:12 3.38669
9 *179:9 *179:11 0.159333
10 *179:6 *179:7 1.64341
11 *179:3 *179:6 2.8975
12 *179:2 *179:8 2.96675
*END

*D_NET *180 0.00801537

*CONN
*P *180 O *C 35.8 100 *L 0.5
*I *976:ZN O *C 34.7 39.6 *L 0 *D INVD12
*I *889:B2 I *C 32.7 37.2 *L 0.000674 *D AOI32D0

*CAP
1 *889:B2 0.000455527
2 *180 0.000110557
3 *180:3 0.000957558
4 *180:4 0.000184304
5 *180:5 0.000188809
6 *180:6 0.000186278
7 *180:7 0.000136298
8 *180:9 0.00281154
9 *180:10 2.44538e-06
10 *180 *181 0.00167858
11 *180:3 *182:5 0.00130345

*RES
1 *180:9 *180:10 0.159177
2 *180:6 *180:9 27.0956993
3 *976:ZN *180:3 1.2143
4 *889:B2 *180:3 2.31944
5 *180:3 *180:10 3.3634
6 *180:7 *180:8 4.01292
7 *180:6 *180:8 0.159177
8 *180:5 *180:7 2.64028
9 *180:4 *180:5 3.05703
10 *180 *180:4 0.697899
*END

*D_NET *181 0.00575983

*CONN
*P *181 O *C 35.1 100 *L 0.5
*I *973:ZN O *C 33.9 46.8 *L 0 *D INVD12

*CAP
1 *181 0.000176122
2 *181:2 0.00267799
3 *181:3 0.00039184
4 *181:4 0.000356493
5 *181:5 2.55397e-05
6 *181:6 1.12783e-05
7 *181:7 0.000197779
8 *181:2 *35:7 0.000244242988
9 *181 *180 0.00167858

*RES
1 *181:5 *181:7 0.159501
2 *181:6 *181:7 2.61674
3 *181:3 *181:4 0.159501
4 *181:2 *181:3 24.9477005
5 *973:ZN *181:2 1.33235
6 *181 *181:6 1.2033
7 *181:4 *181:5 4.76982
*END

*D_NET *182 0.00990273

*CONN
*P *182 O *C 34.4 100 *L 0.5
*I *971:ZN O *C 34.9 33.2 *L 0 *D INVD12
*I *916:A3 I *C 31.1 37.2 *L 0.000669 *D ND3D0
*I *780:A2 I *C 32.5 33.8 *L 0.000727 *D AOI221D0
*I *723:A2 I *C 35.3 37.2 *L 0.000668 *D AO21D0

*CAP
1 *971:ZN 0.000168839
2 *916:A3 0.000378044
3 *780:A2 0.000193461
4 *723:A2 1.12849e-05
5 *182 4.68363e-05
6 *182:5 0.000210152
7 *182:6 0.000187464
8 *182:7 0.000467732
9 *182:8 0.00244508
10 *182:9 0.000319884
11 *182:10 0.000233905
12 *182:11 3.00668e-05
13 *182:12 0.00258586
14 *182:13 0.000277032
15 *182:14 3.16056e-05
16 *182:15 0.000235523
17 *182:10 *998:QN 0.000259790996
18 *916:A3 *70:4 0.00051676
19 *182:5 *180:3 0.00130345

*RES
1 *182:11 *182:12 23.3054008
2 *971:ZN *182:7 2.04193
3 *182:10 *182:13 2.75386
4 *182:6 *182:9 2.40607
5 *182:8 *182:14 11.1883
6 *182:6 *182:7 0.647925
7 *780:A2 *182:15 1.03128
8 *182:10 *182:12 0.159314
9 *182:5 *182:8 3.20976
10 *182:9 *182:15 1.86554
11 *182:13 *182:14 1.29514
12 *182 *182:11 0.3485
13 *916:A3 *182:9 1.91817
14 *182:6 *182:5 0.504258
15 *723:A2 *182:5 0.535908
*END

*D_NET *183 0.00367817

*CONN
*I *632:Z O *C 36.7 72 *L 0 *D BUFFD12
*P *183 O *C 33.7 100 *L 0.5

*CAP
1 *632:Z 0.000235091
2 *183 0.000601915
3 *183:2 0.00204333
4 *183:3 0.000489607
5 *183:4 0.000306897
6 *183:5 1.34071e-06

*RES
1 *183:3 *183:4 2.7496
2 *183:2 *183:5 12.8263998
3 *632:Z *183:2 1.21598
4 *183:4 *183:5 1.52638
5 *183 *183:3 2.79677
*END

*D_NET *184 0.00308826

*CONN
*I *631:Z O *C 35.7 68.4 *L 0 *D BUFFD12
*P *184 O *C 33 100 *L 0.5

*CAP
1 *184 0.00118732
2 *184:2 7.11098e-05
3 *184:3 0.00173241
4 *184:4 9.7439e-05

*RES
1 *184:2 *184:3 1.86361
2 *184:3 *184:4 11.3453999
3 *184 *184:4 8.52117
4 *631:Z *184:2 0.225052
*END

*D_NET *185 0.00308829

*CONN
*I *630:Z O *C 33.9 69.2 *L 0 *D BUFFD12
*P *185 O *C 32.3 100 *L 0.5

*CAP
1 *630:Z 0.00030479
2 *185 0.0027835

*RES
1 *185 *630:Z 20.19
*END

*D_NET *186 0.00625772

*CONN
*P *186 O *C 44.2 100 *L 0.5
*I *977:ZN O *C 48.7 61.2 *L 0 *D INVD12
*I *959:A2 I *C 45.9 64.4 *L 0.00133 *D XOR3D0
*I *777:A1 I *C 46.5 58.8 *L 0.000702 *D OAI32D0

*CAP
1 *977:ZN 0.000196131
2 *186 0.0013403
3 *186:4 0.000462719
4 *186:5 0.000630484
5 *186:6 0.00116513
6 *186:7 0.000422654
7 *186:8 0.000125778
8 *186 *187 0.00122695992
9 *186:4 *223:2 0.00027540002
10 *186:7 *752:I 0.000412156992

*RES
1 *186:6 *186:8 7.55993
2 *186:5 *186:7 2.51251
3 *186:4 *186:6 1.62334
4 *977:ZN *186:7 2.37261
5 *186:4 *186:7 2.42593
6 *959:A2 *186:4 1.36949
7 *186 *186:8 15.4610004
8 *777:A1 *186:5 0.449892
*END

*D_NET *187 0.00548728

*CONN
*P *187 O *C 43.5 100 *L 0.5
*I *970:ZN O *C 43.9 61.2 *L 0 *D INVD12
*I *777:B1 I *C 45.5 58.8 *L 0.000684 *D OAI32D0
*I *693:A1 I *C 45.5 57.2 *L 0.000702 *D OAI32D0

*CAP
1 *693:A1 0.00047936
2 *187 0.000374692
3 *187:4 0.000217644
4 *187:5 0.00102932
5 *187:7 0.000336054
6 *187:8 3.09416e-05
7 *187:10 0.000219497
8 *187 *188 0.00104607
9 *693:A1 *52:5 0.000233955996
10 *187:5 *959:A3 0.000292788008
11 *187 *186 0.00122695992

*RES
1 *187:9 *187:10 6.78178
2 *187:7 *187:8 4.38605
3 *187:6 *187:7 0.159333
4 *187:4 *187:5 2.25821
5 *187:8 *187:10 0.159333
6 *187:5 *187:6 5.13529
7 *970:ZN *187:5 0.45002
8 *693:A1 *187:4 2.36621
9 *187 *187:9 9.1677103
10 *777:B1 *187:4 0.45002
*END

*D_NET *188 0.0052641

*CONN
*P *188 O *C 42.8 100 *L 0.5
*I *974:ZN O *C 41.9 54.8 *L 0 *D INVD12
*I *961:A2 I *C 42.3 57.2 *L 0.000658 *D CKXOR2D0
*I *803:B1 I *C 43.5 58.8 *L 0.000658 *D IND2D0

*CAP
1 *974:ZN 0.000289253
2 *803:B1 0.000247113
3 *188 0.000307007
4 *188:4 0.000338425
5 *188:5 0.000306296
6 *188:6 0.000405524
7 *188:8 0.00075065
8 *188:9 0.000108597
9 *188:10 0.000276149
10 *188 *189 0.00118901
11 *188 *187 0.00104607

*RES
1 *188:9 *188:10 2.49855
2 *188:7 *188:8 13.1226997
3 *188:6 *188:10 1.50338
4 *188:4 *188:6 1.84898
5 *803:B1 *188:6 1.24847
6 *188:8 *188:9 0.159388
7 *188:4 *188:5 0.935104
8 *974:ZN *188:5 1.12413
9 *188 *188:7 8.52106
10 *961:A2 *188:5 0.225066
*END

*D_NET *189 0.00694828

*CONN
*P *189 O *C 42.1 100 *L 0.5
*I *975:ZN O *C 36.5 58.4 *L 0 *D INVD12
*I *962:A2 I *C 39.9 58.8 *L 0.000658 *D CKXOR2D0
*I *948:A1 I *C 31.1 57.2 *L 0.000647 *D NR2D0
*I *816:B1 I *C 42.5 58.8 *L 0.000658 *D IND2D0

*CAP
1 *962:A2 9.35318e-05
2 *948:A1 0.000147702
3 *189 0.00192937
4 *189:5 0.00023514
5 *189:6 7.11866e-05
6 *189:7 0.000355963
7 *189:8 0.000484411
8 *189:9 0.000484263
9 *189 *188 0.00118901
10 *189 *190 0.000991905
11 *189:5 *55:3 0.000668106016
12 *962:A2 *222:2 0.000297677012

*RES
1 *948:A1 *189:7 0.476862
2 *189:6 *189:8 1.88543
3 *189:5 *189:6 0.819274
4 *189 *189:8 25.7639008
5 *189:7 *189:9 4.22689
6 *189:5 *189:9 3.07071
7 *975:ZN *189:9 1.08975
8 *962:A2 *189:6 0.573178
9 *816:B1 *189:8 0.702123
*END

*D_NET *190 0.00538796

*CONN
*P *190 O *C 41.4 100 *L 0.5
*I *972:ZN O *C 34.7 62 *L 0 *D CKND12
*I *963:S I *C 37.9 62.4 *L 0.00146 *D MUX2ND0
*I *934:A2 I *C 32.7 62.4 *L 0.000664 *D NR2D0

*CAP
1 *963:S 7.96539e-05
2 *934:A2 0.000311608
3 *190 0.000358418
4 *190:4 5.18624e-05
5 *190:5 0.00103556
6 *190:6 0.00105095992
7 *190 *191 0.00120612
8 *934:A2 *972:I 0.000301856992
9 *190 *189 0.000991905

*RES
1 *190:5 *190:6 17.3990993
2 *972:ZN *190:4 0.450004
3 *190:4 *190:5 2.49666
4 *934:A2 *190:4 1.97789
5 *963:S *190:5 0.674874
6 *190 *190:6 8.52114
*END

*D_NET *191 0.00780836

*CONN
*P *191 O *C 40.7 100 *L 0.5
*I *969:ZN O *C 40.1 65.6 *L 0 *D INVD12
*I *951:A2 I *C 38.5 64.4 *L 0.000606 *D CKND2D0
*I *774:A2 I *C 38.9 51.6 *L 0.000709 *D AOI211D0
*I *702:A2 I *C 41.3 62.4 *L 0.000745 *D AO22D0

*CAP
1 *774:A2 0.000629294
2 *702:A2 0.000633883
3 *191 0.00242549984
4 *191:5 3.93794e-05
5 *191:6 0.000108627
6 *191:7 0.000329618
7 *191:8 0.000637806
8 *191:9 7.53169e-05
9 *191:10 0.000808167
10 *191:7 *264:4 0.000179585
11 *774:A2 *79:14 0.000735108984
12 *191 *190 0.00120612

*RES
1 *191:8 *191:9 0.378038
2 *191:7 *191:9 2.347
3 *191:6 *191:7 1.44063
4 *774:A2 *191:5 3.67821
5 *191 *191:8 21.5998993
6 *191:6 *191:10 5.5061
7 *191:5 *191:10 0.704989
8 *969:ZN *191:9 0.449888
9 *702:A2 *191:8 2.99003
10 *951:A2 *191:7 0.225109
*END

*D_NET *192 0.00325338

*CONN
*I *670:ZN O *C 45.7 72 *L 0 *D CKND12
*P *192 O *C 40 100 *L 0.5

*CAP
1 *192 0.00120909
2 *670:ZN 0.000171333
3 *192:2 3.76528e-05
4 *192:3 0.00181306
5 *192:4 2.22431e-05

*RES
1 *192:2 *192:3 3.75433
2 *192:3 *192:4 8.69565964
3 *670:ZN *192:2 0.603054
4 *192 *192:4 8.52118
*END

*D_NET *193 0.00707555

*CONN
*I *705:A1 I *C 53.3 69.6 *L 0.000702 *D OAI32D0
*I *862:A2 I *C 48.7 71.6 *L 0.0007 *D AOI32D0
*I *895:A2 I *C 46.3 68.2 *L 0.000711 *D ND3D0
*I *942:I I *C 54.1 71.8 *L 0.00062 *D CKND0
*P *193 O *C 39.3 100 *L 0.5
*I *668:ZN O *C 55.5 69.2 *L 0 *D CKND12
*I *667:I I *C 40.3 69.2 *L 0.00373 *D CKBD12

*CAP
1 *667:I 9.31877e-05
2 *668:ZN 2.91166e-05
3 *193 0.00123556
4 *895:A2 0.000211126
5 *862:A2 5.88363e-05
6 *705:A1 4.48449e-05
7 *193:7 0.00109316
8 *193:8 0.000651325
9 *193:9 0.00158091
10 *193:10 0.000675689
11 *193:11 0.000134969
12 *193:12 0.000358012
13 *193:13 9.82535e-05
14 *193:14 2.07459e-06
15 *193:15 5.54832e-05
16 *667:I *32:2 0.000752972031

*RES
1 *193:9 *193:13 0.504166
2 *193:8 *193:13 0.487498
3 *668:ZN *193:10 1.20637
4 *705:A1 *193:11 0.674972
5 *193:14 *193:15 0.159419
6 *862:A2 *193:7 1.87573
7 *193:7 *193:12 2.44805
8 *193 *193:15 8.48798
9 *667:I *193:13 0.450037
10 *193:8 *193:12 3.61019
11 *193:7 *193:11 3.76681
12 *942:I *193:10 1.77539
13 *193:10 *193:11 0.535852
14 *193:9 *193:14 10.8154001
15 *895:A2 *193:12 1.46233
*END

*D_NET *194 0.00338518

*CONN
*I *664:ZN O *C 44.1 68.4 *L 0 *D CKND12
*P *194 O *C 38.6 100 *L 0.5

*CAP
1 *194 0.00120911
2 *194:2 8.23636e-05
3 *194:3 0.00206492
4 *194:4 2.87989e-05

*RES
1 *194:2 *194:3 3.50233
2 *194:3 *194:4 11.3453999
3 *194 *194:4 8.52117
4 *664:ZN *194:2 0.225052
*END

*D_NET *195 0.00463805

*CONN
*I *662:ZN O *C 64.5 65.6 *L 0 *D CKND12
*P *195 O *C 50.5 100 *L 0.5

*CAP
1 *662:ZN 0.000862204
2 *195 0.00234663016
3 *195:3 0.000383066
4 *195:4 0.00104615

*RES
1 *195 *195:4 16.1702003
2 *195:3 *195:4 8.33628
3 *195:2 *195:3 2.57964
4 *662:ZN *195:2 3.42003
*END

*D_NET *196 0.00495094

*CONN
*I *660:ZN O *C 62.5 64.8 *L 0 *D CKND12
*P *196 O *C 49.8 100 *L 0.5

*CAP
1 *660:ZN 0.000253346
2 *196 0.00238275
3 *196:2 0.00138944
4 *196:3 2.20332e-05
5 *196:4 0.000624711
6 *196:5 0.000278651

*RES
1 *196:3 *196:4 7.78839
2 *196:2 *196:3 6.12835
3 *660:ZN *196:2 1.25063
4 *196:4 *196:5 0.447325
5 *196 *196:5 15.4294004
*END

*D_NET *197 0.00497125

*CONN
*I *658:ZN O *C 58.9 64.8 *L 0 *D CKND12
*P *197 O *C 49.1 100 *L 0.5

*CAP
1 *658:ZN 0.000485068
2 *197 0.00267809
3 *197:2 0.000239142
4 *197:3 0.000569618
5 *197:4 0.000283685
6 *197:5 0.000348947
7 *197:6 0.000366723

*RES
1 *197 *197:6 18.0489998
2 *197:5 *197:6 2.52107
3 *197:4 *197:5 2.42825
4 *197:2 *197:4 1.8634
5 *197:2 *197:3 2.75544
6 *658:ZN *197:3 2.22445
*END

*D_NET *198 0.00451085

*CONN
*I *656:ZN O *C 58.1 65.6 *L 0 *D CKND12
*P *198 O *C 48.4 100 *L 0.5

*CAP
1 *198 0.00110177
2 *198:2 0.000294136
3 *198:3 0.00303037
4 *198:4 8.45738e-05

*RES
1 *198:2 *198:3 6.56585
2 *198:3 *198:4 12.7334003
3 *198 *198:4 8.52106
4 *656:ZN *198:2 0.224995
*END

*D_NET *199 0.00386215

*CONN
*I *654:ZN O *C 55.1 65.6 *L 0 *D CKND12
*P *199 O *C 47.7 100 *L 0.5

*CAP
1 *654:ZN 0.00102852
2 *199 0.00032591
3 *199:2 3.44738e-05
4 *199:3 0.00245303016
5 *199:4 2.02501e-05

*RES
1 *199:2 *199:3 2.97102
2 *199 *199:4 2.36784
3 *199:3 *199:4 17.0095997
4 *654:ZN *199:2 4.2864
*END

*D_NET *200 0.00416296

*CONN
*I *652:ZN O *C 51.1 64.8 *L 0 *D CKND12
*P *200 O *C 47 100 *L 0.5

*CAP
1 *200 0.00108369
2 *200:2 0.000193246
3 *200:3 0.00082723
4 *200:4 0.000144732
5 *200:5 0.000479952
6 *200:6 0.00143408

*RES
1 *200:4 *200:6 10.6056004
2 *200:2 *200:3 3.58515
3 *200:3 *200:5 3.12022
4 *200:5 *200:6 0.159401
5 *200 *200:4 8.52109
6 *652:ZN *200:2 0.224942
*END

*D_NET *201 0.00290863

*CONN
*I *629:Z O *C 47.5 69.2 *L 0 *D BUFFD12
*P *201 O *C 46.3 100 *L 0.5

*CAP
1 *201 0.00224714
2 *201:2 0.000661506

*RES
1 *629:Z *201:2 1.20627
2 *201 *201:2 18.6977997
*END

*D_NET *202 0.00386063

*CONN
*I *634:Z O *C 50.5 68.4 *L 0 *D BUFFD12
*P *202 O *C 45.6 100 *L 0.5

*CAP
1 *202 0.00120909
2 *202:2 0.000371209
3 *202:3 0.00217303984
4 *202:4 0.000107301

*RES
1 *202:2 *202:3 2.44043
2 *634:Z *202:2 1.3697
3 *202:3 *202:4 11.3453999
4 *202 *202:4 8.52117
*END

*D_NET *203 0.0035423

*CONN
*I *633:Z O *C 46.3 65.6 *L 0 *D BUFFD12
*P *203 O *C 44.9 100 *L 0.5

*CAP
1 *203 0.00255068
2 *203:2 0.000991626

*RES
1 *633:Z *203:2 1.35379
2 *203 *203:2 21.1042004
*END

*D_NET *204 0.00236083

*CONN
*P *204 O *C 100 26 *L 0.5
*I *888:ZN O *C 69.5 29.6 *L 0 *D INVD12

*CAP
1 *204 0.00185304
2 *204:2 0.000507801

*RES
1 *888:ZN *204:2 2.36724
2 *204 *204:2 19.4850006
*END

*D_NET *205 0.00818069

*CONN
*I *651:Z O *C 70.5 36 *L 0 *D CKBD12
*P *205 O *C 100 36 *L 0.5
*I *887:A1 I *C 48.1 42.8 *L 0.000647 *D NR2D0
*I *766:A1 I *C 47.7 44.4 *L 0.000718 *D INR3D0

*CAP
1 *766:A1 5.66288e-05
2 *205 6.50929e-05
3 *205:4 2.96243e-05
4 *205:5 0.000867327
5 *205:6 0.000820734
6 *205:7 0.000101005
7 *205:8 0.000297775
8 *205:9 7.45646e-05
9 *205:10 0.000474513
10 *205:11 2.08378e-05
11 *205:12 0.00092843
12 *205:13 0.000180487
13 *205:14 0.0026414
14 *205:12 *167:5 0.000233487988
15 *205:10 *62:5 0.000190038984
16 *205:4 *477:4 0.00119883

*RES
1 *205:12 *205:13 1.21177
2 *205:10 *205:11 0.0928591
3 *205:9 *205:10 3.47603
4 *205:8 *205:9 0.0928591
5 *205 *205:14 18.8409004
6 *205:11 *205:12 5.82425
7 *205:7 *205:8 2.68055
8 *205:4 *205:5 3.90669
9 *205:6 *205:13 2.56325
10 *205:4 *205:7 1.28594
11 *766:A1 *205:6 1.62431
12 *887:A1 *205:6 0.225104
13 *651:Z *205:5 0.225104
14 *205:5 *205:14 0.225104
*END

*D_NET *206 0.00290033

*CONN
*P *206 O *C 100 46 *L 0.5
*I *719:ZN O *C 70.9 43.2 *L 0 *D INVD12

*CAP
1 *206 6.17854e-05
2 *206:2 0.000532671
3 *206:3 0.00230587

*RES
1 *206:2 *206:3 2.10182
2 *206 *206:3 17.6212006
3 *719:ZN *206:2 0.225051
*END

*D_NET *207 0.00234458

*CONN
*I *988:Q O *C 65.3 44.8 *L 0 *D DFD1
*I *910:B1 I *C 64.1 44.4 *L 0.000689 *D MOAI22D0
*I *910:A1 I *C 63.1 44.4 *L 0.000721 *D MOAI22D0
*I *739:A1 I *C 65.3 50 *L 0.00071 *D IND4D0
*I *681:A2 I *C 65.9 48 *L 0.000712 *D IOA21D0

*CAP
1 *910:B1 4.73803e-05
2 *739:A1 6.92853e-05
3 *207:5 0.00102173992
4 *207:6 0.000680708
5 *207:7 0.000525455

*RES
1 *681:A2 *207:5 1.55252
2 *988:Q *207:7 0.828168
3 *910:B1 *207:6 0.69231
4 *739:A1 *207:5 2.89264989
5 *207:5 *207:6 1.90435
6 *910:A1 *207:7 1.68348
7 *207:6 *207:7 0.225017
*END

*D_NET *208 0.00109746

*CONN
*I *610:I I *C 68.5 46.4 *L 0.00104 *D DEL0
*I *990:Q O *C 64.9 46 *L 0 *D DFD1

*CAP
1 *208:2 0.000108746
2 *208:3 0.000988717031

*RES
1 *990:Q *208:3 0.450001
2 *208:2 *208:3 3.29327011
3 *610:I *208:2 0.450001
*END

*D_NET *209 0.00234884

*CONN
*I *580:I I *C 68.3 58.8 *L 0.00104 *D DEL0
*I *984:Q O *C 62.9 53.8 *L 0 *D DFXD1

*CAP
1 *580:I 0.000355477
2 *209:2 0.000229556
3 *209:3 0.000965283984
4 *209:4 0.000798519

*RES
1 *209:2 *209:4 2.84726
2 *580:I *209:2 3.37136006
3 *209:3 *209:4 3.23154
4 *984:Q *209:3 0.225011
*END

*D_NET *210 0.00231983

*CONN
*I *594:I I *C 68.3 55.2 *L 0.00104 *D DEL0
*I *991:Q O *C 56.3 55.6 *L 0 *D DFD1

*CAP
1 *594:I 0.000135845
2 *210:2 0.000417154
3 *210:3 0.00176569
4 *210:4 1.15854e-06

*RES
1 *210:2 *210:4 1.8971
2 *594:I *210:2 0.576003
3 *210:3 *210:4 6.86594009
4 *991:Q *210:3 0.225037
*END

*D_NET *211 0.00295616

*CONN
*I *606:I I *C 65.9 51.6 *L 0.00104 *D DEL0
*I *989:Q O *C 52.5 52 *L 0 *D DFD1

*CAP
1 *606:I 0.000228207
2 *211:2 0.00132844
3 *211:3 0.000146496
4 *211:4 0.00125301

*RES
1 *211:3 *211:4 3.06887
2 *989:Q *211:4 1.53111
3 *211:2 *211:3 4.49503994
4 *606:I *211:2 1.96315
*END

*D_NET *212 0.00223629

*CONN
*I *616:I I *C 55.7 58.8 *L 0.00104 *D DEL0
*I *987:Q O *C 50.1 55 *L 0 *D DFXD1

*CAP
1 *616:I 0.00014888
2 *987:Q 0.000825692
3 *212:2 8.27868e-05
4 *212:3 0.00117893008

*RES
1 *212:2 *212:3 4.67998981
2 *987:Q *212:3 3.53948
3 *616:I *212:2 0.769953
*END

*D_NET *213 0.00246416

*CONN
*I *808:A3 I *C 49.5 28.4 *L 0.000717 *D XNR3D0
*I *793:B2 I *C 55.9 28.2 *L 0.000744 *D MAOI22D0
*I *793:A2 I *C 56.7 28.4 *L 0.000697 *D MAOI22D0
*I *734:B2 I *C 57.5 29.8 *L 0.000739 *D MOAI22D0
*I *697:Q O *C 56.3 32.4 *L 0 *D DFKCNQD1

*CAP
1 *808:A3 0.000278028
2 *734:B2 7.7691e-07
3 *697:Q 5.27628e-05
4 *213:5 0.000600417
5 *213:6 0.000628578008
6 *213:7 0.000280129
7 *213:8 0.00047215
8 *213:9 0.000151325

*RES
1 *213:7 *213:8 2.42836
2 *213:5 *213:9 0.852647
3 *697:Q *213:6 2.70626998
4 *734:B2 *213:5 1.90314
5 *808:A3 *213:8 1.60185
6 *213:7 *213:9 1.18713
7 *793:B2 *213:6 0.225013
8 *793:A2 *213:5 0.449985
9 *213:6 *213:9 0.225013
*END

*D_NET *214 0.00109649

*CONN
*I *625:I I *C 58.1 33.6 *L 0.00104 *D DEL0
*I *699:Q O *C 54.1 33.2 *L 0 *D DFKCNQD1

*CAP
1 *625:I 0.000204973
2 *214:2 0.000830935
3 *214:3 6.05815e-05

*RES
1 *214:2 *214:3 3.03997993
2 *625:I *214:3 0.994942
3 *699:Q *214:2 0.22502
*END

*D_NET *215 0.000912229

*CONN
*I *627:I I *C 47.5 32 *L 0.00104 *D DEL0
*I *686:Q O *C 50.7 32.4 *L 0 *D DFKCNQD1

*CAP
1 *627:I 6.59847e-05
2 *215:2 0.000846243984

*RES
1 *627:I *215:2 1.79287004
2 *686:Q *215:2 1.73824
*END

*D_NET *216 0.000477082

*CONN
*I *623:I I *C 50.5 35.6 *L 0.00104 *D DEL0
*I *682:Q O *C 50.5 36.8 *L 0 *D DFKCNQD1

*CAP
1 *623:I 0.000471106992
2 *682:Q 5.97375e-06

*RES
1 *623:I *682:Q 1.95594
*END

*D_NET *217 0.000397865

*CONN
*I *626:I I *C 45.3 37.2 *L 0.00104 *D DEL0
*I *687:Q O *C 45.1 36 *L 0 *D DFKCNQD1

*CAP
1 *626:I 0.00022392
2 *687:Q 0.000173946

*RES
1 *626:I *687:Q 1.66588
*END

*D_NET *218 0.00204335

*CONN
*I *950:A2 I *C 43.5 35.6 *L 0.000606 *D CKND2D0
*I *899:A2 I *C 42.1 35.6 *L 0.000651 *D OAI21D0
*I *849:A1 I *C 40.9 32 *L 0.000647 *D NR2D0
*I *826:B1 I *C 40.9 33.4 *L 0.00072 *D AOI221D0
*I *735:B2 I *C 40.5 35.8 *L 0.000739 *D MOAI22D0
*I *701:Q O *C 40.1 36.8 *L 0 *D DFKCNQD1

*CAP
1 *950:A2 0.000172274
2 *899:A2 2.15378e-06
3 *849:A1 0.000335144
4 *701:Q 2.55497e-06
5 *218:6 0.00018495
6 *218:7 0.000386068
7 *218:8 0.000131148
8 *218:9 0.000367803
9 *218:10 0.000461266992

*RES
1 *218:7 *218:9 1.19324
2 *218:6 *218:10 1.35019004
3 *218:6 *218:7 0.899701
4 *899:A2 *218:6 0.954091
5 *849:A1 *218:8 1.23317
6 *950:A2 *218:10 1.32238
7 *218:7 *218:8 0.556241
8 *701:Q *218:9 1.15177
9 *735:B2 *218:9 0.224997
10 *826:B1 *218:8 0.449995
*END

*D_NET *219 0.000575632

*CONN
*I *624:I I *C 44.1 40.8 *L 0.00104 *D DEL0
*I *712:Q O *C 43.3 39.6 *L 0 *D DFKCNQD1

*CAP
1 *712:Q 0.000575631992

*RES
1 *712:Q *624:I 2.23414
*END

*D_NET *220 0.000762389

*CONN
*I *1000:Q O *C 48.1 59.2 *L 0 *D DFD1
*I *690:B1 I *C 48.9 57.4 *L 0.000863 *D AO22D0

*CAP
1 *690:B1 0.000152784
2 *220:2 0.000609601992

*RES
1 *690:B1 *220:2 0.603081
2 *1000:Q *220:2 2.26899004
*END

*D_NET *221 0.000922986

*CONN
*I *993:Q O *C 47.9 55.6 *L 0 *D DFD1
*I *940:A2 I *C 46.7 53.6 *L 0.000606 *D CKND2D0

*CAP
1 *940:A2 0.000540789023
2 *221:2 0.000382196

*RES
1 *993:Q *221:2 0.449999
2 *940:A2 *221:2 2.80601001
*END

*D_NET *222 0.00597837

*CONN
*I *591:I I *C 65.7 58.8 *L 0.00104 *D DEL0
*I *997:Q O *C 36.5 55.6 *L 0 *D DFD1

*CAP
1 *997:Q 0.000401491
2 *222:2 0.000557685
3 *222:3 0.000683555
4 *222:4 6.26e-05
5 *222:5 0.000766623
6 *222:6 0.0019108
7 *222:7 9.3448e-05
8 *222:8 0.000480331
9 *222:9 4.40853e-05
10 *222:6 *52:5 0.000242367988
11 *997:Q *975:I 0.000230757988
12 *222:2 *962:A2 0.000297677012
13 *222:3 *49:5 0.00020695

*RES
1 *222:8 *222:9 0.218812
2 *222:7 *222:8 2.80636
3 *997:Q *222:2 2.64098
4 *222:6 *222:7 0.218812
5 *222:5 *222:6 10.7416
6 *222:3 *222:5 1.98192
7 *222:4 *222:3 3.29824
8 *222:2 *222:9 2.86045
9 *591:I *222:4 0.45008
*END

*D_NET *223 0.00639719

*CONN
*I *590:I I *C 62.5 62.4 *L 0.00104 *D DEL0
*I *998:Q O *C 33.9 56.8 *L 0 *D DFD1

*CAP
1 *590:I 0.000305868
2 *998:Q 0.000463076
3 *223:2 0.00109835992
4 *223:3 0.000105018
5 *223:4 0.000332667
6 *223:5 0.00101831
7 *223:6 0.00025403
8 *223:7 0.000812336
9 *223:8 0.000263449
10 *223:9 0.000422333
11 *223:3 *52:6 0.000505154023
12 *223:2 *186:4 0.00027540002
13 *223:3 *571:I 0.000278421992
14 *223:4 *975:I 0.000262779004

*RES
1 *223:8 *223:2 7.4625001
2 *223:4 *223:6 1.12798
3 *223:7 *223:8 2.23661
4 *223:4 *223:9 2.25699
5 *223:5 *223:2 3.95204
6 *223:5 *223:6 2.16237
7 *223:3 *223:7 4.36755
8 *590:I *223:3 1.35811
9 *998:Q *223:9 1.74504
*END

*D_NET *224 0.00160196

*CONN
*I *612:I I *C 27.9 55.2 *L 0.00104 *D DEL0
*I *995:Q O *C 33.1 60.4 *L 0 *D DFD1

*CAP
1 *612:I 0.000489282031
2 *995:Q 0.000314743
3 *224:2 0.000485781
4 *224:3 0.000312159

*RES
1 *224:2 *224:3 3.91160011
2 *612:I *224:2 2.3212
3 *995:Q *224:3 1.69378
*END

*D_NET *225 0.00309469

*CONN
*I *619:I I *C 42.3 53.6 *L 0.00104 *D DEL0
*I *992:Q O *C 39.1 64 *L 0 *D DFD1

*CAP
1 *619:I 0.000681999
2 *225:2 0.00106044992
3 *225:3 0.000348532
4 *225:4 0.00092739
5 *225:5 7.63278e-05

*RES
1 *225:4 *225:5 3.08559
2 *619:I *225:2 3.24788
3 *225:3 *225:5 1.73097
4 *225:2 *225:3 3.69671011
5 *992:Q *225:4 0.225009
*END

*D_NET *226 0.00618106

*CONN
*I *959:A3 I *C 43.1 64.4 *L 0.000717 *D XOR3D0
*I *906:B1 I *C 46.7 46.4 *L 0.000689 *D MOAI22D0
*I *906:A1 I *C 47.7 46.4 *L 0.000721 *D MOAI22D0
*I *721:B2 I *C 43.9 44.2 *L 0.000739 *D MOAI22D0
*I *688:Q O *C 47.1 43.2 *L 0 *D DFKCNQD1

*CAP
1 *959:A3 0.000621806
2 *906:B1 0.000189848
3 *906:A1 0.000203483
4 *226:5 4.56803e-05
5 *226:6 0.000523616
6 *226:7 0.000196975
7 *226:8 0.000826922
8 *226:9 0.000228228
9 *226:10 0.0016217
10 *226:11 0.000111924
11 *906:B1 *470:8 0.000387504023
12 *959:A3 *992:CP 0.000220461992
13 *906:A1 *268:9 0.000218005996
14 *959:A3 *187:5 0.000292788008
15 *959:A3 *12:2 0.000492106992

*RES
1 *226:9 *226:11 1.39093
2 *906:B1 *226:5 1.06865
3 *226:10 *226:11 8.55440998
4 *226:5 *226:6 2.46558
5 *721:B2 *226:8 1.6606
6 *226:7 *226:10 2.89163
7 *226:6 *226:8 2.24185
8 *226:5 *226:7 0.536739
9 *959:A3 *226:9 3.35423
10 *906:A1 *226:7 1.97231
11 *688:Q *226:6 0.225034
*END

*D_NET *227 0.00363888

*CONN
*I *602:I I *C 68.5 51.6 *L 0.00104 *D DEL0
*I *985:Q O *C 48.3 51.4 *L 0 *D EDFKCND1

*CAP
1 *985:Q 0.000612905
2 *227:2 0.00060831
3 *227:3 2.10386e-05
4 *227:4 0.000751337
5 *227:5 0.0016453

*RES
1 *227:2 *227:3 2.60415
2 *602:I *227:2 0.575993
3 *227:4 *227:5 0.0928409
4 *985:Q *227:5 8.86942005
5 *227:3 *227:4 2.94425
*END

*D_NET *228 0.00333241

*CONN
*I *608:I I *C 28.3 46.4 *L 0.00104 *D DEL0
*I *986:Q O *C 38.1 53.8 *L 0 *D EDFKCND1

*CAP
1 *608:I 0.000951233
2 *228:2 0.00145482
3 *228:3 0.000926348

*RES
1 *608:I *228:2 4.02057
2 *228:2 *228:3 6.14515018
3 *986:Q *228:3 3.2528
*END

*D_NET *229 0.006456

*CONN
*I *596:I I *C 67.9 53.6 *L 0.00104 *D DEL0
*I *695:Q O *C 32.5 53.8 *L 0 *D EDFKCNQD1

*CAP
1 *695:Q 0.000185993
2 *229:2 0.00228344984
3 *229:3 0.000163693
4 *229:4 0.000310906
5 *229:5 0.000439547
6 *229:6 6.20209e-06
7 *229:7 0.000580174
8 *229:8 0.000852265
9 *229:7 *48:5 0.000269085996
10 *229:3 *606:Z 0.000643020977
11 *695:Q *986:E 0.00026126998
12 *229:2 *62:6 0.000460366016

*RES
1 *229:6 *229:7 4.19289
2 *229:4 *229:5 2.01687
3 *229:3 *229:2 9.88613987
4 *695:Q *229:8 5.80428
5 *596:I *229:3 1.07949
6 *229:7 *229:8 0.0927731
7 *229:5 *229:6 2.21162
8 *229:2 *229:4 3.41465
*END

*D_NET *230 0.00719523

*CONN
*I *595:I I *C 69.5 50 *L 0.00104 *D DEL0
*I *696:Q O *C 32.7 50.2 *L 0 *D EDFKCNQD1

*CAP
1 *595:I 0.000167877
2 *230:2 0.000507634
3 *230:3 0.000434914
4 *230:4 7.1102e-05
5 *230:5 0.000800153
6 *230:6 0.00139511
7 *230:7 0.000390763
8 *230:8 9.47317e-05
9 *230:9 0.00014561
10 *230:10 0.000502078
11 *230:2 *67:4 0.00024704
12 *230:3 *443:5 0.000420353008
13 *230:3 *511:13 0.00118693992
14 *230:2 *252:7 0.000570873984
15 *230:3 *93:35 0.000260053984

*RES
1 *230:9 *230:10 2.70011
2 *230:2 *230:8 2.84103
3 *230:7 *230:2 4.53268
4 *230:3 *230:7 3.46076
5 *230:5 *230:10 4.26289
6 *230:4 *230:6 6.32137012
7 *230:8 *230:9 2.43321
8 *595:I *230:4 0.769915
9 *230:6 *230:3 2.4879
10 *696:Q *230:5 0.225033
*END

*D_NET *231 0.00280796

*CONN
*I *614:I I *C 48.3 46.4 *L 0.00104 *D DEL0
*I *700:Q O *C 39.9 40.4 *L 0 *D DFKCNQD1

*CAP
1 *700:Q 0.000440499
2 *231:2 0.000241048
3 *231:3 0.000654459
4 *231:4 0.00147196

*RES
1 *231:3 *231:4 4.00635
2 *231:2 *231:4 4.7301302
3 *614:I *231:2 0.954095
4 *700:Q *231:3 1.8799
*END

*D_NET *232 0.000367592

*CONN
*I *1003:Q O *C 37.1 42.4 *L 0 *D DFD1
*I *822:A1 I *C 36.7 41 *L 0.000654 *D OA32D0

*CAP
1 *822:A1 0.000367591992

*RES
1 *822:A1 *1003:Q 1.61368
*END

*D_NET *234 0.00132002

*CONN
*I *1002:Q O *C 28.1 42.4 *L 0 *D DFD1
*I *967:A2 I *C 29.1 40.8 *L 0.000658 *D CKXOR2D0
*I *872:B1 I *C 32.5 40.8 *L 0.000658 *D IND2D0
*I *738:B2 I *C 30.9 40.6 *L 0.000739 *D MOAI22D0

*CAP
1 *872:B1 0.000104714
2 *738:B2 0.000144511
3 *234:4 0.00028238
4 *234:5 0.00078842

*RES
1 *872:B1 *234:4 1.6967
2 *1002:Q *234:5 1.71035004
3 *234:4 *234:5 1.26055
4 *738:B2 *234:4 0.576032
5 *967:A2 *234:5 0.609281
*END

*D_NET *235 0.000562691

*CONN
*I *999:Q O *C 31.1 38.8 *L 0 *D DFD1
*I *916:A1 I *C 30.5 37 *L 0.000693 *D ND3D0

*CAP
1 *999:Q 3.98981e-06
2 *916:A1 0.000558700977

*RES
1 *916:A1 *999:Q 2.1474
*END

*D_NET *236 0.000961322

*CONN
*I *996:Q O *C 31.1 35.2 *L 0 *D DFD1
*I *916:A2 I *C 30.7 37 *L 0.000711 *D ND3D0
*I *889:A2 I *C 31.9 37.2 *L 0.0007 *D AOI32D0
*I *692:A1 I *C 32.3 35.6 *L 0.00101 *D OAI32D1

*CAP
1 *996:Q 8.16454e-05
2 *916:A2 0.000240853
3 *236:4 0.000551782031
4 *236:5 8.70424e-05

*RES
1 *692:A1 *236:4 1.33397
2 *236:4 *236:5 0.540109
3 *996:Q *236:5 0.334391
4 *889:A2 *236:4 1.41869998
5 *916:A2 *236:5 1.12377
*END

*D_NET *237 0.00257927

*CONN
*I *620:I I *C 30.1 28.4 *L 0.00104 *D DEL0
*I *994:Q O *C 35.3 35.2 *L 0 *D DFD1

*CAP
1 *620:I 0.000624232
2 *994:Q 2.69463e-06
3 *237:2 0.00120954
4 *237:3 0.000742815

*RES
1 *994:Q *237:3 2.84064
2 *237:2 *237:3 4.51089001
3 *620:I *237:2 2.96736
*END

*D_NET *238 0.0029363

*CONN
*I *910:B2 I *C 63.7 44.2 *L 0.000739 *D MOAI22D0
*I *910:A2 I *C 62.9 44.4 *L 0.000697 *D MOAI22D0
*I *905:B1 I *C 62.3 35.6 *L 0.000689 *D MOAI22D0
*I *905:A1 I *C 61.3 35.6 *L 0.000721 *D MOAI22D0
*I *711:Q O *C 63.9 37 *L 0 *D EDFKCNQD1

*CAP
1 *905:A1 0.000309551
2 *711:Q 0.000482525
3 *238:5 0.000191874
4 *238:6 0.000335768
5 *238:7 0.000765987969
6 *238:8 0.000293608
7 *238:9 0.000556991

*RES
1 *238:5 *238:7 2.62286997
2 *905:A1 *238:9 1.54496
3 *711:Q *238:7 1.97272
4 *238:8 *238:9 1.94054
5 *910:B2 *238:6 0.875597
6 *238:7 *238:8 1.16816
7 *238:5 *238:6 0.932348
8 *910:A2 *238:6 0.690617
9 *905:B1 *238:9 0.225003
*END

*D_NET *239 0.00233641

*CONN
*I *983:Q O *C 63.9 40.6 *L 0 *D EDFKCND1
*I *947:A1 I *C 63.9 50.2 *L 0.000617 *D CKND2D0
*I *760:A I *C 64.1 39.2 *L 0.00103 *D FA1D0

*CAP
1 *947:A1 2.10592e-05
2 *760:A 0.000335389
3 *239:3 0.000703116
4 *239:4 0.000981588984
5 *239:5 0.000295263

*RES
1 *239:3 *239:4 2.76929
2 *947:A1 *239:4 3.54608011
3 *760:A *239:5 1.55401
4 *239:3 *239:5 0.945823
5 *983:Q *239:5 0.224985
*END

*D_NET *240 0.00140415

*CONN
*I *601:I I *C 66.9 50 *L 0.00104 *D DEL0
*I *981:Q O *C 63.1 51.4 *L 0 *D EDFKCND1

*CAP
1 *601:I 0.000196414
2 *240:2 0.00120773008

*RES
1 *981:Q *240:2 1.40986
2 *601:I *240:2 3.6812799
*END

*D_NET *241 0.00344407

*CONN
*I *592:I I *C 66.7 57.2 *L 0.00104 *D DEL0
*I *709:Q O *C 60.5 50.2 *L 0 *D EDFKCNQD1

*CAP
1 *592:I 7.67678e-05
2 *709:Q 0.000429046
3 *241:3 0.00109179
4 *241:4 0.00113643
5 *241:5 0.000635385
6 *241:6 7.46522e-05

*RES
1 *241:5 *241:6 2.2321
2 *241:2 *241:3 0.159265
3 *592:I *241:6 0.675009
4 *241:3 *241:5 3.90811
5 *241:2 *241:4 4.01137018
6 *709:Q *241:4 1.6287
*END

*D_NET *242 0.00366407

*CONN
*I *593:I I *C 69.5 48 *L 0.00104 *D DEL0
*I *710:Q O *C 49.7 50.2 *L 0 *D EDFKCNQD1

*CAP
1 *710:Q 5.67954e-05
2 *242:2 0.000206631
3 *242:3 0.00189419
4 *242:4 0.00150645

*RES
1 *242:2 *242:4 7.15839
2 *710:Q *242:3 1.8527
3 *242:3 *242:4 7.36136007
4 *593:I *242:2 0.609927
*END

*D_NET *243 0.000754732

*CONN
*I *615:I I *C 55.5 40.8 *L 0.00104 *D DEL0
*I *698:Q O *C 53.9 39.6 *L 0 *D DFKCNQD1

*CAP
1 *698:Q 7.77538e-05
2 *243:2 0.000676976016

*RES
1 *698:Q *243:2 0.702052
2 *615:I *243:2 2.46278
*END

*D_NET *246 0.000852961

*CONN
*I *581:I I *C 66.5 39.2 *L 0.00104 *D DEL0
*I *982:Q O *C 69.5 37 *L 0 *D DFXD1

*CAP
1 *581:I 0.000509736016
2 *982:Q 8.29454e-05
3 *246:2 0.000260285

*RES
1 *982:Q *246:2 1.51379
2 *581:I *246:2 2.73170996
*END

*D_NET *247 0.00533416

*CONN
*I *586:I I *C 65.1 60.8 *L 0.00104 *D DEL0
*I *995:QN O *C 32.7 60.4 *L 0 *D DFD1

*CAP
1 *586:I 4.25461e-05
2 *247:2 0.00012948
3 *247:3 0.00079632
4 *247:4 0.000928492031
5 *247:5 0.000393584
6 *247:6 0.000590531
7 *247:7 7.70166e-05
8 *247:8 0.000892435
9 *247:9 0.000335609
10 *247:10 0.000313932
11 *247:11 0.00024237
12 *247:12 0.000422968
13 *247:2 *496:5 0.00016891

*RES
1 *247:8 *247:9 1.70888
2 *247:7 *247:8 2.68033
3 *247:6 *247:7 2.8038
4 *247:3 *247:12 3.32329
5 *247:2 *247:4 4.84841013
6 *586:I *247:2 0.609306
7 *247:4 *247:5 0.092846
8 *247:11 *247:12 2.4083
9 *247:10 *247:11 1.6386
10 *247:9 *247:10 1.76467
11 *247:5 *247:6 2.14293
12 *995:QN *247:3 0.224976
*END

*D_NET *248 0.000453863

*CONN
*I *955:ZN O *C 42.5 29.8 *L 0 *D CKND0
*I *785:A2 I *C 43.7 30.2 *L 0.000727 *D AOI221D0

*CAP
1 *248:2 0.000453863008

*RES
1 *955:ZN *248:2 0.449989
2 *785:A2 *248:2 1.64338005
*END

*D_NET *249 0.0035564

*CONN
*I *613:I I *C 30.5 55.2 *L 0.00104 *D DEL0
*I *992:QN O *C 38.7 64 *L 0 *D DFD1

*CAP
1 *613:I 0.000531516
2 *992:QN 0.000529334
3 *249:2 0.00164407
4 *249:3 0.00032051
5 *249:4 0.000527402
6 *249:5 3.58743e-06

*RES
1 *249:4 *249:5 2.02924
2 *249:2 *249:5 3.87026
3 *613:I *249:3 3.1792
4 *992:QN *249:4 2.05486
5 *249:2 *249:3 3.90362
*END

*D_NET *250 0.000440694

*CONN
*I *954:ZN O *C 44.3 32.2 *L 0 *D CKND0
*I *785:A1 I *C 44.3 30 *L 0.000675 *D AOI221D0

*CAP
1 *954:ZN 0.000440694023

*RES
1 *785:A1 *954:ZN 1.88738
*END

*D_NET *251 0.00323625

*CONN
*I *587:I I *C 57.5 68 *L 0.00104 *D DEL0
*I *1000:QN O *C 47.7 59.2 *L 0 *D DFD1

*CAP
1 *1000:QN 0.000373153
2 *251:2 0.000716701953
3 *251:3 0.000615695
4 *251:4 0.000530054
5 *251:5 0.000561879
6 *251:6 0.00043877

*RES
1 *251:4 *251:6 2.95749
2 *1000:QN *251:4 1.24391
3 *251:2 *251:3 2.29779
4 *587:I *251:2 3.02568007
5 *251:5 *251:6 2.26898
6 *251:3 *251:5 2.44114
*END

*D_NET *252 0.00595925

*CONN
*I *584:I I *C 59.9 55.2 *L 0.00103 *D DEL015
*I *993:QN O *C 48.3 55.6 *L 0 *D DFD1
*I *923:A1 I *C 48.1 53.8 *L 0.000617 *D CKND2D0
*I *875:A1 I *C 42.5 48 *L 0.00069 *D AOI21D0

*CAP
1 *993:QN 6.6742e-05
2 *923:A1 3.94636e-06
3 *875:A1 0.000440054
4 *252:4 5.56991e-05
5 *252:5 0.000487497
6 *252:6 0.000173986
7 *252:7 0.000351019
8 *252:8 0.00113432
9 *252:9 0.000499596
10 *252:7 *93:27 0.000321521016
11 *252:8 *753:A1 0.000984170938
12 *252:7 *230:2 0.000570873984
13 *252:5 *452:5 0.000203784004
14 *252:4 *437:5 0.000666056016

*RES
1 *252:4 *252:8 0.814024
2 *252:7 *252:9 4.88122
3 *252:6 *252:9 2.01109
4 *252:5 *252:8 10.6504002
5 *584:I *252:5 1.29831
6 *875:A1 *252:7 2.19717
7 *252:4 *252:6 1.23769
8 *923:A1 *252:6 0.754219
9 *993:QN *252:4 0.921607
*END

*D_NET *253 0.00509278

*CONN
*I *598:I I *C 64.7 40.8 *L 0.00104 *D DEL0
*I *1001:QN O *C 36.3 42.4 *L 0 *D DFD1

*CAP
1 *598:I 0.000573367
2 *1001:QN 0.000184652
3 *253:2 0.0016415
4 *253:3 0.000471297
5 *598:I *23:3 0.000501559023
6 *1001:QN *25:4 0.000626550977
7 *253:2 *17:28 0.000231104004
8 *253:2 *47:4 0.000862752031

*RES
1 *253:3 *253:2 18.8062992
2 *598:I *253:3 2.49513
3 *1001:QN *253:2 0.871789
*END

*D_NET *254 0.00274903

*CONN
*I *618:I I *C 44.9 32 *L 0.00104 *D DEL0
*I *994:QN O *C 34.9 35.2 *L 0 *D DFD1

*CAP
1 *618:I 9.31146e-05
2 *994:QN 7.45551e-06
3 *254:2 4.95316e-05
4 *254:3 0.00259892016

*RES
1 *254:2 *254:3 7.84610987
2 *618:I *254:2 0.590948
3 *994:QN *254:3 2.64119
*END

*D_NET *255 0.000586708

*CONN
*I *986:QN O *C 38.7 54 *L 0 *D EDFKCND1
*I *908:A2 I *C 39.3 55.2 *L 0.000606 *D CKND2D0

*CAP
1 *986:QN 0.000586708008

*RES
1 *986:QN *908:A2 1.89252
*END

*D_NET *256 0.00582585

*CONN
*I *603:I I *C 60.7 33.6 *L 0.00104 *D DEL0
*I *999:QN O *C 31.5 38.8 *L 0 *D DFD1

*CAP
1 *603:I 0.000551884
2 *256:2 0.000669844
3 *256:3 0.000339525
4 *256:4 0.000562432
5 *256:5 0.000238918
6 *256:6 0.000319904
7 *256:7 0.000155581
8 *256:8 0.000459241
9 *256:9 0.00108514
10 *256:2 *163:5 0.000180143008
11 *256:3 *485:7 0.000819348984
12 *256:3 *711:CN 0.000443906016

*RES
1 *603:I *256:3 2.67636
2 *256:8 *256:9 1.51437
3 *256:7 *256:8 2.40305
4 *256:6 *256:7 2.60719
5 *256:2 *256:6 0.663551
6 *256:5 *256:2 3.15135
7 *256:3 *256:5 2.75119
8 *256:4 *256:9 8.44069958
9 *999:QN *256:4 0.225005
*END

*D_NET *257 0.00174027

*CONN
*I *609:I I *C 33.9 50 *L 0.00104 *D DEL0
*I *1003:QN O *C 36.7 42.4 *L 0 *D DFD1

*CAP
1 *1003:QN 8.87943e-05
2 *257:2 0.000447385
3 *257:3 0.000793337969
4 *257:4 0.000386337
5 *257:5 2.44048e-05

*RES
1 *1003:QN *257:5 0.449984
2 *257:3 *257:5 1.93185
3 *257:2 *257:4 1.64997
4 *609:I *257:2 2.35695004
5 *257:3 *257:4 1.15298
*END

*D_NET *258 0.00646883

*CONN
*I *600:I I *C 62.5 35.6 *L 0.00104 *D DEL0
*I *996:QN O *C 31.5 35.2 *L 0 *D DFD1

*CAP
1 *258:2 0.000543713
2 *258:3 0.000154532
3 *258:4 0.000140559
4 *258:5 5.9455e-05
5 *258:6 0.000294655
6 *258:7 0.00150614
7 *258:8 0.000240578
8 *258:3 *905:B2 0.000623511016
9 *258:7 *735:B1 0.000226345996
10 *258:2 *27:2 0.000417068008
11 *258:2 *692:B1 0.000805877969
12 *258:5 *442:2 0.00124311992
13 *258:2 *692:A3 0.000213288984

*RES
1 *600:I *258:3 1.44793
2 *258:7 *258:8 1.46993
3 *258:6 *258:7 9.36365032
4 *258:5 *258:6 2.65824
5 *258:3 *258:4 1.3492
6 *258:2 *258:8 4.2419
7 *258:4 *258:5 4.79127
8 *996:QN *258:2 0.225033
*END

*D_NET *259 0.00445692

*CONN
*I *605:I I *C 47.9 37.2 *L 0.00104 *D DEL0
*I *1002:QN O *C 27.7 42.4 *L 0 *D DFD1

*CAP
1 *605:I 0.000173145
2 *1002:QN 5.65167e-05
3 *259:2 0.00120803
4 *259:3 0.000233477
5 *259:4 0.000552466
6 *259:5 0.00044347
7 *259:6 0.00091282
8 *259:7 0.000877004

*RES
1 *1002:QN *259:2 2.81838
2 *259:5 *259:6 3.41501
3 *259:4 *259:5 2.02725
4 *259:3 *259:4 2.34879
5 *259:2 *259:6 3.93290997
6 *259:3 *259:7 2.23765
7 *605:I *259:7 2.81784
*END

*D_NET *260 0.000632179

*CONN
*I *985:QN O *C 48.9 51.2 *L 0 *D EDFKCND1
*I *923:A2 I *C 47.7 53.6 *L 0.000606 *D CKND2D0

*CAP
1 *923:A2 0.000300498
2 *260:2 0.00033168

*RES
1 *985:QN *260:2 1.20612
2 *923:A2 *260:2 1.37440002
*END

*D_NET *261 0.000783325

*CONN
*I *983:QN O *C 64.5 40.4 *L 0 *D EDFKCND1
*I *921:A2 I *C 63.1 42.8 *L 0.000606 *D CKND2D0

*CAP
1 *983:QN 5.07756e-05
2 *921:A2 2.75034e-05
3 *261:2 3.52404e-05
4 *261:3 0.000669802031

*RES
1 *921:A2 *261:2 0.311026
2 *261:2 *261:3 2.35592008
3 *983:QN *261:3 0.450003
*END

*D_NET *262 0.00557005

*CONN
*I *583:I I *C 69.3 57.2 *L 0.00104 *D DEL0
*I *997:QN O *C 36.9 55.6 *L 0 *D DFD1

*CAP
1 *997:QN 2.27639e-05
2 *262:2 0.00406494
3 *262:3 0.000318261
4 *262:4 0.000751705
5 *262:2 *470:6 0.000229234004
6 *262:2 *993:CP 0.00018317

*RES
1 *262:2 *262:4 20.0018997
2 *262:3 *262:4 2.47063
3 *583:I *262:3 1.24981
4 *997:QN *262:2 0.684574
*END

*D_NET *263 0.00103784

*CONN
*I *607:I I *C 66.7 33.6 *L 0.00104 *D DEL0
*I *982:QN O *C 69.9 37.6 *L 0 *D DFXD1

*CAP
1 *263:2 0.000533216016
2 *263:3 0.000119889
3 *263:4 0.000384736

*RES
1 *263:2 *263:4 2.43747997
2 *263:3 *263:4 2.24196
3 *982:QN *263:3 0.225018
4 *607:I *263:2 0.225018
*END

*D_NET *264 0.00548836

*CONN
*I *585:I I *C 60.1 66 *L 0.00104 *D DEL0
*I *998:QN O *C 33.5 56.8 *L 0 *D DFD1

*CAP
1 *998:QN 0.000479479
2 *264:2 0.000361893
3 *264:3 0.000107883
4 *264:4 0.000266199
5 *264:5 0.000217008
6 *264:6 0.000380696
7 *264:7 0.00119751
8 *264:8 1.37046e-05
9 *264:9 3.21236e-05
10 *264:10 0.000908014
11 *264:11 0.000256313
12 *264:12 0.000195337
13 *264:12 *972:I 0.000188272988
14 *264:2 *36:2 0.000163246006
15 *998:QN *182:10 0.000259790996
16 *264:3 *40:3 0.000281293008
17 *264:4 *191:7 0.000179585

*RES
1 *264:11 *264:12 2.05245
2 *264:9 *264:10 3.59552
3 *264:8 *264:4 2.93235
4 *264:7 *264:8 0.0928403
5 *264:6 *264:7 6.22125006
6 *264:5 *264:6 1.89079
7 *264:3 *264:2 2.3548
8 *264:10 *264:11 2.2295
9 *264:4 *264:9 0.0928403
10 *264:2 *264:5 1.48677
11 *998:QN *264:12 2.58519
12 *585:I *264:3 0.449962
*END

*D_NET *265 0.00133738

*CONN
*I *981:QN O *C 63.7 51.2 *L 0 *D EDFKCND1
*I *922:A1 I *C 60.9 53.8 *L 0.000617 *D CKND2D0

*CAP
1 *981:QN 0.00020841
2 *265:2 0.00112896

*RES
1 *981:QN *265:2 0.515741
2 *922:A1 *265:2 3.71506
*END

*D_NET *266 0.00229009

*CONN
*I *942:ZN O *C 53.7 71.8 *L 0 *D CKND0
*I *862:B1 I *C 48.1 71.6 *L 0.000712 *D AOI32D0
*I *705:B1 I *C 52.3 69.6 *L 0.000684 *D OAI32D0

*CAP
1 *705:B1 0.000751876016
2 *266:3 0.000337888
3 *266:4 0.000155928
4 *266:5 0.000678117
5 *266:6 0.000366284

*RES
1 *266:4 *266:5 3.27102
2 *266:3 *266:4 0.965794
3 *705:B1 *266:4 3.44103003
4 *942:ZN *266:3 1.4582
5 *266:5 *266:6 2.56507
6 *862:B1 *266:6 0.449976
*END

*D_NET *267 0.0035705

*CONN
*I *988:QN O *C 64.9 44.8 *L 0 *D DFD1
*I *924:A1 I *C 57.3 35.6 *L 0.000647 *D NR2D0
*I *876:A1 I *C 57.3 37.2 *L 0.00069 *D AOI21D0

*CAP
1 *988:QN 0.000147902
2 *924:A1 0.000419293
3 *267:3 0.00127991
4 *267:4 0.000832747
5 *267:5 0.000847473
6 *267:6 4.32007e-05

*RES
1 *924:A1 *267:5 1.86324
2 *267:4 *267:6 3.35105991
3 *267:4 *267:5 2.90641
4 *267:3 *267:6 2.39528
5 *988:QN *267:3 2.92972
6 *876:A1 *267:5 0.450023
*END

*D_NET *268 0.00562067

*CONN
*I *582:I I *C 68.9 44.4 *L 0.00104 *D DEL0
*I *935:ZN O *C 38.5 46.8 *L 0 *D CKND2D0

*CAP
1 *582:I 0.000256843
2 *268:2 0.00121655
3 *268:3 0.000830302
4 *268:4 0.000279434
5 *268:5 4.91929e-06
6 *268:6 0.000374163
7 *268:7 5.10864e-05
8 *268:8 0.00053702
9 *268:9 0.000238484
10 *268:2 *935:A2 0.000542815977
11 *268:4 *165:4 0.000282840996
12 *582:I *64:6 0.000493195
13 *268:9 *906:A1 0.000218005996
14 *268:4 *495:2 0.00029501

*RES
1 *268:7 *268:8 3.56285
2 *268:5 *268:6 3.94105
3 *268:8 *268:9 1.34673
4 *268:6 *268:7 0.0927923
5 *268:4 *268:5 2.14304
6 *935:ZN *268:2 0.544969
7 *268:3 *268:4 3.50838
8 *268:2 *268:9 6.49010992
9 *582:I *268:3 2.88131
*END

*D_NET *269 0.000960702

*CONN
*I *920:ZN O *C 30.9 46.6 *L 0 *D CKND0
*I *821:CI I *C 28.7 47.8 *L 0.001 *D FA1D0

*CAP
1 *920:ZN 0.000256599
2 *269:2 0.000704106953

*RES
1 *821:CI *269:2 1.40982
2 *920:ZN *269:2 2.15275002
*END

*D_NET *270 0.00300559

*CONN
*I *604:I I *C 63.1 55.2 *L 0.00104 *D DEL0
*I *987:QN O *C 49.7 55.6 *L 0 *D DFXD1

*CAP
1 *987:QN 3.7629e-06
2 *270:2 0.000879643
3 *270:3 0.00185415
4 *270:4 0.000268015

*RES
1 *270:2 *270:4 2.9503
2 *604:I *270:2 0.770819
3 *270:3 *270:4 8.20604038
4 *987:QN *270:3 0.350976
*END

*D_NET *271 0.000481355

*CONN
*I *941:ZN O *C 38.3 28.6 *L 0 *D NR2D0
*I *919:I I *C 38.7 28.6 *L 0.00062 *D CKND0
*I *894:B I *C 38.7 30 *L 0.00072 *D AOI21D0

*CAP
1 *941:ZN 1.76365e-06
2 *919:I 0.000479588984

*RES
1 *941:ZN *919:I 0.205102
2 *919:I *894:B 1.93543005
*END

*D_NET *272 0.000356614

*CONN
*I *919:ZN O *C 39.1 28.6 *L 0 *D CKND0
*I *847:A1 I *C 39.7 28.4 *L 0.00069 *D AOI21D0

*CAP
1 *847:A1 0.000356613984

*RES
1 *847:A1 *919:ZN 1.58642
*END

*D_NET *273 0.000619785

*CONN
*I *943:ZN O *C 51.1 43.2 *L 0 *D CKND2D0
*I *918:I I *C 52.7 44.2 *L 0.00062 *D CKND0
*I *897:B I *C 52.1 42.8 *L 0.00073 *D OAI21D0

*CAP
1 *943:ZN 0.000189622
2 *918:I 0.00025077998
3 *897:B 6.04e-05
4 *273:3 0.000118982

*RES
1 *918:I *273:3 1.52558005
2 *943:ZN *273:3 0.990477
3 *897:B *273:3 0.618114
*END

*D_NET *274 0.000648405

*CONN
*I *918:ZN O *C 53.1 44.2 *L 0 *D CKND0
*I *820:CI I *C 53.1 47.8 *L 0.001 *D FA1D0

*CAP
1 *274:2 0.000648405

*RES
1 *820:CI *274:2 2.32414007
2 *918:ZN *274:2 0.225016
*END

*D_NET *275 0.00120817

*CONN
*I *965:A2 I *C 35.7 32.2 *L 0.000661 *D XNR2D0
*I *909:ZN O *C 36.3 29.8 *L 0 *D NR2D0
*I *880:B I *C 35.1 30 *L 0.00072 *D AOI21D0

*CAP
1 *880:B 0.00030495
2 *275:4 0.00090323

*RES
1 *880:B *275:4 1.6317
2 *275:3 *275:4 2.09676003
3 *909:ZN *275:4 1.17924
4 *965:A2 *275:3 0.225014
*END

*D_NET *276 0.000674133

*CONN
*I *966:A1 I *C 56.1 35.6 *L 0.00136 *D XNR2D0
*I *924:ZN O *C 57.3 35.8 *L 0 *D NR2D0
*I *876:B I *C 57.1 37.2 *L 0.00072 *D AOI21D0

*CAP
1 *924:ZN 0.00020638
2 *276:3 0.000467754023

*RES
1 *924:ZN *966:A1 1.20184
2 *876:B *276:3 1.72977996
3 *924:ZN *276:3 0.225012
*END

*D_NET *277 0.000999265

*CONN
*I *926:ZN O *C 51.7 46.6 *L 0 *D NR2D0
*I *903:I I *C 53.1 43 *L 0.00062 *D CKND0
*I *877:B I *C 51.9 44.4 *L 0.00072 *D AOI21D0

*CAP
1 *926:ZN 1.64556e-05
2 *903:I 0.000229907
3 *877:B 0.000109069
4 *277:3 0.000643831016

*RES
1 *877:B *277:3 0.778084
2 *926:ZN *277:3 1.01672
3 *903:I *277:3 2.45900989
*END

*D_NET *278 0.000721856

*CONN
*I *925:ZN O *C 37.1 33.4 *L 0 *D NR2D0
*I *902:I I *C 38.1 32.2 *L 0.00062 *D CKND0
*I *881:B I *C 38.1 33.6 *L 0.00072 *D AOI21D0

*CAP
1 *925:ZN 0.00025115002
2 *902:I 0.00024782
3 *278:3 0.000222887

*RES
1 *925:ZN *278:3 0.885235
2 *902:I *278:3 1.03298998
3 *881:B *278:3 0.988998
*END

*D_NET *279 0.000633534

*CONN
*I *907:ZN O *C 48.1 47.8 *L 0 *D NR2D0
*I *901:I I *C 46.3 47.8 *L 0.00062 *D CKND0
*I *885:B I *C 46.9 48 *L 0.00072 *D AOI21D0

*CAP
1 *901:I 0.000126342
2 *279:3 0.000143771
3 *279:4 0.00036342

*RES
1 *907:ZN *279:4 1.40118003
2 *901:I *279:3 0.63754
3 *885:B *279:3 0.775699
4 *279:3 *279:4 0.225006
*END

*D_NET *280 0.000193682

*CONN
*I *900:ZN O *C 39.9 45 *L 0 *D OAI21D0
*I *732:A2 I *C 40.9 44.4 *L 0.000697 *D MOAI22D0

*CAP
1 *900:ZN 0.000193681992

*RES
1 *732:A2 *900:ZN 1.08631
*END

*D_NET *281 0.000788646

*CONN
*I *899:ZN O *C 42.7 35 *L 0 *D OAI21D0
*I *735:A2 I *C 41.3 35.6 *L 0.000697 *D MOAI22D0

*CAP
1 *899:ZN 2.232e-06
2 *281:2 0.000786418984

*RES
1 *899:ZN *281:2 0.449985
2 *735:A2 *281:2 2.56392002
*END

*D_NET *282 0.00298156

*CONN
*I *611:I I *C 57.9 44.4 *L 0.00104 *D DEL0
*I *989:QN O *C 52.9 52 *L 0 *D DFD1

*CAP
1 *611:I 0.00039235
2 *282:2 0.000846768
3 *282:3 0.00028297
4 *282:4 0.00141777
5 *282:5 4.17099e-05

*RES
1 *282:4 *282:5 4.77199984
2 *282:2 *282:3 3.12369
3 *282:3 *282:5 1.31351
4 *611:I *282:2 1.68654
5 *989:QN *282:4 0.224998
*END

*D_NET *283 0.000732546

*CONN
*I *898:ZN O *C 51.7 54 *L 0 *D AOI22D0
*I *753:A2 I *C 50.7 53.6 *L 0.000697 *D MOAI22D0

*CAP
1 *898:ZN 0.000170671
2 *753:A2 0.000164837
3 *283:2 0.000397036992

*RES
1 *753:A2 *283:2 0.674996
2 *898:ZN *283:2 1.82606995
*END

*D_NET *284 0.00066087

*CONN
*I *897:ZN O *C 52.1 42.2 *L 0 *D OAI21D0
*I *730:A2 I *C 52.7 40.8 *L 0.000697 *D MOAI22D0

*CAP
1 *897:ZN 0.000463265
2 *730:A2 0.000197606

*RES
1 *730:A2 *897:ZN 2.5396
*END

*D_NET *285 0.00200044

*CONN
*I *950:ZN O *C 44.1 36 *L 0 *D CKND2D0
*I *899:B I *C 42.7 35.6 *L 0.00073 *D OAI21D0
*I *896:A1 I *C 45.9 33.6 *L 0.000647 *D NR2D0
*I *724:A1 I *C 47.7 33.6 *L 0.000645 *D AOI211D0

*CAP
1 *950:ZN 5.24913e-05
2 *899:B 0.000460169
3 *724:A1 0.000509993
4 *285:4 4.29915e-05
5 *285:5 0.000934786953

*RES
1 *950:ZN *285:4 0.559387
2 *724:A1 *285:5 2.76533008
3 *285:4 *285:5 2.40578
4 *899:B *285:4 2.06311
5 *896:A1 *285:5 1.18489
*END

*D_NET *286 0.00115326

*CONN
*I *948:ZN O *C 31.1 57.4 *L 0 *D NR2D0
*I *893:B1 I *C 27.7 57.2 *L 0.000651 *D INR2D0
*I *824:A2 I *C 28.9 57.2 *L 0.000651 *D OAI21D0

*CAP
1 *893:B1 0.000289124
2 *824:A2 0.000109864
3 *286:3 0.000117385
4 *286:4 0.000636878008

*RES
1 *893:B1 *286:4 1.3008
2 *286:3 *286:4 2.13336992
3 *824:A2 *286:4 0.760658
4 *948:ZN *286:3 0.225004
*END

*D_NET *287 0.000987216

*CONN
*I *946:ZN O *C 31.7 57.6 *L 0 *D CKND2D0
*I *893:A1 I *C 28.3 57.2 *L 0.00069 *D INR2D0
*I *824:B I *C 29.5 57.2 *L 0.00073 *D OAI21D0

*CAP
1 *946:ZN 0.000130019
2 *824:B 6.00406e-05
3 *287:3 0.000797155938

*RES
1 *824:B *287:3 0.675009
2 *946:ZN *287:3 2.27382994
3 *893:A1 *287:3 1.41004
*END

*D_NET *288 0.00125579

*CONN
*I *936:ZN O *C 53.3 57.6 *L 0 *D CKND2D0
*I *892:B1 I *C 53.3 58.8 *L 0.000658 *D IND2D0
*I *863:B I *C 55.1 58.8 *L 0.00073 *D OAI21D0

*CAP
1 *936:ZN 0.000279758
2 *288:3 0.000322976
3 *288:4 0.000653058008

*RES
1 *936:ZN *288:3 1.2004
2 *288:3 *288:4 2.61595011
3 *892:B1 *288:3 0.745715
4 *863:B *288:4 0.450016
*END

*D_NET *289 0.00125298

*CONN
*I *945:ZN O *C 52.3 57.4 *L 0 *D NR2D0
*I *892:A1 I *C 52.7 58.8 *L 0.000681 *D IND2D0
*I *863:A1 I *C 54.9 58.8 *L 0.0007 *D OAI21D0

*CAP
1 *945:ZN 0.000405695
2 *863:A1 0.000221154
3 *289:3 0.00011865
4 *289:4 0.000507486992

*RES
1 *863:A1 *289:4 2.59512997
2 *892:A1 *289:3 0.351041
3 *945:ZN *289:3 1.7798
4 *289:3 *289:4 0.224999
*END

*D_NET *290 0.00113158

*CONN
*I *939:ZN O *C 56.9 57.4 *L 0 *D NR2D0
*I *891:B1 I *C 55.7 57.2 *L 0.000651 *D INR2D0
*I *825:A2 I *C 57.5 57.2 *L 0.000651 *D OAI21D0

*CAP
1 *939:ZN 0.000210037
2 *825:A2 0.000180187
3 *290:3 0.000663811953
4 *290:4 7.75486e-05

*RES
1 *290:3 *290:4 1.84484005
2 *825:A2 *290:4 0.450006
3 *939:ZN *290:3 1.68008
4 *891:B1 *290:3 0.450006
*END

*D_NET *291 0.00117086

*CONN
*I *933:ZN O *C 59.3 57.6 *L 0 *D CKND2D0
*I *891:A1 I *C 56.3 57.2 *L 0.00069 *D INR2D0
*I *825:B I *C 58.1 57.2 *L 0.00073 *D OAI21D0

*CAP
1 *933:ZN 0.000221333
2 *825:B 7.02265e-05
3 *291:3 0.000879306953

*RES
1 *891:A1 *291:3 1.82916999
2 *933:ZN *291:3 1.66681
3 *825:B *291:3 0.674998
*END

*D_NET *292 0.00086525

*CONN
*I *934:ZN O *C 32.3 62.2 *L 0 *D NR2D0
*I *890:B1 I *C 33.3 64.4 *L 0.000651 *D INR2D0
*I *871:A1 I *C 31.3 62.4 *L 0.0007 *D OAI21D0

*CAP
1 *871:A1 0.000264411
2 *292:3 0.000600839023

*RES
1 *890:B1 *292:3 2.35133004
2 *871:A1 *292:3 1.5821
3 *934:ZN *292:3 0.449988
*END

*D_NET *293 0.00102328

*CONN
*I *944:ZN O *C 31.1 61.2 *L 0 *D CKND2D0
*I *890:A1 I *C 32.7 64.4 *L 0.00069 *D INR2D0
*I *871:B I *C 31.1 62.4 *L 0.00073 *D OAI21D0

*CAP
1 *944:ZN 0.000191708
2 *890:A1 3.38799e-05
3 *293:3 0.000701522031
4 *293:4 9.61696e-05

*RES
1 *890:A1 *293:4 0.450009
2 *944:ZN *293:3 1.23946
3 *293:3 *293:4 2.88118005
4 *871:B *293:3 0.450009
*END

*D_NET *294 0.000832508

*CONN
*I *889:ZN O *C 31.5 37.8 *L 0 *D AOI32D0
*I *706:B2 I *C 28.7 37.2 *L 0.000718 *D OAI22D0

*CAP
1 *706:B2 0.000725832969
2 *294:2 0.000106679

*RES
1 *889:ZN *294:2 0.450008
2 *706:B2 *294:2 2.91766
*END

*D_NET *295 0.00128965

*CONN
*I *597:I I *C 65.7 55.2 *L 0.00104 *D DEL0
*I *984:QN O *C 62.5 53.2 *L 0 *D DFXD1

*CAP
1 *984:QN 0.000954276953
2 *295:2 0.000335377

*RES
1 *984:QN *295:2 3.39520001
2 *597:I *295:2 1.11307
*END

*D_NET *296 0.000937398

*CONN
*I *599:I I *C 66.9 48 *L 0.00104 *D DEL0
*I *990:QN O *C 64.5 46 *L 0 *D DFD1

*CAP
1 *599:I 0.000237188
2 *990:QN 3.54418e-05
3 *296:2 0.000664762031

*RES
1 *599:I *296:2 3.19601011
2 *990:QN *296:2 1.10102
*END

*D_NET *297 0.00229131

*CONN
*I *937:ZN O *C 37.7 54.8 *L 0 *D CKND2D0
*I *869:A2 I *C 32.5 58.8 *L 0.000606 *D CKND2D0
*I *799:B I *C 33.9 58.8 *L 0.000669 *D IOA21D0

*CAP
1 *937:ZN 3.4022e-05
2 *869:A2 3.60372e-06
3 *799:B 0.000207665
4 *297:3 0.000310015
5 *297:4 0.000182249
6 *297:5 0.00155375

*RES
1 *297:4 *297:5 3.10509992
2 *869:A2 *297:3 1.26372
3 *799:B *297:3 1.32603
4 *937:ZN *297:4 0.716102
5 *297:3 *297:5 2.8519
*END

*D_NET *298 0.002511

*CONN
*I *908:ZN O *C 39.9 54.8 *L 0 *D CKND2D0
*I *869:A1 I *C 32.1 58.6 *L 0.000617 *D CKND2D0
*I *799:A2 I *C 33.3 58.8 *L 0.000712 *D IOA21D0

*CAP
1 *908:ZN 0.000906847
2 *298:3 0.000980017031
3 *298:4 0.000624124

*RES
1 *869:A1 *298:4 1.36314
2 *799:A2 *298:4 0.609939
3 *298:3 *298:4 4.81718016
4 *908:ZN *298:3 3.09314
*END

*D_NET *299 0.00251867

*CONN
*I *960:B I *C 44.7 62.4 *L 0.000669 *D IOA21D0
*I *940:ZN O *C 46.1 54 *L 0 *D CKND2D0
*I *868:A2 I *C 45.7 62.4 *L 0.000606 *D CKND2D0

*CAP
1 *960:B 0.000445215
2 *940:ZN 0.000360069
3 *299:3 0.000339522
4 *299:4 0.00107206
5 *299:5 0.000301816

*RES
1 *299:4 *299:5 3.24751997
2 *868:A2 *299:3 0.592904
3 *299:3 *299:5 1.7578
4 *940:ZN *299:4 2.90516
5 *960:B *299:3 1.39448
*END

*D_NET *300 0.00272944

*CONN
*I *960:A2 I *C 44.1 62.4 *L 0.000712 *D IOA21D0
*I *923:ZN O *C 48.3 54 *L 0 *D CKND2D0
*I *868:A1 I *C 45.3 62.2 *L 0.000617 *D CKND2D0

*CAP
1 *960:A2 3.31858e-05
2 *923:ZN 0.00124346992
3 *868:A1 0.000113883
4 *300:3 0.000883493
5 *300:4 0.000455417

*RES
1 *868:A1 *300:4 1.2235
2 *300:3 *300:4 1.2618
3 *960:A2 *300:4 1.35166
4 *923:ZN *300:3 6.83981991
*END

*D_NET *301 0.00140752

*CONN
*I *938:ZN O *C 62.3 54.8 *L 0 *D CKND2D0
*I *867:A2 I *C 60.1 57.2 *L 0.000606 *D CKND2D0
*I *800:B I *C 61.3 57.2 *L 0.000669 *D IOA21D0

*CAP
1 *301:3 0.000147265
2 *301:4 0.00126025

*RES
1 *938:ZN *301:4 2.95278001
2 *301:3 *301:4 1.33451
3 *800:B *301:4 0.225009
4 *867:A2 *301:3 0.450018
*END

*D_NET *302 0.00141282

*CONN
*I *922:ZN O *C 60.7 54 *L 0 *D CKND2D0
*I *867:A1 I *C 59.7 57.4 *L 0.000617 *D CKND2D0
*I *800:A2 I *C 60.7 57.2 *L 0.000712 *D IOA21D0

*CAP
1 *922:ZN 0.000577221
2 *867:A1 0.000217755
3 *302:3 0.000617855

*RES
1 *867:A1 *302:3 2.54094
2 *922:ZN *302:3 2.54649997
3 *800:A2 *302:3 0.225018
*END

*D_NET *303 0.00195316

*CONN
*I *947:ZN O *C 64.1 50.4 *L 0 *D CKND2D0
*I *866:A2 I *C 62.3 57.2 *L 0.000606 *D CKND2D0
*I *784:B I *C 63.9 57.2 *L 0.000669 *D IOA21D0

*CAP
1 *947:ZN 0.000369082
2 *866:A2 0.000559654
3 *303:3 0.000830396016
4 *303:4 0.000194044

*RES
1 *303:3 *303:4 3.20635009
2 *947:ZN *303:3 1.85289
3 *866:A2 *303:4 2.53128
4 *784:B *303:4 0.225006
*END

*D_NET *304 0.00340769

*CONN
*I *921:ZN O *C 62.5 43.2 *L 0 *D CKND2D0
*I *866:A1 I *C 61.9 57.4 *L 0.000617 *D CKND2D0
*I *784:A2 I *C 63.3 57.2 *L 0.000712 *D IOA21D0

*CAP
1 *921:ZN 0.000939745
2 *866:A1 0.000178645
3 *304:3 0.00109940008
4 *304:4 0.000690977
5 *304:5 0.000103439
6 *304:6 0.000395489

*RES
1 *304:5 *304:6 1.32351
2 *304:4 *304:5 2.75602
3 *866:A1 *304:6 0.674975
4 *304:3 *304:4 2.22173
5 *921:ZN *304:3 5.44901991
6 *784:A2 *304:5 0.224992
*END

*D_NET *305 0.00147151

*CONN
*I *862:ZN O *C 49.1 71 *L 0 *D AOI32D0
*I *694:A2 I *C 51.3 69.6 *L 0.000705 *D OAI22D0

*CAP
1 *305:2 5.8679e-05
2 *305:3 0.000769720938
3 *305:4 0.000643108

*RES
1 *305:2 *305:4 2.72819996
2 *305:2 *305:3 2.68257
3 *862:ZN *305:4 0.225005
4 *694:A2 *305:3 0.45001
*END

*D_NET *306 0.000854493

*CONN
*I *891:ZN O *C 55.7 56.6 *L 0 *D INR2D0
*I *861:I I *C 55.7 61 *L 0.00062 *D CKND0
*I *835:A2 I *C 56.1 60.8 *L 0.000664 *D NR2D0

*CAP
1 *891:ZN 0.000215004
2 *861:I 0.000634953984
3 *835:A2 4.53435e-06

*RES
1 *861:I *891:ZN 3.18415999
2 *861:I *835:A2 0.361046
*END

*D_NET *307 0.000534754

*CONN
*I *861:ZN O *C 55.3 61 *L 0 *D CKND0
*I *844:A2 I *C 55.1 62.4 *L 0.000664 *D NR2D0

*CAP
1 *861:ZN 0.000524802031
2 *844:A2 9.9539e-06

*RES
1 *861:ZN *844:A2 1.72483
*END

*D_NET *308 0.000675415

*CONN
*I *893:ZN O *C 27.7 56.6 *L 0 *D INR2D0
*I *860:I I *C 27.5 61 *L 0.00062 *D CKND0
*I *834:A2 I *C 27.7 58.8 *L 0.000664 *D NR2D0

*CAP
1 *893:ZN 4.58456e-05
2 *860:I 0.000143405
3 *308:3 0.000486163984

*RES
1 *893:ZN *308:3 1.72502
2 *860:I *308:3 1.76196003
3 *834:A2 *308:3 0.225004
*END

*D_NET *309 8.3144e-05

*CONN
*I *860:ZN O *C 27.9 61 *L 0 *D CKND0
*I *845:A2 I *C 28.7 60.8 *L 0.000664 *D NR2D0

*CAP
1 *860:ZN 8.31440039e-05

*RES
1 *860:ZN *845:A2 0.627264
*END

*D_NET *310 0.000639094

*CONN
*I *1004:A2 I *C 32.1 66 *L 0.000585 *D CKAN2D0
*I *890:ZN O *C 33.3 63.8 *L 0 *D INR2D0
*I *848:A1 I *C 33.5 66 *L 0.000647 *D NR2D0

*CAP
1 *1004:A2 0.000327605996
2 *890:ZN 0.000175403
3 *310:3 0.000136086

*RES
1 *890:ZN *310:3 1.09673
2 *848:A1 *310:3 0.460427
3 *1004:A2 *310:3 1.78812003
*END

*D_NET *311 0.0028018

*CONN
*I *958:ZN O *C 28.7 28.6 *L 0 *D CKND0
*I *864:A2 I *C 39.3 30 *L 0.000606 *D CKND2D0
*I *855:B1 I *C 40.9 28.4 *L 0.000698 *D IND3D0
*I *846:A2 I *C 40.5 30 *L 0.000657 *D OA21D0

*CAP
1 *958:ZN 0.000156228
2 *855:B1 0.000269403
3 *311:4 0.000279739
4 *311:5 0.000882015
5 *311:6 0.00014102
6 *311:7 0.000647982
7 *311:8 0.000425402

*RES
1 *311:6 *311:7 2.54856
2 *311:4 *311:8 0.981331
3 *864:A2 *311:8 1.00822
4 *311:6 *311:8 0.740164
5 *311:5 *311:7 4.68716002
6 *855:B1 *311:4 1.061
7 *846:A2 *311:4 0.96667
8 *958:ZN *311:5 0.477041
*END

*D_NET *312 0.00123486

*CONN
*I *871:ZN O *C 31.1 63 *L 0 *D OAI21D0
*I *854:I I *C 29.1 58.6 *L 0.00062 *D CKND0
*I *845:A1 I *C 29.1 60.8 *L 0.000647 *D NR2D0

*CAP
1 *871:ZN 0.000120246
2 *854:I 0.000342469
3 *312:3 0.000506675
4 *312:4 0.00026548

*RES
1 *312:3 *312:4 1.81136
2 *871:ZN *312:4 1.45838
3 *854:I *312:3 1.50614
4 *845:A1 *312:3 0.449993
*END

*D_NET *313 0.00295461

*CONN
*I *895:ZN O *C 45.9 67.6 *L 0 *D ND3D0
*I *858:A1 I *C 39.9 62.4 *L 0.000647 *D NR2D0
*I *853:A1 I *C 41.5 60.8 *L 0.000647 *D NR2D0
*I *736:A2 I *C 42.7 62.4 *L 0.000712 *D IOA21D0

*CAP
1 *858:A1 0.000451062
2 *853:A1 0.000476663
3 *736:A2 0.000179922
4 *313:4 0.000578668
5 *313:5 0.000579932969
6 *313:6 0.000229354
7 *313:7 0.000459017

*RES
1 *313:6 *313:7 0.772908
2 *858:A1 *313:6 2.01729
3 *313:5 *313:7 1.66115
4 *313:4 *313:5 2.21865
5 *895:ZN *313:4 2.24339
6 *853:A1 *313:6 2.39190006
7 *736:A2 *313:7 0.609983
*END

*D_NET *314 0.00133397

*CONN
*I *863:ZN O *C 55.1 59.4 *L 0 *D OAI21D0
*I *852:I I *C 57.3 61 *L 0.00062 *D CKND0
*I *844:A1 I *C 55.5 62.4 *L 0.000647 *D NR2D0

*CAP
1 *863:ZN 0.000528513008
2 *852:I 0.000154776
3 *844:A1 3.53955e-05
4 *314:3 0.000345052
5 *314:4 0.000270236

*RES
1 *852:I *314:4 1.83655
2 *844:A1 *314:3 1.00781
3 *863:ZN *314:3 2.05029011
4 *314:3 *314:4 0.225001
*END

*D_NET *315 0.00192506

*CONN
*I *967:A1 I *C 27.7 40.8 *L 0.0013 *D CKXOR2D0
*I *916:ZN O *C 30.3 37.6 *L 0 *D ND3D0
*I *872:A1 I *C 31.9 40.8 *L 0.000681 *D IND2D0

*CAP
1 *967:A1 0.000519725
2 *872:A1 0.000161522
3 *315:3 0.000868793047
4 *315:4 0.000375012

*RES
1 *967:A1 *315:4 2.95209
2 *315:3 *315:4 3.05724001
3 *872:A1 *315:4 1.94926
4 *916:ZN *315:3 0.224992
*END

*D_NET *316 0.00154275

*CONN
*I *952:ZN O *C 54.7 57.6 *L 0 *D CKND2D0
*I *873:A2 I *C 51.7 60.8 *L 0.00104 *D AN2XD1
*I *863:A2 I *C 54.5 58.8 *L 0.000651 *D OAI21D0
*I *851:B1 I *C 54.7 60.8 *L 0.000651 *D INR2D0
*I *850:A1 I *C 52.7 60.8 *L 0.00069 *D INR2D0

*CAP
1 *952:ZN 0.000281819
2 *873:A2 0.00029397
3 *316:5 0.000197931
4 *316:6 0.00016893
5 *316:7 0.00060011

*RES
1 *316:5 *316:7 2.11629009
2 *851:B1 *316:5 0.84505
3 *316:5 *316:6 0.75615
4 *873:A2 *316:7 1.83625
5 *952:ZN *316:6 1.25038
6 *850:A1 *316:7 0.225011
7 *863:A2 *316:6 0.225011
*END

*D_NET *317 0.000818112

*CONN
*I *892:ZN O *C 53.3 58.4 *L 0 *D IND2D0
*I *851:A1 I *C 54.1 60.8 *L 0.00069 *D INR2D0
*I *850:B1 I *C 53.3 60.8 *L 0.000651 *D INR2D0

*CAP
1 *892:ZN 0.000387362
2 *317:4 0.000430748984

*RES
1 *892:ZN *317:3 1.61940002
2 *851:A1 *317:4 1.09006
3 *850:B1 *317:3 0.449995
4 *317:3 *317:4 0.22501
*END

*D_NET *318 0.000914441

*CONN
*I *851:ZN O *C 54.7 60.2 *L 0 *D INR2D0
*I *836:A2 I *C 53.3 62.4 *L 0.00105 *D OR2XD1

*CAP
1 *318:2 0.000914441016

*RES
1 *851:ZN *318:2 1.52639
2 *836:A2 *318:2 1.73011005
*END

*D_NET *319 0.000672228

*CONN
*I *850:ZN O *C 53.3 60.2 *L 0 *D INR2D0
*I *836:A1 I *C 52.9 62.2 *L 0.000964 *D OR2XD1

*CAP
1 *850:ZN 0.000299453
2 *319:2 0.000372773008

*RES
1 *836:A1 *319:2 0.450001
2 *850:ZN *319:2 1.68618
*END

*D_NET *320 0.00182626

*CONN
*I *894:ZN O *C 38.7 29.6 *L 0 *D AOI21D0
*I *849:A2 I *C 40.5 32 *L 0.000664 *D NR2D0
*I *826:B2 I *C 41.1 33.4 *L 0.000881 *D AOI221D0

*CAP
1 *894:ZN 0.000353769
2 *849:A2 0.000141368
3 *826:B2 6.44728e-05
4 *320:3 0.000311137
5 *320:4 0.000955501016

*RES
1 *894:ZN *320:4 1.79319
2 *826:B2 *320:3 1.30912
3 *320:3 *320:4 3.3882699
4 *849:A2 *320:4 1.3207
*END

*D_NET *321 0.000650601

*CONN
*I *849:ZN O *C 40.9 32.2 *L 0 *D NR2D0
*I *826:C I *C 40.5 33.4 *L 0.000701 *D AOI221D0

*CAP
1 *826:C 0.000650601016

*RES
1 *826:C *849:ZN 2.3943
*END

*D_NET *322 0.00252511

*CONN
*I *1004:A1 I *C 31.9 66 *L 0.000556 *D CKAN2D0
*I *951:ZN O *C 37.9 64.8 *L 0 *D CKND2D0
*I *871:A2 I *C 31.7 62.4 *L 0.000651 *D OAI21D0
*I *859:A2 I *C 36.1 66 *L 0.00104 *D AN2XD1
*I *848:A2 I *C 33.9 66 *L 0.000664 *D NR2D0

*CAP
1 *951:ZN 0.000412733
2 *871:A2 0.000617656992
3 *859:A2 7.51914e-05
4 *848:A2 7.93477e-05
5 *322:5 0.000531457
6 *322:6 0.000326052
7 *322:7 0.000482656

*RES
1 *322:6 *322:7 1.79403
2 *951:ZN *322:6 2.91088009
3 *871:A2 *322:5 2.64371
4 *322:5 *322:7 2.0349
5 *859:A2 *322:6 0.449984
6 *848:A2 *322:7 0.449984
7 *1004:A1 *322:5 0.449984
*END

*D_NET *323 0.000742481

*CONN
*I *848:ZN O *C 33.5 65.8 *L 0 *D NR2D0
*I *823:A2 I *C 32.7 68 *L 0.00105 *D OR2XD1

*CAP
1 *848:ZN 0.000491498008
2 *823:A2 0.00025098

*RES
1 *823:A2 *848:ZN 2.88749
*END

*D_NET *324 0.00191847

*CONN
*I *917:ZN O *C 37.5 28.8 *L 0 *D NR3D0
*I *864:A1 I *C 39.7 29.8 *L 0.000617 *D CKND2D0
*I *855:B2 I *C 40.5 28.4 *L 0.000657 *D IND3D0
*I *847:B I *C 39.9 28.4 *L 0.00072 *D AOI21D0
*I *846:A1 I *C 40.9 30 *L 0.000705 *D OA21D0

*CAP
1 *864:A1 6.47832e-06
2 *846:A1 0.000538607
3 *324:5 0.000242697
4 *324:6 0.00031366
5 *324:7 0.000167304
6 *324:8 0.000593786016
7 *324:9 5.5931e-05

*RES
1 *324:6 *324:7 1.05269
2 *846:A1 *324:6 2.5532701
3 *324:8 *324:9 2.14828
4 *855:B2 *324:5 0.780949
5 *864:A1 *324:6 0.337431
6 *324:5 *324:7 0.372767
7 *917:ZN *324:8 0.449986
8 *847:B *324:7 0.449986
9 *324:5 *324:9 0.224993
*END

*D_NET *325 0.00146653

*CONN
*I *847:ZN O *C 39.9 28.8 *L 0 *D AOI21D0
*I *828:S I *C 42.9 33.6 *L 0.00146 *D MUX2ND0

*CAP
1 *847:ZN 0.000621865977
2 *828:S 0.000130551
3 *325:2 0.000614142
4 *325:3 2.52409e-05
5 *325:4 7.47264e-05

*RES
1 *847:ZN *325:2 2.78613
2 *828:S *325:3 0.675003
3 *325:2 *325:4 3.63193989
4 *325:3 *325:4 0.225001
*END

*D_NET *326 0.0011332

*CONN
*I *864:ZN O *C 39.9 29.6 *L 0 *D CKND2D0
*I *846:B I *C 41.1 30 *L 0.000732 *D OA21D0
*I *827:A1 I *C 42.3 28.4 *L 0.00069 *D AOI21D0

*CAP
1 *827:A1 0.000117573
2 *326:3 0.000507514
3 *326:4 0.000508118984

*RES
1 *326:3 *326:4 1.4101
2 *827:A1 *326:3 2.57142997
3 *864:ZN *326:4 0.450008
4 *846:B *326:3 0.450008
*END

*D_NET *327 0.000668112

*CONN
*I *845:ZN O *C 29.1 61 *L 0 *D NR2D0
*I *817:A1 I *C 28.7 62.2 *L 0.000964 *D OR2XD1

*CAP
1 *817:A1 4.80551e-05
2 *327:2 0.000620060977

*RES
1 *817:A1 *327:2 0.469271
2 *845:ZN *327:2 1.89373004
*END

*D_NET *328 6.5494e-05

*CONN
*I *844:ZN O *C 55.5 62.2 *L 0 *D NR2D0
*I *818:A1 I *C 56.5 62.2 *L 0.000964 *D OR2XD1

*CAP
1 *844:ZN 6.5493999e-05

*RES
1 *844:ZN *818:A1 0.639133
*END

*D_NET *329 0.00157195

*CONN
*I *853:ZN O *C 41.5 61 *L 0 *D NR2D0
*I *843:I I *C 41.7 53.8 *L 0.00062 *D CKND0
*I *702:B1 I *C 41.1 62.2 *L 0.000863 *D AO22D0

*CAP
1 *843:I 0.00103521
2 *702:B1 5.59821e-05
3 *329:3 0.00048076

*RES
1 *843:I *329:3 5.08016014
2 *702:B1 *329:3 1.34477
3 *853:ZN *329:3 0.225032
*END

*D_NET *330 0.00120476

*CONN
*I *843:ZN O *C 42.1 53.8 *L 0 *D CKND0
*I *814:B1 I *C 42.1 46.4 *L 0.000663 *D AOI22D0

*CAP
1 *814:B1 0.00118114992
2 *330:2 2.36104e-05

*RES
1 *814:B1 *330:2 5.13822985
2 *843:ZN *330:2 0.225017
*END

*D_NET *331 0.000230158

*CONN
*I *842:ZN O *C 43.1 28.6 *L 0 *D CKND0
*I *827:B I *C 42.5 28.4 *L 0.00072 *D AOI21D0

*CAP
1 *827:B 0.000230158008

*RES
1 *842:ZN *827:B 1.08691
*END

*D_NET *332 0.00164527

*CONN
*I *932:ZN O *C 36.3 46.6 *L 0 *D NR2D0
*I *882:B I *C 37.7 46.4 *L 0.00072 *D AOI21D0
*I *841:A2 I *C 40.3 48 *L 0.000606 *D CKND2D0
*I *796:A2 I *C 39.3 48 *L 0.000712 *D IAO21D0

*CAP
1 *932:ZN 0.000427761
2 *841:A2 0.000126368
3 *332:4 0.000612496016
4 *332:5 0.000478651

*RES
1 *841:A2 *332:4 1.47433
2 *332:4 *332:5 2.60266995
3 *932:ZN *332:5 1.88425
4 *882:B *332:5 0.449995
5 *796:A2 *332:4 0.225017
*END

*D_NET *333 0.00124658

*CONN
*I *884:ZN O *C 40.7 51.2 *L 0 *D AOI21D0
*I *841:A1 I *C 40.7 47.8 *L 0.000617 *D CKND2D0
*I *796:A1 I *C 39.7 48 *L 0.000675 *D IAO21D0

*CAP
1 *884:ZN 0.000303689
2 *841:A1 9.48959e-06
3 *796:A1 0.000216927
4 *333:3 0.000716475

*RES
1 *884:ZN *333:3 3.11778998
2 *796:A1 *333:3 0.76018
3 *841:A1 *333:3 0.774405
*END

*D_NET *334 0.000425068

*CONN
*I *841:ZN O *C 40.9 47.6 *L 0 *D CKND2D0
*I *810:C I *C 40.5 50 *L 0.000698 *D OAI211D0

*CAP
1 *841:ZN 0.000425068008

*RES
1 *841:ZN *810:C 1.93704
*END

*D_NET *335 0.00191166

*CONN
*I *878:ZN O *C 37.1 47.6 *L 0 *D AOI21D0
*I *840:A1 I *C 39.5 53.6 *L 0.000647 *D NR2D0
*I *774:A1 I *C 39.3 51.6 *L 0.000645 *D AOI211D0

*CAP
1 *335:3 0.000602116
2 *335:4 0.000247125
3 *335:5 0.000380284
4 *335:6 0.000682138047

*RES
1 *335:5 *335:6 2.33829999
2 *335:4 *335:6 0.449991
3 *335:3 *335:5 1.89866
4 *840:A1 *335:3 1.57408
5 *878:ZN *335:4 0.224996
6 *774:A1 *335:3 0.224996
*END

*D_NET *336 0.000971971

*CONN
*I *840:ZN O *C 39.5 53.8 *L 0 *D NR2D0
*I *774:C I *C 38.3 51.6 *L 0.000686 *D AOI211D0

*CAP
1 *774:C 0.000256199
2 *336:2 0.000715776953

*RES
1 *774:C *336:2 0.85605
2 *840:ZN *336:2 2.10815001
*END

*D_NET *337 0.00160095

*CONN
*I *913:ZN O *C 58.3 39.4 *L 0 *D NR2D0
*I *879:B I *C 56.9 39.2 *L 0.00072 *D AOI21D0
*I *837:A2 I *C 55.1 39.2 *L 0.000728 *D AOI22D0
*I *809:A1 I *C 56.1 37.2 *L 0.000711 *D OA211D0

*CAP
1 *913:ZN 0.000136138
2 *837:A2 0.000113208
3 *809:A1 0.000287186
4 *337:4 0.000585842031
5 *337:5 0.000478578

*RES
1 *337:4 *337:5 0.516543
2 *879:B *337:5 1.08738
3 *837:A2 *337:4 2.05925989
4 *913:ZN *337:5 1.47689
5 *809:A1 *337:4 1.62152
*END

*D_NET *338 0.000834139

*CONN
*I *876:ZN O *C 57.1 36.8 *L 0 *D AOI21D0
*I *837:A1 I *C 55.5 39.2 *L 0.000665 *D AOI22D0
*I *809:A2 I *C 56.5 37.2 *L 0.000642 *D OA211D0

*CAP
1 *876:ZN 2.06503e-06
2 *837:A1 0.000187632
3 *809:A2 0.000644436016

*RES
1 *809:A2 *837:A1 2.95748997
2 *809:A2 *876:ZN 0.169274
*END

*D_NET *339 0.000427826

*CONN
*I *837:ZN O *C 54.5 39.6 *L 0 *D AOI22D0
*I *809:B I *C 55.9 37.2 *L 0.000735 *D OA211D0

*CAP
1 *837:ZN 8.7118e-05
2 *809:B 0.00034071

*RES
1 *837:ZN *809:B 2.11877
*END

*D_NET *340 0.000992413

*CONN
*I *852:ZN O *C 57.7 61 *L 0 *D CKND0
*I *835:A1 I *C 56.5 60.8 *L 0.000647 *D NR2D0
*I *825:A1 I *C 57.9 57.2 *L 0.0007 *D OAI21D0

*CAP
1 *835:A1 0.000202123
2 *825:A1 0.000694024063
3 *340:3 9.62643e-05

*RES
1 *852:ZN *340:3 0.334402
2 *825:A1 *340:3 3.05952001
3 *835:A1 *340:3 1.3511
*END

*D_NET *341 0.000407696

*CONN
*I *835:ZN O *C 56.5 61 *L 0 *D NR2D0
*I *818:A2 I *C 56.9 62.4 *L 0.00105 *D OR2XD1

*CAP
1 *835:ZN 0.000407696016

*RES
1 *835:ZN *818:A2 1.46416
*END

*D_NET *342 0.00075296

*CONN
*I *854:ZN O *C 28.7 58.6 *L 0 *D CKND0
*I *834:A1 I *C 28.1 58.8 *L 0.000647 *D NR2D0
*I *824:A1 I *C 29.3 57.2 *L 0.0007 *D OAI21D0

*CAP
1 *834:A1 0.000114277
2 *824:A1 0.000224324
3 *342:3 0.00041436

*RES
1 *824:A1 *342:3 2.61929011
2 *834:A1 *342:3 0.904378
3 *854:ZN *342:3 0.225015
*END

*D_NET *343 0.000554061

*CONN
*I *834:ZN O *C 28.1 58.6 *L 0 *D NR2D0
*I *817:A2 I *C 28.3 62.4 *L 0.00105 *D OR2XD1

*CAP
1 *343:2 0.000554060977

*RES
1 *817:A2 *343:2 2.32733011
2 *834:ZN *343:2 0.225006
*END

*D_NET *344 0.0013518

*CONN
*I *855:ZN O *C 41.1 28.8 *L 0 *D IND3D0
*I *842:I I *C 43.5 28.6 *L 0.00062 *D CKND0
*I *833:A1 I *C 44.1 28.4 *L 0.000647 *D NR2D0
*I *815:A1 I *C 45.5 28.4 *L 0.00069 *D AOI21D0

*CAP
1 *833:A1 0.000151627
2 *815:A1 0.000187315
3 *344:4 0.000114468
4 *344:5 0.000602783984
5 *344:6 0.000295602

*RES
1 *815:A1 *344:6 2.25549006
2 *344:5 *344:6 2.05195
3 *833:A1 *344:4 0.775841
4 *855:ZN *344:5 0.225012
5 *842:I *344:4 0.225012
6 *344:4 *344:6 0.225012
*END

*D_NET *345 0.000981513

*CONN
*I *965:A1 I *C 36.9 32 *L 0.00136 *D XNR2D0
*I *881:ZN O *C 38.1 33.2 *L 0 *D AOI21D0

*CAP
1 *881:ZN 0.000319737
2 *345:2 0.00066178

*RES
1 *881:ZN *345:2 2.87120008
2 *965:A1 *345:2 0.225013
*END

*D_NET *346 0.00211131

*CONN
*I *914:ZN O *C 42.7 51.4 *L 0 *D NR2D0
*I *884:B I *C 40.7 51.6 *L 0.00072 *D AOI21D0
*I *832:B2 I *C 39.3 50 *L 0.000718 *D AOI22D0
*I *810:A1 I *C 41.1 50 *L 0.000711 *D OAI211D0

*CAP
1 *914:ZN 7.6785e-05
2 *884:B 0.000161735
3 *832:B2 0.000524945
4 *346:4 0.000402504
5 *346:5 0.000945351016

*RES
1 *832:B2 *346:5 2.30698
2 *346:4 *346:5 0.384974
3 *914:ZN *346:5 3.24122
4 *884:B *346:4 2.44358
5 *810:A1 *346:4 0.45001
*END

*D_NET *347 0.00113498

*CONN
*I *875:ZN O *C 42.3 47.6 *L 0 *D AOI21D0
*I *832:B1 I *C 39.7 50 *L 0.000663 *D AOI22D0
*I *810:A2 I *C 41.5 50 *L 0.00065 *D OAI211D0

*CAP
1 *875:ZN 0.000377827
2 *347:3 9.00926e-05
3 *347:4 0.000667067969

*RES
1 *347:3 *347:4 1.89012003
2 *875:ZN *347:3 1.81825
3 *832:B1 *347:4 0.224988
4 *810:A2 *347:3 0.224988
*END

*D_NET *348 0.00165085

*CONN
*I *928:ZN O *C 35.5 47.8 *L 0 *D NR2D0
*I *878:B I *C 37.1 48 *L 0.00072 *D AOI21D0
*I *832:A2 I *C 39.1 50 *L 0.000728 *D AOI22D0
*I *786:A2 I *C 37.3 50 *L 0.000758 *D OAI221D0

*CAP
1 *928:ZN 0.000484698008
2 *878:B 0.000289206
3 *832:A2 0.000256871
4 *786:A2 6.47151e-06
5 *348:4 0.000156086
6 *348:5 0.000457518

*RES
1 *348:4 *348:5 0.389785
2 *928:ZN *348:5 1.90462
3 *832:A2 *348:5 2.88057995
4 *786:A2 *348:4 0.856315
5 *878:B *348:4 1.79276
*END

*D_NET *349 0.0012039

*CONN
*I *882:ZN O *C 37.7 46.8 *L 0 *D AOI21D0
*I *832:A1 I *C 38.7 50 *L 0.000665 *D AOI22D0
*I *786:A1 I *C 36.7 50 *L 0.00067 *D OAI221D0

*CAP
1 *832:A1 7.99548e-05
2 *786:A1 0.000408604
3 *349:3 0.000497138008
4 *349:4 0.000218207

*RES
1 *832:A1 *349:4 0.828156
2 *786:A1 *349:4 1.72721
3 *349:3 *349:4 2.24133992
4 *882:ZN *349:3 0.225003
*END

*D_NET *350 0.00068926

*CONN
*I *832:ZN O *C 39.7 50.4 *L 0 *D AOI22D0
*I *810:B I *C 40.9 50 *L 0.000726 *D OAI211D0

*CAP
1 *832:ZN 0.000133382
2 *810:B 0.000555878984

*RES
1 *810:B *832:ZN 2.70759
*END

*D_NET *351 0.00148961

*CONN
*I *877:ZN O *C 51.9 44 *L 0 *D AOI21D0
*I *831:B1 I *C 54.1 44.4 *L 0.000675 *D OAI22D0
*I *781:A1 I *C 54.5 42.8 *L 0.000675 *D AOI221D0

*CAP
1 *781:A1 0.000443449
2 *351:3 0.00041784
3 *351:4 0.000500231016
4 *351:5 0.00012809

*RES
1 *351:3 *351:5 1.12867
2 *781:A1 *351:5 1.78836
3 *351:3 *351:4 1.72314
4 *877:ZN *351:4 0.224991
5 *831:B1 *351:3 0.224991
*END

*D_NET *352 0.00148435

*CONN
*I *927:ZN O *C 55.9 46.6 *L 0 *D NR2D0
*I *886:B I *C 54.5 46.4 *L 0.000718 *D AO21D0
*I *831:A2 I *C 54.7 44.4 *L 0.000705 *D OAI22D0
*I *813:A2 I *C 56.9 44.6 *L 0.000727 *D AOI221D0

*CAP
1 *927:ZN 7.78551e-05
2 *886:B 0.000112305
3 *831:A2 0.000493883
4 *813:A2 0.000187433
5 *352:4 0.000546511992
6 *352:5 6.63637e-05

*RES
1 *831:A2 *352:5 2.28593
2 *352:4 *352:5 0.411319
3 *813:A2 *352:4 2.99813008
4 *886:B *352:5 1.02205
5 *927:ZN *352:4 0.556614
*END

*D_NET *353 0.00125611

*CONN
*I *883:ZN O *C 58.9 43.2 *L 0 *D AOI21D0
*I *831:A1 I *C 55.1 44.4 *L 0.000672 *D OAI22D0
*I *813:A1 I *C 57.5 44.4 *L 0.000675 *D AOI221D0

*CAP
1 *883:ZN 0.00034245
2 *353:3 0.000528904023
3 *353:4 0.000384756

*RES
1 *883:ZN *353:4 2.20056009
2 *353:3 *353:4 1.87653
3 *813:A1 *353:4 0.834981
4 *831:A1 *353:3 0.225005
*END

*D_NET *354 9.7495e-05

*CONN
*I *831:ZN O *C 54.9 44.2 *L 0 *D OAI22D0
*I *813:C I *C 56.3 44.2 *L 0.000701 *D AOI221D0

*CAP
1 *831:ZN 9.7495e-05

*RES
1 *831:ZN *813:C 0.778539
*END

*D_NET *355 0.00170023

*CONN
*I *901:ZN O *C 45.9 47.8 *L 0 *D CKND0
*I *830:B1 I *C 44.9 46.4 *L 0.000689 *D MOAI22D0
*I *769:A2 I *C 41.9 46.4 *L 0.00065 *D OAI211D0

*CAP
1 *901:ZN 0.000107755
2 *355:3 0.000713161
3 *355:4 0.000879308984

*RES
1 *355:3 *355:4 3.20265007
2 *769:A2 *355:4 1.1791
3 *901:ZN *355:3 2.28241
4 *830:B1 *355:3 0.449982
*END

*D_NET *356 0.001303

*CONN
*I *915:ZN O *C 44.1 47.8 *L 0 *D NR2D0
*I *875:B I *C 42.3 48 *L 0.00072 *D AOI21D0
*I *830:A2 I *C 43.7 46.4 *L 0.000697 *D MOAI22D0
*I *814:A2 I *C 42.7 46.4 *L 0.000728 *D AOI22D0

*CAP
1 *875:B 0.000434034
2 *356:4 0.000446571992
3 *356:5 0.000422388

*RES
1 *875:B *356:5 2.15444994
2 *356:4 *356:5 1.25005
3 *915:ZN *356:4 1.52596
4 *814:A2 *356:5 0.224992
5 *830:A2 *356:4 0.450016
*END

*D_NET *357 0.00148902

*CONN
*I *885:ZN O *C 46.9 47.6 *L 0 *D AOI21D0
*I *830:A1 I *C 43.9 46.4 *L 0.000721 *D MOAI22D0
*I *814:A1 I *C 43.1 46.4 *L 0.000665 *D AOI22D0

*CAP
1 *814:A1 4.04015e-07
2 *357:3 0.00101835
3 *357:4 0.000470273

*RES
1 *814:A1 *357:3 1.97861
2 *885:ZN *357:4 0.843139
3 *357:3 *357:4 3.04726005
4 *830:A1 *357:3 0.450003
*END

*D_NET *358 0.00122061

*CONN
*I *830:ZN O *C 44.1 45.8 *L 0 *D MOAI22D0
*I *766:B1 I *C 47.1 44.4 *L 0.000894 *D INR3D0

*CAP
1 *766:B1 0.000272795
2 *358:2 0.000947812031

*RES
1 *830:ZN *358:2 1.02807
2 *766:B1 *358:2 3.31133008
*END

*D_NET *359 0.00195174

*CONN
*I *911:ZN O *C 33.3 29.8 *L 0 *D NR2D0
*I *874:B I *C 32.3 30 *L 0.00072 *D AOI21D0
*I *829:B2 I *C 29.3 30 *L 0.000718 *D OAI22D0
*I *780:B2 I *C 32.5 33.4 *L 0.000881 *D AOI221D0

*CAP
1 *780:B2 0.000682831016
2 *359:4 0.000226693
3 *359:5 0.000599653
4 *359:6 0.000379024
5 *359:7 6.35267e-05

*RES
1 *359:5 *359:7 2.71342
2 *911:ZN *359:6 1.79243
3 *359:4 *359:6 0.450013
4 *780:B2 *359:4 3.35099006
5 *829:B2 *359:5 0.450013
6 *874:B *359:4 0.450013
7 *359:6 *359:7 0.224981
*END

*D_NET *360 0.00195879

*CONN
*I *865:ZN O *C 28.1 33.2 *L 0 *D AOI21D0
*I *829:B1 I *C 28.9 30 *L 0.000675 *D OAI22D0
*I *780:B1 I *C 32.7 33.4 *L 0.00072 *D AOI221D0

*CAP
1 *865:ZN 6.59146e-06
2 *829:B1 0.000746775
3 *780:B1 1.23477e-05
4 *360:3 0.00035103
5 *360:4 0.000842048984

*RES
1 *865:ZN *360:4 0.351034
2 *780:B1 *360:3 0.609995
3 *360:3 *360:4 4.15859985
4 *829:B1 *360:4 3.08881
*END

*D_NET *361 0.00189456

*CONN
*I *929:ZN O *C 29.1 33.4 *L 0 *D NR2D0
*I *870:B I *C 30.1 33.6 *L 0.00072 *D AOI21D0
*I *829:A2 I *C 29.5 30 *L 0.000705 *D OAI22D0
*I *812:A2 I *C 31.1 30.2 *L 0.000727 *D AOI221D0

*CAP
1 *929:ZN 8.21526e-05
2 *829:A2 7.66313e-05
3 *812:A2 0.000180516
4 *361:4 0.000584101
5 *361:5 0.000642696992
6 *361:6 0.000328473

*RES
1 *361:5 *361:6 0.7614
2 *361:4 *361:6 2.2408
3 *829:A2 *361:5 0.675016
4 *929:ZN *361:4 0.866255
5 *812:A2 *361:5 2.26269007
6 *870:B *361:4 1.08387
*END

*D_NET *362 0.00076777

*CONN
*I *874:ZN O *C 32.3 29.6 *L 0 *D AOI21D0
*I *829:A1 I *C 29.9 30 *L 0.000672 *D OAI22D0
*I *812:A1 I *C 30.5 30 *L 0.000675 *D AOI221D0

*CAP
1 *874:ZN 0.000157742
2 *829:A1 0.000164881
3 *362:3 0.000445145977

*RES
1 *874:ZN *362:3 1.87054002
2 *829:A1 *362:3 0.66803
3 *812:A1 *362:3 0.449996
*END

*D_NET *363 0.000667448

*CONN
*I *829:ZN O *C 29.7 29.8 *L 0 *D OAI22D0
*I *812:C I *C 31.7 29.8 *L 0.000701 *D AOI221D0

*CAP
1 *829:ZN 0.000549775
2 *812:C 0.000117673

*RES
1 *812:C *829:ZN 2.6624
*END

*D_NET *364 0.00343808

*CONN
*I *964:I I *C 37.1 62.2 *L 0.00062 *D CKND0
*I *858:ZN O *C 39.9 62.2 *L 0 *D NR2D0
*I *839:A1 I *C 40.1 61 *L 0.000617 *D CKND2D0
*I *786:B2 I *C 37.5 50 *L 0.000747 *D OAI221D0

*CAP
1 *964:I 0.000106544
2 *858:ZN 4.45265e-05
3 *839:A1 0.000119096
4 *786:B2 0.00028385
5 *364:4 0.000367389
6 *364:5 0.000698932969
7 *364:6 0.000261155
8 *364:7 0.00069472
9 *364:8 0.000401037
10 *364:9 0.000460815

*RES
1 *364:7 *364:8 1.51338
2 *839:A1 *364:4 0.544957
3 *364:5 *364:6 2.95110989
4 *858:ZN *364:4 0.864898
5 *364:5 *364:7 2.61077
6 *364:4 *364:9 2.13665
7 *786:B2 *364:8 1.12378
8 *964:I *364:6 1.08406
9 *364:6 *364:9 0.225017
*END

*D_NET *365 0.00133071

*CONN
*I *957:ZN O *C 44.9 33.4 *L 0 *D CKND0
*I *896:A2 I *C 45.5 33.6 *L 0.000664 *D NR2D0
*I *828:I0 I *C 43.1 33.6 *L 0.000706 *D MUX2ND0
*I *724:A2 I *C 48.1 33.6 *L 0.000709 *D AOI211D0

*CAP
1 *957:ZN 3.83555e-05
2 *724:A2 0.000474322
3 *365:4 0.000235775
4 *365:5 0.000582263008

*RES
1 *896:A2 *365:4 0.450019
2 *365:4 *365:5 0.79349
3 *957:ZN *365:5 1.07731
4 *724:A2 *365:4 2.78862
5 *828:I0 *365:5 1.44048
*END

*D_NET *366 0.000506002

*CONN
*I *828:ZN O *C 43.5 33.4 *L 0 *D MUX2ND0
*I *801:C I *C 42.7 32 *L 0.000698 *D OAI211D0

*CAP
1 *801:C 0.000506001992

*RES
1 *801:C *828:ZN 1.87431
*END

*D_NET *367 0.00143741

*CONN
*I *827:ZN O *C 42.5 28.8 *L 0 *D AOI21D0
*I *802:S I *C 48.5 30 *L 0.00146 *D MUX2ND0

*CAP
1 *827:ZN 0.000100308
2 *367:2 0.000408359
3 *367:3 0.000928746016

*RES
1 *367:2 *367:3 4.20917988
2 *802:S *367:2 1.39051
3 *827:ZN *367:3 0.801039
*END

*D_NET *368 0.0013311

*CONN
*I *826:ZN O *C 40.9 33.2 *L 0 *D AOI221D0
*I *801:B I *C 43.1 32 *L 0.000726 *D OAI211D0

*CAP
1 *826:ZN 0.000151609
2 *368:2 0.00108161
3 *368:3 9.78706e-05

*RES
1 *826:ZN *368:2 2.01364
2 *368:2 *368:3 2.46517992
3 *801:B *368:3 0.675013
*END

*D_NET *369 0.000781231

*CONN
*I *822:Z O *C 37.3 40.4 *L 0 *D OA32D0
*I *703:B2 I *C 38.7 40.8 *L 0.000718 *D OAI22D0

*CAP
1 *822:Z 7.49152e-05
2 *703:B2 0.000145733
3 *369:2 0.000560581016

*RES
1 *822:Z *369:2 1.89304996
2 *703:B2 *369:2 0.675
*END

*D_NET *370 0.000787785

*CONN
*I *821:CO O *C 27.7 47.6 *L 0 *D FA1D0
*I *782:CI I *C 28.7 51.4 *L 0.001 *D FA1D0

*CAP
1 *821:CO 0.000787785

*RES
1 *821:CO *782:CI 3.3211
*END

*D_NET *371 0.00617485

*CONN
*I *566:I I *C 57.1 28.4 *L 0.00104 *D DEL0
*I *821:S O *C 28.3 47.8 *L 0 *D FA1D0

*CAP
1 *371:2 0.00218549984
2 *371:3 0.000223102
3 *371:4 0.000312043
4 *371:5 0.000380307
5 *371:7 0.00124737
6 *371:8 0.000202126
7 *371:7 *160:5 0.000344491992
8 *371:2 *159 0.000996292031
9 *371:2 *146:8 0.000283607012

*RES
1 *371:6 *371:7 0.159398
2 *371:4 *371:5 4.5277
3 *371:3 *371:2 13.7813997
4 *566:I *371:3 1.33217
5 *371:7 *371:8 8.42853
6 *371:2 *371:6 4.50141
7 *371:5 *371:8 2.25344
8 *821:S *371:4 0.225008
*END

*D_NET *372 0.000868665

*CONN
*I *820:CO O *C 54.1 47.6 *L 0 *D FA1D0
*I *783:CI I *C 57.1 47.8 *L 0.001 *D FA1D0

*CAP
1 *820:CO 0.000693883984
2 *783:CI 0.000174776

*RES
1 *820:CO *783:CI 3.50485
*END

*D_NET *373 0.00466256

*CONN
*I *575:I I *C 56.9 71.6 *L 0.00104 *D DEL0
*I *820:S O *C 53.5 47.8 *L 0 *D FA1D0

*CAP
1 *820:S 0.000377468
2 *373:2 0.000792948
3 *373:3 0.000431183
4 *373:4 0.000195614
5 *373:5 0.00223220984
6 *373:6 0.000633132

*RES
1 *373:5 *373:6 10.6954002
2 *373:2 *373:3 1.59543
3 *373:4 *373:6 2.87491
4 *373:2 *373:5 2.84472
5 *575:I *373:4 0.80098
6 *820:S *373:3 1.33986
*END

*D_NET *374 0.000991564

*CONN
*I *833:ZN O *C 44.1 28.6 *L 0 *D NR2D0
*I *815:B I *C 45.7 28.4 *L 0.00072 *D AOI21D0
*I *808:A1 I *C 48.1 28.4 *L 0.00069 *D XNR3D0

*CAP
1 *833:ZN 0.000331835
2 *374:3 0.000582884023
3 *374:4 7.68373e-05

*RES
1 *374:3 *374:4 1.80645
2 *808:A1 *374:4 0.450007
3 *833:ZN *374:3 1.92341006
4 *815:B *374:3 0.450007
*END

*D_NET *375 0.00102259

*CONN
*I *814:ZN O *C 42.1 46.8 *L 0 *D AOI22D0
*I *769:C I *C 40.9 46.4 *L 0.000698 *D OAI211D0

*CAP
1 *375:2 0.000156165
2 *375:3 0.000866431016

*RES
1 *375:2 *375:3 2.17986012
2 *769:C *375:3 0.591565
3 *814:ZN *375:2 0.450002
*END

*D_NET *376 0.000738115

*CONN
*I *962:A1 I *C 41.3 58.8 *L 0.0013 *D CKXOR2D0
*I *839:ZN O *C 40.3 61.2 *L 0 *D CKND2D0
*I *816:A1 I *C 41.9 58.8 *L 0.000681 *D IND2D0

*CAP
1 *962:A1 0.000292671
2 *839:ZN 0.000397080977
3 *816:A1 4.83635e-05

*RES
1 *839:ZN *962:A1 2.57393003
2 *962:A1 *816:A1 0.516781
*END

*D_NET *377 0.00116612

*CONN
*I *930:ZN O *C 60.3 43 *L 0 *D NR2D0
*I *883:B I *C 58.9 42.8 *L 0.00072 *D AOI21D0
*I *813:B2 I *C 56.9 44.2 *L 0.000881 *D AOI221D0
*I *797:B1 I *C 57.1 42.4 *L 0.000899 *D OAI221D0

*CAP
1 *813:B2 0.000306051
2 *797:B1 8.97124e-05
3 *377:4 0.000257828
4 *377:5 0.000512535977

*RES
1 *930:ZN *377:5 1.38332
2 *377:4 *377:5 0.8553
3 *883:B *377:5 0.675006
4 *813:B2 *377:4 1.82821
5 *797:B1 *377:4 0.35975
*END

*D_NET *378 0.00099984

*CONN
*I *879:ZN O *C 56.9 39.6 *L 0 *D AOI21D0
*I *813:B1 I *C 56.7 44.2 *L 0.00072 *D AOI221D0
*I *797:B2 I *C 56.9 42.8 *L 0.000747 *D OAI221D0

*CAP
1 *879:ZN 0.000590028984
2 *813:B1 0.000311135
3 *378:3 9.86758e-05

*RES
1 *879:ZN *378:3 2.54385996
2 *813:B1 *378:3 1.78341
3 *797:B2 *378:3 0.449996
*END

*D_NET *379 0.000486594

*CONN
*I *813:ZN O *C 56.7 44 *L 0 *D AOI221D0
*I *797:C I *C 56.7 42.8 *L 0.000742 *D OAI221D0

*CAP
1 *797:C 0.000486593984

*RES
1 *797:C *813:ZN 1.64428
*END

*D_NET *380 0.00231595

*CONN
*I *931:ZN O *C 28.3 32.2 *L 0 *D NR2D0
*I *865:B I *C 28.1 33.6 *L 0.00072 *D AOI21D0
*I *812:B2 I *C 31.1 29.8 *L 0.000881 *D AOI221D0
*I *794:A2 I *C 33.1 32 *L 0.000758 *D OAI221D0

*CAP
1 *865:B 0.000430375
2 *812:B2 0.00017295
3 *794:A2 0.000373051
4 *380:4 0.000575252
5 *380:5 0.000764332031

*RES
1 *794:A2 *380:5 3.95878005
2 *865:B *380:4 1.9722
3 *380:4 *380:5 2.11567
4 *812:B2 *380:5 1.45615
5 *931:ZN *380:4 0.450026
*END

*D_NET *381 0.00160654

*CONN
*I *880:ZN O *C 35.1 29.6 *L 0 *D AOI21D0
*I *812:B1 I *C 31.3 29.8 *L 0.00072 *D AOI221D0
*I *794:A1 I *C 33.7 32 *L 0.00067 *D OAI221D0

*CAP
1 *794:A1 0.000426316
2 *381:3 0.000666093984
3 *381:4 0.000514133

*RES
1 *880:ZN *381:4 1.27514
2 *381:3 *381:4 2.2004
3 *794:A1 *381:4 2.68094993
4 *812:B1 *381:3 0.224994
*END

*D_NET *382 0.00073891

*CONN
*I *812:ZN O *C 31.3 29.6 *L 0 *D AOI221D0
*I *794:C I *C 32.7 32 *L 0.000742 *D OAI221D0

*CAP
1 *812:ZN 0.000648228008
2 *794:C 9.06837e-05

*RES
1 *812:ZN *794:C 3.24729
*END

*D_NET *383 0.00139039

*CONN
*I *902:ZN O *C 37.7 32.2 *L 0 *D CKND0
*I *811:A1 I *C 35.9 28.4 *L 0.000645 *D AOI211D0
*I *770:A2 I *C 37.9 30 *L 0.00065 *D OAI211D0

*CAP
1 *770:A2 0.000102001
2 *383:3 0.000592442
3 *383:4 0.000695951016

*RES
1 *770:A2 *383:3 0.750896
2 *383:3 *383:4 3.4126699
3 *902:ZN *383:3 1.09734
4 *811:A1 *383:4 0.225008
*END

*D_NET *384 0.000468744

*CONN
*I *811:ZN O *C 35.9 28.8 *L 0 *D AOI211D0
*I *770:C I *C 36.9 30 *L 0.000698 *D OAI211D0

*CAP
1 *811:ZN 0.000468744023

*RES
1 *811:ZN *770:C 2.24433
*END

*D_NET *385 0.000688044

*CONN
*I *810:ZN O *C 41.5 49.4 *L 0 *D OAI211D0
*I *796:B I *C 38.7 48 *L 0.000655 *D IAO21D0

*CAP
1 *810:ZN 0.000607203008
2 *796:B 8.084e-05

*RES
1 *810:ZN *796:B 2.65161
*END

*D_NET *386 0.000808807

*CONN
*I *809:Z O *C 55.1 36.8 *L 0 *D OA211D0
*I *772:C I *C 55.1 40.8 *L 0.000698 *D OAI211D0

*CAP
1 *809:Z 0.000808807031

*RES
1 *809:Z *772:C 3.21677
*END

*D_NET *387 0.000896146

*CONN
*I *808:ZN O *C 49.9 28.8 *L 0 *D XNR3D0
*I *773:A2 I *C 47.5 29.8 *L 0.000705 *D ND4D0

*CAP
1 *773:A2 0.00081087
2 *387:2 8.52753e-05

*RES
1 *808:ZN *387:2 0.450016
2 *773:A2 *387:2 3.0801301
*END

*D_NET *388 0.000761778

*CONN
*I *867:ZN O *C 59.5 57.6 *L 0 *D CKND2D0
*I *807:A2 I *C 60.7 58.8 *L 0.000664 *D NR2D0
*I *804:A2 I *C 59.3 58.8 *L 0.000585 *D CKAN2D0

*CAP
1 *867:ZN 0.000270172
2 *388:3 6.45799e-05
3 *388:4 0.000427025

*RES
1 *867:ZN *388:3 1.40278006
2 *388:3 *388:4 1.35396
3 *807:A2 *388:4 0.225006
4 *804:A2 *388:3 0.225006
*END

*D_NET *389 0.000415711

*CONN
*I *807:ZN O *C 60.3 58.6 *L 0 *D NR2D0
*I *792:A1 I *C 59.9 61 *L 0.000964 *D OR2XD1

*CAP
1 *807:ZN 0.000266108008
2 *792:A1 0.000149603

*RES
1 *792:A1 *807:ZN 1.66903
*END

*D_NET *390 0.000555961

*CONN
*I *869:ZN O *C 31.9 58.4 *L 0 *D CKND2D0
*I *806:A2 I *C 29.7 58.8 *L 0.000585 *D CKAN2D0
*I *805:A2 I *C 31.5 58.8 *L 0.000664 *D NR2D0

*CAP
1 *869:ZN 9.48081e-06
2 *805:A2 0.000199948
3 *390:3 0.000346528008

*RES
1 *806:A2 *390:3 2.16046
2 *805:A2 *869:ZN 0.364967
3 *805:A2 *390:3 0.384977
*END

*D_NET *391 0.000735129

*CONN
*I *806:Z O *C 30.3 58.6 *L 0 *D CKAN2D0
*I *791:A2 I *C 30.1 62.4 *L 0.00105 *D OR2XD1

*CAP
1 *806:Z 0.000735128984

*RES
1 *806:Z *791:A2 2.96432
*END

*D_NET *392 0.00109727

*CONN
*I *824:ZN O *C 29.5 56.6 *L 0 *D OAI21D0
*I *806:A1 I *C 29.5 58.8 *L 0.000556 *D CKAN2D0
*I *805:A1 I *C 31.1 58.8 *L 0.000647 *D NR2D0
*I *799:A1 I *C 32.9 58.8 *L 0.000669 *D IOA21D0

*CAP
1 *824:ZN 0.000223533
2 *806:A1 0.000101705
3 *805:A1 1.12415e-05
4 *799:A1 0.000115388
5 *392:4 5.50817e-05
6 *392:5 0.000590315

*RES
1 *805:A1 *392:5 0.576019
2 *392:4 *392:5 0.981303
3 *799:A1 *392:5 1.86207998
4 *824:ZN *392:4 1.32985
5 *806:A1 *392:4 0.970705
*END

*D_NET *393 0.000591329

*CONN
*I *805:ZN O *C 31.1 58.6 *L 0 *D NR2D0
*I *791:A1 I *C 30.5 62.2 *L 0.000964 *D OR2XD1

*CAP
1 *805:ZN 0.000591328984

*RES
1 *805:ZN *791:A1 2.76486
*END

*D_NET *394 0.00146416

*CONN
*I *825:ZN O *C 58.1 56.6 *L 0 *D OAI21D0
*I *807:A1 I *C 60.3 58.8 *L 0.000647 *D NR2D0
*I *804:A1 I *C 59.1 58.8 *L 0.000556 *D CKAN2D0
*I *800:A1 I *C 60.3 57.2 *L 0.000669 *D IOA21D0

*CAP
1 *825:ZN 0.00025128
2 *807:A1 1.7608e-06
3 *804:A1 4.20911e-05
4 *800:A1 0.000336511
5 *394:4 0.000648281992
6 *394:5 0.000184241

*RES
1 *807:A1 *394:4 0.484851
2 *394:4 *394:5 2.08443999
3 *804:A1 *394:5 1.09521
4 *800:A1 *394:4 1.60512
5 *825:ZN *394:5 1.25529
*END

*D_NET *395 0.000474508

*CONN
*I *804:Z O *C 59.9 58.6 *L 0 *D CKAN2D0
*I *792:A2 I *C 59.5 60.8 *L 0.00105 *D OR2XD1

*CAP
1 *804:Z 0.000474507969

*RES
1 *804:Z *792:A2 1.79355
*END

*D_NET *396 0.00181326

*CONN
*I *953:ZN O *C 50.5 32.2 *L 0 *D CKND0
*I *838:A2 I *C 50.9 28.4 *L 0.000664 *D NR2D0
*I *802:I0 I *C 48.7 30 *L 0.000706 *D MUX2ND0
*I *722:A2 I *C 50.9 30 *L 0.000709 *D AOI211D0

*CAP
1 *802:I0 0.000736721
2 *396:4 0.000253303
3 *396:5 0.000752638984
4 *396:6 7.05954e-05

*RES
1 *396:4 *396:5 0.772777
2 *722:A2 *396:5 0.978443
3 *953:ZN *396:5 2.42137
4 *802:I0 *396:6 3.34619999
5 *838:A2 *396:4 0.225017
6 *396:4 *396:6 0.225017
*END

*D_NET *397 0.000448449

*CONN
*I *802:ZN O *C 49.1 29.8 *L 0 *D MUX2ND0
*I *773:A4 I *C 48.1 30 *L 0.00068 *D ND4D0

*CAP
1 *802:ZN 0.000138755
2 *773:A4 0.000309695996

*RES
1 *773:A4 *802:ZN 1.46064
*END

*D_NET *398 0.00143187

*CONN
*I *846:Z O *C 41.7 29.6 *L 0 *D OA21D0
*I *801:A1 I *C 43.3 32 *L 0.000711 *D OAI211D0
*I *785:B2 I *C 43.7 29.8 *L 0.000881 *D AOI221D0

*CAP
1 *846:Z 0.000558673
2 *785:B2 0.000270195
3 *398:3 0.000603005

*RES
1 *801:A1 *398:3 1.05313
2 *846:Z *398:3 2.10818
3 *785:B2 *398:3 2.58029008
*END

*D_NET *399 0.000496679

*CONN
*I *801:ZN O *C 43.7 31.4 *L 0 *D OAI211D0
*I *785:C I *C 43.1 29.8 *L 0.000701 *D AOI221D0

*CAP
1 *801:ZN 2.37591e-06
2 *785:C 0.000494302969

*RES
1 *785:C *801:ZN 1.6053
*END

*D_NET *400 0.00109278

*CONN
*I *838:ZN O *C 51.3 28.6 *L 0 *D NR2D0
*I *819:A1 I *C 52.7 28.6 *L 0.000617 *D CKND2D0
*I *798:A1 I *C 54.1 28.4 *L 0.0007 *D OAI21D0
*I *722:C I *C 51.5 30 *L 0.000686 *D AOI211D0

*CAP
1 *838:ZN 2.38337e-05
2 *819:A1 0.000138578
3 *798:A1 0.000195579
4 *722:C 9.09383e-05
5 *400:4 0.000189401
6 *400:5 0.000454448984

*RES
1 *400:4 *400:5 0.412554
2 *722:C *400:5 1.28361
3 *798:A1 *400:4 1.87718999
4 *819:A1 *400:4 0.460418
5 *838:ZN *400:5 0.954292
*END

*D_NET *401 0.000438263

*CONN
*I *798:ZN O *C 54.3 27.8 *L 0 *D OAI21D0
*I *733:A2 I *C 54.7 30 *L 0.000697 *D MOAI22D0

*CAP
1 *733:A2 0.000438263008

*RES
1 *798:ZN *733:A2 1.91897
*END

*D_NET *402 0.00118847

*CONN
*I *903:ZN O *C 53.5 43 *L 0 *D CKND0
*I *797:A2 I *C 57.1 42.8 *L 0.000758 *D OAI221D0
*I *781:B2 I *C 55.1 43 *L 0.000881 *D AOI221D0

*CAP
1 *903:ZN 4.98613e-06
2 *781:B2 6.86126e-06
3 *402:3 0.000153363
4 *402:4 9.23074e-05
5 *402:5 0.000930957969

*RES
1 *402:3 *402:5 0.450018
2 *781:B2 *402:3 0.311023
3 *402:4 *402:5 3.33059001
4 *903:ZN *402:3 0.311023
5 *797:A2 *402:4 0.450018
*END

*D_NET *403 0.00145373

*CONN
*I *886:Z O *C 55.1 46.8 *L 0 *D AO21D0
*I *797:A1 I *C 57.7 42.8 *L 0.00067 *D OAI221D0
*I *781:B1 I *C 55.3 43 *L 0.00072 *D AOI221D0

*CAP
1 *797:A1 0.000204771
2 *403:3 0.000844802031
3 *403:4 0.000404154

*RES
1 *797:A1 *403:4 2.49789
2 *886:Z *403:3 2.69508004
3 *781:B1 *403:3 0.224988
4 *403:3 *403:4 0.224988
*END

*D_NET *404 6.4479e-05

*CONN
*I *797:ZN O *C 56.5 43 *L 0 *D OAI221D0
*I *781:C I *C 55.7 43 *L 0.000701 *D AOI221D0

*CAP
1 *781:C 6.4478999e-05

*RES
1 *781:C *797:ZN 0.622073
*END

*D_NET *405 0.000378565

*CONN
*I *796:ZN O *C 38.9 47.6 *L 0 *D IAO21D0
*I *786:C I *C 37.7 50 *L 0.000742 *D OAI221D0

*CAP
1 *796:ZN 5.65259e-05
2 *405:2 0.00032204

*RES
1 *796:ZN *405:2 0.622126
2 *786:C *405:2 1.30510998
*END

*D_NET *406 0.000779416

*CONN
*I *815:ZN O *C 45.7 28.8 *L 0 *D AOI21D0
*I *795:B2 I *C 46.1 30.2 *L 0.000744 *D MAOI22D0
*I *795:A2 I *C 45.3 30 *L 0.000697 *D MAOI22D0

*CAP
1 *815:ZN 0.00038085
2 *795:A2 0.000172785
3 *406:3 0.000225779

*RES
1 *795:A2 *406:3 1.50841
2 *815:ZN *406:3 1.52438998
3 *795:B2 *406:3 0.224997
*END

*D_NET *407 0.00088488

*CONN
*I *795:ZN O *C 45.7 29.6 *L 0 *D MAOI22D0
*I *773:A3 I *C 47.7 29.8 *L 0.000708 *D ND4D0

*CAP
1 *795:ZN 0.000631275
2 *407:2 0.000253608

*RES
1 *773:A3 *407:2 0.815213
2 *795:ZN *407:2 2.42558002
*END

*D_NET *408 0.00140632

*CONN
*I *870:ZN O *C 30.1 33.2 *L 0 *D AOI21D0
*I *794:B2 I *C 32.9 32 *L 0.000747 *D OAI221D0
*I *780:A1 I *C 31.9 33.6 *L 0.000675 *D AOI221D0

*CAP
1 *794:B2 0.000407993
2 *408:3 0.00037698
3 *408:4 0.000621346992

*RES
1 *870:ZN *408:4 0.84032
2 *794:B2 *408:3 1.66328
3 *408:3 *408:4 2.36043
4 *780:A1 *408:3 1.07036
*END

*D_NET *409 0.000607364

*CONN
*I *794:ZN O *C 32.5 32.2 *L 0 *D OAI221D0
*I *780:C I *C 33.1 33.4 *L 0.000701 *D AOI221D0

*CAP
1 *409:2 0.000607363984

*RES
1 *794:ZN *409:2 2.1373899
2 *780:C *409:2 0.225004
*END

*D_NET *410 0.00079946

*CONN
*I *961:A1 I *C 43.7 57.2 *L 0.0013 *D CKXOR2D0
*I *816:ZN O *C 42.5 58.4 *L 0 *D IND2D0
*I *803:A1 I *C 44.1 58.8 *L 0.000681 *D IND2D0

*CAP
1 *961:A1 0.000286826016
2 *816:ZN 0.000251489
3 *803:A1 0.000102226
4 *410:3 0.000158922

*RES
1 *803:A1 *410:3 0.889913
2 *816:ZN *410:3 1.04018998
3 *961:A1 *410:3 0.983892
*END

*D_NET *411 0.00117827

*CONN
*I *819:ZN O *C 52.9 28.8 *L 0 *D CKND2D0
*I *798:B I *C 54.3 28.4 *L 0.00073 *D OAI21D0
*I *793:B1 I *C 55.5 28.4 *L 0.000686 *D MAOI22D0
*I *793:A1 I *C 56.5 28.4 *L 0.000713 *D MAOI22D0

*CAP
1 *819:ZN 0.000337171
2 *798:B 0.000141408
3 *793:B1 0.000116898
4 *411:4 0.000396016016
5 *411:5 0.000186783

*RES
1 *819:ZN *411:5 1.50899005
2 *411:4 *411:5 0.926264
3 *793:A1 *411:4 1.4751
4 *798:B *411:5 0.824331
5 *793:B1 *411:4 0.450008
*END

*D_NET *412 0.000537026

*CONN
*I *793:ZN O *C 56.3 28.8 *L 0 *D MAOI22D0
*I *734:A2 I *C 58.3 30 *L 0.000697 *D MOAI22D0

*CAP
1 *793:ZN 9.0198e-05
2 *412:2 0.000446830977

*RES
1 *793:ZN *412:2 0.601845
2 *734:A2 *412:2 2.28639007
*END

*D_NET *413 0.000635725

*CONN
*I *866:ZN O *C 61.7 57.6 *L 0 *D CKND2D0
*I *790:A2 I *C 62.7 58.8 *L 0.000664 *D NR2D0
*I *789:A2 I *C 61.9 58.8 *L 0.000585 *D CKAN2D0

*CAP
1 *866:ZN 0.000450747031
2 *790:A2 0.000111478
3 *413:3 7.34979e-05

*RES
1 *790:A2 *413:3 0.763582
2 *866:ZN *413:3 1.37747002
3 *789:A2 *413:3 0.225003
*END

*D_NET *414 0.000450352

*CONN
*I *790:ZN O *C 63.1 58.6 *L 0 *D NR2D0
*I *779:A2 I *C 62.7 60.8 *L 0.00105 *D OR2XD1

*CAP
1 *790:ZN 0.000161869
2 *779:A2 0.000288482988

*RES
1 *779:A2 *790:ZN 1.8017
*END

*D_NET *415 0.00139082

*CONN
*I *800:ZN O *C 61.1 56.6 *L 0 *D IOA21D0
*I *790:A1 I *C 63.1 58.8 *L 0.000647 *D NR2D0
*I *789:A1 I *C 61.7 58.8 *L 0.000556 *D CKAN2D0
*I *784:A1 I *C 62.9 57.2 *L 0.000669 *D IOA21D0

*CAP
1 *800:ZN 0.000365949
2 *789:A1 5.34487e-05
3 *784:A1 0.000395403
4 *415:5 0.000576017031

*RES
1 *800:ZN *415:4 1.56981
2 *784:A1 *415:5 1.61278
3 *415:4 *415:5 1.82965004
4 *789:A1 *415:4 0.487732
5 *790:A1 *415:5 0.224993
*END

*D_NET *416 0.00088388

*CONN
*I *789:Z O *C 62.5 58.6 *L 0 *D CKAN2D0
*I *779:A1 I *C 63.1 61 *L 0.000964 *D OR2XD1

*CAP
1 *789:Z 4.70077e-05
2 *779:A1 3.83932e-06
3 *416:2 4.67557e-05
4 *416:3 0.000786281016

*RES
1 *779:A1 *416:2 0.315297
2 *416:2 *416:3 2.72387004
3 *789:Z *416:3 0.450002
*END

*D_NET *417 0.00317993

*CONN
*I *868:ZN O *C 45.1 62 *L 0 *D CKND2D0
*I *788:A2 I *C 37.1 64.4 *L 0.000585 *D CKAN2D0
*I *787:A2 I *C 34.7 64.4 *L 0.000664 *D NR2D0

*CAP
1 *868:ZN 0.000336591
2 *787:A2 0.000664557
3 *417:3 7.73419e-05
4 *417:4 0.00210140984

*RES
1 *417:3 *417:4 7.50918007
2 *868:ZN *417:3 1.1072
3 *788:A2 *417:4 0.705704
4 *787:A2 *417:4 2.44974
*END

*D_NET *418 3.0855e-05

*CONN
*I *788:Z O *C 36.5 64.6 *L 0 *D CKAN2D0
*I *778:A1 I *C 36.1 64.6 *L 0.000964 *D OR2XD1

*CAP
1 *778:A1 3.0855e-05

*RES
1 *778:A1 *788:Z 0.323658
*END

*D_NET *419 0.00380692

*CONN
*I *960:A1 I *C 43.7 62.4 *L 0.000669 *D IOA21D0
*I *799:ZN O *C 33.7 59.4 *L 0 *D IOA21D0
*I *788:A1 I *C 37.3 64.4 *L 0.000556 *D CKAN2D0
*I *787:A1 I *C 34.3 64.4 *L 0.000647 *D NR2D0

*CAP
1 *960:A1 0.000768656
2 *799:ZN 0.000798374
3 *788:A1 0.000226272
4 *419:4 0.000289745
5 *419:5 0.000723052
6 *419:6 4.5648e-05
7 *419:7 0.000955153984

*RES
1 *799:ZN *419:4 2.99837
2 *419:6 *419:7 3.59477997
3 *419:4 *419:5 1.02908
4 *788:A1 *419:7 0.979327
5 *419:5 *419:7 3.13709
6 *960:A1 *419:6 3.0077
7 *787:A1 *419:5 0.450006
*END

*D_NET *420 0.000691437

*CONN
*I *787:ZN O *C 34.3 64.6 *L 0 *D NR2D0
*I *778:A2 I *C 35.7 64.4 *L 0.00105 *D OR2XD1

*CAP
1 *420:2 0.000691437031

*RES
1 *778:A2 *420:2 2.39471006
2 *787:ZN *420:2 0.225016
*END

*D_NET *421 0.000444802

*CONN
*I *786:ZN O *C 37.9 50.2 *L 0 *D OAI221D0
*I *774:B I *C 38.7 51.6 *L 0.000707 *D AOI211D0

*CAP
1 *774:B 8.89746e-05
2 *421:2 0.000355827969

*RES
1 *774:B *421:2 0.764032
2 *786:ZN *421:2 1.39137995
*END

*D_NET *422 0.00116072

*CONN
*I *785:ZN O *C 43.5 29.6 *L 0 *D AOI221D0
*I *773:A1 I *C 47.1 29.8 *L 0.000678 *D ND4D0

*CAP
1 *773:A1 0.000140635
2 *422:2 0.00102009

*RES
1 *773:A1 *422:2 3.74362993
2 *785:ZN *422:2 0.995087
*END

*D_NET *423 0.0011676

*CONN
*I *783:CO O *C 56.1 47.6 *L 0 *D FA1D0
*I *767:CI I *C 59.7 46.6 *L 0.001 *D FA1D0

*CAP
1 *767:CI 0.000347904
2 *423:2 0.000749873984
3 *423:3 6.98212e-05

*RES
1 *423:2 *423:3 2.78992009
2 *767:CI *423:3 1.33217
3 *783:CO *423:2 0.224987
*END

*D_NET *424 0.00415538

*CONN
*I *576:I I *C 67.7 60.8 *L 0.00104 *D DEL0
*I *783:S O *C 56.7 47.8 *L 0 *D FA1D0

*CAP
1 *576:I 0.000174625
2 *783:S 0.000485984
3 *424:2 0.00136515
4 *424:3 0.000227119
5 *424:4 0.000561058
6 *424:5 0.00134144

*RES
1 *424:4 *424:5 6.26378012
2 *783:S *424:2 1.74047
3 *424:3 *424:4 2.53768
4 *424:2 *424:5 5.42595
5 *576:I *424:3 2.00646
*END

*D_NET *425 0.00128733

*CONN
*I *782:CO O *C 27.7 51.2 *L 0 *D FA1D0
*I *768:CI I *C 33.9 51.4 *L 0.001 *D FA1D0

*CAP
1 *782:CO 0.00038861
2 *425:2 8.66195e-05
3 *425:3 0.000812103984

*RES
1 *425:2 *425:3 3.30808997
2 *782:CO *425:3 2.10526
3 *768:CI *425:2 0.224978
*END

*D_NET *426 0.00711342

*CONN
*I *567:I I *C 60.3 69.6 *L 0.00104 *D DEL0
*I *782:S O *C 28.3 51.4 *L 0 *D FA1D0

*CAP
1 *782:S 0.000548356
2 *426:2 0.000290022
3 *426:3 0.00333332
4 *426:5 0.000515448
5 *426:6 0.000853841
6 *426:7 0.00135439
7 *782:S *695:D 0.000218009004

*RES
1 *426:2 *426:3 25.9265003
2 *782:S *426:6 2.74551
3 *426:4 *426:7 6.52593
4 *426:6 *426:8 5.52465
5 *426:2 *426:5 2.57817
6 *567:I *426:5 0.449805
7 *426:3 *426:4 0.2251
8 *426:7 *426:8 0.2251
*END

*D_NET *427 0.000405167

*CONN
*I *781:ZN O *C 55.3 43.2 *L 0 *D AOI221D0
*I *772:B I *C 54.7 40.8 *L 0.000726 *D OAI211D0

*CAP
1 *772:B 0.000405167031

*RES
1 *772:B *781:ZN 2.12036
*END

*D_NET *428 0.00198961

*CONN
*I *780:ZN O *C 32.7 33.2 *L 0 *D AOI221D0
*I *770:B I *C 37.3 30 *L 0.000726 *D OAI211D0

*CAP
1 *770:B 0.000115333
2 *428:2 0.000774233
3 *428:3 0.00110003992

*RES
1 *770:B *428:2 0.761129
2 *428:2 *428:3 2.83494
3 *780:ZN *428:3 3.66559005
*END

*D_NET *429 0.00100779

*CONN
*I *777:ZN O *C 46.7 58.4 *L 0 *D OAI32D0
*I *690:A2 I *C 49.1 57.2 *L 0.000745 *D AO22D0

*CAP
1 *777:ZN 0.000582426016
2 *690:A2 0.000425362

*RES
1 *777:ZN *690:A2 3.99088
*END

*D_NET *430 0.003621

*CONN
*I *910:ZN O *C 63.3 45 *L 0 *D MOAI22D0
*I *776:A2 I *C 64.5 57.2 *L 0.000664 *D NR2D0
*I *775:A2 I *C 66.1 57.2 *L 0.000585 *D CKAN2D0

*CAP
1 *910:ZN 0.000295384
2 *776:A2 4.14293e-06
3 *775:A2 0.000261783
4 *430:3 0.00057525
5 *430:4 0.00150004
6 *430:5 0.000984393

*RES
1 *776:A2 *430:5 1.43112
2 *910:ZN *430:4 1.15067
3 *430:3 *430:4 5.16579008
4 *775:A2 *430:5 2.74559
5 *430:3 *430:5 3.09438
*END

*D_NET *431 0.000869583

*CONN
*I *784:ZN O *C 63.7 56.6 *L 0 *D IOA21D0
*I *776:A1 I *C 64.9 57.2 *L 0.000647 *D NR2D0
*I *775:A1 I *C 66.3 57.2 *L 0.000556 *D CKAN2D0

*CAP
1 *784:ZN 0.0001374
2 *776:A1 0.000185423
3 *775:A1 0.000156537
4 *431:3 0.000390226992

*RES
1 *431:3 *431:4 1.73011005
2 *784:ZN *431:4 0.764183
3 *775:A1 *431:3 0.786966
4 *776:A1 *431:4 0.384982
*END

*D_NET *432 0.000673414

*CONN
*I *776:ZN O *C 64.9 57.4 *L 0 *D NR2D0
*I *771:A2 I *C 65.1 58.8 *L 0.00105 *D OR2XD1

*CAP
1 *776:ZN 0.00061241
2 *771:A2 6.10027e-05

*RES
1 *776:ZN *771:A2 2.56435
*END

*D_NET *433 0.000404531

*CONN
*I *775:Z O *C 65.5 57.4 *L 0 *D CKAN2D0
*I *771:A1 I *C 65.5 58.6 *L 0.000964 *D OR2XD1

*CAP
1 *771:A1 0.000404531016

*RES
1 *775:Z *771:A1 1.57284
*END

*D_NET *434 0.00153235

*CONN
*I *774:ZN O *C 39.3 51.2 *L 0 *D AOI211D0
*I *769:B I *C 41.3 46.4 *L 0.000726 *D OAI211D0

*CAP
1 *774:ZN 0.000176998
2 *769:B 0.000908203984
3 *434:2 0.000447138

*RES
1 *774:ZN *434:2 2.20164
2 *769:B *434:2 4.01455021
*END

*D_NET *435 0.00177655

*CONN
*I *769:ZN O *C 41.9 45.8 *L 0 *D OAI211D0
*I *766:B2 I *C 46.7 44.4 *L 0.000774 *D INR3D0

*CAP
1 *766:B2 9.36008e-05
2 *435:2 0.000148642
3 *435:3 0.0015343

*RES
1 *769:ZN *435:3 1.14665
2 *435:2 *435:3 5.09401989
3 *766:B2 *435:2 0.745728
*END

*D_NET *436 0.00283504

*CONN
*I *768:CO O *C 32.9 51.2 *L 0 *D FA1D0
*I *761:CI I *C 44.5 50.2 *L 0.001 *D FA1D0

*CAP
1 *761:CI 0.000785723
2 *436:2 0.00148766
3 *436:3 0.000530573
4 *436:4 3.10993e-05

*RES
1 *436:3 *436:4 2.52097
2 *436:2 *436:4 5.37840986
3 *761:CI *436:3 3.23241
4 *768:CO *436:2 0.225031
*END

*D_NET *437 0.00755429

*CONN
*I *570:I I *C 60.1 68 *L 0.00104 *D DEL0
*I *768:S O *C 33.5 51.4 *L 0 *D FA1D0

*CAP
1 *768:S 0.000576604
2 *437:2 0.00104688
3 *437:3 0.0008691
4 *437:4 0.000781508
5 *437:5 0.00197738
6 *437:6 0.000418015
7 *437:7 0.000276897
8 *437:8 0.00049384
9 *768:S *986:D 0.000217543008
10 *768:S *782:A 0.000230495996
11 *437:5 *252:4 0.000666056016

*RES
1 *437:5 *437:6 2.43085
2 *768:S *437:3 2.58133
3 *437:7 *437:8 2.48972
4 *437:3 *437:6 4.54803
5 *437:2 *437:4 4.00669
6 *570:I *437:2 4.31663
7 *437:5 *437:8 11.1178999
8 *437:4 *437:7 1.50679
*END

*D_NET *438 0.0019908

*CONN
*I *767:CO O *C 58.7 46.8 *L 0 *D FA1D0
*I *760:CI I *C 60.3 39.4 *L 0.001 *D FA1D0

*CAP
1 *767:CO 5.97557e-05
2 *760:CI 0.000657916
3 *438:2 0.000568024
4 *438:3 0.000705093984

*RES
1 *438:2 *438:3 2.01284
2 *760:CI *438:2 2.64399
3 *767:CO *438:3 2.75826001
*END

*D_NET *439 0.00453142

*CONN
*I *577:I I *C 65.1 62.4 *L 0.00104 *D DEL0
*I *767:S O *C 59.3 46.6 *L 0 *D FA1D0

*CAP
1 *767:S 0.00055468
2 *439:2 0.000889419
3 *439:3 0.000667096
4 *439:4 0.000655826
5 *439:5 0.000829487
6 *439:6 0.000934927969

*RES
1 *439:5 *439:6 3.62395
2 *439:2 *439:3 2.25479
3 *767:S *439:5 1.90322
4 *439:3 *439:6 3.21298
5 *439:2 *439:4 3.35051
6 *577:I *439:4 2.7826
*END

*D_NET *440 0.00174021

*CONN
*I *772:ZN O *C 54.1 41.4 *L 0 *D OAI211D0
*I *765:B1 I *C 49.5 40.8 *L 0.000651 *D INR2D0
*I *763:A2 I *C 49.7 43 *L 0.000711 *D ND3D0

*CAP
1 *772:ZN 0.000148703
2 *765:B1 0.000123998
3 *440:3 0.000553072
4 *440:4 0.00031097
5 *440:5 0.000603458984

*RES
1 *763:A2 *440:3 1.37018
2 *440:4 *440:5 2.14418006
3 *440:3 *440:5 1.18902
4 *765:B1 *440:3 1.02494
5 *772:ZN *440:4 1.54427
*END

*D_NET *441 0.00124093

*CONN
*I *956:ZN O *C 49.1 43 *L 0 *D CKND0
*I *887:A2 I *C 48.5 42.8 *L 0.000664 *D NR2D0
*I *764:A2 I *C 49.3 44.4 *L 0.000664 *D NR2D0
*I *757:A2 I *C 48.3 40.8 *L 0.000664 *D NR2D0

*CAP
1 *956:ZN 0.000235426
2 *764:A2 0.000267897
3 *757:A2 0.000329482
4 *441:4 0.000408131992

*RES
1 *757:A2 *441:4 1.37346
2 *764:A2 *441:4 2.27215004
3 *764:A2 *956:ZN 1.50954
4 *887:A2 *441:4 0.449985
*END

*D_NET *442 0.00602498

*CONN
*I *569:I I *C 58.7 30 *L 0.00104 *D DEL0
*I *766:ZN O *C 47.1 44 *L 0 *D INR3D0

*CAP
1 *569:I 0.000649735
2 *766:ZN 4.03295e-06
3 *442:2 0.00021854
4 *442:3 0.000114179
5 *442:4 1.78508e-06
6 *442:5 4.62798e-07
7 *442:6 0.00216639
8 *569:I *697:D 0.000235710996
9 *569:I *560:I 0.000240948008
10 *442:2 *258:5 0.00124311992
11 *442:2 *65:13 0.00115005008

*RES
1 *442:5 *442:6 4.35563
2 *766:ZN *442:3 0.311043
3 *442:2 *442:4 0.869654
4 *442:3 *442:5 2.38398
5 *442:2 *442:6 11.2125998
6 *569:I *442:4 4.20199
*END

*D_NET *443 0.0060756

*CONN
*I *568:I I *C 64.5 64.4 *L 0.00104 *D DEL0
*I *761:S O *C 44.1 50.2 *L 0 *D FA1D0

*CAP
1 *761:S 0.000216895
2 *443:2 0.000586822
3 *443:3 0.000791173984
4 *443:4 0.00027366
5 *443:5 0.000753484
6 *443:6 0.000433996
7 *443:7 0.000300739
8 *443:8 0.000502495
9 *443:9 6.19563e-05
10 *443:10 0.000671378
11 *443:11 2.83222e-05
12 *443:2 *985:CP 0.000276982988
13 *443:3 *473:6 0.000339531016
14 *443:4 *17:36 0.000417828008
15 *443:5 *230:3 0.000420353008

*RES
1 *443:5 *443:11 3.24168
2 *443:3 *443:9 0.746221
3 *443:4 *443:3 4.33857012
4 *761:S *443:2 0.741389
5 *443:10 *443:11 0.159347
6 *443:9 *443:10 4.13811
7 *443:7 *443:8 2.53604
8 *443:6 *443:7 2.42826
9 *443:2 *443:8 3.07154
10 *568:I *443:4 1.33217
11 *443:5 *443:6 2.64395
*END

*D_NET *444 0.00199716

*CONN
*I *578:I I *C 63.3 33.6 *L 0.00104 *D DEL0
*I *760:S O *C 59.9 39.4 *L 0 *D FA1D0

*CAP
1 *578:I 0.000921905
2 *760:S 0.00100249008
3 *444:2 7.27679e-05

*RES
1 *578:I *444:2 3.95745993
2 *760:S *444:2 3.86821
*END

*D_NET *445 0.00335831

*CONN
*I *991:QN O *C 55.9 55.6 *L 0 *D DFD1
*I *927:A1 I *C 55.9 46.4 *L 0.000647 *D NR2D0
*I *886:A1 I *C 54.3 46.4 *L 0.000688 *D AO21D0
*I *756:A3 I *C 55.5 51.6 *L 0.000899 *D NR3D0
*I *716:B1 I *C 56.7 53.6 *L 0.000684 *D OAI32D0

*CAP
1 *991:QN 0.000488053
2 *927:A1 0.000256628
3 *886:A1 0.000624893
4 *716:B1 0.000661176
5 *445:5 0.000215931
6 *445:6 0.000321382
7 *445:7 0.00079025

*RES
1 *927:A1 *445:7 1.10715
2 *716:B1 *445:5 2.72879
3 *445:5 *445:7 2.72196
4 *445:5 *445:6 0.521522
5 *991:QN *445:6 2.77292
6 *886:A1 *445:7 3.36666989
7 *756:A3 *445:6 0.225006
*END

*D_NET *446 0.00186989

*CONN
*I *765:ZN O *C 49.5 41.4 *L 0 *D INR2D0
*I *759:A1 I *C 45.9 39.4 *L 0.000693 *D ND3D0
*I *757:A1 I *C 47.9 40.8 *L 0.000647 *D NR2D0
*I *755:B2 I *C 48.1 39.2 *L 0.000977 *D IND3D1
*I *751:A1 I *C 49.5 39.2 *L 0.000718 *D INR3D0

*CAP
1 *765:ZN 0.000191383
2 *759:A1 0.000610597031
3 *757:A1 6.63378e-06
4 *755:B2 9.69259e-05
5 *751:A1 0.000457815
6 *446:5 0.000333003
7 *446:6 0.000173531

*RES
1 *755:B2 *446:5 1.52433
2 *757:A1 *446:5 0.351018
3 *765:ZN *446:6 1.43973
4 *759:A1 *446:6 2.53184009
5 *765:ZN *751:A1 1.57471
6 *446:5 *446:6 0.224998
*END

*D_NET *447 0.0022226

*CONN
*I *773:ZN O *C 47.3 30.4 *L 0 *D ND4D0
*I *755:B1 I *C 47.7 39.2 *L 0.00101 *D IND3D1
*I *751:B1 I *C 48.9 39.2 *L 0.000894 *D INR3D0

*CAP
1 *773:ZN 0.000973016016
2 *755:B1 5.93891e-07
3 *751:B1 0.000168947
4 *447:3 0.000302424
5 *447:4 0.000251067
6 *447:5 0.000526544

*RES
1 *447:4 *447:5 1.84255
2 *751:B1 *447:3 1.38087
3 *755:B1 *447:3 0.460417
4 *773:ZN *447:5 3.59256005
5 *447:3 *447:4 0.915627
*END

*D_NET *448 0.00456143

*CONN
*I *770:ZN O *C 37.9 30.6 *L 0 *D OAI211D0
*I *759:A2 I *C 46.1 39.4 *L 0.000711 *D ND3D0
*I *755:A1 I *C 47.1 39.2 *L 0.000696 *D IND3D1
*I *751:B2 I *C 48.5 39.2 *L 0.000774 *D INR3D0

*CAP
1 *770:ZN 0.000798398
2 *755:A1 0.000118864
3 *448:4 0.000325285
4 *448:5 0.000789387
5 *448:7 0.000541872
6 *448:8 0.000806437
7 *448:9 0.00118116

*RES
1 *755:A1 *448:7 0.449979
2 *770:ZN *448:8 3.06041
3 *448:6 *448:8 3.1235
4 *448:5 *448:9 4.93387985
5 *448:4 *448:7 1.00814
6 *448:4 *448:5 2.73804
7 *751:B2 *448:7 1.57007
8 *759:A2 *448:4 0.601829
9 *448:6 *448:9 0.225027
*END

*D_NET *449 0.00122495

*CONN
*I *754:ZN O *C 32.5 39.4 *L 0 *D CKND0
*I *726:A1 I *C 36.9 39.2 *L 0.00069 *D AOI21D0

*CAP
1 *449:2 0.000979224063
2 *449:3 0.000245721

*RES
1 *726:A1 *449:3 0.817695
2 *449:2 *449:3 3.37310004
3 *754:ZN *449:2 0.225024
*END

*D_NET *450 0.000339748

*CONN
*I *989:D I *C 50.1 51.6 *L 0.000958 *D DFD1
*I *753:ZN O *C 50.3 53 *L 0 *D MOAI22D0

*CAP
1 *989:D 0.000339748008

*RES
1 *989:D *753:ZN 1.46282
*END

*D_NET *451 0.000372018

*CONN
*I *750:ZN O *C 62.1 50.2 *L 0 *D CKND0
*I *683:A3 I *C 61.9 48 *L 0.000714 *D OAI32D0

*CAP
1 *683:A3 0.000372018008

*RES
1 *683:A3 *750:ZN 1.81141
*END

*D_NET *452 0.00597962

*CONN
*I *987:DA I *C 54.5 55.2 *L 0.000727 *D DFXD1
*I *764:ZN O *C 49.7 44.2 *L 0 *D NR2D0
*I *758:A1 I *C 47.9 62.2 *L 0.000617 *D CKND2D0
*I *753:B1 I *C 49.5 53.6 *L 0.000689 *D MOAI22D0
*I *747:B I *C 55.1 53.6 *L 0.00072 *D AOI21D0

*CAP
1 *987:DA 3.90267e-06
2 *764:ZN 0.000950787031
3 *747:B 0.000225601
4 *452:5 0.00065121
5 *452:6 7.67623e-05
6 *452:7 0.000210672
7 *452:8 0.000535928
8 *452:9 0.000440291
9 *452:10 3.61251e-06
10 *452:11 0.000903288
11 *452:12 0.000117588
12 *452:9 *470:7 0.000813543047
13 *452:7 *753:A1 0.000492095
14 *452:9 *977:I 0.000350545
15 *452:5 *252:5 0.000203784004

*RES
1 *452:12 *452:5 0.351035
2 *452:6 *452:7 0.907856
3 *987:DA *452:6 0.334359
4 *764:ZN *452:8 3.79544
5 *758:A1 *452:9 0.3768
6 *452:11 *452:5 1.84081
7 *452:10 *452:11 5.46447992
8 *452:9 *452:10 1.94345
9 *452:8 *452:12 2.53763
10 *452:7 *452:5 4.38511
11 *747:B *452:6 1.80846
12 *753:B1 *452:12 0.224963
*END

*D_NET *453 0.0018617

*CONN
*I *949:ZN O *C 54.5 51.2 *L 0 *D CKND2D0
*I *756:A2 I *C 55.9 51.6 *L 0.000897 *D NR3D0
*I *747:A2 I *C 54.5 53.6 *L 0.000671 *D AOI21D0
*I *716:A2 I *C 57.5 53.6 *L 0.000704 *D OAI32D0

*CAP
1 *949:ZN 0.000252404
2 *756:A2 0.000290001
3 *747:A2 4.85656e-05
4 *716:A2 0.000280744
5 *453:4 0.000633886992
6 *453:5 0.000356103

*RES
1 *716:A2 *453:5 2.78523993
2 *453:4 *453:5 1.34511
3 *747:A2 *453:4 1.02857
4 *756:A2 *453:5 1.30422
5 *949:ZN *453:4 1.01463
*END

*D_NET *454 0.00105769

*CONN
*I *987:DB I *C 53.5 55.2 *L 0.00109 *D DFXD1
*I *762:ZN O *C 53.7 53.8 *L 0 *D CKND0
*I *747:A1 I *C 54.9 53.6 *L 0.00069 *D AOI21D0

*CAP
1 *762:ZN 8.09312e-05
2 *747:A1 0.000133809
3 *454:3 0.000842948047

*RES
1 *747:A1 *454:3 2.45750999
2 *762:ZN *454:3 0.384286
3 *987:DB *454:3 1.62744
*END

*D_NET *455 0.000899436

*CONN
*I *905:ZN O *C 61.5 35 *L 0 *D MOAI22D0
*I *745:B2 I *C 59.1 35.8 *L 0.000739 *D MOAI22D0
*I *745:A2 I *C 59.9 35.6 *L 0.000697 *D MOAI22D0

*CAP
1 *905:ZN 0.00031496
2 *455:3 0.00058448

*RES
1 *905:ZN *455:3 1.93053997
2 *745:B2 *455:3 1.20217
3 *745:A2 *455:3 0.449996
*END

*D_NET *456 0.00128286

*CONN
*I *760:CO O *C 59.3 39.6 *L 0 *D FA1D0
*I *745:B1 I *C 58.7 35.6 *L 0.000689 *D MOAI22D0
*I *745:A1 I *C 59.7 35.6 *L 0.000721 *D MOAI22D0

*CAP
1 *760:CO 9.65816e-05
2 *745:B1 0.00029886
3 *745:A1 0.000265172
4 *456:3 0.000622245

*RES
1 *745:A1 *456:3 1.71832
2 *745:B1 *456:3 1.04476
3 *760:CO *456:3 2.2332499
*END

*D_NET *457 0.000717461

*CONN
*I *579:I I *C 60.3 32 *L 0.00104 *D DEL0
*I *745:ZN O *C 59.5 35 *L 0 *D MOAI22D0

*CAP
1 *579:I 0.000234954
2 *745:ZN 0.000482505

*RES
1 *745:ZN *579:I 3.48613
*END

*D_NET *458 0.00106062

*CONN
*I *906:ZN O *C 47.5 45.8 *L 0 *D MOAI22D0
*I *744:B2 I *C 45.5 46.2 *L 0.000744 *D MAOI22D0
*I *744:A2 I *C 46.3 46.4 *L 0.000697 *D MAOI22D0

*CAP
1 *906:ZN 0.000343607
2 *744:B2 1.54896e-05
3 *458:3 0.000701527031

*RES
1 *744:B2 *458:3 1.3259
2 *906:ZN *458:3 1.86944997
3 *744:A2 *458:3 0.44999
*END

*D_NET *459 0.00158368

*CONN
*I *761:CO O *C 43.5 50.4 *L 0 *D FA1D0
*I *744:B1 I *C 45.1 46.4 *L 0.000686 *D MAOI22D0
*I *744:A1 I *C 46.1 46.4 *L 0.000713 *D MAOI22D0

*CAP
1 *761:CO 3.75104e-05
2 *744:B1 0.000259628
3 *744:A1 0.000252318
4 *459:3 0.000520152969
5 *459:4 0.000514065

*RES
1 *459:3 *459:4 2.64131999
2 *744:A1 *459:3 1.87471
3 *744:B1 *459:3 1.3847
4 *761:CO *459:4 1.27604
*END

*D_NET *460 0.000798344

*CONN
*I *744:ZN O *C 45.9 46.8 *L 0 *D MAOI22D0
*I *721:A2 I *C 44.7 44.4 *L 0.000697 *D MOAI22D0

*CAP
1 *744:ZN 0.000107001
2 *721:A2 0.000691343047

*RES
1 *721:A2 *744:ZN 3.0828
*END

*D_NET *461 0.00408831

*CONN
*I *561:I I *C 69.1 39.2 *L 0.00104 *D DEL0
*I *751:ZN O *C 48.9 39.6 *L 0 *D INR3D0

*CAP
1 *461:2 0.000102201
2 *461:3 0.00310513
3 *461:4 0.00058568
4 *461:5 0.000295327

*RES
1 *461:3 *461:5 12.0507002
2 *461:2 *461:4 2.23395
3 *461:4 *461:5 1.31731
4 *751:ZN *461:3 0.449952
5 *561:I *461:2 0.449952
*END

*D_NET *462 0.000562945

*CONN
*I *982:SA I *C 64.7 37.2 *L 0.00154 *D DFXD1
*I *743:ZN O *C 65.5 39.6 *L 0 *D IND2D0

*CAP
1 *743:ZN 2.35558e-05
2 *462:2 0.000539388008

*RES
1 *743:ZN *462:2 0.482444
2 *982:SA *462:2 1.84250998
*END

*D_NET *463 0.00113787

*CONN
*I *998:D I *C 36.3 57.2 *L 0.000958 *D DFD1
*I *742:ZN O *C 38.9 56.6 *L 0 *D MOAI22D0

*CAP
1 *742:ZN 0.000159731
2 *463:2 0.000978135

*RES
1 *998:D *463:2 0.477058
2 *742:ZN *463:2 3.34415007
*END

*D_NET *464 0.00168261

*CONN
*I *997:D I *C 34.1 55.2 *L 0.000958 *D DFD1
*I *741:ZN O *C 40.9 56.6 *L 0 *D MOAI22D0

*CAP
1 *997:D 0.000149041
2 *741:ZN 0.00023998
3 *464:2 0.000550768
4 *464:3 0.000742823984

*RES
1 *741:ZN *464:3 3.77486992
2 *997:D *464:2 0.603071
3 *464:2 *464:3 2.56665
*END

*D_NET *465 0.000457411

*CONN
*I *749:ZN O *C 48.3 64.6 *L 0 *D NR2D0
*I *740:I I *C 47.7 64.6 *L 0.00062 *D CKND0
*I *737:A1 I *C 49.1 64.4 *L 0.000647 *D NR2D0

*CAP
1 *740:I 0.000174917988
2 *737:A1 0.000168416
3 *465:3 0.000114076

*RES
1 *737:A1 *465:3 0.790452003
2 *740:I *465:3 0.766607
3 *749:ZN *465:3 0.225004
*END

*D_NET *466 0.000734464

*CONN
*I *740:ZN O *C 47.3 64.6 *L 0 *D CKND0
*I *720:B I *C 46.5 64.4 *L 0.00073 *D OAI21D0

*CAP
1 *740:ZN 0.000165137
2 *720:B 0.000569324023

*RES
1 *720:B *740:ZN 2.57445
*END

*D_NET *467 0.0048188

*CONN
*I *542:I I *C 66.5 66 *L 0.00104 *D DEL0
*I *756:ZN O *C 56.3 51.2 *L 0 *D NR3D0

*CAP
1 *756:ZN 0.00115087
2 *467:2 0.000621331
3 *467:3 0.000420835
4 *467:4 0.000670116
5 *467:5 0.000935237
6 *467:6 0.000227031
7 *467:7 0.000793378

*RES
1 *467:5 *467:7 3.33159
2 *467:2 *467:3 1.76635
3 *756:ZN *467:5 4.09188986
4 *467:6 *467:7 2.79938
5 *467:4 *467:6 1.09003
6 *542:I *467:2 2.96159
7 *467:3 *467:4 2.40689
*END

*D_NET *468 0.000551863

*CONN
*I *739:ZN O *C 65.9 49.6 *L 0 *D IND4D0
*I *681:B I *C 66.5 48 *L 0.000669 *D IOA21D0

*CAP
1 *681:B 0.000551863008

*RES
1 *681:B *739:ZN 1.78508
*END

*D_NET *469 0.00715794

*CONN
*I *560:I I *C 59.7 28.4 *L 0.00104 *D DEL0
*I *738:ZN O *C 30.5 41.4 *L 0 *D MOAI22D0

*CAP
1 *560:I 0.000780635
2 *738:ZN 0.000434448
3 *469:2 0.000317603
4 *469:3 0.000795847
5 *469:4 0.000349865
6 *469:5 0.0027387
7 *469:6 0.000261855
8 *469:4 *22:2 0.000305109004
9 *560:I *566:Z 0.00022542
10 *469:5 *63:6 0.000297904023
11 *560:I *569:I 0.000240948008
12 *469:3 *477:2 0.000409613008

*RES
1 *469:5 *469:6 1.61206
2 *469:3 *469:5 15.3446999
3 *469:3 *469:4 4.673
4 *469:2 *469:4 2.50438
5 *560:I *469:2 4.14501
6 *738:ZN *469:6 2.60951
*END

*D_NET *470 0.0077111

*CONN
*I *887:ZN O *C 48.1 43 *L 0 *D NR2D0
*I *856:I I *C 46.9 62.2 *L 0.00062 *D CKND0
*I *742:B1 I *C 38.1 57.2 *L 0.000689 *D MOAI22D0
*I *741:B1 I *C 40.1 57.2 *L 0.000689 *D MOAI22D0
*I *737:A2 I *C 48.7 64.4 *L 0.000664 *D NR2D0
*I *729:B I *C 46.9 57.2 *L 0.00072 *D AOI21D0

*CAP
1 *887:ZN 3.11245e-05
2 *742:B1 0.000468369
3 *741:B1 0.000165997
4 *737:A2 0.000137239
5 *470:6 0.000151277
6 *470:7 8.14742e-05
7 *470:8 0.000629679
8 *470:9 0.000815516
9 *470:10 0.000520243
10 *470:11 5.59695e-05
11 *470:12 0.000229429
12 *470:13 0.00149104
13 *470:14 0.00047235
14 *737:A2 *749:A1 0.000472908008
15 *470:6 *262:2 0.000229234004
16 *470:7 *452:9 0.000813543047
17 *470:8 *906:B1 0.000387504023
18 *470:6 *49:6 0.000235795996
19 *737:A2 *52:13 0.000322424004

*RES
1 *742:B1 *470:14 2.13608
2 *737:A2 *470:10 2.79422
3 *741:B1 *470:14 0.449956
4 *470:6 *470:13 6.2041502
5 *470:6 *470:9 0.479871
6 *470:6 *470:11 1.15911
7 *470:7 *470:9 4.9126
8 *470:8 *470:13 5.45637
9 *470:7 *470:10 1.09228
10 *470:12 *470:14 2.60185
11 *887:ZN *470:8 0.711523
12 *470:11 *470:12 1.62573
13 *856:I *470:7 0.225025
14 *729:B *470:9 0.449956
*END

*D_NET *471 0.0015572

*CONN
*I *856:ZN O *C 46.5 62.2 *L 0 *D CKND0
*I *758:A2 I *C 47.5 62.4 *L 0.000606 *D CKND2D0
*I *736:B I *C 43.3 62.4 *L 0.000669 *D IOA21D0
*I *720:A1 I *C 46.7 64.4 *L 0.0007 *D OAI21D0

*CAP
1 *758:A2 5.10854e-05
2 *720:A1 0.000332909
3 *471:4 0.000191003
4 *471:5 0.000708396016
5 *471:6 0.000273803

*RES
1 *720:A1 *471:4 1.92471
2 *471:5 *471:6 2.49975991
3 *758:A2 *471:6 1.14903
4 *736:B *471:5 0.225007
5 *856:ZN *471:4 0.225007
6 *471:4 *471:6 0.225007
*END

*D_NET *472 0.00732982

*CONN
*I *547:I I *C 67.5 68 *L 0.00104 *D DEL0
*I *735:ZN O *C 40.9 35 *L 0 *D MOAI22D0

*CAP
1 *735:ZN 0.000151229
2 *472:2 1.15256e-05
3 *472:3 0.000835156
4 *472:4 0.000117372
5 *472:5 0.00295051
6 *472:6 0.00216934
7 *472:2 *13:2 0.000235441992
8 *472:2 *18:4 0.000342507969
9 *472:2 *474:4 0.000516755

*RES
1 *472:5 *472:6 14.1058
2 *472:2 *472:3 2.89539
3 *735:ZN *472:4 0.76413
4 *472:4 *472:6 0.702277
5 *472:3 *472:5 20.7879009
6 *547:I *472:2 0.450104
*END

*D_NET *473 0.006899

*CONN
*I *550:I I *C 62.1 71.6 *L 0.00104 *D DEL0
*I *734:ZN O *C 57.9 30.6 *L 0 *D MOAI22D0

*CAP
1 *550:I 0.000205125
2 *734:ZN 0.000537497
3 *473:2 0.00039327
4 *473:3 0.000750806
5 *473:4 0.000514918
6 *473:5 0.000484026
7 *473:6 0.0009665
8 *473:7 2.23195e-05
9 *473:8 0.00121085
10 *473:9 0.000197069
11 *473:2 *13:2 0.00029051
12 *473:3 *31:3 0.000583087031
13 *473:6 *443:3 0.000339531016
14 *734:ZN *163:5 0.000403496016

*RES
1 *473:6 *473:7 0.159376
2 *473:5 *473:6 5.90927
3 *473:4 *473:5 2.30385
4 *550:I *473:2 3.04671
5 *734:ZN *473:3 1.9133
6 *473:7 *473:8 7.28375006
7 *473:8 *473:9 1.5143
8 *473:3 *473:9 6.14289
9 *473:2 *473:4 3.11095
*END

*D_NET *474 0.00775513

*CONN
*I *546:I I *C 68.1 69.6 *L 0.00104 *D DEL0
*I *733:ZN O *C 55.1 30.6 *L 0 *D MOAI22D0

*CAP
1 *733:ZN 0.000357377
2 *474:2 0.00313362
3 *474:3 0.000287852
4 *474:4 6.393e-05
5 *474:5 0.00128486
6 *474:6 8.11437e-05
7 *474:4 *472:2 0.000516755
8 *474:6 *15:2 0.00025608998
9 *733:ZN *516:3 0.000548828008
10 *733:ZN *966:A2 0.000311951016
11 *474:2 *562:Z 0.000528989023
12 *733:ZN *162:6 0.000383738008

*RES
1 *474:6 *474:2 2.54489
2 *733:ZN *474:3 3.52211
3 *474:5 *474:2 22.1755009
4 *474:3 *474:6 3.66727
5 *474:4 *474:5 2.60681
6 *546:I *474:4 1.70979
*END

*D_NET *475 0.00106391

*CONN
*I *732:ZN O *C 41.3 45 *L 0 *D MOAI22D0
*I *700:D I *C 42.5 40.8 *L 0.000885 *D DFKCNQD1

*CAP
1 *732:ZN 1.45055e-05
2 *700:D 0.000300881
3 *475:2 0.00074852

*RES
1 *700:D *475:2 0.963342
2 *732:ZN *475:2 2.87415004
*END

*D_NET *476 0.000843917

*CONN
*I *731:ZN O *C 44.5 38.6 *L 0 *D MOAI22D0
*I *712:D I *C 40.7 39.2 *L 0.000885 *D DFKCNQD1

*CAP
1 *731:ZN 0.000181284
2 *476:2 0.000662637031

*RES
1 *731:ZN *476:2 3.01635003
2 *712:D *476:2 0.22502
*END

*D_NET *477 0.00751367

*CONN
*I *543:I I *C 69.9 71.6 *L 0.00104 *D DEL0
*I *730:ZN O *C 52.3 41.4 *L 0 *D MOAI22D0

*CAP
1 *543:I 8.11655e-07
2 *730:ZN 0.000290978
3 *477:2 0.00039273
4 *477:3 0.00241781
5 *477:4 0.000634345
6 *477:5 5.16508e-05
7 *477:6 0.000672788
8 *477:7 1.47574e-06
9 *477:8 0.000206935
10 *477:9 0.000420327
11 *477:10 0.000275852
12 *477:11 0.000196863
13 *477:2 *469:3 0.000409613008
14 *477:3 *11:3 0.000342720977
15 *477:4 *205:4 0.00119883

*RES
1 *543:I *477:3 14.0433998
2 *477:11 *477:2 3.33042
3 *477:10 *477:11 1.28785
4 *477:7 *477:4 2.71585
5 *477:5 *477:6 3.12449
6 *477:5 *477:3 0.159214
7 *730:ZN *477:2 2.55214
8 *477:9 *477:10 2.55814
9 *477:8 *477:9 2.52128
10 *477:4 *477:8 2.12228
11 *477:6 *477:7 0.159214
*END

*D_NET *478 0.00185031

*CONN
*I *803:ZN O *C 43.5 58.4 *L 0 *D IND2D0
*I *777:A3 I *C 45.9 58.8 *L 0.000714 *D OAI32D0
*I *729:A2 I *C 46.3 57.2 *L 0.000671 *D AOI21D0
*I *693:A2 I *C 45.3 57.2 *L 0.000704 *D OAI32D0

*CAP
1 *803:ZN 0.000449524
2 *729:A2 0.000554303008
3 *693:A2 0.000552408
4 *478:4 6.98556e-05
5 *478:5 0.000224216

*RES
1 *693:A2 *478:5 2.47907996
2 *803:ZN *478:5 1.97688
3 *478:4 *478:5 0.705034
4 *729:A2 *478:4 1.90909
5 *777:A3 *478:4 0.449999
*END

*D_NET *479 0.000760835

*CONN
*I *748:ZN O *C 34.1 37 *L 0 *D NR2D0
*I *728:A1 I *C 33.5 37.2 *L 0.000647 *D NR2D0
*I *723:B I *C 35.9 37.2 *L 0.000718 *D AO21D0

*CAP
1 *748:ZN 0.000102045
2 *728:A1 0.000104754
3 *479:3 0.000346808984
4 *479:4 0.000207228

*RES
1 *479:3 *479:4 1.90469003
2 *728:A1 *479:3 0.52465
3 *748:ZN *479:3 0.597105
4 *723:B *479:4 0.449987
*END

*D_NET *480 0.00133899

*CONN
*I *747:ZN O *C 55.1 54 *L 0 *D AOI21D0
*I *727:B I *C 59.3 53.6 *L 0.00073 *D OAI21D0
*I *716:B2 I *C 56.9 53.6 *L 0.000733 *D OAI32D0

*CAP
1 *727:B 0.000250918
2 *716:B2 0.000151349
3 *480:3 0.00052905
4 *480:4 0.000407676

*RES
1 *727:B *480:3 0.769963
2 *480:3 *480:4 2.28741002
3 *747:ZN *480:4 1.33239
4 *716:B2 *480:4 0.863293
*END

*D_NET *481 0.00485873

*CONN
*I *757:ZN O *C 47.9 40.6 *L 0 *D NR2D0
*I *738:B1 I *C 31.3 40.8 *L 0.000689 *D MOAI22D0
*I *728:A2 I *C 33.1 37.2 *L 0.000664 *D NR2D0
*I *726:B I *C 37.1 39.2 *L 0.00072 *D AOI21D0
*I *723:A1 I *C 35.7 37.2 *L 0.000688 *D AO21D0

*CAP
1 *757:ZN 8.82073e-05
2 *738:B1 0.000558962
3 *726:B 0.000100415
4 *481:5 0.000631809
5 *481:6 0.000404527
6 *481:7 0.000360252
7 *481:8 0.000554348
8 *481:9 0.00187806
9 *481:10 0.000282189

*RES
1 *481:9 *481:10 1.01998
2 *481:8 *481:10 2.07823
3 *481:7 *481:10 1.62499
4 *481:6 *481:8 2.27284
5 *738:B1 *481:8 2.38272
6 *726:B *481:9 0.979138
7 *757:ZN *481:5 1.50984
8 *481:5 *481:9 7.66927004
9 *728:A2 *481:6 0.225037
10 *723:A1 *481:7 0.449956
*END

*D_NET *482 0.0018553

*CONN
*I *872:ZN O *C 32.5 40.4 *L 0 *D IND2D0
*I *822:A3 I *C 36.1 41 *L 0.00065 *D OA32D0
*I *726:A2 I *C 36.5 39.2 *L 0.000671 *D AOI21D0
*I *707:A2 I *C 33.9 40.8 *L 0.00102 *D OAI32D1

*CAP
1 *872:ZN 0.000217059
2 *822:A3 1.42615e-05
3 *726:A2 0.000641236
4 *482:4 0.000173546
5 *482:5 0.000809201016

*RES
1 *872:ZN *482:5 1.26526
2 *822:A3 *482:4 0.609987
3 *482:4 *482:5 2.08028
4 *707:A2 *482:5 0.674994
5 *726:A2 *482:4 2.3668499
*END

*D_NET *483 0.00166643

*CONN
*I *896:ZN O *C 45.9 33.4 *L 0 *D NR2D0
*I *857:A1 I *C 51.3 33.4 *L 0.000617 *D CKND2D0
*I *724:C I *C 48.7 33.6 *L 0.000686 *D AOI211D0
*I *717:A2 I *C 49.1 33.6 *L 0.00065 *D OAI211D0

*CAP
1 *896:ZN 0.000178578
2 *857:A1 0.000320344
3 *724:C 5.68785e-06
4 *483:4 0.000830185
5 *483:5 0.000331643

*RES
1 *483:4 *483:5 0.290827
2 *717:A2 *483:5 0.576029
3 *896:ZN *483:4 2.92549992
4 *724:C *483:4 0.576029
5 *857:A1 *483:5 2.04918
*END

*D_NET *484 0.000715281

*CONN
*I *724:ZN O *C 47.7 33.2 *L 0 *D AOI211D0
*I *715:B I *C 46.9 33.6 *L 0.000718 *D AO21D0

*CAP
1 *724:ZN 0.000715281016

*RES
1 *715:B *724:ZN 2.69394
*END

*D_NET *485 0.00678064

*CONN
*I *555:I I *C 64.9 28.4 *L 0.00104 *D DEL0
*I *723:Z O *C 36.5 36.8 *L 0 *D AO21D0

*CAP
1 *555:I 0.000617872
2 *723:Z 0.000140167
3 *485:2 0.000534821
4 *485:3 5.06166e-05
5 *485:5 0.000303592
6 *485:6 0.000831956
7 *485:7 0.00141517
8 *485:8 2.28682e-05
9 *485:9 0.000308645
10 *485:10 2.16805e-05
11 *485:11 0.000947334
12 *485:12 6.15864e-05
13 *485:2 *982:DA 0.000492395
14 *485:7 *256:3 0.000819348984
15 *555:I *103:22 0.000212582012

*RES
1 *485:4 *485:5 1.51228
2 *485:9 *485:10 0.0931894
3 *485:7 *485:8 0.0927995
4 *485:3 *485:7 6.07603
5 *485:10 *485:11 6.38835001
6 *723:Z *485:6 0.354139
7 *555:I *485:4 3.3363
8 *485:8 *485:9 2.8065
9 *485:11 *485:12 0.0930919
10 *485:2 *485:5 1.53724
11 *485:2 *485:3 1.08825
12 *485:6 *485:12 5.40986
*END

*D_NET *486 0.0021452

*CONN
*I *857:ZN O *C 51.5 33.2 *L 0 *D CKND2D0
*I *838:A1 I *C 51.3 28.4 *L 0.000647 *D NR2D0
*I *722:A1 I *C 50.5 30 *L 0.000645 *D AOI211D0
*I *717:C I *C 50.1 33.6 *L 0.000698 *D OAI211D0

*CAP
1 *857:ZN 4.26783e-06
2 *717:C 3.3464e-05
3 *486:4 0.000855328047
4 *486:5 0.000478793
5 *486:6 0.000773352

*RES
1 *486:4 *486:6 2.68181992
2 *486:4 *486:5 1.61173
3 *857:ZN *486:5 0.552356
4 *838:A1 *486:6 2.60055
5 *717:C *486:4 0.544949
6 *722:A1 *486:6 0.224985
*END

*D_NET *487 0.000437028

*CONN
*I *722:ZN O *C 50.5 29.6 *L 0 *D AOI211D0
*I *714:B I *C 52.9 30 *L 0.000718 *D AO21D0

*CAP
1 *722:ZN 0.000434071992
2 *714:B 2.95409e-06

*RES
1 *722:ZN *714:B 2.13282
*END

*D_NET *488 0.00653433

*CONN
*I *544:I I *C 67.3 71.6 *L 0.00104 *D DEL0
*I *721:ZN O *C 44.3 45 *L 0 *D MOAI22D0

*CAP
1 *544:I 0.000129137
2 *721:ZN 6.8702e-05
3 *488:2 0.000886584
4 *488:3 0.000159509
5 *488:4 0.000262032
6 *488:5 0.000267027
7 *488:6 0.000228432
8 *488:7 0.00133845
9 *488:8 0.00289729
10 *544:I *9:4 0.000297109004

*RES
1 *488:7 *488:8 16.8535004
2 *488:6 *488:7 6.38204
3 *544:I *488:3 1.86598
4 *721:ZN *488:2 0.785122
5 *488:5 *488:6 0.0928362
6 *488:4 *488:5 2.68042
7 *488:3 *488:4 2.22524
8 *488:2 *488:8 3.3547
*END

*D_NET *489 0.00146077

*CONN
*I *720:ZN O *C 46.5 63.8 *L 0 *D OAI21D0
*I *708:D I *C 52.1 66 *L 0.000963 *D DFQD1

*CAP
1 *720:ZN 0.000409679
2 *489:2 0.000259396
3 *489:3 0.000791706016

*RES
1 *489:2 *489:3 4.00652981
2 *708:D *489:2 0.603095
3 *720:ZN *489:3 1.4684
*END

*D_NET *490 0.00108114

*CONN
*I *729:ZN O *C 46.9 57.6 *L 0 *D AOI21D0
*I *718:I I *C 47.9 57.4 *L 0.00062 *D CKND0
*I *693:B2 I *C 44.7 57.2 *L 0.000733 *D OAI32D0

*CAP
1 *729:ZN 0.000287835
2 *490:3 0.000793308047

*RES
1 *729:ZN *490:3 0.434846
2 *693:B2 *490:3 3.01438999
3 *718:I *729:ZN 0.466629
*END

*D_NET *491 1.3484e-05

*CONN
*I *718:ZN O *C 48.3 57.4 *L 0 *D CKND0
*I *690:B2 I *C 48.5 57.4 *L 0.000698 *D AO22D0

*CAP
1 *718:ZN 1.34840002e-05

*RES
1 *718:ZN *690:B2 0.15875
*END

*D_NET *492 0.000393364

*CONN
*I *717:ZN O *C 49.1 34.2 *L 0 *D OAI211D0
*I *691:B I *C 49.3 35.6 *L 0.000669 *D IOA21D0

*CAP
1 *717:ZN 0.000393364023

*RES
1 *717:ZN *691:B 1.71955
*END

*D_NET *493 0.00357751

*CONN
*I *551:I I *C 59.5 71.6 *L 0.00104 *D DEL0
*I *716:ZN O *C 57.9 54 *L 0 *D OAI32D0

*CAP
1 *716:ZN 0.00043324
2 *493:2 0.00112439
3 *493:3 0.000313296
4 *493:4 0.00170658

*RES
1 *493:2 *493:3 1.0251
2 *551:I *493:2 4.17865
3 *493:3 *493:4 7.5416398
4 *716:ZN *493:4 1.70336
*END

*D_NET *494 0.0074584

*CONN
*I *549:I I *C 69.1 66 *L 0.00104 *D DEL0
*I *715:Z O *C 47.5 33.2 *L 0 *D AO21D0

*CAP
1 *549:I 0.000107971
2 *715:Z 0.000214576
3 *494:2 0.00229438
4 *494:3 5.70663e-06
5 *494:4 0.000394598
6 *494:5 0.000380384
7 *494:6 0.000408812
8 *494:7 0.00164382
9 *494:2 *12:2 0.000445885
10 *494:2 *14:3 0.000824136016
11 *494:2 *18:3 0.000738155

*RES
1 *494:5 *494:6 2.24104
2 *494:4 *494:7 14.8625
3 *715:Z *494:2 1.74707
4 *494:3 *494:4 1.48653
5 *549:I *494:3 0.675
6 *494:5 *494:7 3.62395
7 *494:2 *494:6 15.1912003
*END

*D_NET *495 0.00665294

*CONN
*I *552:I I *C 69.3 64.4 *L 0.00104 *D DEL0
*I *755:ZN O *C 47.5 38.6 *L 0 *D IND3D1

*CAP
1 *552:I 0.00027329
2 *755:ZN 0.000519494
3 *495:2 0.000290448
4 *495:3 0.00116598
5 *495:4 0.000227779
6 *495:5 0.000385914
7 *495:6 0.000302065
8 *495:7 0.000685026
9 *495:8 0.000124916
10 *495:9 0.00184336
11 *495:7 *15:3 0.000216951992
12 *495:6 *33:3 0.00032273502
13 *495:2 *268:4 0.00029501

*RES
1 *495:2 *495:8 1.3537
2 *495:7 *495:9 11.2000999
3 *495:6 *495:7 4.55141
4 *755:ZN *495:4 2.97366
5 *495:2 *495:9 2.25861
6 *495:4 *495:5 1.38685
7 *495:3 *495:8 4.90585
8 *552:I *495:6 1.91904
9 *495:3 *495:5 1.70541
*END

*D_NET *496 0.0080273

*CONN
*I *548:I I *C 65.5 69.6 *L 0.00104 *D DEL0
*I *714:Z O *C 53.5 29.6 *L 0 *D AO21D0

*CAP
1 *714:Z 3.40858e-06
2 *496:2 0.00118005
3 *496:3 0.000689024
4 *496:4 0.000192162
5 *496:5 0.000537383
6 *496:6 0.00019418
7 *496:7 0.000517968
8 *496:8 0.000205306
9 *496:9 0.000537819
10 *496:10 0.000308736
11 *496:11 0.00178705
12 *496:12 0.000302409
13 *496:13 0.000522385
14 *496:14 0.000142751
15 *496:5 *247:2 0.00016891
16 *496:2 *93:36 0.000580971016
17 *496:3 *6:6 0.000156822998

*RES
1 *496:13 *496:14 0.159377
2 *496:11 *496:14 8.66082001
3 *496:7 *496:8 0.715215
4 *548:I *496:4 1.35352
5 *496:5 *496:7 2.7295
6 *714:Z *496:2 0.327345
7 *496:4 *496:3 3.36939
8 *496:6 *496:11 0.865078
9 *496:9 *496:10 1.18714
10 *496:10 *496:12 2.25996
11 *496:3 *496:5 2.36092
12 *496:12 *496:13 2.49797
13 *496:2 *496:6 6.45808
14 *496:8 *496:9 3.56273
*END

*D_NET *497 0.00254367

*CONN
*I *984:DA I *C 67.3 53.6 *L 0.000727 *D DFXD1
*I *727:ZN O *C 59.3 53 *L 0 *D OAI21D0
*I *713:B I *C 65.5 51.6 *L 0.000655 *D IAO21D0

*CAP
1 *727:ZN 0.000430227
2 *713:B 0.000390349
3 *497:3 0.00110828992
4 *497:4 0.000614815

*RES
1 *727:ZN *497:3 1.511
2 *713:B *497:4 1.48285
3 *984:DA *497:4 1.89014
4 *497:3 *497:4 4.45535994
*END

*D_NET *498 0.00588747

*CONN
*I *554:I I *C 69.3 32 *L 0.00104 *D DEL0
*I *763:ZN O *C 50.1 42.4 *L 0 *D ND3D0

*CAP
1 *554:I 0.000756592
2 *763:ZN 5.26142e-06
3 *498:2 0.00033772
4 *498:3 0.000713855
5 *498:4 0.000830860938
6 *498:5 4.71246e-05
7 *498:6 0.000141754
8 *498:7 0.000308078
9 *498:8 5.95872e-07
10 *498:3 *167:6 0.000419165
11 *498:2 *605:Z 0.0001945
12 *498:3 *17:22 0.000362853984
13 *498:4 *22:4 0.000657632969
14 *498:4 *65:12 0.00111148

*RES
1 *498:2 *498:8 3.32118
2 *554:I *498:5 3.45756
3 *498:4 *498:7 3.05666
4 *498:6 *498:3 3.8567
5 *498:5 *498:4 4.09044981
6 *763:ZN *498:6 0.536085
7 *498:7 *498:8 3.92605
8 *498:3 *498:2 0.887483
*END

*D_NET *499 0.00153429

*CONN
*I *726:ZN O *C 37.1 39.6 *L 0 *D AOI21D0
*I *707:B2 I *C 34.5 40.8 *L 0.00106 *D OAI32D1
*I *703:A1 I *C 38.1 40.8 *L 0.000672 *D OAI22D0

*CAP
1 *726:ZN 0.000213629
2 *707:B2 0.00085586
3 *703:A1 4.4494e-05
4 *499:3 0.00042031

*RES
1 *707:B2 *499:3 3.7260499
2 *726:ZN *499:3 0.923894
3 *703:A1 *499:3 1.65056
*END

*D_NET *500 0.00728637

*CONN
*I *557:I I *C 62.3 28.4 *L 0.00104 *D DEL0
*I *707:ZN O *C 34.3 41.4 *L 0 *D OAI32D1

*CAP
1 *557:I 0.000257729
2 *707:ZN 0.000884786
3 *500:2 0.000343682
4 *500:3 0.0020878
5 *500:4 5.54963e-05
6 *500:5 7.00871e-07
7 *500:6 0.000377101
8 *500:7 1.59289e-06
9 *500:8 0.000155498
10 *500:9 0.000359993
11 *500:10 0.00117151
12 *500:2 *734:B1 0.000468903008
13 *500:3 *515:8 0.000892918984
14 *557:I *560:Z 0.00022859

*RES
1 *500:9 *500:10 6.79153013
2 *500:7 *500:2 2.68051
3 *707:ZN *500:5 3.57432
4 *500:8 *500:9 1.8782
5 *500:2 *500:8 1.51487
6 *500:6 *500:7 0.092853
7 *500:3 *500:10 4.10087
8 *500:3 *500:5 4.14802
9 *500:4 *500:6 2.9914
10 *557:I *500:4 2.03862
*END

*D_NET *501 0.00199753

*CONN
*I *728:ZN O *C 33.5 37 *L 0 *D NR2D0
*I *706:A1 I *C 29.3 37.2 *L 0.000672 *D OAI22D0
*I *692:B2 I *C 33.1 35.6 *L 0.00106 *D OAI32D1

*CAP
1 *728:ZN 0.000112718
2 *706:A1 0.000568226992
3 *692:B2 0.000527154
4 *501:3 0.000331581
5 *501:4 0.000296075
6 *501:5 0.000161785

*RES
1 *501:3 *501:4 2.17899
2 *728:ZN *501:3 0.450009
3 *692:B2 *501:5 2.74879003
4 *706:A1 *501:4 1.5782
5 *501:3 *501:5 0.224983
*END

*D_NET *502 0.0048918

*CONN
*I *556:I I *C 69.3 33.6 *L 0.00104 *D DEL0
*I *706:ZN O *C 29.1 37 *L 0 *D OAI22D0

*CAP
1 *502:2 0.000509899
2 *502:3 0.000252102
3 *502:4 0.000242374
4 *502:5 0.00388742

*RES
1 *502:4 *502:5 25.4629002
2 *556:I *502:2 0.674882
3 *706:ZN *502:3 1.54714
4 *502:3 *502:5 0.449921
5 *502:2 *502:4 1.73907
*END

*D_NET *503 0.00203549

*CONN
*I *737:ZN O *C 49.1 64.6 *L 0 *D NR2D0
*I *705:B2 I *C 52.5 69.6 *L 0.000733 *D OAI32D0
*I *694:B1 I *C 50.7 69.6 *L 0.000675 *D OAI22D0

*CAP
1 *737:ZN 0.00105654
2 *694:B1 8.55099e-05
3 *503:3 0.000890147
4 *503:4 3.30496e-06

*RES
1 *503:3 *503:4 0.159258
2 *705:B2 *503:3 3.24327
3 *737:ZN *503:4 4.10424995
4 *694:B1 *503:3 1.29573
*END

*D_NET *504 0.000875565

*CONN
*I *705:ZN O *C 53.5 69.2 *L 0 *D OAI32D0
*I *685:D I *C 54.7 68 *L 0.000963 *D DFQD1

*CAP
1 *504:2 0.000875565

*RES
1 *705:ZN *504:2 1.40984
2 *685:D *504:2 1.41007996
*END

*D_NET *505 0.00135109

*CONN
*I *736:ZN O *C 43.1 63 *L 0 *D IOA21D0
*I *704:B2 I *C 39.1 61 *L 0.000698 *D AO22D0
*I *702:A1 I *C 40.9 62.6 *L 0.00073 *D AO22D0

*CAP
1 *736:ZN 0.000154631
2 *704:B2 0.000675311953
3 *505:3 0.000521145

*RES
1 *704:B2 *505:3 2.8020699
2 *736:ZN *505:3 2.3179
3 *702:A1 *505:3 1.26387
*END

*D_NET *506 0.000673818

*CONN
*I *995:D I *C 35.5 60.8 *L 0.000958 *D DFD1
*I *704:Z O *C 37.7 60.2 *L 0 *D AO22D0

*CAP
1 *995:D 8.25601e-05
2 *506:2 0.000591255

*RES
1 *704:Z *506:2 1.77927995
2 *995:D *506:2 0.861893
*END

*D_NET *507 0.00733936

*CONN
*I *759:ZN O *C 45.7 38.8 *L 0 *D ND3D0
*I *754:I I *C 32.1 39.4 *L 0.00062 *D CKND0
*I *748:A1 I *C 34.1 37.2 *L 0.000647 *D NR2D0
*I *738:A1 I *C 30.3 40.8 *L 0.000721 *D MOAI22D0
*I *707:A3 I *C 34.3 40.8 *L 0.00103 *D OAI32D1
*I *706:B1 I *C 28.3 37.2 *L 0.000675 *D OAI22D0
*I *703:B1 I *C 39.1 40.8 *L 0.000675 *D OAI22D0
*I *692:A3 I *C 32.9 35.6 *L 0.00103 *D OAI32D1

*CAP
1 *759:ZN 0.000246762
2 *748:A1 0.000411399
3 *692:A3 8.87691e-05
4 *507:8 0.00052728
5 *507:9 0.00010298
6 *507:10 0.000726008
7 *507:11 0.000797465
8 *507:12 0.000120386
9 *507:13 0.000521973
10 *507:14 0.000306253
11 *507:16 0.000865138
12 *507:17 0.000876127031
13 *507:10 *74:6 0.000357951992
14 *507:8 *628:Z 0.000359583008
15 *759:ZN *508:4 0.000560681992
16 *692:A3 *258:2 0.000213288984
17 *507:8 *979:I 0.000257297988

*RES
1 *707:A3 *507:10 0.757279
2 *507:10 *507:11 0.945208
3 *748:A1 *507:11 1.48521
4 *507:13 *507:14 0.328067
5 *507:12 *507:13 1.17424
6 *507:11 *507:12 2.47004
7 *507:10 *507:15 4.03957
8 *738:A1 *507:13 1.70847
9 *507:14 *507:8 3.49873
10 *759:ZN *507:9 1.24984
11 *507:9 *507:16 4.61279011
12 *703:B1 *507:16 0.702026
13 *692:A3 *507:17 2.72526
14 *507:15 *507:16 0.741019
15 *507:14 *507:17 2.76376
16 *706:B1 *507:8 0.225023
17 *754:I *507:12 0.225023
*END

*D_NET *508 0.00631805

*CONN
*I *558:I I *C 70.1 37.2 *L 0.00104 *D DEL0
*I *703:ZN O *C 38.3 40.6 *L 0 *D OAI22D0

*CAP
1 *558:I 0.00053899
2 *508:2 0.000523302
3 *508:3 0.000551775
4 *508:4 0.00121958008
5 *508:5 0.0002369
6 *508:6 1.44783e-05
7 *508:7 0.000846104
8 *508:8 0.000590166
9 *508:2 *698:D 0.00080711
10 *558:I *11:5 0.000212937988
11 *508:3 *22:3 0.000216015
12 *508:4 *759:ZN 0.000560681992

*RES
1 *508:8 *508:3 4.56461
2 *508:2 *508:4 6.24574995
3 *508:6 *508:7 6.1534
4 *508:4 *508:8 0.0928247
5 *508:7 *508:2 1.61052
6 *508:5 *508:6 2.26906
7 *703:ZN *508:3 1.76205
8 *558:I *508:5 4.19055
*END

*D_NET *509 0.00464659

*CONN
*I *752:ZN O *C 46.3 62.2 *L 0 *D CKND0
*I *736:A1 I *C 42.3 62.4 *L 0.000669 *D IOA21D0
*I *729:A1 I *C 46.7 57.2 *L 0.00069 *D AOI21D0
*I *704:A1 I *C 38.9 60.6 *L 0.00073 *D AO22D0
*I *702:B2 I *C 40.7 62.2 *L 0.000698 *D AO22D0
*I *690:A1 I *C 48.7 57 *L 0.00073 *D AO22D0

*CAP
1 *704:A1 0.000389646
2 *702:B2 8.32801e-05
3 *690:A1 0.000131557
4 *509:6 0.000367973
5 *509:7 0.000895008047
6 *509:8 0.000532293
7 *509:9 0.00081506
8 *509:10 0.000656489
9 *509:11 0.000775291

*RES
1 *509:8 *509:10 2.0403
2 *690:A1 *509:6 0.575998
3 *752:ZN *509:10 1.90135
4 *702:B2 *509:9 2.46851
5 *509:8 *509:11 0.991921
6 *509:7 *509:10 3.83429003
7 *509:6 *509:7 1.7105
8 *736:A1 *509:11 2.18007
9 *509:9 *509:11 1.13444
10 *704:A1 *509:9 1.72981
11 *729:A1 *509:7 0.449974
*END

*D_NET *510 0.000545652

*CONN
*I *992:D I *C 41.5 64.4 *L 0.000958 *D DFD1
*I *702:Z O *C 42.1 63 *L 0 *D AO22D0

*CAP
1 *992:D 0.000420053008
2 *702:Z 0.000125596

*RES
1 *992:D *702:Z 1.92241
*END

*D_NET *511 0.0135866

*CONN
*I *986:E I *C 33.3 53.6 *L 0.00161 *D EDFKCND1
*I *985:E I *C 43.5 51.6 *L 0.00161 *D EDFKCND1
*I *983:E I *C 59.1 40.8 *L 0.00161 *D EDFKCND1
*I *981:E I *C 58.3 51.6 *L 0.00161 *D EDFKCND1
*I *746:ZN O *C 54.9 36.8 *L 0 *D INVD1
*I *717:B I *C 49.7 33.6 *L 0.000726 *D OAI211D0
*I *711:E I *C 59.1 37.2 *L 0.00161 *D EDFKCNQD1
*I *710:E I *C 54.5 50 *L 0.00161 *D EDFKCNQD1
*I *709:E I *C 55.7 50 *L 0.00161 *D EDFKCNQD1
*I *696:E I *C 27.9 50 *L 0.00161 *D EDFKCNQD1
*I *695:E I *C 27.7 53.6 *L 0.00161 *D EDFKCNQD1

*CAP
1 *986:E 0.000106021
2 *985:E 5.66627e-05
3 *981:E 6.50623e-05
4 *746:ZN 4.66137e-05
5 *717:B 0.00072597
6 *710:E 7.60539e-05
7 *709:E 0.00014113
8 *696:E 0.000622749
9 *695:E 3.26975e-05
10 *511:11 0.000404096
11 *511:12 0.000143279
12 *511:13 0.000488189
13 *511:14 0.000338507
14 *511:15 0.000392883
15 *511:16 0.000629569
16 *511:17 0.000496963
17 *511:18 0.000908363984
18 *511:19 0.000453219
19 *511:20 0.00022094
20 *511:21 0.000287292
21 *511:22 0.000803424
22 *511:23 0.000372424
23 *511:24 0.000194854
24 *511:25 6.02388e-05
25 *511:26 0.000291575
26 *511:27 0.000184292
27 *511:28 0.000138982
28 *511:29 0.000153813
29 *511:30 0.000152371
30 *511:31 0.000570384
31 *511:26 *67:4 0.000700872031
32 *511:11 *768:B 0.000390448984
33 *511:12 *22:7 0.000993531016
34 *717:B *103:19 0.000494925
35 *511:13 *230:3 0.00118693992
36 *986:E *695:Q 0.00026126998

*RES
1 *511:28 *511:11 2.52098
2 *511:14 *511:15 1.51381
3 *511:25 *511:30 2.23999
4 *511:24 *511:30 0.394813
5 *511:13 *511:24 3.0946
6 *511:16 *511:13 0.646757
7 *986:E *511:19 0.716284
8 *511:14 *511:16 2.53717
9 *710:E *511:30 0.576025
10 *511:19 *511:31 3.71004
11 *511:18 *511:26 3.50266
12 *511:17 *511:29 4.38549995
13 *695:E *511:20 0.544975
14 *985:E *511:23 0.930687
15 *511:19 *511:11 1.64282
16 *981:E *511:13 1.25122
17 *511:25 *511:26 2.73732
18 *511:23 *511:27 2.74649
19 *709:E *511:24 1.12829
20 *511:12 *511:22 0.328096
21 *511:12 *511:29 3.08489
22 *511:27 *511:28 1.17012
23 *511:21 *511:22 3.01443
24 *511:18 *511:23 1.50859
25 *511:15 *511:21 2.33575
26 *696:E *511:20 3.21639
27 *717:B *511:17 2.95842
28 *746:ZN *511:29 0.45002
29 *711:E *511:22 0.224976
30 *983:E *511:21 0.224976
31 *511:20 *511:31 0.224976
*END

*D_NET *512 0.00593893

*CONN
*I *758:ZN O *C 48.1 62 *L 0 *D CKND2D0
*I *752:I I *C 45.9 62.2 *L 0.00062 *D CKND0
*I *749:A1 I *C 48.3 64.4 *L 0.000647 *D NR2D0
*I *742:A1 I *C 39.1 57.2 *L 0.000721 *D MOAI22D0
*I *741:A1 I *C 41.1 57.2 *L 0.000721 *D MOAI22D0
*I *705:A3 I *C 52.7 69.6 *L 0.000714 *D OAI32D0
*I *694:A1 I *C 51.7 69.6 *L 0.000672 *D OAI22D0
*I *693:A3 I *C 44.9 57.2 *L 0.000714 *D OAI32D0

*CAP
1 *752:I 2.34966e-05
2 *749:A1 2.40869e-06
3 *742:A1 0.000401756
4 *741:A1 0.000161052
5 *705:A3 0.000209887
6 *693:A3 9.0881e-05
7 *512:8 0.000739859
8 *512:9 0.00026792
9 *512:10 5.97096e-05
10 *512:11 0.000133718
11 *512:12 0.000134332
12 *512:13 0.000773792969
13 *512:14 0.00019351
14 *512:15 0.000408179
15 *512:16 8.97829e-05
16 *512:17 0.000470805
17 *512:18 0.000399855
18 *512:19 0.000243018
19 *749:A1 *737:A2 0.000472908008
20 *752:I *186:7 0.000412156992
21 *512:8 *136:4 0.00024991

*RES
1 *694:A1 *512:9 0.586454
2 *752:I *512:11 0.781099
3 *741:A1 *512:18 0.990564
4 *742:A1 *512:18 2.41992
5 *512:10 *512:15 1.65417
6 *512:8 *512:17 2.42025
7 *512:16 *512:18 2.31424
8 *512:13 *512:14 0.314367
9 *693:A3 *512:14 0.587374
10 *512:14 *512:16 0.712569
11 *512:12 *512:13 2.77075
12 *705:A3 *512:9 1.68807
13 *512:15 *512:19 2.24096
14 *512:11 *512:12 0.850162
15 *749:A1 *512:10 0.576041
16 *512:9 *512:8 3.17399001
17 *758:ZN *512:15 0.450023
18 *512:10 *512:17 0.225012
19 *512:11 *512:19 0.225012
*END

*D_NET *513 0.000522811

*CONN
*I *694:ZN O *C 51.5 69.4 *L 0 *D OAI22D0
*I *684:D I *C 52.5 71.6 *L 0.000963 *D DFQD1

*CAP
1 *694:ZN 0.000522810977

*RES
1 *694:ZN *684:D 1.927
*END

*D_NET *514 0.00546126

*CONN
*I *553:I I *C 64.9 68 *L 0.00104 *D DEL0
*I *693:ZN O *C 45.7 57.6 *L 0 *D OAI32D0

*CAP
1 *553:I 0.000219811
2 *693:ZN 0.00054315
3 *514:2 0.000181378
4 *514:3 0.000314176
5 *514:4 4.6517e-05
6 *514:5 0.000566003008
7 *514:6 0.000313061
8 *514:7 0.00044515
9 *514:8 0.00035355
10 *514:9 0.000337684
11 *514:10 0.000240652
12 *553:I *13:2 0.000481096016
13 *514:10 *14:2 0.000240176016
14 *514:3 *18:2 0.000893695
15 *514:2 *32:3 0.000285142988

*RES
1 *514:6 *514:7 1.49831
2 *693:ZN *514:8 1.4017
3 *514:8 *514:10 3.00474
4 *514:7 *514:9 2.64491
5 *514:5 *514:6 1.44751
6 *514:4 *514:5 4.19305992
7 *514:3 *514:4 0.219071
8 *514:9 *514:10 2.43416
9 *514:2 *514:3 3.18459
10 *553:I *514:2 3.20027
*END

*D_NET *515 0.0059532

*CONN
*I *562:I I *C 61.3 30 *L 0.00104 *D DEL0
*I *692:ZN O *C 32.9 35 *L 0 *D OAI32D1

*CAP
1 *562:I 0.000228662
2 *692:ZN 6.3491e-05
3 *515:2 9.45068e-05
4 *515:3 3.43661e-05
5 *515:4 8.95739e-05
6 *515:5 0.0011896
7 *515:6 0.000479687
8 *515:7 0.000143754
9 *515:8 0.001347
10 *515:5 *20:2 0.000495503984
11 *515:2 *93:28 0.00036038
12 *515:8 *500:3 0.000892918984
13 *515:2 *734:A1 0.000533734961

*RES
1 *515:7 *515:8 2.80761
2 *515:3 *515:2 3.91958
3 *515:6 *515:8 3.49268
4 *515:2 *515:4 2.40194
5 *562:I *515:3 1.04084
6 *692:ZN *515:7 1.28119
7 *515:5 *515:6 2.48808
8 *515:4 *515:5 7.99582005
*END

*D_NET *516 0.00860579

*CONN
*I *545:I I *C 70.1 68 *L 0.00104 *D DEL0
*I *691:ZN O *C 49.5 35 *L 0 *D IOA21D0

*CAP
1 *691:ZN 0.000521187
2 *516:2 0.000517171
3 *516:3 0.000467155
4 *516:4 0.00173152
5 *516:5 4.27761e-05
6 *516:7 0.000586421
7 *516:8 0.00131509
8 *516:9 3.56688e-06
9 *516:10 0.000672713
10 *516:11 0.000586474
11 *516:12 0.000215756
12 *516:13 0.000364535
13 *516:14 0.000446599
14 *516:2 *11:3 0.000418172969
15 *516:3 *733:ZN 0.000548828008
16 *516:4 *64:11 0.000167890996

*RES
1 *516:8 *516:9 0.159245
2 *545:I *516:2 3.21183
3 *516:4 *516:11 3.77125
4 *516:5 *516:8 5.58647
5 *516:6 *516:7 0.159245
6 *516:9 *516:10 3.24954
7 *691:ZN *516:14 2.54102
8 *516:13 *516:14 2.55443
9 *516:4 *516:6 8.21105957
10 *516:3 *516:13 2.01267
11 *516:12 *516:3 3.13252
12 *516:7 *516:10 2.61444
13 *516:11 *516:12 1.6056
14 *516:2 *516:5 0.41158
*END

*D_NET *517 0.00403573

*CONN
*I *559:I I *C 69.9 62.4 *L 0.00104 *D DEL0
*I *690:Z O *C 49.9 56.6 *L 0 *D AO22D0

*CAP
1 *690:Z 0.000817182
2 *517:2 0.00197682
3 *517:3 0.000295882
4 *517:4 0.000470534
5 *517:5 0.00047533

*RES
1 *559:I *517:3 1.7
2 *690:Z *517:2 3.39534
3 *517:4 *517:5 2.10955
4 *517:3 *517:4 1.74274
5 *517:2 *517:5 9.52799988
*END

*D_NET *518 0.00221407

*CONN
*I *713:ZN O *C 65.3 51.2 *L 0 *D IAO21D0
*I *689:B I *C 63.9 48 *L 0.00073 *D OAI21D0
*I *683:B2 I *C 61.7 48 *L 0.000733 *D OAI32D0

*CAP
1 *713:ZN 3.67431e-05
2 *683:B2 0.00063324
3 *518:3 0.000920122969
4 *518:4 0.000623974

*RES
1 *713:ZN *518:3 3.60437989
2 *683:B2 *518:4 2.53015
3 *518:3 *518:4 1.50514
4 *689:B *518:4 1.22597
*END

*D_NET *519 0.000687888

*CONN
*I *689:ZN O *C 63.9 48.6 *L 0 *D OAI21D0
*I *681:A1 I *C 65.5 48 *L 0.000669 *D IOA21D0

*CAP
1 *689:ZN 0.000208845
2 *519:2 0.000479041016

*RES
1 *689:ZN *519:2 2.31212997
2 *681:A1 *519:2 0.45
*END

*D_NET *520 0.00155028

*CONN
*I *990:D I *C 67.3 46.4 *L 0.000958 *D DFD1
*I *683:ZN O *C 62.7 47.6 *L 0 *D OAI32D0

*CAP
1 *990:D 0.00018538
2 *683:ZN 0.000153336
3 *520:2 5.83678e-05
4 *520:3 0.00115319

*RES
1 *520:2 *520:3 3.16526008
2 *990:D *520:2 0.35103
3 *683:ZN *520:3 1.91714
*END

*D_NET *521 0.00414304

*CONN
*I *541:I I *C 62.9 69.6 *L 0.00104 *D DEL0
*I *681:ZN O *C 66.3 48.6 *L 0 *D IOA21D0

*CAP
1 *541:I 0.000713733
2 *681:ZN 0.000230927
3 *521:2 0.00160214
4 *521:3 5.15834e-05
5 *521:4 5.49326e-05
6 *521:5 0.00148976

*RES
1 *521:3 *521:5 8.67698002
2 *521:2 *521:4 4.89457
3 *681:ZN *521:2 2.28735
4 *541:I *521:3 3.33728
5 *521:4 *521:5 0.224948
*END

*D_NET *522 0.00070844

*CONN
*I *588:I I *C 67.9 28.4 *L 0.00104 *D DEL0
*I *904:QN O *C 69.1 32.4 *L 0 *D DFKCND1

*CAP
1 *588:I 0.00070844

*RES
1 *588:I *904:QN 3.47057
*END

*D_NET *523 0.000314217

*CONN
*I *589:I I *C 69.3 40.8 *L 0.00104 *D DEL0
*I *725:QN O *C 68.9 43.2 *L 0 *D DFKCND1

*CAP
1 *589:I 2.72135e-05
2 *523:2 0.000287003008

*RES
1 *589:I *523:2 0.326312
2 *725:QN *523:2 1.33216
*END

*D_NET *524 0.000372706

*CONN
*I *960:ZN O *C 44.5 63 *L 0 *D IOA21D0
*I *959:A1 I *C 44.5 64.4 *L 0.00067 *D XOR3D0

*CAP
1 *960:ZN 0.000297208008
2 *959:A1 7.54959e-05

*RES
1 *960:ZN *959:A1 1.73861
*END

*D_NET *525 0.000484954

*CONN
*I *961:Z O *C 41.9 57.6 *L 0 *D CKXOR2D0
*I *741:A2 I *C 41.3 57.2 *L 0.000697 *D MOAI22D0

*CAP
1 *741:A2 8.61955e-05
2 *525:2 0.000398759023

*RES
1 *961:Z *525:2 1.07960999
2 *741:A2 *525:2 0.675003
*END

*D_NET *526 0.000364019

*CONN
*I *962:Z O *C 39.5 58.4 *L 0 *D CKXOR2D0
*I *742:A2 I *C 39.3 57.2 *L 0.000697 *D MOAI22D0

*CAP
1 *742:A2 0.000364019023

*RES
1 *742:A2 *962:Z 1.65746
*END

*D_NET *527 0.000650824

*CONN
*I *964:ZN O *C 36.7 62.2 *L 0 *D CKND0
*I *963:I0 I *C 38.1 62.4 *L 0.000706 *D MUX2ND0

*CAP
1 *527:2 0.000650824023

*RES
1 *963:I0 *527:2 1.79504001
2 *964:ZN *527:2 0.449993
*END

*D_NET *528 0.000500607

*CONN
*I *963:ZN O *C 38.5 62.2 *L 0 *D MUX2ND0
*I *704:A2 I *C 38.5 60.8 *L 0.000745 *D AO22D0

*CAP
1 *963:ZN 0.000500607031

*RES
1 *704:A2 *963:ZN 1.91878
*END

*D_NET *529 0.000816352

*CONN
*I *965:ZN O *C 35.3 32.2 *L 0 *D XNR2D0
*I *811:B I *C 35.3 28.4 *L 0.000707 *D AOI211D0

*CAP
1 *965:ZN 0.000701787031
2 *811:B 0.00011456

*RES
1 *965:ZN *811:B 3.64453
*END

*D_NET *530 0.00049505

*CONN
*I *966:ZN O *C 54.5 35.8 *L 0 *D XNR2D0
*I *809:C I *C 55.5 37.2 *L 0.000717 *D OA211D0

*CAP
1 *966:ZN 0.00049505

*RES
1 *966:ZN *809:C 1.96639
*END

*D_NET *531 0.000186486

*CONN
*I *967:Z O *C 29.5 40.4 *L 0 *D CKXOR2D0
*I *738:A2 I *C 30.1 40.8 *L 0.000697 *D MOAI22D0

*CAP
1 *967:Z 0.000186485996

*RES
1 *738:A2 *967:Z 1.08733
*END

*D_NET *532 0.00018753

*CONN
*I *968:ZN O *C 34.5 28.6 *L 0 *D XNR2D0
*I *811:C I *C 34.9 28.4 *L 0.000686 *D AOI211D0

*CAP
1 *811:C 0.00018753

*RES
1 *968:ZN *811:C 0.735293
*END

*D_NET *533 0.000543505

*CONN
*I *1004:Z O *C 32.7 65.8 *L 0 *D CKAN2D0
*I *823:A1 I *C 33.1 68.2 *L 0.000964 *D OR2XD1

*CAP
1 *1004:Z 0.000543505

*RES
1 *1004:Z *823:A1 2.08238
*END

*D_NET *534 6.4356e-05

*CONN
*I *1005:ZN O *C 37.1 65.6 *L 0 *D IND2D0
*I *859:A1 I *C 36.3 66 *L 0.00098 *D AN2XD1

*CAP
1 *859:A1 6.4356001e-05

*RES
1 *859:A1 *1005:ZN 0.478334
*END

*D_NET *535 0.000745339

*CONN
*I *1006:ZN O *C 51.3 57.6 *L 0 *D IND2D0
*I *873:A1 I *C 51.9 60.8 *L 0.00098 *D AN2XD1

*CAP
1 *1006:ZN 9.67655e-05
2 *873:A1 4.15388e-07
3 *535:2 0.000648153008

*RES
1 *1006:ZN *535:2 0.494965
2 *873:A1 *535:2 2.78700995
*END

