*SPEF "IEEE 1481-1998"
*DESIGN "input_idx_controller"
*DATE "Sun Mar 22 13:39:46 2026"
*VENDOR "Cadence Design Systems, Inc."
*PROGRAM "Innovus"
*VERSION "21.16-s078_1"
*DESIGN_FLOW "COUPLING C" "PIN_CAP NONE" "NAME_SCOPE LOCAL"
*DIVIDER /
*DELIMITER :
*BUS_DELIMITER []
*T_UNIT 1 NS
*C_UNIT 1 PF
*R_UNIT 1 OHM
*L_UNIT 1 HENRY

// MMMC spef file for corner 'RC_WORST'

*NAME_MAP

*1 FE_PHN132_tpu_start
*2 FE_PHN131_rstn
*3 FE_PHN130_rstn
*4 FE_PHN129_tpu_start
*5 FE_PHN128_n_0
*6 FE_PHN127_n_346
*7 FE_PHN126_n_290
*8 FE_PHN125_n_300
*9 FE_PHN124_n_311
*10 FE_PHN123_n_341
*11 FE_PHN122_n_297
*12 FE_PHN121_n_295
*13 FE_PHN120_n_320
*14 FE_PHN119_n_318
*15 FE_PHN118_n_296
*16 FE_PHN117_n_317
*17 FE_PHN116_n_319
*18 FE_PHN115_n_339
*19 FE_PHN114_n_322
*20 FE_PHN113_n_308
*21 FE_PHN112_n_326
*22 FE_PHN111_n_324
*23 FE_PHN110_n_333
*24 FE_PHN109_n_342
*25 FE_PHN108_n_292
*26 FE_PHN107_n_284
*27 FE_PHN106_n_340
*28 FE_PHN105_FE_OFN19_b_col_idx_7
*29 FE_PHN104_FE_OFN21_b_col_idx_6
*30 FE_PHN103_FE_OFN17_b_col_idx_8
*31 FE_PHN102_n_178
*32 FE_PHN101_n_239
*33 FE_PHN100_n_265
*34 FE_PHN99_n_264
*35 FE_PHN98_n_258
*36 FE_PHN97_FE_OFN0_a_row_idx_7
*37 FE_PHN96_FE_OFN2_a_row_idx_6
*38 FE_PHN95_FE_OFN30_a_row_idx_8
*39 FE_PHN94_tpu_start
*40 FE_PHN93_n_180
*41 FE_PHN92_n_237
*42 FE_PHN91_n_260
*43 FE_PHN90_n_266
*44 FE_PHN89_n_280
*45 FE_PHN88_b_col_idx_temp_6
*46 FE_PHN87_last_data_read
*47 FE_PHN86_n_58
*48 FE_PHN85_n_29
*49 FE_PHN84_n_5
*50 FE_PHN83_n_33
*51 FE_PHN82_n_0
*52 FE_PHN81_n_4
*53 FE_PHN80_n_348
*54 FE_PHN79_n_349
*55 FE_PHN78_a_row_idx_temp_5
*56 FE_PHN77_a_row_idx_temp_6
*57 FE_PHN76_b_col_os_5
*58 FE_PHN75_b_col_os_4
*59 FE_PHN74_b_col_idx_temp_5
*60 FE_PHN73_a_row_os_4
*61 FE_PHN72_a_row_os_5
*62 FE_PHN71_n_89
*63 FE_PHN70_n_6
*64 FE_PHN69_n_90
*65 FE_PHN68_n_11
*66 FE_PHN67_b_col_os_6
*67 FE_PHN66_a_row_os_7
*68 FE_PHN65_n_9
*69 FE_PHN64_n_60
*70 FE_PHN63_n_16
*71 FE_PHN62_b_col_idx_temp_4
*72 FE_PHN61_n_30
*73 FE_PHN60_a_row_os_6
*74 FE_PHN59_n_10
*75 FE_PHN58_b_col_idx_temp_7
*76 FE_PHN57_n_75
*77 FE_PHN56_a_row_idx_temp_4
*78 FE_PHN55_n_2
*79 FE_PHN54_a_row_os_3
*80 FE_PHN53_b_col_os_3
*81 FE_PHN52_b_col_idx_temp_3
*82 FE_PHN51_FE_OFN11_a_row_idx_1
*83 FE_PHN50_n_7
*84 FE_PHN49_a_row_idx_temp_3
*85 FE_PHN48_u_ac_i_3
*86 FE_PHN47_FE_OFN14_a_row_idx_0
*87 FE_PHN46_FE_OFN8_a_row_idx_2
*88 FE_PHN45_num_computated_3
*89 FE_PHN44_num_computated_0
*90 FE_PHN43_num_computated_5
*91 FE_PHN42_num_computated_2
*92 FE_PHN41_num_computated_4
*93 FE_PHN40_rstn
*94 FE_OFN39_b_col_idx_2
*95 FE_OFN38_a_col_idx_0
*96 FE_OFN37_a_col_idx_1
*97 FE_OFN36_a_col_idx_2
*98 FE_OFN35_b_col_idx_0
*99 FE_OFN34_b_col_idx_1
*100 CTS_6
*101 CTS_5
*102 CTS_2
*103 CTS_1
*104 CTS_4
*105 CTS_3
*106 FE_OFN33_a_row_idx_3
*107 FE_OFN32_a_row_idx_3
*108 FE_OFN31_a_row_idx_8
*109 FE_OFN30_a_row_idx_8
*110 FE_OFN29_sram_rd_en
*111 FE_OFN28_b_col_idx_3
*112 FE_OFN27_b_col_idx_3
*113 FE_OFN26_b_col_idx_4
*114 FE_OFN25_b_col_idx_4
*115 FE_OFN24_b_col_idx_5
*116 FE_OFN23_b_col_idx_5
*117 FE_OFN22_b_col_idx_6
*118 FE_OFN21_b_col_idx_6
*119 FE_OFN20_b_col_idx_7
*120 FE_OFN19_b_col_idx_7
*121 FE_OFN18_b_col_idx_8
*122 FE_OFN17_b_col_idx_8
*123 FE_OFN15_a_row_idx_0
*124 FE_OFN14_a_row_idx_0
*125 FE_OFN12_a_row_idx_1
*126 FE_OFN11_a_row_idx_1
*127 FE_OFN9_a_row_idx_2
*128 FE_OFN8_a_row_idx_2
*129 FE_OFN7_a_row_idx_4
*130 FE_OFN6_a_row_idx_4
*131 FE_OFN5_a_row_idx_5
*132 FE_OFN4_a_row_idx_5
*133 FE_OFN3_a_row_idx_6
*134 FE_OFN2_a_row_idx_6
*135 FE_OFN1_a_row_idx_7
*136 FE_OFN0_a_row_idx_7
*137 clk
*138 rstn
*139 tpu_start
*140 num_computation[6]
*141 num_computation[5]
*142 num_computation[4]
*143 num_computation[3]
*144 num_computation[2]
*145 num_computation[1]
*146 num_computation[0]
*147 m[6]
*148 m[5]
*149 m[4]
*150 m[3]
*151 m[2]
*152 m[1]
*153 m[0]
*154 n[6]
*155 n[5]
*156 n[4]
*157 n[3]
*158 n[2]
*159 n[1]
*160 n[0]
*161 k[6]
*162 k[5]
*163 k[4]
*164 k[3]
*165 k[2]
*166 k[1]
*167 k[0]
*168 a_row_idx[8]
*169 a_row_idx[7]
*170 a_row_idx[6]
*171 a_row_idx[5]
*172 a_row_idx[4]
*173 a_row_idx[3]
*174 a_row_idx[2]
*175 a_row_idx[1]
*176 a_row_idx[0]
*177 a_col_idx[8]
*178 a_col_idx[7]
*179 a_col_idx[6]
*180 a_col_idx[5]
*181 a_col_idx[4]
*182 a_col_idx[3]
*183 a_col_idx[2]
*184 a_col_idx[1]
*185 a_col_idx[0]
*186 b_row_idx[8]
*187 b_row_idx[7]
*188 b_row_idx[6]
*189 b_row_idx[5]
*190 b_row_idx[4]
*191 b_row_idx[3]
*192 b_row_idx[2]
*193 b_row_idx[1]
*194 b_row_idx[0]
*195 b_col_idx[8]
*196 b_col_idx[7]
*197 b_col_idx[6]
*198 b_col_idx[5]
*199 b_col_idx[4]
*200 b_col_idx[3]
*201 b_col_idx[2]
*202 b_col_idx[1]
*203 b_col_idx[0]
*204 alu_start
*205 sram_rd_en
*206 done
*207 b_col_idx_temp[8]
*208 b_col_idx_temp[7]
*209 b_col_idx_temp[6]
*210 b_col_idx_temp[5]
*211 b_col_idx_temp[4]
*212 b_col_idx_temp[3]
*213 num_computated[6]
*214 num_computated[5]
*215 num_computated[4]
*216 num_computated[3]
*217 num_computated[2]
*218 num_computated[1]
*219 num_computated[0]
*220 a_row_idx_temp[8]
*221 a_row_idx_temp[7]
*222 a_row_idx_temp[6]
*223 a_row_idx_temp[5]
*224 a_row_idx_temp[4]
*225 a_row_idx_temp[3]
*226 a_row_os[8]
*227 a_row_os[7]
*228 a_row_os[6]
*229 a_row_os[5]
*230 a_row_os[4]
*231 a_row_os[3]
*232 u_ac_i[8]
*233 u_ac_i[7]
*234 u_ac_i[6]
*235 u_ac_i[5]
*236 u_ac_i[4]
*237 u_ac_i[3]
*238 b_col_os[8]
*239 b_col_os[7]
*240 b_col_os[6]
*241 b_col_os[5]
*242 b_col_os[4]
*243 b_col_os[3]
*244 UNCONNECTED
*245 UNCONNECTED0
*246 last_data_read
*247 n_0
*248 n_1
*249 n_2
*250 n_3
*251 n_4
*252 n_5
*253 n_6
*254 n_7
*255 n_8
*256 n_9
*257 n_10
*258 n_11
*259 n_16
*260 n_19
*261 n_25
*262 n_29
*263 n_30
*264 n_33
*265 n_48
*266 n_52
*267 n_57
*268 n_58
*269 n_59
*270 n_60
*271 n_62
*272 n_63
*273 n_64
*274 n_65
*275 n_67
*276 n_68
*277 n_69
*278 n_70
*279 n_71
*280 n_72
*281 n_74
*282 n_75
*283 n_76
*284 n_77
*285 n_78
*286 n_79
*287 n_80
*288 n_81
*289 n_82
*290 n_83
*291 n_84
*292 n_85
*293 n_86
*294 n_87
*295 n_89
*296 n_90
*297 n_92
*298 n_93
*299 n_94
*300 n_95
*301 n_96
*302 n_97
*303 n_98
*304 n_99
*305 n_101
*306 n_102
*307 n_103
*308 n_104
*309 n_105
*310 n_107
*311 n_109
*312 n_110
*313 n_111
*314 n_112
*315 n_113
*316 n_115
*317 n_116
*318 n_117
*319 n_118
*320 n_119
*321 n_120
*322 n_121
*323 n_122
*324 n_123
*325 n_124
*326 n_125
*327 n_126
*328 n_127
*329 n_128
*330 n_129
*331 n_130
*332 n_131
*333 n_132
*334 n_133
*335 n_137
*336 n_138
*337 n_139
*338 n_140
*339 n_141
*340 n_143
*341 n_144
*342 n_145
*343 n_146
*344 n_147
*345 n_149
*346 n_151
*347 n_152
*348 n_153
*349 n_154
*350 n_155
*351 n_156
*352 n_157
*353 n_158
*354 n_159
*355 n_160
*356 n_161
*357 n_162
*358 n_163
*359 n_164
*360 n_165
*361 n_166
*362 n_167
*363 n_168
*364 n_169
*365 n_171
*366 n_172
*367 n_173
*368 n_174
*369 n_176
*370 n_177
*371 n_178
*372 n_179
*373 n_180
*374 n_183
*375 n_184
*376 n_185
*377 n_187
*378 n_188
*379 n_189
*380 n_190
*381 n_191
*382 n_192
*383 n_193
*384 n_194
*385 n_195
*386 n_196
*387 n_197
*388 n_198
*389 n_199
*390 n_200
*391 n_201
*392 n_202
*393 n_203
*394 n_204
*395 n_205
*396 n_206
*397 n_207
*398 n_208
*399 n_209
*400 n_210
*401 n_211
*402 n_212
*403 n_213
*404 n_214
*405 n_215
*406 n_216
*407 n_217
*408 n_218
*409 n_219
*410 n_220
*411 n_222
*412 n_223
*413 n_226
*414 n_227
*415 n_228
*416 n_229
*417 n_230
*418 n_231
*419 n_232
*420 n_233
*421 n_234
*422 n_235
*423 n_236
*424 n_237
*425 n_238
*426 n_239
*427 n_240
*428 n_241
*429 n_244
*430 n_245
*431 n_246
*432 n_247
*433 n_251
*434 n_253
*435 n_256
*436 n_257
*437 n_258
*438 n_259
*439 n_260
*440 n_262
*441 n_263
*442 n_264
*443 n_265
*444 n_266
*445 n_267
*446 n_268
*447 n_269
*448 n_270
*449 n_271
*450 n_272
*451 n_273
*452 n_275
*453 n_276
*454 n_277
*455 n_278
*456 n_279
*457 n_280
*458 n_281
*459 n_282
*460 n_283
*461 n_284
*462 n_285
*463 n_286
*464 n_287
*465 n_288
*466 n_289
*467 n_290
*468 n_291
*469 n_292
*470 n_293
*471 n_294
*472 n_295
*473 n_296
*474 n_297
*475 n_298
*476 n_299
*477 n_300
*478 n_301
*479 n_302
*480 n_303
*481 n_304
*482 n_305
*483 n_306
*484 n_307
*485 n_308
*486 n_309
*487 n_310
*488 n_311
*489 n_312
*490 n_314
*491 n_315
*492 n_316
*493 n_317
*494 n_318
*495 n_319
*496 n_320
*497 n_321
*498 n_322
*499 n_323
*500 n_324
*501 n_325
*502 n_326
*503 n_327
*504 n_329
*505 n_330
*506 n_331
*507 n_332
*508 n_333
*509 n_334
*510 n_335
*511 n_336
*512 n_337
*513 n_338
*514 n_339
*515 n_340
*516 n_341
*517 n_342
*518 n_343
*519 n_344
*520 n_345
*521 n_346
*522 n_348
*523 n_349
*524 n_360
*525 n_362
*526 n_363
*527 n_364
*528 n_365
*529 n_366
*530 n_367
*531 n_368
*532 n_369
*533 n_466
*534 n_467
*535 n_468
*536 FE_PHC132_tpu_start
*537 FE_PHC131_rstn
*538 FE_PHC130_rstn
*539 FE_PHC129_tpu_start
*540 FE_PHC128_n_0
*541 FE_PHC127_n_346
*542 FE_PHC126_n_290
*543 FE_PHC125_n_300
*544 FE_PHC124_n_311
*545 FE_PHC123_n_341
*546 FE_PHC122_n_297
*547 FE_PHC121_n_295
*548 FE_PHC120_n_320
*549 FE_PHC119_n_318
*550 FE_PHC118_n_296
*551 FE_PHC117_n_317
*552 FE_PHC116_n_319
*553 FE_PHC115_n_339
*554 FE_PHC114_n_322
*555 FE_PHC113_n_308
*556 FE_PHC112_n_326
*557 FE_PHC111_n_324
*558 FE_PHC110_n_333
*559 FE_PHC109_n_342
*560 FE_PHC108_n_292
*561 FE_PHC107_n_284
*562 FE_PHC106_n_340
*563 FE_PHC105_FE_OFN19_b_col_idx_7
*564 FE_PHC104_FE_OFN21_b_col_idx_6
*565 FE_PHC103_FE_OFN17_b_col_idx_8
*566 FE_PHC102_n_178
*567 FE_PHC101_n_239
*568 FE_PHC100_n_265
*569 FE_PHC99_n_264
*570 FE_PHC98_n_258
*571 FE_PHC97_FE_OFN0_a_row_idx_7
*572 FE_PHC96_FE_OFN2_a_row_idx_6
*573 FE_PHC95_FE_OFN30_a_row_idx_8
*574 FE_PHC94_tpu_start
*575 FE_PHC93_n_180
*576 FE_PHC92_n_237
*577 FE_PHC91_n_260
*578 FE_PHC90_n_266
*579 FE_PHC89_n_280
*580 FE_PHC88_b_col_idx_temp_6
*581 FE_PHC87_last_data_read
*582 FE_PHC86_n_58
*583 FE_PHC85_n_29
*584 FE_PHC84_n_5
*585 FE_PHC83_n_33
*586 FE_PHC82_n_0
*587 FE_PHC81_n_4
*588 FE_PHC80_n_348
*589 FE_PHC79_n_349
*590 FE_PHC78_a_row_idx_temp_5
*591 FE_PHC77_a_row_idx_temp_6
*592 FE_PHC76_b_col_os_5
*593 FE_PHC75_b_col_os_4
*594 FE_PHC74_b_col_idx_temp_5
*595 FE_PHC73_a_row_os_4
*596 FE_PHC72_a_row_os_5
*597 FE_PHC71_n_89
*598 FE_PHC70_n_6
*599 FE_PHC69_n_90
*600 FE_PHC68_n_11
*601 FE_PHC67_b_col_os_6
*602 FE_PHC66_a_row_os_7
*603 FE_PHC65_n_9
*604 FE_PHC64_n_60
*605 FE_PHC63_n_16
*606 FE_PHC62_b_col_idx_temp_4
*607 FE_PHC61_n_30
*608 FE_PHC60_a_row_os_6
*609 FE_PHC59_n_10
*610 FE_PHC58_b_col_idx_temp_7
*611 FE_PHC57_n_75
*612 FE_PHC56_a_row_idx_temp_4
*613 FE_PHC55_n_2
*614 FE_PHC54_a_row_os_3
*615 FE_PHC53_b_col_os_3
*616 FE_PHC52_b_col_idx_temp_3
*617 FE_PHC51_FE_OFN11_a_row_idx_1
*618 FE_PHC50_n_7
*619 FE_PHC49_a_row_idx_temp_3
*620 FE_PHC48_u_ac_i_3
*621 FE_PHC47_FE_OFN14_a_row_idx_0
*622 FE_PHC46_FE_OFN8_a_row_idx_2
*623 FE_PHC45_num_computated_3
*624 FE_PHC44_num_computated_0
*625 FE_PHC43_num_computated_5
*626 FE_PHC42_num_computated_2
*627 FE_PHC41_num_computated_4
*628 FE_PHC40_rstn
*629 FE_OFC39_b_col_idx_2
*630 FE_OFC38_a_col_idx_0
*631 FE_OFC37_a_col_idx_1
*632 FE_OFC36_a_col_idx_2
*633 FE_OFC35_b_col_idx_0
*634 FE_OFC34_b_col_idx_1
*635 CTS_ccl_a_inv_00003
*636 CTS_ccl_a_inv_00002
*637 CTS_ccl_a_inv_00001
*638 CTS_ccl_a_inv_00004
*639 CTS_ccl_a_inv_00005
*640 CTS_cmf_inv_00051
*641 LTIELO_5
*642 LTIELO_4
*643 LTIELO_3
*644 LTIELO_2
*645 LTIELO_1
*646 LTIELO
*647 FE_OFC33_a_row_idx_3
*648 FE_OFC32_a_row_idx_3
*649 FE_OFC31_a_row_idx_8
*650 FE_OFC30_a_row_idx_8
*651 FE_OFC29_sram_rd_en
*652 FE_OFC28_b_col_idx_3
*653 FE_OFC27_b_col_idx_3
*654 FE_OFC26_b_col_idx_4
*655 FE_OFC25_b_col_idx_4
*656 FE_OFC24_b_col_idx_5
*657 FE_OFC23_b_col_idx_5
*658 FE_OFC22_b_col_idx_6
*659 FE_OFC21_b_col_idx_6
*660 FE_OFC20_b_col_idx_7
*661 FE_OFC19_b_col_idx_7
*662 FE_OFC18_b_col_idx_8
*663 FE_OFC17_b_col_idx_8
*664 FE_OFC16_a_row_idx_0
*665 FE_OFC15_a_row_idx_0
*666 FE_OFC14_a_row_idx_0
*667 FE_OFC13_a_row_idx_1
*668 FE_OFC12_a_row_idx_1
*669 FE_OFC11_a_row_idx_1
*670 FE_OFC10_a_row_idx_2
*671 FE_OFC9_a_row_idx_2
*672 FE_OFC8_a_row_idx_2
*673 FE_OFC7_a_row_idx_4
*674 FE_OFC6_a_row_idx_4
*675 FE_OFC5_a_row_idx_5
*676 FE_OFC4_a_row_idx_5
*677 FE_OFC3_a_row_idx_6
*678 FE_OFC2_a_row_idx_6
*679 FE_OFC1_a_row_idx_7
*680 FE_OFC0_a_row_idx_7
*681 p18161A__2398
*682 num_computated_reg\[3\]
*683 p18171A__5107
*684 u_ac_z_reg\[2\]
*685 u_ac_z_reg\[1\]
*686 num_computated_reg\[4\]
*687 num_computated_reg\[2\]
*688 a_row_os_reg\[8\]
*689 p18154A__6260
*690 p18177A__4319
*691 p18161A5835__8428
*692 p18163A__5526
*693 p18181A__6783
*694 p18178A__3680
*695 a_row_os_reg\[5\]
*696 a_row_os_reg\[4\]
*697 num_computated_reg\[6\]
*698 b_col_os_reg\[3\]
*699 num_computated_reg\[5\]
*700 a_row_os_reg\[3\]
*701 num_computated_reg\[1\]
*702 p18188A__1617
*703 p18197A__2802
*704 p18177A5821__1705
*705 p18170A__5122
*706 p18187A__8246
*707 p18174A__7098
*708 u_ac_z_reg\[0\]
*709 b_col_os_reg\[5\]
*710 b_col_os_reg\[4\]
*711 b_col_os_reg\[8\]
*712 num_computated_reg\[0\]
*713 p18150A__6131
*714 p18152A5836__1881
*715 p18152A__5115
*716 p18218A__7482
*717 p18135A__4733
*718 Fp18170A
*719 p13989A
*720 p18254A__6161
*721 p18171A5844__9315
*722 p18097A__9945
*723 p18222A__2883
*724 p18097A5847__2346
*725 done_reg
*726 p18191A__1666
*727 p18140A__7410
*728 p18173A__6417
*729 p18178A5837__5477
*730 p18171A5841__2398
*731 p18171A5845__5107
*732 p18171A5839__6260
*733 p18171A5840__4319
*734 p18171A5843__8428
*735 p18171A5842__5526
*736 p18161A5838__6783
*737 p18194A__3680
*738 p18252A__1617
*739 p18225A__2802
*740 Fp18194A
*741 p18247A5846__1705
*742 p18247A__5122
*743 p18182A__8246
*744 p18287A__7098
*745 p18294A__6131
*746 Fp18065A
*747 p18124A__1881
*748 p18159A__5115
*749 p18184A__7482
*750 Fp18219A
*751 p18113A__4733
*752 Fp18126A
*753 p18292A__6161
*754 Fp18150A
*755 p17858A__9315
*756 p18163A5848__9945
*757 p18191A5849__2883
*758 p18101A__2346
*759 p18107A__1666
*760 p18252A5851__7410
*761 p18238A__6417
*762 Fp18109A
*763 p18067A__5477
*764 p18070A__2398
*765 p17796A__5107
*766 p17763A__6260
*767 p18210A__4319
*768 p18196A__8428
*769 p17743A__5526
*770 p17920A__3680
*771 p13248A__1617
*772 p17896A__2802
*773 p18033A__1705
*774 p17708A__5122
*775 p13247A__7098
*776 p13239A__1881
*777 p18396A__5115
*778 p13291A__7482
*779 p13293A__4733
*780 p17770A__6161
*781 p17747A__9315
*782 p18154A5855__9945
*783 p18169A__2883
*784 p13222A__1666
*785 p18008A__7410
*786 p17629A__6417
*787 p13281A__5477
*788 p13290A__2398
*789 p13290A5852__5107
*790 p13282A__6260
*791 p13335A__4319
*792 p13336A__8428
*793 p18357A__5526
*794 p17693A__3680
*795 p18091A__1617
*796 p17617A__2802
*797 p17670A__1705
*798 p18374A__5122
*799 p13196A__8246
*800 p13197A__7098
*801 p18014A__6131
*802 p18093A__1881
*803 p18356A__5115
*804 p13327A5853__7482
*805 p13334A__4733
*806 p13327A__6161
*807 p13336A5854__9315
*808 p18041A__9945
*809 p17886A__2883
*810 p17595A__2346
*811 p17905A__1666
*812 p17562A__7410
*813 p17540A__6417
*814 p17844A__2398
*815 p18270A__5107
*816 p18304A__6260
*817 p13382A__4319
*818 p13383A__8428
*819 p18355A__5526
*820 p18107A5858__6783
*821 p18091A5857__3680
*822 p18434A__1617
*823 p13399A5860__2802
*824 p13184A__1705
*825 p13185A__5122
*826 p17899A__8246
*827 p18275A__7098
*828 p18019A__6131
*829 p17562A5859__5115
*830 p17911A__7482
*831 p17541A__4733
*832 p17584A__6161
*833 p18208A__9945
*834 p13373A__2883
*835 p13375A__2346
*836 p13399A__1666
*837 p17874A__7410
*838 p18328A__6417
*839 p18290A5863__5477
*840 p17811A__2398
*841 p17626A__4319
*842 Fp18204A
*843 Fp17819A
*844 p13380A__8428
*845 p13378A__5526
*846 p18264A__6783
*847 p18226A__3680
*848 p13392A__1617
*849 p17917A__2802
*850 p13397A5862__1705
*851 p13367A__5122
*852 Fp13166A5856
*853 p17804A__7098
*854 Fp13166A
*855 p18170A5865__6131
*856 Fp18360A
*857 p18318A__1881
*858 p17702A__5115
*859 p13469A__7482
*860 Fp13384A5866
*861 Fp13384A
*862 p18568A__4733
*863 p13168A__6161
*864 p18270A5864__9315
*865 p17509A__9945
*866 p13383A5869__2883
*867 p13389A__2346
*868 p13383A5870__1666
*869 p13388A__7410
*870 p17720A__6417
*871 p13167A__5477
*872 p18382A__2398
*873 p13473A__5107
*874 p17516A__6260
*875 p17570A__4319
*876 p17860A__8428
*877 p17490A__5526
*878 p17760A__6783
*879 p17592A__3680
*880 p17612A__1617
*881 p17864A__2802
*882 p17583A__1705
*883 p17502A__5122
*884 p17613A__8246
*885 p17844A5874__7098
*886 p17736A__6131
*887 p18325A__1881
*888 p13989A5868
*889 p18553A__5115
*890 p13360A__7482
*891 p13356A__4733
*892 p13354A__6161
*893 p13356A5871__9315
*894 p18154A5872__9945
*895 p17692A__2883
*896 p18290A__2346
*897 p18494A5873__1666
*898 p18584A__7410
*899 p18488A__6417
*900 p18494A__2398
*901 Fp17858A
*902 Fp17873A
*903 Fp17499A
*904 alu_start_reg
*905 p18431A__6260
*906 p18428A__4319
*907 p17840A__8428
*908 p13274A__6783
*909 p17598A__3680
*910 p13377A__1617
*911 p17516A5877__2802
*912 p13496A__1705
*913 p17568A__5122
*914 p17584A5878__8246
*915 p17545A__7098
*916 p18364A__6131
*917 p18098A__1881
*918 Fp18131A
*919 Fp18167A
*920 Fp18115A
*921 p13343A__7482
*922 p13277A__4733
*923 p13343A5885__6161
*924 p17852A__9315
*925 p17855A__9945
*926 p17503A__2883
*927 p17542A__2346
*928 p17609A__1666
*929 p17557A__7410
*930 p17512A__6417
*931 p17509A5879__5477
*932 p17564A__2398
*933 p13233A5881__5107
*934 p13166A__6260
*935 p18091A5880__4319
*936 p13175A__8428
*937 p13310A__5526
*938 p13312A__6783
*939 p13216A__3680
*940 p13374A5883__1617
*941 p18165A__2802
*942 Fp8914A5895
*943 p18107A5886__1705
*944 p13177A__5122
*945 p13167A5882__8246
*946 p13233A__7098
*947 p13374A__6131
*948 p13216A5884__1881
*949 p18432A__5115
*950 p18275A5876__7482
*951 p13133A__4733
*952 p13132A__6161
*953 Fp18482A
*954 Fp18374A
*955 Fp18108A
*956 Fp18660A
*957 Fp18408A
*958 Fp18190A
*959 g2
*960 g3
*961 g5971
*962 g5972
*963 g5973
*964 g5974
*965 g5975
*966 g5976
*967 g5977
*968 g5978
*969 drc_bufs
*970 drc_bufs5988
*971 drc_bufs5996
*972 drc_bufs6005
*973 drc_bufs6015
*974 drc_bufs6023
*975 drc_bufs6032
*976 drc_bufs6042
*977 drc_bufs6048
*978 drc_bufs6054
*979 drc_bufs6060
*980 drc_bufs6065
*981 b_col_os_reg\[6\]
*982 last_data_read_reg
*983 b_col_os_reg\[7\]
*984 u_ac_j_reg\[6\]
*985 a_row_os_reg\[7\]
*986 a_row_os_reg\[6\]
*987 u_ac_j_reg\[3\]
*988 u_ac_j_reg\[8\]
*989 u_ac_j_reg\[4\]
*990 u_ac_j_reg\[7\]
*991 u_ac_j_reg\[5\]
*992 u_ac_z_reg\[3\]
*993 u_ac_z_reg\[7\]
*994 u_ac_i_reg\[3\]
*995 u_ac_z_reg\[4\]
*996 u_ac_i_reg\[4\]
*997 u_ac_z_reg\[6\]
*998 u_ac_z_reg\[5\]
*999 u_ac_i_reg\[5\]
*1000 u_ac_z_reg\[8\]
*1001 u_ac_i_reg\[7\]
*1002 u_ac_i_reg\[6\]
*1003 u_ac_i_reg\[8\]
*1004 g6120
*1005 g6121
*1006 g6122


*PORTS

*137 I *C 0 26
*138 I *C 0 36
*139 I *C 0 46
*140 I *C 30.2 0
*141 I *C 29.5 0
*142 I *C 28.8 0
*143 I *C 28.1 0
*144 I *C 27.4 0
*145 I *C 26.7 0
*146 I *C 26 0
*147 I *C 35.1 0
*148 I *C 34.4 0
*149 I *C 33.7 0
*150 I *C 33 0
*151 I *C 32.3 0
*152 I *C 31.6 0
*153 I *C 30.9 0
*154 I *C 40 0
*155 I *C 39.3 0
*156 I *C 38.6 0
*157 I *C 37.9 0
*158 I *C 37.2 0
*159 I *C 36.5 0
*160 I *C 35.8 0
*161 I *C 44.9 0
*162 I *C 44.2 0
*163 I *C 43.5 0
*164 I *C 42.8 0
*165 I *C 42.1 0
*166 I *C 41.4 0
*167 I *C 40.7 0
*168 O *C 31.6 100
*169 O *C 30.9 100
*170 O *C 30.2 100
*171 O *C 29.5 100
*172 O *C 28.8 100
*173 O *C 28.1 100
*174 O *C 27.4 100
*175 O *C 26.7 100
*176 O *C 26 100
*177 O *C 37.9 100
*178 O *C 37.2 100
*179 O *C 36.5 100
*180 O *C 35.8 100
*181 O *C 35.1 100
*182 O *C 34.4 100
*183 O *C 33.7 100
*184 O *C 33 100
*185 O *C 32.3 100
*186 O *C 44.2 100
*187 O *C 43.5 100
*188 O *C 42.8 100
*189 O *C 42.1 100
*190 O *C 41.4 100
*191 O *C 40.7 100
*192 O *C 40 100
*193 O *C 39.3 100
*194 O *C 38.6 100
*195 O *C 50.5 100
*196 O *C 49.8 100
*197 O *C 49.1 100
*198 O *C 48.4 100
*199 O *C 47.7 100
*200 O *C 47 100
*201 O *C 46.3 100
*202 O *C 45.6 100
*203 O *C 44.9 100
*204 O *C 100 26
*205 O *C 100 36
*206 O *C 100 46


*D_NET *1 1.1182e-05

*CONN
*I *536:Z O *C 64.5 29.6 *L 0 *D CKBD1
*I *539:I I *C 64.7 30 *L 0.00072 *D BUFFD1

*CAP
1 *536:Z 1.11819995e-05

*RES
1 *536:Z *539:I 0.257074
*END

*D_NET *2 0.000397923

*CONN
*I *537:Z O *C 28.7 29.6 *L 0 *D CKBD1
*I *538:I I *C 28.7 32 *L 0.000643 *D CKBD0

*CAP
1 *537:Z 0.000397923008

*RES
1 *537:Z *538:I 6.66913
*END

*D_NET *3 0.00132584

*CONN
*I *538:Z O *C 29.3 32.4 *L 0 *D CKBD0
*I *628:I I *C 27.5 37.2 *L 0.00072 *D BUFFD1

*CAP
1 *628:I 0.00022359
2 *538:Z 0.000202629
3 *3:2 0.000577911992
4 *3:3 0.000321712

*RES
1 *628:I *3:3 3.70231
2 *3:2 *3:3 2.92072
3 *538:Z *3:2 9.14360046
*END

*D_NET *4 1.1161e-05

*CONN
*I *539:Z O *C 65.3 29.6 *L 0 *D BUFFD1
*I *574:I I *C 65.5 30 *L 0.00103 *D DEL015

*CAP
1 *539:Z 1.11609998e-05

*RES
1 *539:Z *574:I 0.26106
*END

*D_NET *5 0.00324461

*CONN
*I *540:Z O *C 32.3 32.4 *L 0 *D DEL015
*I *900:A2 I *C 39.3 44.4 *L 0.000651 *D OAI21D0

*CAP
1 *900:A2 1.2635e-06
2 *5:2 0.00201959984
3 *5:3 0.000696529
4 *5:4 0.000527219

*RES
1 *5:2 *5:4 5.03684
2 *900:A2 *5:2 14.4209003
3 *5:3 *5:4 5.52908
4 *540:Z *5:3 1.50005
*END

*D_NET *6 0.0046749

*CONN
*I *541:Z O *C 65.3 69.2 *L 0 *D DEL0
*I *988:D I *C 67.7 44.4 *L 0.000958 *D DFD1

*CAP
1 *988:D 0.0011098
2 *6:2 0.000954389
3 *6:3 0.000539444
4 *6:4 4.47063e-06
5 *6:5 0.000797642
6 *6:6 6.84154e-05
7 *6:8 0.00120075

*RES
1 *6:7 *6:8 7.14677
2 *6:5 *6:6 4.85124
3 *6:4 *6:5 0.649143
4 *988:D *6:3 8.28960037
5 *6:2 *6:3 3.9705
6 *6:6 *6:8 3.7943
7 *6:2 *6:4 6.53507
8 *541:Z *6:7 1.50004
*END

*D_NET *7 0.00392536

*CONN
*I *542:Z O *C 68.9 65.6 *L 0 *D DEL0
*I *984:DB I *C 66.3 53.6 *L 0.00109 *D DFXD1
*I *739:B1 I *C 66.1 50.2 *L 0.000702 *D IND4D0
*I *750:I I *C 62.5 50.2 *L 0.00062 *D CKND0

*CAP
1 *739:B1 0.000132115
2 *7:4 0.00127307
3 *7:5 0.000368605
4 *7:6 0.000514667
5 *7:7 0.000863302
6 *7:8 0.000773613

*RES
1 *7:6 *7:8 3.10551
2 *7:4 *7:5 2.37306
3 *739:B1 *7:6 3.7187
4 *7:6 *7:7 8.13873
5 *7:5 *7:8 8.17079
6 *542:Z *7:4 10.2987003
7 *984:DB *7:8 3.00007
8 *750:I *7:7 1.49996
*END

*D_NET *8 0.00713714

*CONN
*I *543:Z O *C 72.3 72 *L 0 *D DEL0
*I *698:D I *C 51.3 39.2 *L 0.000885 *D DFKCNQD1

*CAP
1 *698:D 0.000401239
2 *8:2 0.00126981
3 *8:3 0.000325886
4 *8:4 0.000453807
5 *8:5 0.000816662
6 *8:6 4.596e-05
7 *8:7 0.000443518
8 *8:8 0.000475508
9 *8:9 0.000218756
10 *8:10 0.000272873
11 *8:11 0.000616604
12 *8:12 0.000186378
13 *8:13 0.000371788
14 *698:D *682:D 0.000423550977
15 *8:4 *558:Z 0.000210831992
16 *698:D *508:2 0.000603945977

*RES
1 *8:6 *8:7 0.256538
2 *8:12 *8:13 2.51611
3 *8:4 *8:8 6.17427
4 *8:3 *8:4 4.79116
5 *8:2 *8:3 2.98615
6 *543:Z *8:5 9.84188
7 *698:D *8:13 5.75766
8 *8:11 *8:12 1.81483
9 *8:9 *8:10 2.59407
10 *8:10 *8:11 5.60929
11 *8:2 *8:6 12.3711996
12 *8:8 *8:9 2.86061
13 *8:5 *8:7 3.52168
*END

*D_NET *9 0.00635526

*CONN
*I *544:Z O *C 69.7 72 *L 0 *D DEL0
*I *688:D I *C 44.5 42.8 *L 0.000885 *D DFKCNQD1

*CAP
1 *544:Z 0.00014143
2 *9:2 2.20474e-05
3 *9:3 0.000408808
4 *9:4 0.00111932
5 *9:5 0.000216522
6 *9:6 0.000153123
7 *9:7 0.000880786
8 *9:8 0.000575846
9 *9:9 0.00214055984
10 *9:3 *14:2 0.000286251992
11 *9:3 *23:2 0.000177682988
12 *9:4 *544:I 0.000232860996

*RES
1 *9:5 *9:6 3.11642
2 *9:2 *9:4 15.5549
3 *9:8 *9:9 8.17912
4 *9:3 *9:8 4.83265
5 *544:Z *9:2 1.88933
6 *9:7 *9:9 24.0846004
7 *9:6 *9:7 2.95251
8 *9:4 *9:5 2.0808
9 *688:D *9:3 1.50014
*END

*D_NET *10 0.00614049

*CONN
*I *545:Z O *C 72.5 68.4 *L 0 *D DEL0
*I *682:D I *C 53.1 37.2 *L 0.000885 *D DFKCNQD1

*CAP
1 *682:D 0.000885165
2 *545:Z 1.47021e-05
3 *10:2 3.98735e-05
4 *10:3 0.000332497
5 *10:4 0.000401549
6 *10:6 0.0014755
7 *10:7 0.00108901
8 *10:8 4.80463e-05
9 *10:9 0.000417828
10 *10:10 2.64998e-05
11 *10:11 0.000638809
12 *10:12 0.000347447
13 *682:D *698:D 0.000423550977

*RES
1 *10:7 *10:8 3.23795
2 *10:10 *10:11 5.05345
3 *10:3 *10:5 3.89445
4 *10:5 *10:6 13.2097998
5 *545:Z *10:2 0.51883
6 *10:2 *10:4 6.14231
7 *10:7 *10:12 5.81617
8 *10:6 *10:9 5.55958
9 *10:11 *10:12 2.46172
10 *682:D *10:8 6.53254
11 *10:9 *10:10 4.09057
12 *10:3 *10:4 0.451305
*END

*D_NET *11 0.00770963

*CONN
*I *546:Z O *C 70.5 69.2 *L 0 *D DEL0
*I *699:D I *C 56.7 33.6 *L 0.000885 *D DFKCNQD1

*CAP
1 *11:2 0.000733483
2 *11:3 0.00070418
3 *11:4 0.000360006
4 *11:5 0.0028117
5 *11:6 0.000182298
6 *11:7 0.000975589
7 *11:8 0.000147932
8 *11:9 0.00048773
9 *11:2 *697:D 0.000276077012
10 *11:3 *477:3 0.000266797988
11 *11:3 *516:2 0.000319092988
12 *11:2 *603:Z 0.000444745

*RES
1 *11:6 *11:9 2.73163
2 *11:6 *11:7 6.88507
3 *699:D *11:2 3.38956
4 *11:8 *11:9 3.52882
5 *11:7 *11:2 11.9106
6 *11:5 *11:8 2.77192
7 *11:4 *11:5 20.7896996
8 *11:3 *11:4 3.19066
9 *546:Z *11:3 8.68659
*END

*D_NET *12 0.00732871

*CONN
*I *547:Z O *C 69.9 68.4 *L 0 *D DEL0
*I *701:D I *C 42.7 37.2 *L 0.000885 *D DFKCNQD1

*CAP
1 *701:D 0.00082967
2 *12:2 0.00269651
3 *12:3 0.00034213
4 *12:4 0.0003353
5 *12:5 0.000252473
6 *12:6 0.00210096
7 *12:2 *959:A3 0.000372130977
8 *12:2 *494:2 0.000399523008

*RES
1 *12:5 *12:6 26.0662
2 *12:3 *12:2 4.04916
3 *701:D *12:3 5.8758
4 *12:2 *12:6 27.7173004
5 *547:Z *12:4 4.52918
6 *12:4 *12:5 1.50014
*END

*D_NET *13 0.00692652

*CONN
*I *548:Z O *C 67.9 69.2 *L 0 *D DEL0
*I *686:D I *C 53.3 32 *L 0.000885 *D DFKCNQD1

*CAP
1 *686:D 0.000335434
2 *13:2 0.00184782
3 *13:3 1.47944e-05
4 *13:4 0.000437004
5 *13:5 0.00372904
6 *13:2 *473:2 0.000221144004
7 *13:2 *17:38 0.000341298008

*RES
1 *13:3 *13:2 12.2784
2 *686:D *13:4 3.05766
3 *548:Z *13:3 2.27864
4 *13:2 *13:5 34.8014984
5 *13:4 *13:5 8.46778
*END

*D_NET *14 0.00651663

*CONN
*I *549:Z O *C 71.5 65.6 *L 0 *D DEL0
*I *687:D I *C 47.7 35.6 *L 0.000885 *D DFKCNQD1

*CAP
1 *14:2 0.00142221
2 *14:3 3.26754e-05
3 *14:4 0.000422122
4 *14:5 5.32343e-05
5 *14:6 0.000556836
6 *14:7 2.54055e-05
7 *14:8 0.000820402
8 *14:10 0.00030854
9 *14:11 0.00170764
10 *14:4 *51:5 0.000229297988
11 *14:2 *494:2 0.000652056992
12 *14:2 *9:3 0.000286251992

*RES
1 *14:7 *14:8 7.9356
2 *14:6 *14:7 0.256614
3 *14:5 *14:11 2.32158
4 *14:5 *14:6 5.02108
5 *14:8 *14:10 2.34491
6 *14:2 *14:9 12.791
7 *14:9 *14:10 0.256614
8 *14:4 *14:11 25.4810009
9 *14:3 *14:4 3.8391
10 *549:Z *14:3 3.00005
11 *687:D *14:2 4.01951
*END

*D_NET *15 0.0062575

*CONN
*I *550:Z O *C 64.5 72 *L 0 *D DEL0
*I *697:D I *C 58.9 32 *L 0.000885 *D DFKCNQD1

*CAP
1 *697:D 0.00037153
2 *15:2 0.000692556
3 *15:3 0.000281959
4 *15:4 8.15074e-05
5 *15:5 0.000438094
6 *15:6 0.00127839
7 *15:7 0.000947398
8 *15:8 0.000221068
9 *15:9 3.26119e-06
10 *15:10 0.00146385
11 *697:D *11:2 0.000276077012
12 *15:2 *474:6 0.000201800996

*RES
1 *15:6 *15:8 10.8711996
2 *15:4 *15:5 6.26965
3 *15:3 *15:2 5.3024
4 *697:D *15:3 3.28395
5 *15:9 *15:10 10.6164
6 *15:8 *15:10 0.256618
7 *15:2 *15:6 7.39881
8 *15:7 *15:9 0.256618
9 *15:5 *15:7 10.094
10 *550:Z *15:4 1.50006
*END

*D_NET *16 0.00361006

*CONN
*I *551:Z O *C 61.9 72 *L 0 *D DEL0
*I *991:D I *C 58.7 55.2 *L 0.000958 *D DFD1

*CAP
1 *16:2 0.000649262
2 *16:3 0.00111977992
3 *16:4 1.57198e-06
4 *16:5 0.000407058
5 *16:6 0.000653824
6 *16:7 0.000778575

*RES
1 *16:5 *16:6 3.83254
2 *16:3 *16:4 7.13707
3 *16:2 *16:5 2.50779
4 *16:4 *16:6 0.451322
5 *16:3 *16:7 7.56853008
6 *551:Z *16:2 5.3759
7 *991:D *16:7 1.50006
*END

*D_NET *17 0.01847

*CONN
*I *552:Z O *C 71.7 64.8 *L 0 *D DEL0
*I *715:A1 I *C 46.7 33.6 *L 0.000688 *D AO21D0
*I *724:B I *C 48.3 33.6 *L 0.000707 *D AOI211D0
*I *734:A1 I *C 58.1 30 *L 0.000721 *D MOAI22D0
*I *734:B1 I *C 57.1 30 *L 0.000689 *D MOAI22D0
*I *733:B1 I *C 55.9 30 *L 0.000689 *D MOAI22D0
*I *733:A1 I *C 54.9 30 *L 0.000721 *D MOAI22D0
*I *714:A1 I *C 52.7 30 *L 0.000688 *D AO21D0
*I *722:B I *C 51.1 30 *L 0.000707 *D AOI211D0
*I *691:A1 I *C 50.3 35.6 *L 0.000669 *D IOA21D0
*I *746:I I *C 54.5 37.2 *L 0.00104 *D INVD1
*I *730:A1 I *C 52.5 40.8 *L 0.000721 *D MOAI22D0
*I *730:B1 I *C 51.5 40.8 *L 0.000689 *D MOAI22D0
*I *735:B1 I *C 40.1 35.6 *L 0.000689 *D MOAI22D0
*I *735:A1 I *C 41.1 35.6 *L 0.000721 *D MOAI22D0
*I *731:A1 I *C 44.3 39.2 *L 0.000721 *D MOAI22D0
*I *732:A1 I *C 41.1 44.4 *L 0.000721 *D MOAI22D0
*I *732:B1 I *C 42.1 44.4 *L 0.000689 *D MOAI22D0
*I *721:B1 I *C 43.5 44.4 *L 0.000689 *D MOAI22D0
*I *721:A1 I *C 44.5 44.4 *L 0.000721 *D MOAI22D0
*I *731:B1 I *C 45.3 39.2 *L 0.000689 *D MOAI22D0

*CAP
1 *721:A1 7.57771e-07
2 *721:B1 9.91164e-05
3 *732:B1 2.62795e-05
4 *732:A1 7.72926e-06
5 *731:A1 0.000231938
6 *735:A1 7.56861e-05
7 *735:B1 0.000253277
8 *730:B1 0.000181956
9 *730:A1 0.000193777
10 *746:I 0.000179561
11 *691:A1 3.3645e-06
12 *722:B 0.000251762
13 *714:A1 6.35618e-05
14 *733:A1 0.000110544
15 *733:B1 1.81865e-05
16 *734:B1 3.61305e-05
17 *734:A1 0.00015313
18 *552:Z 0.000209448
19 *17:21 9.81465e-05
20 *17:22 0.000712911
21 *17:23 0.000231666
22 *17:24 0.000112817
23 *17:25 0.000749223
24 *17:26 0.000199991
25 *17:27 0.00044763
26 *17:28 0.000283315
27 *17:29 0.000684055
28 *17:30 0.000228331
29 *17:31 0.0012311
30 *17:32 0.000324508
31 *17:33 0.000756619
32 *17:34 0.000275222
33 *17:35 0.000409863
34 *17:36 0.000452298
35 *17:37 0.000563327
36 *17:38 0.000260582
37 *17:39 0.00198642
38 *17:40 0.000574481
39 *17:41 0.000821484
40 *17:42 0.000303896
41 *17:43 9.97832e-05
42 *17:44 0.00017841
43 *17:45 0.00123089
44 *17:46 0.000147189
45 *17:47 0.00036664
46 *17:38 *13:2 0.000341298008
47 *17:22 *22:2 0.000422648984
48 *721:B1 *47:3 0.000370578008
49 *17:36 *443:4 0.00030120998
50 *17:22 *498:2 0.000261220996
51 *734:B1 *500:2 0.000373393008
52 *734:A1 *515:2 0.000375880977
53 *735:B1 *258:7 0.000196726992

*RES
1 *17:45 *17:47 2.53494
2 *746:I *17:22 11.4174
3 *17:27 *17:40 5.46405
4 *17:28 *17:29 4.75871
5 *735:B1 *17:31 6.42992
6 *17:30 *17:31 8.29976
7 *734:B1 *17:21 1.00835
8 *691:A1 *17:27 1.66389
9 *17:46 *17:47 0.256589
10 *17:26 *17:27 1.42812
11 *733:B1 *17:21 0.510083
12 *735:A1 *17:31 3.21215
13 *17:22 *17:24 3.48421
14 *732:A1 *17:30 3.20511
15 *17:39 *17:46 18.4384003
16 *17:39 *17:43 1.0196
17 *17:37 *17:38 1.78403
18 *17:33 *17:40 4.39156
19 *17:23 *17:44 4.21712
20 *17:30 *17:42 2.77465
21 *732:B1 *17:42 3.20399
22 *730:B1 *17:24 2.31549
23 *734:A1 *17:39 6.61111
24 *17:33 *17:41 5.03134
25 *552:Z *17:34 6.08527
26 *722:B *17:25 4.28914
27 *17:35 *17:36 3.60744
28 *17:43 *17:44 1.45147
29 *17:32 *17:41 5.76172
30 *17:36 *17:37 5.12419
31 *732:B1 *721:B1 1.76292
32 *17:38 *17:45 13.5542
33 *731:A1 *17:29 4.39465
34 *17:25 *17:26 4.60032
35 *17:22 *17:26 1.33218
36 *17:34 *17:35 2.8976
37 *730:A1 *17:24 4.39718
38 *17:21 *17:43 3.58409
39 *17:23 *17:25 1.09191
40 *724:B *17:40 6.00002
41 *714:A1 *17:23 3.3894
42 *17:29 *17:32 2.80785
43 *17:28 *17:42 4.55896
44 *721:A1 *17:28 3.1947
45 *733:A1 *17:44 5.26458
46 *715:A1 *17:33 3.00001
47 *731:B1 *17:32 1.49986
*END

*D_NET *18 0.00540639

*CONN
*I *553:Z O *C 67.3 68.4 *L 0 *D DEL0
*I *993:D I *C 45.5 55.2 *L 0.000958 *D DFD1

*CAP
1 *993:D 0.000323098
2 *18:2 0.000452525
3 *18:3 0.00018648
4 *18:4 0.000209911
5 *18:5 0.00104034992
6 *18:6 6.77692e-05
7 *18:7 0.000659833
8 *18:8 0.000832677
9 *18:9 0.000547233
10 *18:3 *472:2 0.000253336992
11 *18:5 *35:2 0.000329335977
12 *18:2 *494:2 0.000503835039

*RES
1 *18:2 *18:8 5.33199
2 *18:7 *18:9 4.952
3 *18:6 *18:7 5.17258
4 *18:8 *18:9 9.02989
5 *18:5 *18:6 0.132928
6 *18:4 *18:5 11.1974001
7 *993:D *18:2 4.60379
8 *18:3 *18:4 2.53213
9 *553:Z *18:3 4.93321
*END

*D_NET *19 0.00850617

*CONN
*I *554:Z O *C 71.7 32.4 *L 0 *D DEL0
*I *762:I I *C 53.3 53.8 *L 0.00062 *D CKND0
*I *756:A1 I *C 56.1 51.6 *L 0.000798 *D NR3D0
*I *713:A1 I *C 64.5 51.6 *L 0.000675 *D IAO21D0
*I *689:A1 I *C 64.1 48 *L 0.0007 *D OAI21D0
*I *727:A1 I *C 59.1 53.6 *L 0.0007 *D OAI21D0
*I *716:A3 I *C 57.1 53.6 *L 0.000714 *D OAI32D0
*I *753:A1 I *C 50.5 53.6 *L 0.000721 *D MOAI22D0

*CAP
1 *753:A1 0.000540718
2 *716:A3 8.0989e-05
3 *689:A1 0.000238121
4 *713:A1 1.0937e-05
5 *762:I 0.000114195
6 *554:Z 0.000315016
7 *19:8 0.00124966
8 *19:9 0.000122364
9 *19:10 0.000986009
10 *19:11 0.000507649
11 *19:12 0.000596253
12 *19:13 0.00129612008
13 *19:14 0.000430576
14 *19:15 0.00023735
15 *19:16 1.62176e-06
16 *19:17 0.000352554
17 *19:18 0.000459966
18 *19:19 0.000258057
19 *19:20 7.90508e-05
20 *19:8 *558:Z 0.000293736992
21 *753:A1 *452:6 0.000335193984

*RES
1 *762:I *19:17 4.84687
2 *19:10 *19:11 2.81906
3 *19:14 *19:19 4.15671
4 *19:13 *19:15 2.55346
5 *19:18 *19:19 1.44598
6 *716:A3 *19:18 4.91623
7 *19:11 *19:12 4.21189
8 *19:10 *19:16 8.34446
9 *713:A1 *19:9 1.88944
10 *753:A1 *19:17 9.77492
11 *554:Z *19:8 3.64304
12 *19:17 *19:19 4.07486
13 *19:13 *19:20 7.58325
14 *19:15 *19:18 5.28393
15 *19:8 *19:16 11.0588999
16 *689:A1 *19:12 4.65771
17 *19:9 *19:12 2.3783
18 *727:A1 *19:15 2.99996
19 *756:A1 *19:14 1.49998
20 *19:9 *19:20 1.49998
*END

*D_NET *20 0.00557307

*CONN
*I *555:Z O *C 67.3 28.8 *L 0 *D DEL0
*I *994:D I *C 37.7 35.6 *L 0.000958 *D DFD1

*CAP
1 *994:D 7.91024e-05
2 *555:Z 0.000397446
3 *20:2 0.00166741
4 *20:3 0.000276973
5 *20:4 6.27426e-05
6 *20:5 0.000168993
7 *20:6 1.17038e-06
8 *20:7 0.000389024
9 *20:8 0.000552369
10 *20:9 6.13686e-05
11 *20:10 0.000456499
12 *20:11 8.59975e-06
13 *20:12 0.000206979
14 *20:2 *515:5 0.000374781992
15 *555:Z *93:68 0.000869617969

*RES
1 *20:5 *20:6 2.33737
2 *20:8 *20:9 2.14266
3 *20:2 *20:11 10.1029997
4 *555:Z *20:3 4.15306
5 *20:4 *20:12 2.10104
6 *20:6 *20:7 7.03692
7 *20:10 *20:11 0.132886
8 *20:7 *20:8 3.86463
9 *20:9 *20:10 5.90524
10 *20:3 *20:5 5.38156
11 *20:2 *20:4 4.81564
12 *994:D *20:12 2.99994
*END

*D_NET *21 0.00520683

*CONN
*I *556:Z O *C 71.7 33.2 *L 0 *D DEL0
*I *999:D I *C 28.7 39.2 *L 0.000958 *D DFD1

*CAP
1 *999:D 0.000126485
2 *21:2 0.000606142
3 *21:3 0.000125868
4 *21:4 0.000261053
5 *21:5 4.37454e-05
6 *21:6 0.00404352

*RES
1 *21:5 *21:6 41.664299
2 *556:Z *21:2 4.5583
3 *999:D *21:3 3.00009
4 *21:4 *21:5 2.7032
5 *21:3 *21:6 3.00009
6 *21:2 *21:4 4.45468
*END

*D_NET *22 0.00724515

*CONN
*I *557:Z O *C 64.7 28.8 *L 0 *D DEL0
*I *1001:D I *C 33.5 42.8 *L 0.000958 *D DFD1

*CAP
1 *557:Z 0.000197619
2 *22:2 0.00012616
3 *22:3 0.00211617
4 *22:4 0.000464695
5 *22:5 0.000537091
6 *22:6 0.000642262
7 *22:7 9.33524e-05
8 *22:8 0.00048365
9 *22:9 0.000124739
10 *22:4 *498:3 0.000470059023
11 *22:7 *511:12 0.000684207969
12 *22:2 *469:4 0.000233265996
13 *22:2 *70:6 0.000425300977
14 *22:2 *17:22 0.000422648984
15 *22:3 *156:9 0.000223941992

*RES
1 *22:2 *22:3 22.3388996
2 *22:7 *22:2 3.76655
3 *22:4 *22:6 4.29967
4 *1001:D *22:8 3.38956
5 *22:8 *22:9 6.05103
6 *22:3 *22:9 7.25189
7 *22:5 *22:6 3.56238
8 *22:4 *22:7 7.07703
9 *557:Z *22:5 2.69931
*END

*D_NET *23 0.0054269

*CONN
*I *558:Z O *C 72.5 36.8 *L 0 *D DEL0
*I *1003:D I *C 39.5 42.8 *L 0.000958 *D DFD1

*CAP
1 *1003:D 0.000271403
2 *558:Z 0.000195778
3 *23:2 0.00062569
4 *23:3 0.000225716
5 *23:4 0.00032446
6 *23:5 0.000404198
7 *23:6 2.2733e-05
8 *23:7 0.000466863
9 *23:8 0.000728355
10 *23:9 0.000117047
11 *23:10 0.00090456
12 *1003:D *25:4 0.000457875
13 *558:Z *8:4 0.000210831992
14 *23:2 *9:3 0.000177682988
15 *558:Z *19:8 0.000293736992

*RES
1 *23:7 *23:8 6.10023
2 *23:5 *23:6 0.327686
3 *23:4 *23:5 5.51582
4 *1003:D *23:2 4.74114
5 *23:10 *23:2 8.1872797
6 *23:8 *23:9 0.132923
7 *558:Z *23:3 5.57541
8 *23:9 *23:10 7.0618
9 *23:6 *23:7 4.20345
10 *23:3 *23:4 5.29645
*END

*D_NET *24 0.003525

*CONN
*I *559:Z O *C 72.3 62 *L 0 *D DEL0
*I *1000:D I *C 50.5 58.8 *L 0.000958 *D DFD1

*CAP
1 *1000:D 0.000122306
2 *559:Z 5.54653e-05
3 *24:2 0.000339187
4 *24:3 0.00201492
5 *24:4 0.000697159
6 *24:5 0.000281907
7 *24:6 1.40815e-05

*RES
1 *24:5 *24:6 2.14258
2 *1000:D *24:3 2.08405
3 *559:Z *24:2 4.55016
4 *24:2 *24:4 7.95869
5 *24:4 *24:5 0.132904
6 *24:3 *24:6 17.5960007
*END

*D_NET *25 0.00667557

*CONN
*I *560:Z O *C 62.1 28.8 *L 0 *D DEL0
*I *1002:D I *C 30.5 42.8 *L 0.000958 *D DFD1

*CAP
1 *1002:D 0.000154477
2 *560:Z 0.000639615
3 *25:2 1.44178e-05
4 *25:3 0.000183266
5 *25:4 0.000260285
6 *25:5 0.000686942
7 *25:6 0.000254245
8 *25:7 9.29175e-05
9 *25:8 0.00015737
10 *25:9 9.84949e-05
11 *25:10 0.000664493
12 *25:11 0.000504856
13 *25:12 0.00151665
14 *25:2 *68:7 0.00066092
15 *25:3 *103:24 0.000328767969
16 *25:4 *1003:D 0.000457875

*RES
1 *25:6 *25:7 1.42533
2 *25:5 *25:11 6.78985
3 *25:3 *25:6 4.05611
4 *25:7 *25:8 3.05401
5 *25:9 *25:12 12.0281
6 *25:9 *25:10 7.24153
7 *25:2 *25:3 3.86835
8 *25:10 *25:4 2.10936
9 *1002:D *25:5 2.08421
10 *560:Z *25:2 5.76903
11 *25:4 *25:11 4.04656
12 *25:8 *25:12 5.27936
*END

*D_NET *26 0.00161839

*CONN
*I *561:Z O *C 71.5 39.6 *L 0 *D DEL0
*I *725:D I *C 65.5 43 *L 0.00105 *D DFKCND1
*I *743:A1 I *C 66.1 39.2 *L 0.000681 *D IND2D0

*CAP
1 *743:A1 0.000107592
2 *725:D 0.000354414
3 *26:3 0.000792605
4 *26:4 0.000363787

*RES
1 *743:A1 *26:3 1.88947
2 *26:3 *26:4 5.58916998
3 *561:Z *26:4 4.80038
4 *725:D *26:3 5.00489
*END

*D_NET *27 0.00591731

*CONN
*I *562:Z O *C 63.7 29.6 *L 0 *D DEL0
*I *996:D I *C 28.7 35.6 *L 0.000958 *D DFD1

*CAP
1 *562:Z 0.000676211
2 *27:2 0.00112174
3 *27:3 4.1816e-05
4 *27:4 0.000275321
5 *27:5 0.000194822
6 *27:6 0.000450938
7 *27:7 0.000331259
8 *27:8 0.000572295
9 *27:9 0.00062243
10 *27:10 0.000196568
11 *27:11 0.000470691
12 *27:12 6.69775e-05
13 *27:6 *162:5 0.000229817012
14 *562:Z *474:2 0.000367615
15 *27:2 *258:2 0.000298811992

*RES
1 *27:6 *27:7 2.92937
2 *27:5 *27:6 5.2482
3 *27:4 *27:5 1.90036
4 *27:8 *27:9 4.15074
5 *27:3 *27:4 5.367
6 *27:7 *27:8 5.14908
7 *27:10 *27:11 4.15213
8 *27:9 *27:10 1.43928
9 *996:D *27:2 2.26447
10 *562:Z *27:3 5.78377
11 *27:11 *27:12 0.132886
12 *27:2 *27:12 10.1500998
*END

*D_NET *28 0.0016287

*CONN
*I *563:Z O *C 69.1 64.8 *L 0 *D DEL01
*I *661:I I *C 61.9 62.4 *L 0.00104 *D INVD1

*CAP
1 *661:I 0.000213626
2 *28:2 0.000255268
3 *28:3 0.00115980008

*RES
1 *28:2 *28:3 10.5591002
2 *563:Z *28:2 2.26453
3 *661:I *28:3 3.73313
*END

*D_NET *29 0.00192734

*CONN
*I *564:Z O *C 64.7 68.4 *L 0 *D DEL01
*I *659:I I *C 58.9 62.4 *L 0.00104 *D INVD1

*CAP
1 *659:I 0.000622855
2 *564:Z 0.000459205
3 *29:2 0.000202927
4 *29:3 0.000642360977

*RES
1 *29:2 *29:3 3.89562
2 *564:Z *29:2 7.17911
3 *659:I *29:3 7.3217802
*END

*D_NET *30 0.00122285

*CONN
*I *565:Z O *C 69.7 62 *L 0 *D DEL01
*I *663:I I *C 64.5 60.8 *L 0.00104 *D INVD1

*CAP
1 *663:I 0.000300393
2 *565:Z 4.78902e-06
3 *30:2 0.000140802
4 *30:3 0.000776853047

*RES
1 *30:2 *30:3 7.31351995
2 *565:Z *30:2 1.75484
3 *663:I *30:3 4.27422
*END

*D_NET *31 0.00754359

*CONN
*I *566:Z O *C 59.5 28.8 *L 0 *D DEL0
*I *696:D I *C 28.5 49.8 *L 0.000644 *D EDFKCNQD1

*CAP
1 *566:Z 0.00025073
2 *31:2 0.000215137
3 *31:3 0.00126019
4 *31:4 0.00047702
5 *31:5 0.000633277
6 *31:6 6.23028e-06
7 *31:7 0.000724136
8 *31:8 0.000565148
9 *31:9 0.000800207
10 *31:10 1.04992e-05
11 *31:11 0.000762998
12 *31:2 *58:4 0.000540885977
13 *31:3 *473:3 0.000432826016
14 *566:Z *164:4 0.000251724004
15 *31:4 *93:41 0.000612585

*RES
1 *31:8 *31:9 4.36456
2 *31:3 *31:11 13.8711004
3 *31:5 *31:10 6.78993
4 *31:7 *31:8 0.13292
5 *31:4 *31:7 6.29466
6 *31:2 *31:4 5.6091
7 *31:9 *31:10 5.25902
8 *31:6 *31:11 8.29163
9 *31:6 *31:2 5.42517
10 *566:Z *31:3 4.78406
11 *696:D *31:5 1.50001
*END

*D_NET *32 0.00721668

*CONN
*I *567:Z O *C 62.7 69.2 *L 0 *D DEL0
*I *695:D I *C 28.3 53.4 *L 0.000644 *D EDFKCNQD1

*CAP
1 *695:D 6.35159e-05
2 *32:2 0.000244495
3 *32:3 0.000755
4 *32:4 0.000247933
5 *32:5 0.000360539
6 *32:6 0.000861375
7 *32:7 0.00051188
8 *32:8 0.000572474
9 *32:9 8.31408e-05
10 *32:10 0.000259349
11 *32:11 0.000463391
12 *32:12 0.00021881
13 *32:13 0.000167743
14 *32:14 0.000938772031
15 *32:15 0.000905338
16 *32:2 *667:I 0.000562879961

*RES
1 *32:4 *32:7 2.24363
2 *695:D *32:8 3.25658
3 *32:12 *32:13 0.327754
4 *32:13 *32:14 9.5380497
5 *32:5 *32:8 3.96929
6 *32:14 *32:2 2.08063
7 *32:4 *32:5 2.57633
8 *32:3 *32:15 7.50691
9 *32:2 *32:15 9.0211
10 *32:10 *32:11 3.82739
11 *32:9 *32:10 3.80701
12 *32:3 *32:6 6.50443
13 *32:11 *32:12 3.89564
14 *32:6 *32:7 3.71561
15 *567:Z *32:9 1.50007
*END

*D_NET *33 0.00569431

*CONN
*I *568:Z O *C 66.9 64.8 *L 0 *D DEL0
*I *985:D I *C 44.1 51.8 *L 0.000646 *D EDFKCND1

*CAP
1 *985:D 0.00115882
2 *33:2 8.956e-05
3 *33:3 0.00111209
4 *33:4 0.00133091
5 *33:5 0.000358463
6 *33:6 0.000299163
7 *33:7 0.00039248
8 *33:8 0.000436407
9 *33:9 0.000277839
10 *33:2 *495:6 0.000238587012

*RES
1 *33:3 *33:4 5.40055
2 *985:D *33:3 10.7142
3 *33:8 *33:9 0.132884
4 *33:6 *33:7 3.11318
5 *33:2 *33:5 5.02549
6 *33:7 *33:8 6.29476
7 *33:5 *33:6 2.92175
8 *33:4 *33:9 11.1222
9 *568:Z *33:2 1.50008
*END

*D_NET *34 0.00441843

*CONN
*I *569:Z O *C 61.1 29.6 *L 0 *D DEL0
*I *764:A1 I *C 49.7 44.4 *L 0.000647 *D NR2D0
*I *765:A1 I *C 50.1 40.8 *L 0.00069 *D INR2D0
*I *763:A1 I *C 49.9 43 *L 0.000693 *D ND3D0

*CAP
1 *764:A1 0.00021474
2 *569:Z 0.000492537
3 *34:4 0.000592171
4 *34:5 0.00156471
5 *34:6 8.68607e-05
6 *34:7 0.000454741
7 *34:8 7.29649e-05
8 *34:9 0.000590739
9 *34:10 0.000348971

*RES
1 *34:9 *34:10 3.60869
2 *34:8 *34:9 6.10764
3 *34:6 *34:7 3.14038
4 *34:5 *34:7 0.525657
5 *34:4 *34:10 6.8992
6 *764:A1 *34:6 3.0597
7 *34:5 *34:8 11.8546
8 *569:Z *34:4 4.09654
9 *765:A1 *34:7 1.49991
10 *763:A1 *34:6 1.49991
*END

*D_NET *35 0.00617258

*CONN
*I *570:Z O *C 62.5 68.4 *L 0 *D DEL0
*I *986:D I *C 33.9 53.4 *L 0.000646 *D EDFKCND1

*CAP
1 *986:D 0.000625417
2 *35:2 0.000419967
3 *35:3 0.000167791
4 *35:4 0.00095694
5 *35:5 0.000170595
6 *35:6 0.000702968
7 *35:7 0.000153759
8 *35:8 0.000459436
9 *35:9 9.15689e-05
10 *35:10 0.000801999
11 *35:8 *179:3 0.000222582988
12 *35:7 *181:2 0.000200916016
13 *35:10 *975:I 0.000869287031
14 *35:2 *18:5 0.000329335977

*RES
1 *35:7 *35:8 5.40697
2 *986:D *35:10 11.4031
3 *35:9 *35:10 4.03239
4 *35:6 *35:7 3.81872
5 *35:5 *35:6 6.87864
6 *35:2 *35:4 8.49943
7 *35:3 *35:2 10.296
8 *35:8 *35:9 0.256646
9 *35:4 *35:5 1.41495
10 *570:Z *35:3 1.50003
*END

*D_NET *36 0.00460279

*CONN
*I *571:Z O *C 61.5 62 *L 0 *D DEL01
*I *680:I I *C 35.1 66 *L 0.00104 *D INVD1

*CAP
1 *680:I 0.000162799
2 *571:Z 0.000718662
3 *36:2 0.000346719
4 *36:3 0.000921197
5 *36:4 0.00180464
6 *36:5 0.000648773

*RES
1 *36:3 *36:5 10.6851
2 *680:I *36:3 1.90444
3 *571:Z *36:2 5.71754
4 *36:2 *36:4 15.3555002
5 *36:4 *36:5 4.3274
*END

*D_NET *37 0.0034532

*CONN
*I *572:Z O *C 34.7 47.6 *L 0 *D DEL01
*I *678:I I *C 29.5 64.4 *L 0.00104 *D INVD1

*CAP
1 *572:Z 0.000303195
2 *37:3 0.000771466016
3 *37:4 0.000763979
4 *37:5 0.000686026
5 *37:6 0.000373461
6 *37:7 0.000555076

*RES
1 *37:2 *37:5 4.02719
2 *37:2 *37:3 0.256663
3 *678:I *37:4 9.97074986
4 *572:Z *37:7 3.28489
5 *37:6 *37:7 3.14172
6 *37:3 *37:4 5.08716
7 *37:5 *37:6 2.31636
*END

*D_NET *38 0.00173158

*CONN
*I *573:Z O *C 32.3 64.8 *L 0 *D DEL015
*I *650:I I *C 42.7 66 *L 0.00104 *D INVD1

*CAP
1 *650:I 0.000171267
2 *573:Z 0.000140517
3 *38:2 0.00121472
4 *38:3 0.000205076

*RES
1 *573:Z *38:2 2.08407
2 *38:2 *38:3 11.0726995
3 *650:I *38:3 5.13592
*END

*D_NET *39 0.000576703

*CONN
*I *574:Z O *C 67.7 29.6 *L 0 *D DEL015
*I *904:CN I *C 65.5 32.2 *L 0.00107 *D DFKCND1

*CAP
1 *39:2 9.29436e-05
2 *39:3 0.000483763008

*RES
1 *904:CN *39:3 4.16829014
2 *39:2 *39:3 3.64267
3 *574:Z *39:2 1.50001
*END

*D_NET *40 0.00500085

*CONN
*I *575:Z O *C 59.3 72 *L 0 *D DEL0
*I *710:D I *C 53.9 49.8 *L 0.000644 *D EDFKCNQD1

*CAP
1 *710:D 0.000551544
2 *40:2 0.00150118
3 *40:3 0.000417151
4 *40:4 0.000751724
5 *40:5 0.000361923
6 *40:6 0.000300167
7 *40:7 0.000482503
8 *40:3 *52:6 0.000192879004
9 *40:2 *81:10 0.000441751992

*RES
1 *40:2 *40:6 13.0598001
2 *40:5 *40:6 3.75338
3 *710:D *40:2 6.8876
4 *40:5 *40:7 3.64198
5 *40:3 *40:4 2.3692
6 *575:Z *40:4 5.56998
7 *40:3 *40:7 5.01859
*END

*D_NET *41 0.00393187

*CONN
*I *576:Z O *C 70.1 61.2 *L 0 *D DEL0
*I *709:D I *C 56.3 49.8 *L 0.000644 *D EDFKCNQD1

*CAP
1 *709:D 0.000318584
2 *41:2 0.000538454
3 *41:3 0.000958023
4 *41:4 0.000738429
5 *41:5 0.000372285
6 *41:6 0.00100609008

*RES
1 *41:3 *41:5 4.84212
2 *709:D *41:4 3.02903
3 *41:5 *41:6 6.58828
4 *41:2 *41:3 6.20469
5 *576:Z *41:2 5.2809
6 *41:4 *41:6 7.33565998
*END

*D_NET *42 0.00378286

*CONN
*I *577:Z O *C 67.5 62 *L 0 *D DEL0
*I *981:D I *C 58.9 51.8 *L 0.000646 *D EDFKCND1

*CAP
1 *981:D 0.000137633
2 *577:Z 0.000399271
3 *42:2 0.000447621
4 *42:3 0.000444604
5 *42:4 0.000732928
6 *42:5 0.0016208

*RES
1 *42:4 *42:5 13.6785002
2 *42:2 *42:3 3.32967
3 *577:Z *42:2 8.79243
4 *981:D *42:5 3.58409
5 *42:3 *42:4 4.47991
*END

*D_NET *43 0.00280149

*CONN
*I *578:Z O *C 65.7 33.2 *L 0 *D DEL0
*I *983:D I *C 59.7 41 *L 0.000646 *D EDFKCND1

*CAP
1 *983:D 0.000106316
2 *43:2 0.00193325
3 *43:3 0.000706985
4 *43:4 5.49281e-05

*RES
1 *43:3 *43:4 5.66776
2 *43:2 *43:4 11.7891998
3 *983:D *43:2 5.82768
4 *578:Z *43:3 1.49991
*END

*D_NET *44 0.00165588

*CONN
*I *579:Z O *C 62.7 32.4 *L 0 *D DEL0
*I *711:D I *C 59.7 37.4 *L 0.000644 *D EDFKCNQD1

*CAP
1 *711:D 0.000494591
2 *579:Z 0.000464879
3 *44:2 0.00069641

*RES
1 *579:Z *44:2 4.45164
2 *711:D *44:2 10.9230003
*END

*D_NET *45 0.00417316

*CONN
*I *580:Z O *C 70.7 58.4 *L 0 *D DEL0
*I *938:A2 I *C 62.9 55.2 *L 0.000606 *D CKND2D0
*I *984:SA I *C 67.7 53.6 *L 0.00154 *D DFXD1
*I *739:B3 I *C 66.7 50 *L 0.000676 *D IND4D0
*I *713:A2 I *C 64.9 51.6 *L 0.000712 *D IAO21D0

*CAP
1 *713:A2 0.000163712
2 *739:B3 7.70557e-06
3 *938:A2 0.00054697
4 *45:5 0.000573651
5 *45:6 0.00025269
6 *45:7 0.000596529
7 *45:8 0.00082245
8 *45:9 0.000546669
9 *45:10 0.000173087
10 *45:11 0.000413791
11 *45:12 7.58885e-05

*RES
1 *45:6 *45:9 1.47974
2 *45:6 *45:7 3.52158
3 *45:8 *45:10 4.28296
4 *45:5 *45:11 4.716
5 *580:Z *45:5 4.54302
6 *45:9 *45:11 4.46713
7 *45:8 *45:12 4.55905
8 *739:B3 *45:7 3.2674
9 *938:A2 *45:10 7.55797005
10 *713:A2 *45:8 2.10077
11 *984:SA *45:9 1.50004
12 *45:6 *45:12 1.50004
*END

*D_NET *46 0.000729793

*CONN
*I *581:Z O *C 68.9 39.6 *L 0 *D DEL0
*I *982:DB I *C 66.1 37.2 *L 0.00109 *D DFXD1

*CAP
1 *982:DB 0.000208396
2 *581:Z 0.00023065
3 *46:2 0.000290746992

*RES
1 *581:Z *46:2 6.31116009
2 *982:DB *46:2 5.3938
*END

*D_NET *47 0.00616946

*CONN
*I *582:Z O *C 71.3 44 *L 0 *D DEL0
*I *920:I I *C 31.3 46.6 *L 0.00062 *D CKND0
*I *900:B I *C 39.9 44.4 *L 0.00073 *D OAI21D0

*CAP
1 *920:I 8.58375e-05
2 *47:3 0.000147273
3 *47:4 0.00131403
4 *47:5 0.000100936
5 *47:6 0.000592842
6 *47:7 0.000469249
7 *47:8 0.00046155
8 *47:9 0.000427664
9 *47:10 0.000412385
10 *47:11 0.000412305
11 *47:12 0.000337515
12 *47:13 0.000281092
13 *47:14 0.000178953
14 *47:3 *721:B1 0.000370578008
15 *47:4 *900:A1 0.000577252969

*RES
1 *47:13 *47:3 7.3667
2 *47:6 *47:7 3.25038
3 *920:I *47:4 4.3759
4 *47:3 *47:14 0.944194
5 *900:B *47:14 5.16259
6 *47:10 *47:11 3.11655
7 *47:8 *47:9 3.31134
8 *47:11 *47:12 2.92162
9 *47:12 *47:13 2.72682
10 *47:7 *47:8 3.89657
11 *47:9 *47:10 3.15568
12 *47:5 *47:6 6.98491
13 *47:4 *47:14 9.29109955
14 *582:Z *47:5 1.49994
*END

*D_NET *48 0.00632305

*CONN
*I *583:Z O *C 71.7 57.6 *L 0 *D DEL0
*I *974:I I *C 40.3 55.2 *L 0.0113 *D INVD12
*I *914:A1 I *C 42.7 51.6 *L 0.000647 *D NR2D0
*I *884:A1 I *C 40.9 51.6 *L 0.00069 *D AOI21D0
*I *908:A1 I *C 39.7 55 *L 0.000617 *D CKND2D0

*CAP
1 *908:A1 0.000217716
2 *884:A1 0.000172749
3 *914:A1 0.000131754
4 *974:I 9.63528e-05
5 *48:5 0.0005578
6 *48:6 0.00060849
7 *48:7 0.00168972
8 *48:8 0.000614549
9 *48:9 0.00154556
10 *48:10 0.000334592
11 *48:11 0.000149364
12 *48:5 *229:7 0.000204387988

*RES
1 *908:A1 *48:11 5.43117
2 *48:8 *48:9 15.4238997
3 *48:7 *48:8 2.47023
4 *48:5 *48:11 4.81032
5 *48:5 *48:10 3.28454
6 *48:6 *48:7 14.731
7 *974:I *48:11 3.00001
8 *884:A1 *48:5 4.05343
9 *583:Z *48:6 5.78373
10 *914:A1 *48:10 5.2789
11 *48:9 *48:10 3.478
*END

*D_NET *49 0.00585734

*CONN
*I *584:Z O *C 62.1 54.8 *L 0 *D DEL015
*I *970:I I *C 45.5 60.8 *L 0.0113 *D INVD12
*I *777:A2 I *C 46.3 58.8 *L 0.000704 *D OAI32D0
*I *915:A1 I *C 44.1 48 *L 0.000647 *D NR2D0
*I *693:B1 I *C 44.5 57.2 *L 0.000684 *D OAI32D0

*CAP
1 *915:A1 0.000273528
2 *970:I 0.000226642
3 *584:Z 0.000477711
4 *49:5 0.00198622
5 *49:6 0.000823553
6 *49:7 0.000454798
7 *49:8 0.000162692
8 *49:9 0.000497351
9 *49:10 0.000519839
10 *49:11 0.000257101
11 *915:A1 *636:ZN 0.000177873008

*RES
1 *49:8 *49:9 3.37005
2 *693:B1 *49:7 3.38955
3 *49:9 *49:10 3.28818
4 *49:7 *49:8 1.19916
5 *49:6 *49:7 7.35577
6 *49:5 *49:6 21.2917995
7 *970:I *49:11 4.93763
8 *49:6 *49:11 0.792724
9 *584:Z *49:5 4.32977
10 *915:A1 *49:10 3.07733
11 *777:A2 *49:11 3.00001
*END

*D_NET *50 0.0081066

*CONN
*I *585:Z O *C 62.5 65.6 *L 0 *D DEL0
*I *975:I I *C 34.9 58.8 *L 0.0113 *D INVD12
*I *882:A1 I *C 37.5 46.4 *L 0.00069 *D AOI21D0
*I *932:A1 I *C 36.3 46.4 *L 0.000647 *D NR2D0

*CAP
1 *975:I 0.000107506
2 *585:Z 9.11478e-05
3 *50:4 0.000507867
4 *50:5 0.00253431016
5 *50:6 0.000397694
6 *50:8 0.00044669
7 *50:9 0.000550483
8 *50:10 0.000700643
9 *50:11 0.000845195
10 *50:12 0.000538108
11 *50:13 0.000100932
12 *50:14 0.000217641
13 *975:I *223:3 0.00019906
14 *975:I *35:10 0.000869287031

*RES
1 *50:12 *50:13 4.52957
2 *50:5 *50:8 0.422493
3 *975:I *50:11 2.56414
4 *50:7 *50:11 4.94112
5 *50:6 *50:9 3.57294
6 *50:6 *50:11 3.50289
7 *50:7 *50:8 2.9206
8 *585:Z *50:4 1.69471
9 *50:10 *50:12 3.7488
10 *50:5 *50:14 23.9106007
11 *50:4 *50:14 5.29064
12 *50:9 *50:10 4.35153
13 *882:A1 *50:13 3.00014
14 *932:A1 *50:12 1.49989
*END

*D_NET *51 0.0072114

*CONN
*I *586:Z O *C 67.5 61.2 *L 0 *D DEL0
*I *972:I I *C 33.3 62.2 *L 0.0104 *D CKND12
*I *878:A1 I *C 36.9 48 *L 0.00069 *D AOI21D0
*I *928:A1 I *C 35.5 48 *L 0.000647 *D NR2D0

*CAP
1 *878:A1 0.000111803
2 *972:I 0.000108158
3 *51:4 0.00180078
4 *51:5 0.0024888
5 *51:6 0.000336359
6 *51:7 2.08872e-05
7 *51:8 0.000389337
8 *51:9 0.000309396
9 *51:10 0.000113588
10 *51:11 0.000619551
11 *51:4 *55:4 0.000466048008
12 *972:I *934:A2 0.000217445996
13 *51:5 *14:4 0.000229297988

*RES
1 *51:8 *51:10 5.90574
2 *51:6 *51:4 4.76223
3 *972:I *51:10 2.99992
4 *51:10 *51:5 4.53098
5 *51:7 *51:8 0.451343
6 *51:4 *51:7 11.7009
7 *586:Z *51:9 2.99992
8 *51:11 *51:5 34.8400993
9 *51:9 *51:11 2.085
10 *878:A1 *51:6 3.2551
11 *928:A1 *51:4 1.50023
*END

*D_NET *52 0.0064392

*CONN
*I *587:Z O *C 59.9 68.4 *L 0 *D DEL0
*I *977:I I *C 47.1 60.8 *L 0.0113 *D INVD12
*I *907:A1 I *C 48.1 48 *L 0.000647 *D NR2D0
*I *885:A1 I *C 47.1 48 *L 0.00069 *D AOI21D0
*I *777:B2 I *C 45.7 58.8 *L 0.000733 *D OAI32D0

*CAP
1 *885:A1 0.000169011
2 *907:A1 0.000116796
3 *977:I 0.000455146
4 *52:5 0.00037549
5 *52:6 0.000564438
6 *52:7 0.000360928
7 *52:8 0.00153176
8 *52:9 0.000483427
9 *52:10 0.000395544
10 *52:11 0.00020337
11 *52:12 0.000160644
12 *52:13 0.000590196
13 *52:13 *737:A2 0.000230535996
14 *977:I *452:8 0.000238837012
15 *52:5 *223:4 0.000370175977
16 *52:6 *40:3 0.000192879004

*RES
1 *52:7 *52:9 5.29416
2 *52:11 *52:12 2.20441
3 *907:A1 *52:8 4.00854
4 *52:6 *52:5 2.28633
5 *885:A1 *52:8 4.08857
6 *52:7 *52:8 10.3443003
7 *977:I *52:9 7.82105
8 *977:I *52:13 7.88813
9 *52:12 *52:13 3.13947
10 *52:10 *52:11 2.66847
11 *587:Z *52:6 4.90587
12 *52:5 *52:10 5.11848
13 *777:B2 *52:9 1.49997
*END

*D_NET *53 0.00063233

*CONN
*I *588:Z O *C 70.3 28.8 *L 0 *D DEL0
*I *888:I I *C 67.9 30 *L 0.0113 *D INVD12

*CAP
1 *53:2 8.35976e-05
2 *53:3 0.000548735039

*RES
1 *888:I *53:3 4.52903986
2 *53:2 *53:3 3.83741
3 *588:Z *53:2 1.49998
*END

*D_NET *54 0.000753417

*CONN
*I *589:Z O *C 71.7 40.4 *L 0 *D DEL0
*I *719:I I *C 69.3 42.8 *L 0.0113 *D INVD12

*CAP
1 *589:Z 0.000163059
2 *54:2 0.000590358984

*RES
1 *719:I *54:2 4.16828
2 *589:Z *54:2 6.24580002
*END

*D_NET *55 0.00522326

*CONN
*I *590:Z O *C 64.9 62 *L 0 *D DEL0
*I *946:A2 I *C 32.3 57.2 *L 0.000606 *D CKND2D0
*I *742:B2 I *C 38.5 57.4 *L 0.000739 *D MOAI22D0

*CAP
1 *946:A2 0.000241118
2 *55:3 0.000662548
3 *55:4 0.000467193
4 *55:5 0.000262357
5 *55:6 0.00188857
6 *55:7 6.64537e-05
7 *55:8 0.000710213
8 *55:4 *51:4 0.000466048008
9 *55:3 *189:5 0.000458743984

*RES
1 *55:7 *55:8 3.83923
2 *55:3 *55:6 5.07229
3 *55:4 *55:3 6.50692
4 *55:6 *55:8 27.2362003
5 *590:Z *55:5 3.00015
6 *742:B2 *55:3 3.00015
7 *946:A2 *55:4 4.52704
8 *55:5 *55:7 1.49987
*END

*D_NET *56 0.0041192

*CONN
*I *591:Z O *C 68.1 58.4 *L 0 *D DEL0
*I *937:A2 I *C 38.3 55.2 *L 0.000606 *D CKND2D0
*I *741:B2 I *C 40.5 57.4 *L 0.000739 *D MOAI22D0

*CAP
1 *937:A2 0.000423463
2 *56:3 0.000153312
3 *56:4 0.000832325
4 *56:5 0.00199351
5 *56:6 2.83505e-05
6 *56:7 0.000345743
7 *56:8 0.000342488

*RES
1 *56:7 *56:8 0.133233
2 *56:6 *56:7 6.9898
3 *741:B2 *56:4 4.17649
4 *56:4 *56:5 4.03449
5 *937:A2 *56:4 6.96385
6 *56:5 *56:8 22.9776993
7 *56:3 *56:6 2.99984
8 *591:Z *56:3 1.49992
*END

*D_NET *57 0.00457961

*CONN
*I *592:Z O *C 69.1 57.6 *L 0 *D DEL0
*I *939:A2 I *C 57.3 57.2 *L 0.000664 *D NR2D0
*I *933:A1 I *C 59.1 57.4 *L 0.000617 *D CKND2D0
*I *783:A I *C 60.9 48 *L 0.00103 *D FA1D0

*CAP
1 *783:A 0.000282567
2 *933:A1 8.22629e-06
3 *939:A2 0.000291095
4 *592:Z 0.000474089
5 *57:4 0.00151862
6 *57:5 0.000352572
7 *57:6 0.000294524
8 *57:7 0.000686652
9 *57:8 0.000671242

*RES
1 *592:Z *57:6 6.3404
2 *57:7 *57:8 5.72429
3 *57:5 *57:8 3.0269
4 *933:A1 *57:5 1.75485
5 *57:6 *57:7 2.3373
6 *57:4 *57:5 8.78913975
7 *783:A *57:4 3.48221
8 *939:A2 *57:8 7.45915
*END

*D_NET *58 0.00546743

*CONN
*I *593:Z O *C 71.9 47.6 *L 0 *D DEL0
*I *820:A I *C 49.3 48 *L 0.00103 *D FA1D0
*I *936:A1 I *C 53.1 57.4 *L 0.000617 *D CKND2D0
*I *945:A1 I *C 52.3 57.2 *L 0.000647 *D NR2D0

*CAP
1 *945:A1 0.000197636
2 *820:A 0.000133335
3 *593:Z 0.000142739
4 *58:4 0.000329637
5 *58:5 0.000148535
6 *58:6 0.000460054
7 *58:7 0.0013664
8 *58:8 0.00029021
9 *58:9 0.000618138
10 *58:10 0.000120158
11 *58:11 0.000572935
12 *820:A *104:15 0.000546728008
13 *58:4 *31:2 0.000540885977

*RES
1 *58:6 *58:7 11.5494003
2 *593:Z *58:5 4.52735
3 *820:A *58:4 2.27883
4 *945:A1 *58:9 3.50979
5 *58:9 *58:11 5.43792
6 *58:7 *58:8 4.67767
7 *58:4 *58:10 4.90571
8 *58:8 *58:10 1.23149
9 *58:5 *58:6 3.89574
10 *58:10 *58:11 6.73603
11 *936:A1 *58:9 3.7648
*END

*D_NET *59 0.00376553

*CONN
*I *594:Z O *C 70.7 54.8 *L 0 *D DEL0
*I *933:A2 I *C 58.7 57.2 *L 0.000606 *D CKND2D0
*I *939:A1 I *C 56.9 57.2 *L 0.000647 *D NR2D0
*I *727:A2 I *C 58.7 53.6 *L 0.000651 *D OAI21D0
*I *716:A1 I *C 57.7 53.6 *L 0.000702 *D OAI32D0

*CAP
1 *727:A2 0.00011213
2 *939:A1 0.000344655
3 *933:A2 0.000294627
4 *594:Z 0.000191067
5 *59:5 0.00222883016
6 *59:6 0.000110872
7 *59:7 0.000298062
8 *59:8 0.000185285

*RES
1 *59:5 *59:8 17.1961002
2 *59:5 *59:6 1.91625
3 *594:Z *59:8 5.11165
4 *933:A2 *59:6 3.45386
5 *939:A1 *59:6 3.16523
6 *59:5 *59:7 1.06059
7 *727:A2 *59:7 2.92567
8 *716:A1 *59:7 2.99992
*END

*D_NET *60 0.006801

*CONN
*I *595:Z O *C 71.9 50.4 *L 0 *D DEL0
*I *821:A I *C 32.5 48 *L 0.00103 *D FA1D0
*I *944:A1 I *C 31.3 61 *L 0.000617 *D CKND2D0
*I *934:A1 I *C 32.3 62.4 *L 0.000647 *D NR2D0

*CAP
1 *934:A1 0.000242622
2 *944:A1 0.000165392
3 *821:A 0.000331249
4 *60:4 0.000449827
5 *60:5 0.000233142
6 *60:6 0.000433311
7 *60:7 0.000540606
8 *60:8 4.78613e-05
9 *60:9 3.54744e-05
10 *60:10 2.71583e-05
11 *60:11 0.000232386
12 *60:12 0.00381117
13 *60:4 *946:A1 0.000250764004

*RES
1 *60:11 *60:12 39.9094009
2 *60:7 *60:8 3.91324
3 *595:Z *60:9 2.99978
4 *944:A1 *60:8 2.55645
5 *60:4 *60:7 4.34743
6 *60:5 *60:6 2.42492
7 *934:A1 *60:8 3.21597
8 *60:10 *60:12 2.99978
9 *60:4 *60:6 2.66728
10 *821:A *60:5 3.31888
11 *60:5 *60:10 1.49989
12 *60:9 *60:11 1.49989
*END

*D_NET *61 0.0059158

*CONN
*I *596:Z O *C 70.3 54 *L 0 *D DEL0
*I *782:A I *C 32.5 51.6 *L 0.00103 *D FA1D0
*I *948:A2 I *C 30.7 57.2 *L 0.000664 *D NR2D0
*I *946:A1 I *C 31.9 57.4 *L 0.000617 *D CKND2D0

*CAP
1 *946:A1 0.000170481
2 *948:A2 1.09115e-06
3 *782:A 0.000291424
4 *596:Z 7.41982e-06
5 *61:4 0.000355213
6 *61:5 0.00014748
7 *61:6 0.000561353
8 *61:7 0.000536649
9 *61:8 0.00119291
10 *61:9 5.47975e-05
11 *61:10 0.00143017
12 *61:11 0.00030251
13 *61:12 0.000159875
14 *61:7 *105:15 0.000273238008
15 *946:A1 *60:4 0.000250764004
16 *782:A *768:S 0.000180460996

*RES
1 *61:4 *61:7 4.84135
2 *61:11 *61:12 3.11954
3 *596:Z *61:5 1.98944
4 *61:5 *61:9 3.0001
5 *948:A2 *61:4 2.69405
6 *782:A *61:7 7.05111
7 *61:8 *61:12 13.4245
8 *61:6 *61:7 3.55653
9 *61:10 *61:11 0.133291
10 *61:6 *61:8 5.74277
11 *61:9 *61:10 17.1282005
12 *946:A1 *61:4 5.22528
*END

*D_NET *62 0.00469247

*CONN
*I *597:Z O *C 68.1 54.8 *L 0 *D DEL0
*I *883:A1 I *C 59.1 42.8 *L 0.00069 *D AOI21D0
*I *930:A1 I *C 60.3 42.8 *L 0.000647 *D NR2D0
*I *683:A1 I *C 62.5 48 *L 0.000702 *D OAI32D0
*I *922:A2 I *C 61.3 53.6 *L 0.000606 *D CKND2D0

*CAP
1 *62:5 0.000962325
2 *62:6 0.00112214992
3 *62:7 0.000208797
4 *62:8 0.000112754
5 *62:9 0.000283829
6 *62:10 0.000792243
7 *62:11 0.000149295
8 *62:12 0.000478654
9 *62:13 0.000582453

*RES
1 *62:6 *62:7 2.04786
2 *597:Z *62:11 3.19473
3 *62:7 *62:10 6.56917
4 *62:10 *62:12 0.362491
5 *930:A1 *62:12 4.75659
6 *62:6 *62:8 4.1687
7 *62:5 *62:9 8.0941
8 *62:11 *62:13 5.88383
9 *922:A2 *62:5 2.00969
10 *62:9 *62:13 2.86448
11 *883:A1 *62:12 6.77851
12 *62:5 *62:6 5.27754
13 *683:A1 *62:8 2.99996
*END

*D_NET *63 0.00819834

*CONN
*I *598:Z O *C 67.1 40.4 *L 0 *D DEL0
*I *822:A2 I *C 36.5 41 *L 0.000645 *D OA32D0
*I *880:A1 I *C 35.3 30 *L 0.00069 *D AOI21D0
*I *909:A1 I *C 36.3 30 *L 0.000647 *D NR2D0
*I *707:B1 I *C 34.7 40.8 *L 0.00103 *D OAI32D1
*I *978:I I *C 35.3 44.4 *L 0.0113 *D INVD12

*CAP
1 *707:B1 5.27779e-05
2 *880:A1 0.000360893
3 *63:6 0.000779878
4 *63:7 0.000807531
5 *63:8 0.000733501
6 *63:9 0.0003762
7 *63:10 0.000361703
8 *63:11 0.000196487
9 *63:12 8.28101e-05
10 *63:13 0.000120003
11 *63:14 0.000550853
12 *63:15 0.000303587
13 *63:16 0.000439301
14 *63:17 0.000435683
15 *63:18 0.000268772
16 *63:19 0.0016581
17 *63:6 *469:5 0.000240658008
18 *63:7 *80:6 0.000429571016

*RES
1 *63:7 *63:18 2.06384
2 *880:A1 *63:14 7.76267
3 *707:B1 *63:6 3.19474
4 *63:9 *63:10 2.45931
5 *63:18 *63:19 14.3828001
6 *63:8 *63:13 4.53874
7 *63:9 *63:14 2.72816
8 *63:6 *63:19 3.98744
9 *978:I *63:11 1.66376
10 *63:8 *63:10 2.59319
11 *63:15 *63:16 3.12561
12 *63:11 *63:6 3.53579
13 *63:16 *63:17 3.07733
14 *63:13 *63:19 1.78819
15 *63:17 *63:7 9.53835
16 *63:12 *63:15 3.86827
17 *909:A1 *63:14 1.50004
18 *822:A2 *63:13 3.00007
19 *598:Z *63:12 1.50004
*END

*D_NET *64 0.00478199

*CONN
*I *599:Z O *C 69.3 47.6 *L 0 *D DEL0
*I *879:A1 I *C 57.1 39.2 *L 0.00069 *D AOI21D0
*I *913:A1 I *C 58.3 39.2 *L 0.000647 *D NR2D0
*I *921:A1 I *C 62.7 43 *L 0.000617 *D CKND2D0
*I *683:B1 I *C 61.5 48 *L 0.000684 *D OAI32D0

*CAP
1 *683:B1 7.62991e-05
2 *64:5 0.000481767
3 *64:6 0.000109799
4 *64:7 0.00135435
5 *64:8 0.000635523
6 *64:9 0.000425927
7 *64:10 0.000175393
8 *64:11 0.000660301
9 *64:12 0.000862601

*RES
1 *64:10 *64:12 2.00971
2 *64:7 *64:11 8.00123024
3 *64:6 *64:8 1.23456
4 *599:Z *64:11 6.70257
5 *64:9 *64:10 4.92715
6 *64:5 *64:12 7.10168
7 *64:5 *64:6 2.8813
8 *683:B1 *64:7 6.08382
9 *64:7 *64:8 3.73605
10 *921:A1 *64:6 3.37393
11 *913:A1 *64:10 1.49999
12 *879:A1 *64:9 2.99997
*END

*D_NET *65 0.00888933

*CONN
*I *600:Z O *C 64.9 36 *L 0 *D DEL0
*I *973:I I *C 32.3 46.4 *L 0.0113 *D INVD12
*I *889:B1 I *C 32.5 37.2 *L 0.000712 *D AOI32D0
*I *692:B1 I *C 33.3 35.6 *L 0.00103 *D OAI32D1
*I *929:A1 I *C 29.1 33.6 *L 0.000647 *D NR2D0
*I *870:A1 I *C 30.3 33.6 *L 0.00069 *D AOI21D0

*CAP
1 *870:A1 0.000163686
2 *929:A1 0.000270206
3 *692:B1 5.74006e-05
4 *65:6 0.000322722
5 *65:7 0.00080401
6 *65:8 0.000502034
7 *65:9 0.000367441
8 *65:10 0.000634301
9 *65:11 0.000157295
10 *65:12 0.000104947
11 *65:13 0.000523515
12 *65:14 0.000234203
13 *65:15 5.52759e-05
14 *65:16 4.93033e-05
15 *65:17 0.000436151
16 *65:18 0.000130594
17 *65:20 0.0010964
18 *65:13 *442:2 0.000792836016
19 *65:12 *498:3 0.000773406016
20 *692:B1 *258:2 0.000576533984
21 *929:A1 *70:5 0.000601935977
22 *692:B1 *68:18 0.000235145

*RES
1 *929:A1 *65:10 4.56007
2 *65:7 *65:11 1.52773
3 *65:6 *65:11 2.26208
4 *65:15 *65:16 2.73604
5 *973:I *65:8 4.84137
6 *692:B1 *65:6 3.48686
7 *870:A1 *65:10 4.15181
8 *65:9 *65:19 4.22898
9 *65:7 *65:8 5.38066
10 *65:18 *65:20 12.1286001
11 *65:16 *65:17 7.03665
12 *65:14 *65:15 3.48945
13 *65:12 *65:13 8.35192
14 *65:13 *65:14 3.35435
15 *65:9 *65:10 4.45606
16 *65:17 *65:18 1.90786
17 *600:Z *65:12 1.49997
18 *889:B1 *65:11 2.99995
19 *65:6 *65:20 1.49997
20 *65:7 *65:19 1.49997
*END

*D_NET *66 0.00323609

*CONN
*I *601:Z O *C 69.3 50.4 *L 0 *D DEL0
*I *767:A I *C 63.5 46.4 *L 0.00103 *D FA1D0
*I *938:A1 I *C 62.5 55 *L 0.000617 *D CKND2D0

*CAP
1 *767:A 0.000257651
2 *66:3 0.000542534
3 *66:4 0.000165646
4 *66:5 0.000601754
5 *66:6 0.000455323
6 *66:7 0.00121318992

*RES
1 *66:6 *66:7 6.76289988
2 *938:A1 *66:6 5.99999
3 *66:3 *66:7 6.62534
4 *66:5 *66:7 5.16299
5 *66:4 *66:5 5.89267
6 *767:A *66:3 2.49625
7 *601:Z *66:4 1.50002
*END

*D_NET *67 0.00508702

*CONN
*I *602:Z O *C 70.9 51.2 *L 0 *D DEL0
*I *761:A I *C 48.3 50 *L 0.00103 *D FA1D0
*I *940:A1 I *C 46.3 53.8 *L 0.000617 *D CKND2D0

*CAP
1 *940:A1 0.000465864
2 *602:Z 3.35597e-05
3 *67:3 0.00174689
4 *67:4 0.000506434
5 *67:5 0.000431878
6 *67:6 0.000253977
7 *67:7 8.6818e-05
8 *67:8 8.20467e-05
9 *67:3 *93:34 0.000783068984
10 *67:4 *230:7 0.000182104004
11 *67:4 *511:26 0.000514366992

*RES
1 *67:3 *67:7 3.30568
2 *67:4 *67:7 3.04525
3 *940:A1 *67:8 5.92135
4 *67:6 *67:3 19.5506992
5 *67:4 *67:8 4.18364
6 *67:5 *67:6 2.26007
7 *602:Z *67:5 5.5756
8 *761:A *67:4 1.49995
*END

*D_NET *68 0.00755773

*CONN
*I *603:Z O *C 63.1 33.2 *L 0 *D DEL0
*I *706:A2 I *C 28.9 37.2 *L 0.000705 *D OAI22D0
*I *911:A1 I *C 33.3 30 *L 0.000647 *D NR2D0
*I *874:A1 I *C 32.5 30 *L 0.00069 *D AOI21D0
*I *889:A1 I *C 32.3 37.2 *L 0.000719 *D AOI32D0
*I *976:I I *C 33.1 39.2 *L 0.0113 *D INVD12

*CAP
1 *976:I 0.000245434
2 *889:A1 0.000103591
3 *874:A1 0.000225071
4 *911:A1 7.6406e-05
5 *706:A2 0.000517124
6 *603:Z 0.000145977
7 *68:6 0.000373736
8 *68:7 0.000224899
9 *68:8 0.000268987
10 *68:9 0.000227917
11 *68:10 0.000167455
12 *68:11 0.000428463
13 *68:12 0.000277924
14 *68:13 0.000937163984
15 *68:14 0.000444522
16 *68:15 9.31801e-05
17 *68:16 0.000502538
18 *68:17 0.0001552
19 *68:18 0.000302392
20 *68:19 0.000247608
21 *68:14 *160 0.000251332012
22 *603:Z *11:2 0.000444745
23 *68:7 *25:2 0.00066092
24 *68:18 *692:B1 0.000235145

*RES
1 *706:A2 *68:17 8.71928024
2 *68:16 *68:18 3.87123
3 *68:15 *68:17 1.13821
4 *68:13 *68:14 3.0546
5 *603:Z *68:7 8.05432
6 *874:A1 *68:6 4.33888
7 *68:6 *68:16 4.10459
8 *68:14 *68:16 3.08253
9 *889:A1 *68:17 5.5194
10 *68:18 *68:19 4.13945
11 *976:I *68:15 3.7789
12 *68:9 *68:10 2.26284
13 *68:11 *68:12 2.39735
14 *68:8 *68:9 2.33748
15 *68:12 *68:13 7.39202
16 *911:A1 *68:6 3.27079
17 *68:10 *68:11 4.38705
18 *68:7 *68:8 3.53037
19 *68:15 *68:19 1.49996
*END

*D_NET *69 0.00321625

*CONN
*I *604:Z O *C 65.5 54.8 *L 0 *D DEL0
*I *1006:B1 I *C 51.3 57.2 *L 0.000658 *D IND2D0
*I *898:B1 I *C 51.7 53.6 *L 0.000663 *D AOI22D0

*CAP
1 *898:B1 0.000600773
2 *1006:B1 7.50313e-06
3 *604:Z 0.000417298
4 *69:3 0.000765384
5 *69:4 1.24398e-05
6 *69:5 0.00107128
7 *69:6 0.000335091
8 *69:7 6.47329e-06

*RES
1 *69:6 *69:7 2.14285
2 *69:3 *69:7 6.57121
3 *1006:B1 *69:3 1.88949
4 *69:5 *69:6 0.133001
5 *69:4 *69:5 8.45425034
6 *604:Z *69:4 4.74829
7 *898:B1 *69:3 5.06822
*END

*D_NET *70 0.00625763

*CONN
*I *605:Z O *C 50.3 36.8 *L 0 *D DEL0
*I *931:A1 I *C 28.3 32 *L 0.000647 *D NR2D0
*I *865:A1 I *C 27.9 33.6 *L 0.00069 *D AOI21D0
*I *979:I I *C 28.7 44.4 *L 0.0113 *D INVD12

*CAP
1 *979:I 0.000464248
2 *931:A1 0.000584349
3 *605:Z 0.000238438
4 *70:4 0.00186379
5 *70:5 0.000450853
6 *70:6 0.000329075
7 *70:7 0.000314827
8 *70:8 0.000243073
9 *70:4 *916:A3 0.000361071992
10 *979:I *628:Z 0.000380673008
11 *70:6 *22:2 0.000425300977
12 *70:5 *929:A1 0.000601935977

*RES
1 *70:4 *70:8 18.0112991
2 *70:4 *70:5 3.82097
3 *605:Z *70:6 7.5375
4 *979:I *70:4 11.2939
5 *931:A1 *70:5 7.6183
6 *70:7 *70:8 3.70087
7 *70:6 *70:7 3.23256
8 *865:A1 *70:5 3.00005
*END

*D_NET *71 0.0057923

*CONN
*I *606:Z O *C 68.3 51.2 *L 0 *D DEL0
*I *936:A2 I *C 52.7 57.2 *L 0.000606 *D CKND2D0
*I *945:A2 I *C 51.9 57.2 *L 0.000664 *D NR2D0
*I *753:B2 I *C 49.9 53.8 *L 0.000739 *D MOAI22D0
*I *898:B2 I *C 52.1 53.6 *L 0.000718 *D AOI22D0
*I *949:A1 I *C 54.3 51.4 *L 0.000617 *D CKND2D0

*CAP
1 *949:A1 0.000400878
2 *753:B2 0.000296485
3 *936:A2 0.000251938
4 *606:Z 0.000318369
5 *71:6 0.000420887
6 *71:7 6.3802e-05
7 *71:8 0.00149866
8 *71:9 0.000309931
9 *71:10 0.000153696
10 *71:11 0.000563744
11 *71:12 0.00020627
12 *71:13 0.000228795
13 *71:14 0.00011896
14 *753:B2 *80:9 0.000169108008
15 *936:A2 *104:25 0.000321044004
16 *606:Z *229:2 0.000469716016

*RES
1 *606:Z *71:7 5.19541
2 *71:8 *71:11 5.57638
3 *753:B2 *71:9 6.72452
4 *71:6 *71:13 3.44925
5 *71:7 *71:8 12.2208996
6 *936:A2 *71:10 4.72605
7 *71:13 *71:14 3.64468
8 *71:6 *71:9 2.64125
9 *949:A1 *71:11 7.27555
10 *71:10 *71:12 3.64412
11 *945:A2 *71:10 3.00003
12 *71:11 *71:14 3.00003
13 *898:B2 *71:6 1.50001
14 *71:9 *71:12 1.50001
*END

*D_NET *72 0.000717009

*CONN
*I *607:Z O *C 69.1 33.2 *L 0 *D DEL0
*I *912:A1 I *C 66.7 35.6 *L 0.00098 *D AN2XD1

*CAP
1 *912:A1 0.000386503984
2 *72:2 0.000330506

*RES
1 *607:Z *72:2 4.52908
2 *912:A1 *72:2 6.5028801
*END

*D_NET *73 0.00298169

*CONN
*I *608:Z O *C 30.7 46.8 *L 0 *D DEL0
*I *937:A1 I *C 37.9 55 *L 0.000617 *D CKND2D0
*I *768:A I *C 37.7 51.6 *L 0.00103 *D FA1D0

*CAP
1 *608:Z 0.000234034
2 *73:3 0.00039067
3 *73:4 0.000707991
4 *73:5 0.00164901

*RES
1 *73:4 *73:5 11.8758001
2 *937:A1 *73:4 5.0362
3 *608:Z *73:3 2.77089
4 *73:3 *73:5 5.51314
5 *768:A *73:4 1.50006
*END

*D_NET *74 0.00473819

*CONN
*I *609:Z O *C 36.3 50.4 *L 0 *D DEL0
*I *822:B2 I *C 35.9 40.8 *L 0.000709 *D OA32D0
*I *925:A1 I *C 37.1 33.6 *L 0.000647 *D NR2D0
*I *881:A1 I *C 37.9 33.6 *L 0.00069 *D AOI21D0
*I *980:I I *C 38.7 44.4 *L 0.0113 *D INVD12
*I *703:A2 I *C 38.5 40.8 *L 0.000705 *D OAI22D0

*CAP
1 *980:I 9.62469e-05
2 *925:A1 0.000324561
3 *74:6 0.000251147
4 *74:7 0.000578793
5 *74:8 0.000925817
6 *74:9 0.000740343
7 *74:11 0.00121066
8 *74:12 3.23101e-05
9 *74:13 0.000578313

*RES
1 *74:8 *74:12 4.42162
2 *74:6 *74:11 6.90342
3 *980:I *74:12 3
4 *74:7 *74:8 3.55218
5 *74:6 *74:10 1.16082
6 *609:Z *74:7 4.85815
7 *925:A1 *74:11 7.18439007
8 *74:10 *74:13 7.13561
9 *74:8 *74:9 4.2153
10 *881:A1 *74:11 3
11 *703:A2 *74:10 3
12 *822:B2 *74:9 1.5
13 *74:9 *74:13 1.5
*END

*D_NET *75 0.00301265

*CONN
*I *610:Z O *C 70.9 46.8 *L 0 *D DEL0
*I *683:A2 I *C 62.3 48 *L 0.000704 *D OAI32D0
*I *947:A2 I *C 63.5 50 *L 0.000606 *D CKND2D0
*I *739:B2 I *C 66.3 50.2 *L 0.000717 *D IND4D0
*I *689:A2 I *C 64.5 48 *L 0.000651 *D OAI21D0

*CAP
1 *689:A2 0.000313378
2 *683:A2 0.000481285
3 *610:Z 0.000393784
4 *75:5 9.36174e-05
5 *75:6 0.000246521
6 *75:7 0.000566869
7 *75:8 0.00091721

*RES
1 *75:6 *75:7 2.36859
2 *739:B2 *75:8 4.3535
3 *947:A2 *75:7 3.79666
4 *75:6 *75:8 1.29729
5 *75:5 *75:8 6.07496
6 *683:A2 *75:7 7.35016012
7 *689:A2 *75:6 5.29964
8 *610:Z *75:5 4.06773
*END

*D_NET *76 0.00303361

*CONN
*I *611:Z O *C 60.3 44 *L 0 *D DEL0
*I *898:A1 I *C 52.7 53.6 *L 0.000665 *D AOI22D0
*I *877:A1 I *C 51.7 44.4 *L 0.00069 *D AOI21D0
*I *926:A1 I *C 51.7 46.4 *L 0.000647 *D NR2D0

*CAP
1 *877:A1 0.000124948
2 *76:4 0.000397897
3 *76:5 0.000198892
4 *76:6 0.000987495
5 *76:7 8.08697e-05
6 *76:8 0.0012435

*RES
1 *76:7 *76:8 10.5156002
2 *76:5 *76:6 1.49641
3 *76:4 *76:6 6.0052
4 *898:A1 *76:4 3.57815
5 *877:A1 *76:5 3.74326
6 *611:Z *76:7 1.49994
7 *926:A1 *76:6 1.49994
8 *76:5 *76:8 1.49994
*END

*D_NET *77 0.00283718

*CONN
*I *612:Z O *C 30.3 54.8 *L 0 *D DEL0
*I *944:A2 I *C 31.7 60.8 *L 0.000606 *D CKND2D0
*I *839:A2 I *C 39.7 60.8 *L 0.000606 *D CKND2D0
*I *704:B1 I *C 38.7 61 *L 0.000863 *D AO22D0

*CAP
1 *704:B1 9.57349e-05
2 *839:A2 0.000244024
3 *612:Z 0.00043612
4 *77:4 0.000684037031
5 *77:5 0.000271423
6 *77:6 0.000243575
7 *77:7 0.000512702
8 *77:8 0.00034957

*RES
1 *77:6 *77:8 1.64877
2 *839:A2 *77:8 4.90648
3 *704:B1 *77:8 3.25485
4 *77:6 *77:7 3.89536
5 *77:5 *77:7 3.47403
6 *77:4 *77:5 5.05067015
7 *612:Z *77:4 4.20232
8 *944:A2 *77:5 1.50003
*END

*D_NET *78 0.00413365

*CONN
*I *613:Z O *C 32.9 54.8 *L 0 *D DEL0
*I *858:A2 I *C 39.5 62.4 *L 0.000664 *D NR2D0
*I *1005:B1 I *C 37.1 66 *L 0.000658 *D IND2D0
*I *969:I I *C 38.5 66 *L 0.0113 *D INVD12

*CAP
1 *969:I 0.000112464
2 *1005:B1 0.000303265
3 *78:4 0.000561689
4 *78:5 0.000479502
5 *78:7 0.000178575
6 *78:8 0.00125581
7 *78:9 0.000827587
8 *78:10 0.000414752

*RES
1 *78:6 *78:9 3.98518
2 *78:6 *78:7 1.42495
3 *613:Z *78:8 1.6948
4 *1005:B1 *78:7 2.8962
5 *969:I *78:7 2.44799
6 *78:5 *78:9 4.40305
7 *78:4 *78:10 3.99349
8 *78:8 *78:10 10.4645004
9 *78:4 *78:5 4.06071
10 *858:A2 *78:9 1.49999
*END

*D_NET *79 0.00650453

*CONN
*I *614:Z O *C 50.7 46.8 *L 0 *D DEL0
*I *732:B2 I *C 41.7 44.2 *L 0.000739 *D MOAI22D0
*I *1005:A1 I *C 37.7 66 *L 0.000681 *D IND2D0
*I *951:A1 I *C 38.1 64.6 *L 0.000617 *D CKND2D0
*I *935:A1 I *C 38.7 46.6 *L 0.000617 *D CKND2D0
*I *900:A1 I *C 39.7 44.4 *L 0.0007 *D OAI21D0

*CAP
1 *900:A1 3.36874e-05
2 *1005:A1 0.000143362
3 *732:B2 8.21813e-05
4 *79:6 0.000244126
5 *79:7 0.000398369
6 *79:8 0.000361369
7 *79:9 0.0010854
8 *79:10 0.000257508
9 *79:11 0.000500558
10 *79:12 0.000384225
11 *79:13 0.000734465
12 *79:14 0.000482422
13 *79:15 0.000724296
14 *79:14 *774:A2 0.000495279023
15 *900:A1 *47:4 0.000577252969

*RES
1 *79:8 *79:9 8.42093
2 *1005:A1 *79:10 4.08436
3 *614:Z *79:6 2.51934
4 *79:7 *79:11 2.99715
5 *79:8 *79:10 4.73835
6 *79:6 *79:12 5.3098
7 *732:B2 *79:13 3.21598
8 *79:11 *79:15 4.21568
9 *79:14 *79:15 6.52911
10 *79:7 *79:13 4.28141
11 *79:9 *79:14 6.1285
12 *79:12 *79:13 8.54638004
13 *900:A1 *79:7 3.25484
14 *935:A1 *79:11 3.00002
15 *951:A1 *79:10 1.49995
*END

*D_NET *80 0.00510928

*CONN
*I *615:Z O *C 57.9 40.4 *L 0 *D DEL0
*I *1006:A1 I *C 50.7 57.2 *L 0.000681 *D IND2D0
*I *952:A1 I *C 54.5 57.4 *L 0.000617 *D CKND2D0
*I *943:A1 I *C 50.9 43 *L 0.000617 *D CKND2D0
*I *897:A1 I *C 52.3 42.8 *L 0.0007 *D OAI21D0
*I *730:B2 I *C 51.9 40.6 *L 0.000739 *D MOAI22D0

*CAP
1 *730:B2 6.89257e-05
2 *897:A1 0.000302024
3 *952:A1 6.01677e-05
4 *1006:A1 7.2372e-05
5 *80:6 0.000191285
6 *80:7 3.82411e-05
7 *80:8 0.000518524
8 *80:9 0.00102388
9 *80:10 3.88577e-05
10 *80:11 0.000354335
11 *80:12 0.00103602008
12 *80:13 0.000247895
13 *80:14 0.000389762
14 *80:10 *820:B 0.000168325996
15 *80:9 *753:B2 0.000169108008
16 *80:6 *63:7 0.000429571016

*RES
1 *615:Z *80:13 4.54549
2 *80:8 *80:9 7.44621992
3 *80:7 *80:12 2.702
4 *80:10 *80:12 4.96225
5 *80:10 *80:11 2.46431
6 *897:A1 *80:7 5.01315
7 *952:A1 *80:15 4.50005
8 *80:6 *80:7 0.358472
9 *730:B2 *80:6 1.69476
10 *80:13 *80:14 3.76663
11 *80:8 *80:15 6.45852
12 *80:9 *80:11 0.256555
13 *1006:A1 *80:8 1.97165
14 *80:6 *80:14 3.04548
15 *943:A1 *80:12 1.50002
*END

*D_NET *81 0.00585588

*CONN
*I *616:Z O *C 58.1 58.4 *L 0 *D DEL0
*I *781:A2 I *C 55.1 42.6 *L 0.000727 *D AOI221D0
*I *837:B1 I *C 54.5 39.2 *L 0.000663 *D AOI22D0
*I *772:A2 I *C 54.1 40.8 *L 0.00065 *D OAI211D0
*I *831:B2 I *C 54.5 44.4 *L 0.000718 *D OAI22D0
*I *949:A2 I *C 53.9 51.6 *L 0.000606 *D CKND2D0
*I *987:SA I *C 54.9 55.2 *L 0.00154 *D DFXD1
*I *952:A2 I *C 54.1 57.2 *L 0.000606 *D CKND2D0
*I *898:A2 I *C 52.3 53.6 *L 0.000728 *D AOI22D0

*CAP
1 *987:SA 0.00015899
2 *837:B1 0.000312122
3 *781:A2 0.00035615
4 *81:9 0.000256896
5 *81:10 0.000546276
6 *81:11 0.000810032031
7 *81:12 0.000402179
8 *81:13 0.000233041
9 *81:14 0.000578449
10 *81:15 0.000236106
11 *81:16 0.000279627
12 *81:17 0.000271852
13 *81:18 0.000412723
14 *81:19 0.00037888
15 *837:B1 *837:B2 0.000180775
16 *81:10 *40:2 0.000441751992

*RES
1 *81:18 *81:19 3.29635
2 *81:11 *81:13 6.01229
3 *898:A2 *81:18 2.99998
4 *81:15 *81:17 4.0434
5 *987:SA *81:17 5.27903
6 *837:B1 *81:12 3.88608
7 *81:17 *81:19 4.22865
8 *81:13 *81:19 5.16745
9 *81:9 *81:12 3.24937
10 *616:Z *81:16 4.13625
11 *81:10 *81:16 5.39554
12 *81:9 *81:14 1.82087
13 *81:11 *81:14 3.67447
14 *781:A2 *81:9 7.34894991
15 *81:10 *81:15 0.618879
16 *952:A2 *81:15 1.50004
17 *831:B2 *81:14 2.99998
18 *949:A2 *81:13 1.50004
19 *772:A2 *81:12 1.50004
*END

*D_NET *82 0.000563173

*CONN
*I *617:Z O *C 60.1 69.2 *L 0 *D DEL0
*I *669:I I *C 57.5 69.6 *L 0.00104 *D INVD1

*CAP
1 *669:I 8.54192e-05
2 *82:2 8.85196e-05
3 *82:3 0.000389233008

*RES
1 *82:2 *82:3 4.07414
2 *669:I *82:3 4.5
3 *617:Z *82:2 1.49998
*END

*D_NET *83 0.00312193

*CONN
*I *618:Z O *C 47.3 32.4 *L 0 *D DEL0
*I *971:I I *C 33.3 33.6 *L 0.0113 *D INVD12
*I *692:A2 I *C 32.5 35.6 *L 0.00102 *D OAI32D1

*CAP
1 *618:Z 0.000122348
2 *83:3 0.000533298
3 *83:4 0.0003019
4 *83:5 0.00159595
5 *83:6 0.000161872
6 *83:7 0.00039858
7 *83:8 7.98766e-06

*RES
1 *83:5 *83:8 12.9778004
2 *83:5 *83:6 0.428527
3 *618:Z *83:3 2.00996
4 *83:7 *83:8 2.92187
5 *83:4 *83:6 0.778834
6 *83:3 *83:7 6.87168
7 *692:A2 *83:4 7.57467
8 *971:I *83:6 1.50004
*END

*D_NET *84 0.00279609

*CONN
*I *619:Z O *C 44.7 54 *L 0 *D DEL0
*I *853:A2 I *C 41.1 60.8 *L 0.000664 *D NR2D0
*I *840:A2 I *C 39.9 53.6 *L 0.000664 *D NR2D0
*I *963:I1 I *C 39.1 62.2 *L 0.001 *D MUX2ND0

*CAP
1 *963:I1 3.27355e-05
2 *840:A2 0.000103727
3 *853:A2 1.47772e-05
4 *619:Z 9.40402e-05
5 *84:4 0.000403478
6 *84:5 0.00134503
7 *84:6 0.000415772
8 *84:7 0.000357074
9 *84:8 2.94312e-05

*RES
1 *84:6 *84:7 3.44734
2 *84:5 *84:8 6.13193989
3 *84:4 *84:6 3.46868
4 *963:I1 *84:7 4.55816
5 *840:A2 *84:5 2.09728
6 *619:Z *84:8 3.00001
7 *84:4 *84:5 5.41036
8 *853:A2 *84:6 2.00278
*END

*D_NET *85 0.00293175

*CONN
*I *620:Z O *C 32.5 28.8 *L 0 *D DEL0
*I *889:A3 I *C 31.7 37.2 *L 0.000695 *D AOI32D0
*I *748:A2 I *C 34.5 37.2 *L 0.000664 *D NR2D0
*I *968:A1 I *C 32.9 28.4 *L 0.00136 *D XNR2D0
*I *794:B1 I *C 33.1 31.6 *L 0.000899 *D OAI221D0

*CAP
1 *794:B1 3.22751e-05
2 *748:A2 5.77898e-06
3 *889:A3 0.000649615
4 *85:5 0.000341624
5 *85:6 0.000424066
6 *85:7 0.000418485
7 *85:8 0.000628264
8 *85:9 0.000363303
9 *85:10 6.83565e-05

*RES
1 *968:A1 *85:8 2.863
2 *748:A2 *85:5 3.38945
3 *85:9 *85:10 3.83957
4 *85:5 *85:6 1.42925
5 *794:B1 *85:7 2.23408
6 *85:8 *85:9 3.63575
7 *85:7 *85:10 3.77879
8 *85:6 *85:7 3.67568
9 *889:A3 *85:5 10.5091
10 *620:Z *85:8 1.49997
*END

*D_NET *86 0.00270641

*CONN
*I *621:Z O *C 50.9 62 *L 0 *D DEL0
*I *749:A2 I *C 47.9 64.4 *L 0.000664 *D NR2D0
*I *895:A3 I *C 46.7 68 *L 0.000669 *D ND3D0
*I *666:I I *C 47.3 68 *L 0.00104 *D INVD1
*I *862:A3 I *C 48.9 71.6 *L 0.000695 *D AOI32D0

*CAP
1 *895:A3 0.000176134
2 *621:Z 6.66173e-05
3 *86:5 0.000710366
4 *86:6 0.000556828
5 *86:7 0.000330875
6 *86:8 0.000750905
7 *86:9 5.26842e-05
8 *86:10 6.19996e-05

*RES
1 *86:7 *86:9 0.225627
2 *86:6 *86:7 1.95386
3 *86:5 *86:10 4.67487
4 *895:A3 *86:7 2.30982
5 *86:8 *86:9 5.35549
6 *86:5 *86:8 1.1683
7 *862:A3 *86:6 6.45143986
8 *621:Z *86:10 2.99999
9 *666:I *86:9 1.50005
10 *749:A2 *86:8 2.99999
*END

*D_NET *87 0.00257245

*CONN
*I *622:Z O *C 56.7 72 *L 0 *D DEL0
*I *895:A1 I *C 46.1 68.2 *L 0.000693 *D ND3D0
*I *862:B2 I *C 47.9 71.6 *L 0.000674 *D AOI32D0
*I *672:I I *C 49.7 71.6 *L 0.00104 *D INVD1

*CAP
1 *862:B2 7.65256e-05
2 *895:A1 0.000491085
3 *622:Z 0.000408556
4 *87:4 0.000168378
5 *87:5 0.000639763008
6 *87:6 0.000513089
7 *87:7 0.000275059

*RES
1 *862:B2 *87:7 3.98502
2 *87:6 *87:7 2.41703
3 *87:4 *87:7 2.86338
4 *672:I *87:6 3.58419
5 *87:5 *87:6 6.4148798
6 *622:Z *87:5 5.06791
7 *895:A1 *87:4 4.52299
*END

*D_NET *88 0.00340203

*CONN
*I *623:Z O *C 52.9 36 *L 0 *D DEL0
*I *857:A2 I *C 50.9 33.6 *L 0.000606 *D CKND2D0
*I *785:B1 I *C 43.5 29.8 *L 0.00072 *D AOI221D0
*I *801:A2 I *C 43.7 32 *L 0.00065 *D OAI211D0
*I *717:A1 I *C 49.5 33.6 *L 0.000711 *D OAI211D0
*I *691:A2 I *C 49.9 35.6 *L 0.000712 *D IOA21D0

*CAP
1 *691:A2 3.46332e-05
2 *717:A1 1.32438e-06
3 *785:B1 0.000450104
4 *623:Z 0.000168068
5 *88:6 0.00021895
6 *88:7 0.000435949
7 *88:9 0.000428814
8 *88:10 0.00093326
9 *88:11 0.000730929

*RES
1 *88:10 *88:11 6.18495
2 *88:6 *88:7 2.80062
3 *857:A2 *88:10 6.54476023
4 *717:A1 *88:7 3.35846
5 *785:B1 *88:8 5.23034
6 *88:7 *88:10 3.08863
7 *623:Z *88:9 6.40295
8 *691:A2 *88:6 2.26454
9 *801:A2 *88:8 1.49997
10 *88:6 *88:9 1.49997
11 *88:8 *88:11 1.49997
*END

*D_NET *89 0.00329581

*CONN
*I *624:Z O *C 46.5 40.4 *L 0 *D DEL0
*I *731:B2 I *C 44.9 39.4 *L 0.000739 *D MOAI22D0
*I *826:A1 I *C 41.7 33.6 *L 0.000675 *D AOI221D0
*I *954:I I *C 44.7 32.2 *L 0.00062 *D CKND0
*I *899:A1 I *C 42.5 35.6 *L 0.0007 *D OAI21D0
*I *950:A1 I *C 43.9 35.8 *L 0.000617 *D CKND2D0
*I *731:A2 I *C 44.1 39.2 *L 0.000697 *D MOAI22D0

*CAP
1 *731:A2 8.02934e-06
2 *950:A1 1.25833e-06
3 *954:I 0.000128789
4 *826:A1 0.000334546
5 *624:Z 0.000258257
6 *89:7 0.0002338
7 *89:8 0.000476817
8 *89:9 0.000654480977
9 *89:10 0.000174638
10 *89:11 0.000310108
11 *89:12 0.000500406
12 *89:13 0.000214685

*RES
1 *89:8 *89:10 2.5526
2 *624:Z *89:12 7.7390399
3 *89:10 *89:11 1.5074
4 *89:7 *89:12 1.33782
5 *89:7 *89:9 4.11337
6 *826:A1 *89:11 3.63039
7 *89:11 *89:13 0.627285
8 *89:9 *89:13 1.14546
9 *954:I *89:8 2.73564
10 *950:A1 *89:10 2.17507
11 *731:A2 *89:7 3.16382
12 *899:A1 *89:13 3.00004
13 *731:B2 *89:12 1.49996
*END

*D_NET *90 0.00396196

*CONN
*I *625:Z O *C 60.5 33.2 *L 0 *D DEL0
*I *733:B2 I *C 55.5 29.8 *L 0.000739 *D MOAI22D0
*I *795:A1 I *C 45.5 30 *L 0.000713 *D MAOI22D0
*I *795:B1 I *C 46.5 30 *L 0.000686 *D MAOI22D0
*I *819:A2 I *C 52.3 28.4 *L 0.000606 *D CKND2D0
*I *798:A2 I *C 53.7 28.4 *L 0.000651 *D OAI21D0

*CAP
1 *798:A2 0.000355032
2 *819:A2 0.00010723
3 *795:B1 0.000111591
4 *795:A1 0.000284258
5 *733:B2 0.000116149
6 *625:Z 0.000614651992
7 *90:6 0.000330431
8 *90:7 0.000426566
9 *90:8 0.000465179
10 *90:9 0.000440409
11 *90:10 0.000441713
12 *90:11 0.000268746

*RES
1 *90:8 *90:10 3.18335
2 *90:7 *90:9 3.45488
3 *625:Z *90:6 8.45384026
4 *795:A1 *90:10 6.00383
5 *819:A2 *90:11 3.00005
6 *90:6 *90:9 3.92662
7 *733:B2 *90:9 3.00005
8 *90:7 *90:11 4.55947
9 *90:7 *90:8 3.62696
10 *795:B1 *90:10 3.00005
11 *798:A2 *90:11 4.97006
*END

*D_NET *91 0.00185681

*CONN
*I *626:Z O *C 47.7 36.8 *L 0 *D DEL0
*I *828:I1 I *C 44.1 33.4 *L 0.001 *D MUX2ND0
*I *957:I I *C 45.3 33.4 *L 0.00062 *D CKND0
*I *715:A2 I *C 46.3 33.6 *L 0.000668 *D AO21D0

*CAP
1 *828:I1 0.000214324
2 *91:4 0.000624086992
3 *91:5 0.000575139
4 *91:6 0.000443275

*RES
1 *91:4 *91:5 3.32665
2 *626:Z *91:6 4.52948
3 *828:I1 *91:5 2.89314
4 *91:4 *91:6 6.22758007
5 *957:I *91:5 1.49997
6 *715:A2 *91:4 3.00004
*END

*D_NET *92 0.00116748

*CONN
*I *627:Z O *C 49.9 32.4 *L 0 *D DEL0
*I *714:A2 I *C 52.3 30 *L 0.000668 *D AO21D0
*I *802:I1 I *C 49.7 29.8 *L 0.001 *D MUX2ND0
*I *953:I I *C 50.1 32.2 *L 0.00062 *D CKND0

*CAP
1 *802:I1 6.14329e-05
2 *714:A2 0.00010528
3 *92:4 0.00072711
4 *92:5 0.000162209
5 *92:6 0.000111438

*RES
1 *802:I1 *92:4 1.69472
2 *92:4 *92:5 1.37659
3 *953:I *92:5 2.3666
4 *92:4 *92:6 4.66738987
5 *714:A2 *92:6 3.00002
6 *627:Z *92:5 1.50001
*END

*D_NET *93 0.0242613

*CONN
*I *628:Z O *C 28.1 36.8 *L 0 *D BUFFD1
*I *688:CN I *C 44.1 42.8 *L 0.000903 *D DFKCNQD1
*I *700:CN I *C 42.9 40.8 *L 0.000903 *D DFKCNQD1
*I *697:CN I *C 59.3 32 *L 0.000903 *D DFKCNQD1
*I *983:CN I *C 60.5 40.6 *L 0.001 *D EDFKCND1
*I *725:CN I *C 65.3 43 *L 0.00107 *D DFKCND1
*I *743:B1 I *C 65.5 39.2 *L 0.000658 *D IND2D0
*I *904:D I *C 65.7 32.2 *L 0.00105 *D DFKCND1
*I *982:DA I *C 65.1 37.2 *L 0.000727 *D DFXD1
*I *711:CN I *C 60.5 37 *L 0.001 *D EDFKCNQD1
*I *699:CN I *C 57.1 33.6 *L 0.000903 *D DFKCNQD1
*I *686:CN I *C 53.7 32 *L 0.000903 *D DFKCNQD1
*I *682:CN I *C 53.5 37.2 *L 0.000903 *D DFKCNQD1
*I *698:CN I *C 50.9 39.2 *L 0.000903 *D DFKCNQD1
*I *981:CN I *C 59.7 51.4 *L 0.001 *D EDFKCND1
*I *709:CN I *C 57.1 50.2 *L 0.001 *D EDFKCNQD1
*I *710:CN I *C 53.1 50.2 *L 0.001 *D EDFKCNQD1
*I *985:CN I *C 44.9 51.4 *L 0.001 *D EDFKCND1
*I *956:I I *C 48.7 43 *L 0.00062 *D CKND0
*I *763:A3 I *C 49.3 42.8 *L 0.000669 *D ND3D0
*I *759:A3 I *C 46.5 39.2 *L 0.000669 *D ND3D0
*I *687:CN I *C 48.1 35.6 *L 0.000903 *D DFKCNQD1
*I *701:CN I *C 43.1 37.2 *L 0.000903 *D DFKCNQD1
*I *712:CN I *C 40.3 39.2 *L 0.000903 *D DFKCNQD1
*I *986:CN I *C 34.7 53.8 *L 0.001 *D EDFKCND1
*I *695:CN I *C 29.1 53.8 *L 0.001 *D EDFKCNQD1
*I *696:CN I *C 29.3 50.2 *L 0.001 *D EDFKCNQD1

*CAP
1 *695:CN 0.000223775
2 *986:CN 0.00014945
3 *712:CN 0.000233265
4 *701:CN 9.68948e-05
5 *687:CN 0.0001929
6 *710:CN 4.12255e-06
7 *981:CN 1.49331e-05
8 *711:CN 5.14726e-05
9 *982:DA 9.93565e-06
10 *725:CN 0.000325652
11 *983:CN 6.54567e-05
12 *688:CN 0.00058257
13 *628:Z 0.000744581
14 *93:27 0.000159104
15 *93:28 5.55507e-05
16 *93:29 0.000141487
17 *93:30 0.000526871
18 *93:31 0.000102589
19 *93:32 9.78291e-05
20 *93:33 0.000525181
21 *93:34 0.000338732
22 *93:35 0.000327654
23 *93:36 0.000638225
24 *93:37 0.000135733
25 *93:38 0.000438281
26 *93:39 7.57037e-05
27 *93:40 0.000435211
28 *93:41 0.000656049
29 *93:42 0.000131655
30 *93:43 0.000288831
31 *93:44 0.000808495
32 *93:45 0.000509091
33 *93:46 0.000447653
34 *93:47 0.000125145
35 *93:48 0.00027845
36 *93:50 0.000728179
37 *93:51 0.000517202
38 *93:52 0.000308865
39 *93:53 0.000130098
40 *93:54 8.35929e-05
41 *93:55 0.000530504
42 *93:56 5.35635e-05
43 *93:57 0.00097184
44 *93:58 0.000275603
45 *93:59 0.00019898
46 *93:60 0.000386423
47 *93:61 0.000791337
48 *93:62 0.000675669
49 *93:63 0.000171012
50 *93:64 0.000563188
51 *93:65 1.46365e-05
52 *93:66 0.000330768
53 *93:67 0.000669707
54 *93:68 0.00045053
55 *93:69 4.23377e-05
56 *93:70 0.000195169
57 *93:71 0.000813596
58 *93:68 *555:Z 0.000869617969
59 *93:41 *31:4 0.000612585
60 *93:34 *67:3 0.000783068984
61 *93:34 *230:2 0.000203253008
62 *711:CN *256:2 0.000320392988
63 *93:35 *496:2 0.000394478008
64 *712:CN *508:4 0.000170018008
65 *628:Z *979:I 0.000380673008
66 *628:Z *507:14 0.000273032012
67 *93:27 *515:2 0.000246334004
68 *687:CN *103:19 0.000776292969
69 *982:DA *485:2 0.000390293008

*RES
1 *93:54 *93:65 1.88943
2 *93:31 *93:48 1.30015
3 *982:DA *93:32 2.00975
4 *981:CN *93:34 4.82568
5 *93:59 *93:67 1.5405
6 *93:49 *93:64 3.83659
7 *709:CN *93:63 4.7548
8 *93:60 *93:63 5.15675
9 *93:42 *93:57 9.32885
10 *725:CN *93:48 5.20848
11 *93:41 *93:42 1.16827
12 *93:58 *93:67 2.17335
13 *93:51 *93:65 5.20048
14 *93:38 *93:52 4.7538
15 *695:CN *93:44 5.79647
16 *93:35 *93:50 3.55439
17 *93:50 *93:64 5.79847
18 *93:36 *93:51 5.55413
19 *93:29 *93:31 1.30601
20 *93:29 *93:30 3.49652
21 *93:45 *93:53 3.74814
22 *93:43 *93:70 4.03207
23 *986:CN *93:67 7.68905
24 *700:CN *93:70 2.99997
25 *93:57 *93:58 2.07476
26 *710:CN *93:60 3.19473
27 *93:39 *93:52 0.691587
28 *93:28 *93:68 9.36443043
29 *93:55 *93:71 8.14458
30 *93:44 *93:53 1.10725
31 *93:36 *93:37 1.06424
32 *701:CN *93:66 4.50003
33 *93:28 *93:47 0.389375
34 *712:CN *93:43 3.25246
35 *93:45 *93:46 3.71171
36 *93:35 *93:54 2.95168
37 *93:30 *93:47 1.78341
38 *93:55 *93:69 5.42824
39 *93:38 *93:61 4.46688
40 *93:36 *93:39 3.06513
41 *687:CN *93:40 2.24794
42 *93:31 *93:32 0.451246
43 *93:27 *93:64 4.88841
44 *93:56 *93:71 2.8648
45 *628:Z *93:46 8.60168
46 *93:66 *93:71 3.64455
47 *93:34 *93:63 5.04744
48 *983:CN *93:33 4.97643
49 *711:CN *93:33 2.00975
50 *93:56 *93:70 0.29221
51 *93:41 *93:61 5.40038
52 *93:32 *93:62 7.3634
53 *93:37 *93:40 3.40821
54 *688:CN *93:56 6.22485
55 *93:60 *93:61 4.53547
56 *93:44 *93:59 6.35631
57 *985:CN *93:42 3.65741
58 *763:A3 *93:39 1.75755
59 *759:A3 *93:55 1.50006
60 *682:CN *93:54 1.50006
61 *696:CN *93:53 2.99997
62 *956:I *93:52 1.50006
63 *698:CN *93:51 1.50006
64 *686:CN *93:50 1.50006
65 *699:CN *93:49 1.50006
66 *697:CN *93:27 1.50006
67 *743:B1 *93:48 1.50006
68 *904:D *93:47 1.50006
69 *93:33 *93:62 1.50006
70 *93:27 *93:68 1.50006
71 *93:37 *93:69 1.50006
*END

*D_NET *94 0.000459853

*CONN
*I *643:ZN O *C 44.9 69.2 *L 0 *D TIEL
*I *629:I I *C 45.5 69.6 *L 0.00382 *D BUFFD12

*CAP
1 *629:I 9.23572e-05
2 *643:ZN 0.000367493984

*RES
1 *643:ZN *629:I 7.15415
*END

*D_NET *95 0.000212057

*CONN
*I *644:ZN O *C 31.3 69.2 *L 0 *D TIEL
*I *630:I I *C 31.9 69.6 *L 0.00382 *D BUFFD12

*CAP
1 *630:I 0.000212056992

*RES
1 *644:ZN *630:I 3.64602
*END

*D_NET *96 0.000424809

*CONN
*I *645:ZN O *C 31.9 68.4 *L 0 *D TIEL
*I *631:I I *C 33.7 68 *L 0.00382 *D BUFFD12

*CAP
1 *645:ZN 8.74012e-05
2 *96:2 0.000337408008

*RES
1 *631:I *96:2 4.75290012
2 *645:ZN *96:2 3.00001
*END

*D_NET *97 0.00101938

*CONN
*I *646:ZN O *C 34.5 65.6 *L 0 *D TIEL
*I *632:I I *C 34.7 71.6 *L 0.00382 *D BUFFD12

*CAP
1 *632:I 7.92846e-05
2 *646:ZN 0.000940096953

*RES
1 *646:ZN *632:I 9.38714
*END

*D_NET *98 0.000620949

*CONN
*I *641:ZN O *C 44.3 69.2 *L 0 *D TIEL
*I *633:I I *C 44.3 66 *L 0.00382 *D BUFFD12

*CAP
1 *633:I 0.000619536992
2 *98:2 1.40858e-06

*RES
1 *633:I *98:2 4.86271
2 *641:ZN *98:2 1.50001
*END

*D_NET *99 0.000220844

*CONN
*I *642:ZN O *C 47.9 68.4 *L 0 *D TIEL
*I *634:I I *C 48.5 68 *L 0.00382 *D BUFFD12

*CAP
1 *634:I 0.000220844004

*RES
1 *642:ZN *634:I 3.64602
*END

*D_NET *100 0.000912786

*CONN
*I *639:I I *C 30.9 33.6 *L 0.00178 *D CKND2
*I *640:ZN O *C 29.5 32.2 *L 0 *D CKND1

*CAP
1 *640:ZN 0.000105231
2 *639:I 0.000191336
3 *100:2 0.000537724961
4 *100:3 7.84987e-05

*RES
1 *639:I *100:3 4.50005
2 *100:2 *100:3 5.90443993
3 *640:ZN *100:2 2.99997
*END

*D_NET *101 0.00192974

*CONN
*I *638:I I *C 38.7 37.2 *L 0.00178 *D CKND2
*I *639:ZN O *C 31.17 33.895 *L 0 *D CKND2

*CAP
1 *639:ZN 6.29349e-05
2 *638:I 0.000385349
3 *101:2 0.00117405
4 *101:3 0.000307419

*RES
1 *639:ZN *101:2 3.1947
2 *638:I *101:3 9.7109499
3 *101:2 *101:3 9.48454
*END

*D_NET *102 0.00313101

*CONN
*I *637:I I *C 43.1 42.8 *L 0.00178 *D CKND2
*I *638:ZN O *C 38.97 37.495 *L 0 *D CKND2
*I *636:I I *C 43.1 48 *L 0.00178 *D CKND2
*I *635:I I *C 44.1 37.2 *L 0.00178 *D CKND2

*CAP
1 *635:I 0.000163048
2 *636:I 0.000224602
3 *638:ZN 5.07913e-05
4 *102:4 0.00056876
5 *102:6 0.000849738
6 *102:7 0.00115818
7 *102:8 0.000115915

*RES
1 *636:I *102:8 6.25486
2 *102:6 *102:8 6.76404
3 *102:5 *102:7 7.52585983
4 *102:4 *102:7 5.47076
5 *635:I *102:7 6.18757
6 *638:ZN *102:4 3.19472
7 *637:I *102:5 2.99996
8 *102:5 *102:6 2.99996
*END

*D_NET *103 0.0121755

*CONN
*I *990:CP I *C 68.3 46.4 *L 0.000693 *D DFD1
*I *635:ZN O *C 44.37 37.495 *L 0 *D CKND2
*I *988:CP I *C 68.7 44.4 *L 0.000693 *D DFD1
*I *983:CP I *C 60.7 40.8 *L 0.000656 *D EDFKCND1
*I *982:CP I *C 66.3 37.2 *L 0.000672 *D DFXD1
*I *904:CP I *C 64.7 32 *L 0.000676 *D DFKCND1
*I *725:CP I *C 64.5 42.8 *L 0.000676 *D DFKCND1
*I *711:CP I *C 60.7 37.2 *L 0.000655 *D EDFKCNQD1
*I *701:CP I *C 43.9 37.2 *L 0.000675 *D DFKCNQD1
*I *700:CP I *C 43.7 40.8 *L 0.000675 *D DFKCNQD1
*I *699:CP I *C 57.9 33.6 *L 0.000675 *D DFKCNQD1
*I *698:CP I *C 50.1 39.2 *L 0.000675 *D DFKCNQD1
*I *697:CP I *C 60.1 32 *L 0.000675 *D DFKCNQD1
*I *687:CP I *C 48.9 35.6 *L 0.000675 *D DFKCNQD1
*I *686:CP I *C 54.5 32 *L 0.000675 *D DFKCNQD1
*I *682:CP I *C 54.3 37.2 *L 0.000675 *D DFKCNQD1

*CAP
1 *682:CP 7.95392e-05
2 *686:CP 8.08479e-05
3 *697:CP 9.66183e-05
4 *699:CP 0.00017264
5 *700:CP 4.71804e-05
6 *711:CP 4.64933e-05
7 *982:CP 5.7405e-05
8 *988:CP 9.6422e-05
9 *635:ZN 8.3629e-05
10 *103:16 0.00032277
11 *103:17 0.00107211008
12 *103:18 0.000149066
13 *103:19 0.000332422
14 *103:20 0.000124347
15 *103:21 0.000136699
16 *103:22 0.000110278
17 *103:23 0.00058555
18 *103:24 0.000439707
19 *103:25 0.000857606
20 *103:26 0.000281201
21 *103:27 0.000601239
22 *103:28 0.000212475
23 *103:29 0.00100739
24 *103:30 0.000472932
25 *103:31 0.000665973
26 *103:32 0.000159438
27 *103:33 9.78126e-05
28 *103:34 0.000393639
29 *103:35 0.000775842
30 *103:36 0.000176681
31 *103:37 0.000299376
32 *103:38 0.00025941
33 *103:26 *167:5 0.000206166992
34 *103:19 *687:CN 0.000776292969
35 *103:24 *25:3 0.000328767969
36 *103:22 *555:I 0.000195062988
37 *103:19 *717:B 0.000374498008

*RES
1 *103:36 *103:38 1.94936
2 *103:28 *103:29 5.58873
3 *701:CP *103:27 5.0098
4 *103:25 *103:34 4.4376
5 *103:17 *103:28 3.44786
6 *103:26 *103:35 4.21234
7 *103:21 *103:37 2.99999
8 *103:16 *103:17 7.04068
9 *103:29 *103:35 7.22953987
10 *988:CP *103:16 1.95134
11 *103:24 *103:34 3.38962
12 *103:25 *103:38 4.81388
13 *103:24 *103:33 4.58046
14 *103:29 *103:37 4.81388
15 *982:CP *103:28 4.50004
16 *990:CP *103:16 3.2215
17 *700:CP *103:32 4.50004
18 *103:23 *103:37 3.25437
19 *686:CP *103:34 2.99999
20 *711:CP *103:29 4.69474
21 *699:CP *103:33 2.99999
22 *103:27 *103:32 6.89871
23 *697:CP *103:30 2.99999
24 *103:27 *103:31 0.246552
25 *635:ZN *103:31 2.99999
26 *103:26 *103:31 5.69706
27 *103:18 *103:36 4.5595
28 *103:24 *103:30 2.49089
29 *103:22 *103:30 5.98012
30 *103:20 *103:23 5.12806
31 *682:CP *103:35 4.50004
32 *103:19 *103:38 4.52949
33 *904:CP *103:22 1.50005
34 *983:CP *103:21 2.99999
35 *725:CP *103:20 2.99999
36 *687:CP *103:19 1.50005
37 *698:CP *103:18 1.50005
38 *103:26 *103:36 1.50005
*END

*D_NET *104 0.0156102

*CONN
*I *1000:CP I *C 51.5 58.8 *L 0.000693 *D DFD1
*I *636:ZN O *C 43.37 48.295 *L 0 *D CKND2
*I *993:CP I *C 44.5 55.2 *L 0.000693 *D DFD1
*I *992:CP I *C 42.5 64.4 *L 0.000693 *D DFD1
*I *991:CP I *C 59.7 55.2 *L 0.000693 *D DFD1
*I *989:CP I *C 49.1 51.6 *L 0.000693 *D DFD1
*I *987:CP I *C 53.3 55.2 *L 0.000672 *D DFXD1
*I *985:CP I *C 45.1 51.6 *L 0.000656 *D EDFKCND1
*I *984:CP I *C 66.1 53.6 *L 0.000672 *D DFXD1
*I *981:CP I *C 59.9 51.6 *L 0.000656 *D EDFKCND1
*I *710:CP I *C 52.9 50 *L 0.000655 *D EDFKCNQD1
*I *709:CP I *C 57.3 50 *L 0.000655 *D EDFKCNQD1
*I *708:CP I *C 53.1 66 *L 0.000673 *D DFQD1
*I *685:CP I *C 53.7 68 *L 0.000673 *D DFQD1
*I *684:CP I *C 53.5 71.6 *L 0.000673 *D DFQD1

*CAP
1 *684:CP 0.000276888
2 *710:CP 6.82353e-05
3 *984:CP 0.000318011
4 *985:CP 4.8526e-05
5 *991:CP 5.03241e-05
6 *992:CP 0.000351171
7 *993:CP 5.08612e-05
8 *636:ZN 8.17562e-05
9 *1000:CP 0.000565825
10 *104:15 0.00153039
11 *104:16 0.000100321
12 *104:17 0.00100195
13 *104:18 0.000584717
14 *104:19 0.00071535
15 *104:20 9.41563e-05
16 *104:21 0.000150132
17 *104:22 0.000205967
18 *104:23 0.000147353
19 *104:24 0.000965569
20 *104:25 0.00010651
21 *104:26 0.000342367
22 *104:27 0.000120101
23 *104:28 0.000710726
24 *104:29 0.000521082
25 *104:30 0.000990859
26 *104:31 0.00077714
27 *104:32 0.0001148
28 *104:33 0.0011458
29 *104:34 0.000443272
30 *104:35 0.000445398
31 *104:36 0.00111133
32 *104:25 *936:A2 0.000321044004
33 *636:ZN *915:A1 0.000177873008
34 *992:CP *959:A3 0.000209102012
35 *985:CP *443:2 0.00021856
36 *104:15 *820:A 0.000546728008

*RES
1 *104:27 *104:31 6.50719
2 *684:CP *104:19 5.84484
3 *104:18 *104:15 3.12178
4 *104:23 *104:35 4.55952
5 *104:28 *104:35 6.36966
6 *104:18 *104:29 3.17993
7 *992:CP *104:26 4.40791
8 *104:18 *104:36 6.62799
9 *104:16 *104:24 7.9127
10 *984:CP *104:16 5.01089
11 *104:21 *104:29 5.51714
12 *104:26 *104:32 4.66237
13 *104:19 *104:20 2.34577
14 *104:17 *104:25 2.40107
15 *987:CP *104:31 4.49994
16 *1000:CP *104:25 6.67227
17 *991:CP *104:27 2.99996
18 *104:24 *104:27 0.225681
19 *636:ZN *104:15 1.75484
20 *104:25 *104:33 13.3726997
21 *104:17 *104:20 6.63738
22 *710:CP *104:28 6.47801
23 *104:32 *104:36 6.20785
24 *104:30 *104:36 2.47392
25 *104:24 *104:34 5.00864
26 *993:CP *104:30 4.49994
27 *985:CP *104:29 4.49994
28 *104:15 *104:28 10.649
29 *104:22 *104:34 2.99996
30 *104:30 *104:31 8.81358
31 *709:CP *104:23 2.99996
32 *981:CP *104:22 2.99996
33 *989:CP *104:21 1.49998
34 *708:CP *104:20 1.49998
35 *685:CP *104:19 1.49998
36 *104:28 *104:33 1.49998
*END

*D_NET *105 0.0101996

*CONN
*I *1003:CP I *C 40.5 42.8 *L 0.000693 *D DFD1
*I *637:ZN O *C 42.83 42.505 *L 0 *D CKND2
*I *1002:CP I *C 31.5 42.8 *L 0.000693 *D DFD1
*I *1001:CP I *C 32.5 42.8 *L 0.000693 *D DFD1
*I *999:CP I *C 27.7 39.2 *L 0.000693 *D DFD1
*I *998:CP I *C 37.3 57.2 *L 0.000693 *D DFD1
*I *997:CP I *C 33.1 55.2 *L 0.000693 *D DFD1
*I *996:CP I *C 27.7 35.6 *L 0.000693 *D DFD1
*I *995:CP I *C 36.5 60.8 *L 0.000693 *D DFD1
*I *994:CP I *C 38.7 35.6 *L 0.000693 *D DFD1
*I *986:CP I *C 34.9 53.6 *L 0.000656 *D EDFKCND1
*I *712:CP I *C 39.5 39.2 *L 0.000675 *D DFKCNQD1
*I *696:CP I *C 29.5 50 *L 0.000655 *D EDFKCNQD1
*I *695:CP I *C 29.3 53.6 *L 0.000655 *D EDFKCNQD1
*I *688:CP I *C 43.3 42.8 *L 0.000675 *D DFKCNQD1

*CAP
1 *712:CP 4.45376e-05
2 *994:CP 0.000539405
3 *996:CP 0.000468054
4 *997:CP 7.20434e-05
5 *1001:CP 7.2814e-05
6 *637:ZN 4.85636e-05
7 *1003:CP 5.6993e-05
8 *105:15 0.000168809
9 *105:16 0.000101955
10 *105:17 0.000497887
11 *105:18 0.00103064
12 *105:19 0.000420324
13 *105:20 0.000180258
14 *105:21 0.00016516
15 *105:22 0.000376478
16 *105:23 0.000362576
17 *105:24 0.000478827
18 *105:25 0.000232659
19 *105:26 0.000221729
20 *105:27 0.000374308
21 *105:28 0.000308178
22 *105:29 0.000681746
23 *105:30 0.000777081
24 *105:31 0.000348265
25 *105:32 0.000108859
26 *105:33 0.000512418
27 *105:34 0.000226321
28 *105:35 0.000547756
29 *105:18 *979:ZN 0.000280005
30 *105:15 *61:7 0.000273238008
31 *994:CP *156:9 0.000221708008

*RES
1 *105:17 *105:18 7.10706997
2 *105:19 *105:32 5.20082
3 *105:23 *105:31 3.64246
4 *105:34 *105:35 5.2019
5 *105:27 *105:28 2.15839
6 *105:26 *105:28 1.55825
7 *105:26 *105:30 6.23289
8 *637:ZN *105:27 3.00003
9 *105:21 *105:31 4.81107
10 *105:25 *105:29 3.43284
11 *1003:CP *105:28 3.00003
12 *712:CP *105:16 2.67339
13 *105:17 *105:22 4.94771
14 *994:CP *105:16 4.98089
15 *997:CP *105:29 3.00003
16 *105:15 *105:17 3.50484
17 *688:CP *105:27 5.2648
18 *105:20 *105:35 3.79992
19 *996:CP *105:24 5.00486
20 *105:15 *105:29 4.61586
21 *105:19 *105:24 3.31018
22 *105:26 *105:33 7.01261
23 *105:30 *105:32 0.973839
24 *995:CP *105:34 3.00003
25 *1001:CP *105:30 3.00003
26 *105:25 *105:35 3.27559
27 *999:CP *105:24 1.50002
28 *1002:CP *105:18 1.50002
29 *695:CP *105:23 3.00003
30 *696:CP *105:22 3.00003
31 *986:CP *105:21 3.00003
32 *998:CP *105:20 1.50002
33 *105:16 *105:33 1.50002
34 *105:15 *105:31 1.50002
35 *105:18 *105:32 1.50002
*END

*D_NET *106 0.000848269

*CONN
*I *648:ZN O *C 31.1 65.6 *L 0 *D INVD1
*I *647:I I *C 30.7 71.8 *L 0.0104 *D CKND12

*CAP
1 *648:ZN 0.000848268984

*RES
1 *648:ZN *647:I 8.4124
*END

*D_NET *107 0.000894895

*CONN
*I *859:Z O *C 35.5 65.6 *L 0 *D AN2XD1
*I *648:I I *C 31.5 66 *L 0.00104 *D INVD1

*CAP
1 *107:2 0.000808413047
2 *107:3 8.64848e-05

*RES
1 *859:Z *107:3 3.00003
2 *107:2 *107:3 7.48991013
3 *648:I *107:2 1.50002
*END

*D_NET *108 0.000367799

*CONN
*I *650:ZN O *C 42.3 65.6 *L 0 *D INVD1
*I *649:I I *C 42.1 68.2 *L 0.0104 *D CKND12

*CAP
1 *650:ZN 0.000367799023

*RES
1 *650:ZN *649:I 4.55974
*END

*D_NET *109 0.00234361

*CONN
*I *573:I I *C 30.1 64.4 *L 0.00103 *D DEL015
*I *959:Z O *C 42.7 64.8 *L 0 *D XOR3D0

*CAP
1 *959:Z 0.000158017
2 *109:2 0.00138149
3 *109:3 0.000276741
4 *109:4 0.000527342

*RES
1 *959:Z *109:3 5.01117
2 *109:3 *109:4 3.35414
3 *109:2 *109:4 11.4673004
4 *573:I *109:2 2.99998
*END

*D_NET *110 4.8505e-05

*CONN
*I *912:Z O *C 67.5 36 *L 0 *D AN2XD1
*I *651:I I *C 68.1 36 *L 0.00373 *D CKBD12

*CAP
1 *912:Z 4.8505e-05

*RES
1 *912:Z *651:I 0.733949
*END

*D_NET *111 0.000571774

*CONN
*I *653:ZN O *C 51.5 62 *L 0 *D INVD1
*I *652:I I *C 49.7 64.6 *L 0.0104 *D CKND12

*CAP
1 *652:I 8.81186e-05
2 *653:ZN 0.000483655977

*RES
1 *653:ZN *652:I 5.40717
*END

*D_NET *112 0.000298725

*CONN
*I *873:Z O *C 51.1 61.2 *L 0 *D AN2XD1
*I *653:I I *C 51.1 62.4 *L 0.00104 *D INVD1

*CAP
1 *653:I 0.000298725

*RES
1 *873:Z *653:I 4.16831
*END

*D_NET *113 0.000395797

*CONN
*I *655:ZN O *C 54.7 64.8 *L 0 *D INVD1
*I *654:I I *C 56.5 65.8 *L 0.0104 *D CKND12

*CAP
1 *654:I 5.90549e-05
2 *655:ZN 0.000336741016

*RES
1 *655:ZN *654:I 5.46533
*END

*D_NET *114 0.00034389

*CONN
*I *836:Z O *C 53.9 62 *L 0 *D OR2XD1
*I *655:I I *C 54.3 64.4 *L 0.00104 *D INVD1

*CAP
1 *836:Z 7.3838e-06
2 *114:2 0.000336506992

*RES
1 *836:Z *114:2 0.518787
2 *655:I *114:2 4.29012012
*END

*D_NET *115 0.00025502

*CONN
*I *657:ZN O *C 56.7 64.8 *L 0 *D INVD1
*I *656:I I *C 56.7 65.8 *L 0.0104 *D CKND12

*CAP
1 *656:I 0.00025502

*RES
1 *657:ZN *656:I 3.97359
*END

*D_NET *116 0.000413718

*CONN
*I *818:Z O *C 57.5 62 *L 0 *D OR2XD1
*I *657:I I *C 57.1 64.4 *L 0.00104 *D INVD1

*CAP
1 *818:Z 0.000413717969

*RES
1 *818:Z *657:I 4.55774
*END

*D_NET *117 0.000933366

*CONN
*I *659:ZN O *C 59.3 62 *L 0 *D INVD1
*I *658:I I *C 57.5 64.6 *L 0.0104 *D CKND12

*CAP
1 *659:ZN 0.000349751
2 *117:2 0.000583616016

*RES
1 *658:I *117:2 5.9191699
2 *659:ZN *117:2 5.25045
*END

*D_NET *118 0.00198568

*CONN
*I *564:I I *C 62.9 68 *L 0.00103 *D DEL01
*I *792:Z O *C 58.9 61.2 *L 0 *D OR2XD1

*CAP
1 *792:Z 0.000617546
2 *118:2 0.000729336016
3 *118:3 0.000638791

*RES
1 *118:2 *118:3 8.22809029
2 *564:I *118:2 4.99704
3 *792:Z *118:3 5.19529
*END

*D_NET *119 0.000528116

*CONN
*I *661:ZN O *C 62.3 62 *L 0 *D INVD1
*I *660:I I *C 61.1 64.6 *L 0.0104 *D CKND12

*CAP
1 *660:I 9.4177e-05
2 *661:ZN 0.000433937031

*RES
1 *661:ZN *660:I 5.10461
*END

*D_NET *120 0.00150508

*CONN
*I *563:I I *C 67.3 64.4 *L 0.00103 *D DEL01
*I *779:Z O *C 62.1 61.2 *L 0 *D OR2XD1

*CAP
1 *120:3 0.000814336016
2 *120:4 0.000690747

*RES
1 *120:2 *120:4 5.59755
2 *120:3 *120:4 7.26490021
3 *779:Z *120:3 1.49996
4 *563:I *120:2 1.49996
*END

*D_NET *121 0.00126197

*CONN
*I *663:ZN O *C 64.9 61.2 *L 0 *D INVD1
*I *662:I I *C 63.1 65.8 *L 0.0104 *D CKND12

*CAP
1 *663:ZN 0.000306547
2 *121:2 6.94103e-05
3 *121:3 0.000886016016

*RES
1 *121:2 *121:3 5.9785099
2 *663:ZN *121:3 4.76157
3 *662:I *121:2 1.50001
*END

*D_NET *122 0.00132063

*CONN
*I *565:I I *C 67.9 62.4 *L 0.00103 *D DEL01
*I *771:Z O *C 64.5 58.4 *L 0 *D OR2XD1

*CAP
1 *565:I 0.00021811
2 *771:Z 0.000600557031
3 *122:2 0.000501972

*RES
1 *771:Z *122:2 6.72700024
2 *565:I *122:2 6.71263
*END

*D_NET *123 0.00312952

*CONN
*I *720:A2 I *C 47.1 64.4 *L 0.000651 *D OAI21D0
*I *705:A2 I *C 53.1 69.6 *L 0.000704 *D OAI32D0
*I *666:ZN O *C 46.9 68.4 *L 0 *D INVD1
*I *665:I I *C 43.7 69.4 *L 0.0104 *D CKND12
*I *664:I I *C 45.5 68.2 *L 0.0104 *D CKND12

*CAP
1 *720:A2 0.00064101
2 *665:I 0.000450561
3 *123:5 0.000397485
4 *123:6 0.000275504
5 *123:7 0.000122701
6 *123:8 0.00124227

*RES
1 *123:6 *123:8 4.3658
2 *665:I *123:6 5.04237
3 *720:A2 *123:7 7.30349
4 *123:5 *123:8 8.16265011
5 *705:A2 *123:5 5.13192
6 *666:ZN *123:7 1.49998
7 *664:I *123:6 1.49998
8 *123:7 *123:8 1.49998
*END

*D_NET *124 0.000841331

*CONN
*I *621:I I *C 48.5 62.4 *L 0.00104 *D DEL0
*I *708:Q O *C 49.5 65.6 *L 0 *D DFQD1

*CAP
1 *621:I 0.000841331016

*RES
1 *621:I *708:Q 9.33152
*END

*D_NET *125 1.2406e-05

*CONN
*I *669:ZN O *C 57.1 69.2 *L 0 *D INVD1
*I *668:I I *C 56.9 69.4 *L 0.0104 *D CKND12

*CAP
1 *668:I 1.24059998e-05

*RES
1 *669:ZN *668:I 0.208004
*END

*D_NET *126 0.000379976

*CONN
*I *617:I I *C 57.7 69.6 *L 0.00104 *D DEL0
*I *685:Q O *C 57.3 68.4 *L 0 *D DFQD1

*CAP
1 *685:Q 0.000379976016

*RES
1 *685:Q *617:I 6.05982
*END

*D_NET *127 0.00178814

*CONN
*I *862:A1 I *C 48.3 71.6 *L 0.000719 *D AOI32D0
*I *694:B2 I *C 51.1 69.6 *L 0.000718 *D OAI22D0
*I *672:ZN O *C 49.3 72 *L 0 *D INVD1
*I *671:I I *C 43.1 71.8 *L 0.0104 *D CKND12
*I *670:I I *C 44.3 71.8 *L 0.0104 *D CKND12

*CAP
1 *862:A1 0.000113461
2 *694:B2 0.000429572
3 *670:I 4.30829e-06
4 *671:I 8.19562e-05
5 *672:ZN 5.66181e-05
6 *127:5 0.000588216016
7 *127:6 7.27293e-05
8 *127:7 0.000441276

*RES
1 *127:6 *127:7 1.00477
2 *127:5 *127:6 5.49277
3 *694:B2 *127:7 9.43525982
4 *672:ZN *127:7 4.49995
5 *862:A1 *127:6 4.75477
6 *671:I *670:I 1.44921
7 *670:I *127:5 1.50003
*END

*D_NET *128 0.000836332

*CONN
*I *622:I I *C 54.3 71.6 *L 0.00104 *D DEL0
*I *684:Q O *C 49.9 72 *L 0 *D DFQD1

*CAP
1 *684:Q 0.000278207
2 *128:2 0.000558125

*RES
1 *684:Q *128:2 9.75317955
2 *622:I *128:2 2.99995
*END

*D_NET *129 1.1718e-05

*CONN
*I *674:ZN O *C 30.9 68.4 *L 0 *D INVD1
*I *673:I I *C 30.7 68.2 *L 0.0104 *D CKND12

*CAP
1 *673:I 1.17180005e-05

*RES
1 *674:ZN *673:I 0.207984
*END

*D_NET *130 0.000256761

*CONN
*I *823:Z O *C 32.1 68.4 *L 0 *D OR2XD1
*I *674:I I *C 31.3 68 *L 0.00104 *D INVD1

*CAP
1 *674:I 4.24617e-06
2 *823:Z 0.000252515996

*RES
1 *674:I *823:Z 4.083
*END

*D_NET *131 0.000310867

*CONN
*I *676:ZN O *C 28.1 64.8 *L 0 *D INVD1
*I *675:I I *C 27.7 65.8 *L 0.0104 *D CKND12

*CAP
1 *675:I 5.46199e-05
2 *676:ZN 0.000256247012

*RES
1 *676:ZN *675:I 4.68715
*END

*D_NET *132 0.000266725

*CONN
*I *817:Z O *C 27.7 62 *L 0 *D OR2XD1
*I *676:I I *C 27.7 64.4 *L 0.00104 *D INVD1

*CAP
1 *676:I 0.000266725

*RES
1 *817:Z *676:I 4.16829
*END

*D_NET *133 0.000749681

*CONN
*I *678:ZN O *C 29.9 64.8 *L 0 *D INVD1
*I *677:I I *C 30.7 69.4 *L 0.0104 *D CKND12

*CAP
1 *677:I 0.000106924
2 *133:2 0.000642753008

*RES
1 *677:I *133:2 6.17317009
2 *678:ZN *133:2 1.49996
*END

*D_NET *134 0.00304592

*CONN
*I *572:I I *C 32.9 48 *L 0.00103 *D DEL01
*I *791:Z O *C 29.5 62 *L 0 *D OR2XD1

*CAP
1 *134:2 0.000578059
2 *134:3 0.00186405
3 *134:4 0.000484764
4 *134:5 0.000119036

*RES
1 *134:3 *134:5 6.6163
2 *134:2 *134:4 3.67645
3 *791:Z *134:2 5.10939
4 *134:3 *134:4 8.73254013
5 *572:I *134:5 1.49997
*END

*D_NET *135 0.0010692

*CONN
*I *680:ZN O *C 34.7 65.6 *L 0 *D INVD1
*I *679:I I *C 34.1 71.8 *L 0.0104 *D CKND12

*CAP
1 *135:2 0.0010692

*RES
1 *679:I *135:2 6.14916992
2 *680:ZN *135:2 6.10366
*END

*D_NET *136 0.00450902

*CONN
*I *571:I I *C 59.7 62.4 *L 0.00103 *D DEL01
*I *778:Z O *C 35.1 64.8 *L 0 *D OR2XD1

*CAP
1 *571:I 0.00037919
2 *136:2 8.50176e-05
3 *136:3 0.00241405016
4 *136:4 0.000975124
5 *136:5 0.000655645

*RES
1 *136:2 *136:4 9.74479
2 *571:I *136:2 3.38545
3 *136:4 *136:5 4.36949
4 *136:3 *136:5 20.0841007
5 *778:Z *136:3 1.50012
*END

*D_NET *137 0.0028449

*CONN
*I *640:I I *C 29.9 32.2 *L 0.000942 *D CKND1
*P *137 I *C 0 26 *L 0.5

*CAP
1 *640:I 0.000136728
2 *137 6.37757e-05
3 *137:2 0.000673946
4 *137:3 0.00187929
5 *137:4 9.11327e-05

*RES
1 *640:I *137:4 2.99989
2 *137:2 *137:5 7.35941
3 *137:2 *137:3 28.8271008
4 *137 *137:3 1.49995
5 *137:4 *137:5 1.49995
*END

*D_NET *138 0.00338029

*CONN
*I *537:I I *C 28.1 30 *L 0.000968 *D CKBD1
*P *138 I *C 0 36 *L 0.5

*CAP
1 *537:I 6.0161e-05
2 *138 0.00233293016
3 *138:2 0.000953
4 *138:3 3.42099e-05

*RES
1 *138:2 *138:3 9.29657
2 *537:I *138:2 2.51555
3 *138 *138:3 28.3799
*END

*D_NET *139 0.00796923

*CONN
*I *536:I I *C 63.9 30 *L 0.000968 *D CKBD1
*P *139 I *C 0 46 *L 0.5
*I *912:A2 I *C 66.9 35.6 *L 0.00104 *D AN2XD1

*CAP
1 *912:A2 0.000116203
2 *139 0.00545514
3 *139:3 0.000668251
4 *139:4 2.1143e-05
5 *139:5 0.000596415
6 *139:6 0.001112

*RES
1 *139:3 *139:5 6.95824
2 *536:I *139:3 5.08479
3 *912:A2 *139:4 3.00046
4 *139 *139:6 64.2817993
5 *139:5 *139:6 11.637
6 *139:4 *139:5 3.83811
*END

*D_NET *140 0.00389863

*CONN
*P *140 I *C 30.2 0 *L 0.5
*I *808:A2 I *C 46.7 28.4 *L 0.00134 *D XNR3D0

*CAP
1 *140 0.000835973
2 *140:2 0.000287937
3 *140:3 0.00148209
4 *140:4 0.00129212
5 *140:5 5.20151e-07

*RES
1 *140:2 *140:3 17.4717999
2 *140:4 *140:5 15.0548
3 *140:3 *140:5 1.75662
4 *808:A2 *140:2 3.64174
5 *140 *140:4 9.85721
*END

*D_NET *141 0.00405933

*CONN
*P *141 I *C 29.5 0 *L 0.5
*I *833:A2 I *C 43.7 28.4 *L 0.000664 *D NR2D0
*I *815:A2 I *C 45.1 28.4 *L 0.000671 *D AOI21D0

*CAP
1 *141 0.00202758
2 *141:3 0.000339245
3 *141:4 6.0238e-05
4 *141:5 0.000233125
5 *141:6 0.00128526
6 *141:7 0.000113886

*RES
1 *141:5 *141:7 2.86328
2 *815:A2 *141:7 2.99983
3 *141 *141:6 24.5837994
4 *141:3 *141:5 3.73056
5 *141:3 *141:4 0.368742
6 *141:4 *141:6 15.1346
7 *833:A2 *141:5 2.99983
*END

*D_NET *142 0.00384994

*CONN
*P *142 I *C 28.8 0 *L 0.5
*I *855:A1 I *C 41.5 28.4 *L 0.000682 *D IND3D0
*I *827:A2 I *C 41.9 28.4 *L 0.000671 *D AOI21D0

*CAP
1 *855:A1 7.48882e-05
2 *827:A2 7.60257e-06
3 *142 0.00083598
4 *142:3 0.000450827
5 *142:4 0.00123818
6 *142:5 0.00124248008

*RES
1 *142:3 *142:4 13.9658
2 *855:A1 *142:3 4.81026
3 *142:4 *142:5 15.3732996
4 *142 *142:5 9.85697
5 *855:A1 *827:A2 0.580346
*END

*D_NET *143 0.00257263

*CONN
*P *143 I *C 28.1 0 *L 0.5
*I *958:I I *C 28.3 28.6 *L 0.00062 *D CKND0

*CAP
1 *143 0.00242491
2 *143:2 0.000147711

*RES
1 *958:I *143:2 3.00012
2 *143 *143:2 28.8801003
*END

*D_NET *144 0.00433477

*CONN
*P *144 I *C 27.4 0 *L 0.5
*I *917:A2 I *C 37.1 28.4 *L 0.000897 *D NR3D0
*I *847:A2 I *C 39.3 28.4 *L 0.000671 *D AOI21D0

*CAP
1 *847:A2 0.000158076
2 *144 0.000835961
3 *144:3 0.000183932
4 *144:4 0.000715508
5 *144:5 0.000399357
6 *144:6 0.000502854
7 *144:7 0.00153907

*RES
1 *847:A2 *144:6 5.93807
2 *144:4 *144:5 3.67095
3 *144:3 *144:4 5.32076
4 *917:A2 *144:6 4.71628
5 *144 *144:7 9.85696
6 *144:5 *144:7 18.2978001
7 *144:3 *144:6 1.33263
*END

*D_NET *145 0.00443752

*CONN
*P *145 I *C 26.7 0 *L 0.5
*I *941:A1 I *C 38.3 28.4 *L 0.000647 *D NR2D0
*I *917:A3 I *C 36.7 28.4 *L 0.000899 *D NR3D0
*I *894:A1 I *C 38.5 30 *L 0.00069 *D AOI21D0

*CAP
1 *894:A1 0.000309618
2 *145 0.00232826
3 *145:4 0.000198773
4 *145:5 0.00117665
5 *145:6 0.000424228

*RES
1 *145:4 *145:6 3.837
2 *917:A3 *145:6 3.97354
3 *145 *145:5 27.7031994
4 *145:5 *145:6 9.89116
5 *894:A1 *145:4 5.39049
6 *941:A1 *145:4 1.4998
*END

*D_NET *146 0.00546557

*CONN
*P *146 I *C 26 0 *L 0.5
*I *955:I I *C 42.1 29.8 *L 0.00062 *D CKND0
*I *941:A2 I *C 37.9 28.4 *L 0.000664 *D NR2D0
*I *917:A1 I *C 37.3 28.4 *L 0.000798 *D NR3D0
*I *894:A2 I *C 38.1 30 *L 0.000671 *D AOI21D0
*I *826:A2 I *C 41.1 33.8 *L 0.000727 *D AOI221D0

*CAP
1 *917:A1 0.000138438
2 *894:A2 3.68097e-06
3 *826:A2 0.000220877
4 *146 0.00073625
5 *146:6 2.70934e-06
6 *146:7 0.000681783
7 *146:8 0.000207237
8 *146:9 0.000574568
9 *146:10 0.00026546
10 *146:11 0.00110087
11 *146:12 0.000109663
12 *146:13 0.00122453
13 *146:8 *371:2 0.000199491992

*RES
1 *146:8 *146:11 13.8
2 *146:8 *146:10 1.51513
3 *146:11 *146:13 17.323
4 *146:7 *146:12 5.51732
5 *146:7 *146:10 1.8799
6 *146:6 *146:9 3.5605
7 *894:A2 *146:7 3.19467
8 *917:A1 *146:10 2.15189
9 *146 *146:13 9.85706
10 *826:A2 *146:6 4.20255
11 *941:A2 *146:10 1.50006
12 *955:I *146:9 1.50006
13 *146:9 *146:12 1.50006
*END

*D_NET *147 0.00347875

*CONN
*P *147 I *C 35.1 0 *L 0.5
*I *811:A2 I *C 35.5 28.4 *L 0.000709 *D AOI211D0
*I *770:A1 I *C 37.5 30 *L 0.000711 *D OAI211D0

*CAP
1 *811:A2 4.8406e-05
2 *770:A1 0.000252924
3 *147 0.00231048016
4 *147:3 0.000599205
5 *147:4 0.000267732

*RES
1 *811:A2 *147:4 4.71447
2 *147:3 *147:4 0.389759
3 *147 *147:3 29.4957008
4 *770:A1 *147:4 8.64222
*END

*D_NET *148 0.00406929

*CONN
*P *148 I *C 34.4 0 *L 0.5
*I *925:A2 I *C 36.7 33.6 *L 0.000664 *D NR2D0
*I *881:A2 I *C 37.5 33.6 *L 0.000671 *D AOI21D0

*CAP
1 *925:A2 0.000137045
2 *881:A2 0.000125024
3 *148 0.000835975
4 *148:3 0.000107253
5 *148:4 0.000312853
6 *148:5 0.000332526
7 *148:6 0.000302324
8 *148:7 0.00141682
9 *148:8 0.000499449

*RES
1 *148:7 *148:8 15.5971003
2 *148:4 *148:5 4.45523
3 *925:A2 *148:3 2.07363
4 *148:3 *148:4 3.25289
5 *881:A2 *148:3 4.20248
6 *148 *148:7 9.85719
7 *148:6 *148:8 4.0128
8 *148:5 *148:6 2.36113
*END

*D_NET *149 0.00363236

*CONN
*P *149 I *C 33.7 0 *L 0.5
*I *909:A2 I *C 35.9 30 *L 0.000664 *D NR2D0
*I *880:A2 I *C 35.7 30 *L 0.000671 *D AOI21D0

*CAP
1 *909:A2 0.000434829
2 *880:A2 6.01559e-06
3 *149 0.00279597
4 *149:3 0.000395536

*RES
1 *909:A2 *149:3 7.38897
2 *909:A2 *880:A2 0.31208
3 *149 *149:3 31.8078995
*END

*D_NET *150 0.00380355

*CONN
*P *150 I *C 33 0 *L 0.5
*I *931:A2 I *C 27.9 32 *L 0.000664 *D NR2D0
*I *865:A2 I *C 27.5 33.6 *L 0.000671 *D AOI21D0

*CAP
1 *931:A2 2.76686e-06
2 *865:A2 5.99973e-05
3 *150 0.00137318
4 *150:3 0.0019087
5 *150:4 0.000394468
6 *150:5 2.51057e-05
7 *150:6 3.93186e-05

*RES
1 *150:3 *150:5 6.7589
2 *150:3 *150:4 13.9185
3 *931:A2 *150:4 1.98934
4 *150:5 *150:6 1.72588
5 *865:A2 *150:4 3.73024
6 *150 *150:6 17.2656994
*END

*D_NET *151 0.0031666

*CONN
*P *151 I *C 32.3 0 *L 0.5
*I *911:A2 I *C 33.7 30 *L 0.000664 *D NR2D0
*I *874:A2 I *C 32.9 30 *L 0.000671 *D AOI21D0

*CAP
1 *874:A2 0.000261412
2 *151 0.00148893
3 *151:3 0.00102147
4 *151:4 0.000134636
5 *151:5 0.00026014

*RES
1 *911:A2 *151:4 2.92887
2 *151 *151:5 19.5146999
3 *151:3 *151:5 2.47388
4 *151:3 *151:4 9.70464
5 *874:A2 *151:4 4.52224
*END

*D_NET *152 0.00387938

*CONN
*P *152 I *C 31.6 0 *L 0.5
*I *929:A2 I *C 29.5 33.6 *L 0.000664 *D NR2D0
*I *870:A2 I *C 30.7 33.6 *L 0.000671 *D AOI21D0

*CAP
1 *929:A2 0.000343309
2 *152 0.000835964
3 *152:3 0.00042541
4 *152:4 0.00172009
5 *152:5 0.000554597

*RES
1 *152:4 *152:5 19.3631992
2 *929:A2 *152:3 5.05442
3 *152 *152:4 9.8571
4 *152:3 *152:5 6.10714
5 *870:A2 *152:3 5.0098
*END

*D_NET *153 0.00297898

*CONN
*P *153 I *C 30.9 0 *L 0.5
*I *968:A2 I *C 34.1 28.6 *L 0.000661 *D XNR2D0

*CAP
1 *153 0.00200346
2 *153:2 5.23984e-05
3 *153:3 0.000923117

*RES
1 *153:2 *153:3 4.61659
2 *153 *153:3 28.6779995
3 *968:A2 *153:2 1.50006
*END

*D_NET *154 0.00537071

*CONN
*P *154 I *C 40 0 *L 0.5
*I *830:B2 I *C 44.5 46.6 *L 0.000739 *D MOAI22D0
*I *769:A1 I *C 41.5 46.4 *L 0.000711 *D OAI211D0

*CAP
1 *830:B2 0.000155585
2 *154 0.000821183
3 *154:3 0.000310304
4 *154:4 0.00189487
5 *154:5 0.00016371
6 *154:6 0.000743693
7 *154 *155 0.000828066016
8 *154 *167 0.000453296016

*RES
1 *154:4 *154:6 24.8957005
2 *154:3 *154:6 3.2548
3 *769:A1 *154:5 5.69172
4 *830:B2 *154:3 6.69345
5 *154 *154:4 22.9564
6 *154:5 *154:6 1.50014
*END

*D_NET *155 0.00619719

*CONN
*P *155 I *C 39.3 0 *L 0.5
*I *907:A2 I *C 47.7 48 *L 0.000664 *D NR2D0
*I *906:B2 I *C 47.1 46.6 *L 0.000739 *D MOAI22D0
*I *906:A2 I *C 47.9 46.4 *L 0.000697 *D MOAI22D0
*I *885:A2 I *C 47.5 48 *L 0.000671 *D AOI21D0

*CAP
1 *907:A2 6.12556e-05
2 *906:B2 0.000158548
3 *906:A2 9.89461e-05
4 *885:A2 1.06801e-06
5 *155 0.00225781016
6 *155:5 9.2917e-05
7 *155:6 0.000281955
8 *155:7 0.000151726
9 *155:8 0.000132192
10 *155:9 6.57688e-05
11 *155:10 0.000118894
12 *155:11 0.000690452
13 *155:12 0.000438332
14 *155 *156 0.000819305
15 *155 *154 0.000828066016

*RES
1 *907:A2 *155:5 2.66847
2 *906:A2 *155:5 4.18862
3 *155:6 *155:9 4.20277
4 *155 *155:12 37.0903015
5 *155:10 *155:11 4.24125
6 *155:5 *155:9 2.20269
7 *906:B2 *155:9 3.2548
8 *155:7 *155:8 0.616323
9 *155:11 *155:12 0.256943
10 *155:6 *155:7 3.95714
11 *155:8 *155:10 5.43032
12 *907:A2 *885:A2 0.329951
*END

*D_NET *156 0.0065812

*CONN
*P *156 I *C 38.6 0 *L 0.5
*I *915:A2 I *C 44.5 48 *L 0.000664 *D NR2D0
*I *875:A2 I *C 42.9 48 *L 0.000671 *D AOI21D0
*I *761:B I *C 46.7 50 *L 0.0018 *D FA1D0

*CAP
1 *875:A2 9.769e-06
2 *156 0.00030786
3 *156:4 0.000793581
4 *156:5 0.000217356
5 *156:6 0.000318611
6 *156:7 0.000430163
7 *156:8 0.00119219992
8 *156:9 0.000914648
9 *156:10 5.72678e-05
10 *156:11 0.000291324
11 *156 *155 0.000819305
12 *156:9 *994:CP 0.000221708008
13 *156:9 *22:3 0.000223941992
14 *156 *157 0.000783505938

*RES
1 *156:5 *156:7 2.38274
2 *761:B *156:4 5.90876
3 *875:A2 *156:7 4.75486
4 *156 *156:8 9.85706
5 *156:10 *156:11 0.25665
6 *156:6 *156:9 13.3632
7 *156:5 *156:6 2.53912
8 *156:4 *156:7 3.19546
9 *156:9 *156:11 2.72938
10 *156:8 *156:10 22.4263992
11 *915:A2 *156:4 1.49986
*END

*D_NET *157 0.00678023

*CONN
*P *157 I *C 37.9 0 *L 0.5
*I *914:A2 I *C 42.3 51.6 *L 0.000664 *D NR2D0
*I *884:A2 I *C 41.3 51.6 *L 0.000671 *D AOI21D0
*I *768:B I *C 36.1 51.6 *L 0.0018 *D FA1D0

*CAP
1 *884:A2 9.75606e-05
2 *768:B 0.000366311
3 *157 0.000336918
4 *157:4 8.0831e-05
5 *157:5 0.000523613
6 *157:6 0.000157669
7 *157:7 0.000300103
8 *157:9 0.00160523
9 *157:10 0.000287905
10 *157:11 0.000408294
11 *157:12 0.000202739
12 *157 *156 0.000783505938
13 *157 *158 0.00109542
14 *157:5 *178:4 0.000262113008
15 *768:B *511:11 0.000272011016

*RES
1 *157:5 *157:6 3.07839
2 *157:6 *157:7 2.87504
3 *157:8 *157:9 0.256677
4 *884:A2 *157:4 1.69485
5 *157 *157:8 9.79924
6 *157:4 *157:5 6.06572
7 *157:11 *157:12 0.256677
8 *157:9 *157:11 28.4148006
9 *157:10 *157:12 2.34261
10 *914:A2 *884:A2 1.22355
11 *768:B *157:5 5.23412
12 *157:7 *157:10 5.83679
*END

*D_NET *158 0.00712946

*CONN
*P *158 I *C 37.2 0 *L 0.5
*I *932:A2 I *C 35.9 46.4 *L 0.000664 *D NR2D0
*I *882:A2 I *C 37.1 46.4 *L 0.000671 *D AOI21D0
*I *782:B I *C 30.9 51.6 *L 0.0018 *D FA1D0

*CAP
1 *932:A2 0.000136064
2 *882:A2 0.000186549
3 *158 0.000317625
4 *158:4 5.18389e-05
5 *158:5 0.000531287
6 *158:6 7.07219e-05
7 *158:7 3.36686e-05
8 *158:8 0.00121613
9 *158:9 0.00233488984
10 *158 *157 0.00109542
11 *158 *159 0.00115524008

*RES
1 *158:7 *158:9 37.9912987
2 *158:4 *158:5 2.94836
3 *932:A2 *158:5 2.00982
4 *158:6 *158:8 4.87355
5 *158:5 *158:7 2.6759
6 *158:4 *158:8 7.00569
7 *882:A2 *158:7 3.50951
8 *158 *158:9 9.85724
9 *782:B *158:6 1.50027
*END

*D_NET *159 0.00600566

*CONN
*P *159 I *C 36.5 0 *L 0.5
*I *928:A2 I *C 35.1 48 *L 0.000664 *D NR2D0
*I *878:A2 I *C 36.5 48 *L 0.000671 *D AOI21D0
*I *821:B I *C 30.9 48 *L 0.0018 *D FA1D0

*CAP
1 *928:A2 1.27806e-05
2 *878:A2 5.17339e-05
3 *159 0.00200377016
4 *159:4 0.00033734
5 *159:5 8.02609e-05
6 *159:6 0.000979947
7 *159 *158 0.00115524008
8 *159 *160 0.000635910977
9 *159 *371:2 0.000748665

*RES
1 *159 *159:6 47.7845001
2 *159:5 *159:6 1.91689
3 *878:A2 *159:6 2.99966
4 *928:A2 *159:5 2.99966
5 *159:4 *159:5 6.45721
6 *821:B *159:4 1.49983
*END

*D_NET *160 0.00836023

*CONN
*I *540:I I *C 30.1 32 *L 0.00103 *D DEL015
*P *160 I *C 35.8 0 *L 0.5
*I *935:A2 I *C 39.1 46.4 *L 0.000606 *D CKND2D0
*I *814:B2 I *C 42.5 46.4 *L 0.000718 *D AOI22D0
*I *786:B1 I *C 37.3 49.6 *L 0.000899 *D OAI221D0

*CAP
1 *540:I 0.000237674
2 *935:A2 9.99405e-05
3 *814:B2 9.77721e-05
4 *160 0.000568022
5 *160:5 0.000257095
6 *160:7 9.85822e-05
7 *160:8 0.000205672
8 *160:9 0.000354891
9 *160:10 0.000700704
10 *160:11 5.27106e-05
11 *160:12 0.000311832
12 *160:13 0.000884262
13 *160:14 0.00156166
14 *160:15 0.00138489
15 *935:A2 *268:2 0.000386083984
16 *160 *68:14 0.000251332012
17 *160 *159 0.000635910977
18 *160:5 *371:7 0.000271171992

*RES
1 *540:I *160:10 5.47341
2 *160:7 *160:14 23.3668995
3 *160:7 *160:10 7.52571
4 *160:6 *160:13 5.59428
5 *160:8 *160:9 3.44784
6 *160:9 *160:15 14.5626
7 *160 *160:14 9.8572
8 *160:11 *160:12 4.45189
9 *814:B2 *160:11 6.25675
10 *935:A2 *160:12 3.00002
11 *160:5 *160:13 2.06371
12 *160:12 *160:13 2.11149
13 *160:5 *160:8 2.53222
14 *786:B1 *160:6 3.00002
15 *160:10 *160:15 1.50001
*END

*D_NET *161 0.00491209

*CONN
*P *161 I *C 44.9 0 *L 0.5
*I *966:A2 I *C 54.9 35.8 *L 0.000661 *D XNR2D0

*CAP
1 *966:A2 0.000319318
2 *161 0.00220488
3 *161:2 0.000434415
4 *161:3 0.000710837
5 *161:4 0.000297618
6 *161:5 0.000945035

*RES
1 *161:4 *161:5 6.42185
2 *161:3 *161:4 2.92202
3 *966:A2 *161:2 5.7522
4 *161 *161:5 29.6527996
5 *161:2 *161:3 5.96576
*END

*D_NET *162 0.00621992

*CONN
*P *162 I *C 44.2 0 *L 0.5
*I *924:A2 I *C 57.7 35.6 *L 0.000664 *D NR2D0
*I *905:B2 I *C 61.9 35.8 *L 0.000739 *D MOAI22D0
*I *905:A2 I *C 61.1 35.6 *L 0.000697 *D MOAI22D0
*I *876:A2 I *C 57.7 37.2 *L 0.000671 *D AOI21D0

*CAP
1 *905:B2 0.000230814
2 *162 0.000829836
3 *162:5 0.000396715
4 *162:6 0.000408694
5 *162:7 0.000295077
6 *162:8 0.000377575
7 *162:9 0.000588675
8 *162:10 0.000145749
9 *162:11 0.000743245
10 *162:12 0.000309036
11 *162:13 0.000990011953
12 *162:6 *733:ZN 0.000251708008
13 *905:B2 *258:3 0.000422963008
14 *162:5 *27:6 0.000229817012

*RES
1 *162:8 *162:9 5.18392
2 *162:6 *162:12 5.90616
3 *162:6 *162:7 2.40174
4 *876:A2 *162:5 3.15507
5 *162 *162:13 9.85709
6 *162:10 *162:12 5.52046
7 *162:7 *162:8 3.49367
8 *905:B2 *162:10 3.13747
9 *162:11 *162:13 14.9834003
10 *162:9 *162:11 12.2131
11 *924:A2 *162:5 1.50003
12 *905:A2 *162:10 3.00006
13 *162:5 *162:12 1.50003
*END

*D_NET *163 0.00536413

*CONN
*P *163 I *C 43.5 0 *L 0.5
*I *913:A2 I *C 58.7 39.2 *L 0.000664 *D NR2D0
*I *879:A2 I *C 57.5 39.2 *L 0.000671 *D AOI21D0
*I *760:B I *C 62.5 39.2 *L 0.0018 *D FA1D0

*CAP
1 *163 0.000981699
2 *163:4 9.33864e-05
3 *163:5 0.00241328
4 *163:6 0.00100225
5 *163:5 *164:4 0.000563736992
6 *163:5 *734:ZN 0.000309764004

*RES
1 *163:4 *163:6 5.58148
2 *879:A2 *163:6 4.4687
3 *163:5 *163:6 41.1090012
4 *913:A2 *163:6 3.00025
5 *163 *163:5 16.109
6 *760:B *163:4 1.49981
*END

*D_NET *164 0.00636779

*CONN
*P *164 I *C 42.8 0 *L 0.5
*I *930:A2 I *C 60.7 42.8 *L 0.000664 *D NR2D0
*I *883:A2 I *C 59.5 42.8 *L 0.000671 *D AOI21D0
*I *767:B I *C 61.9 46.4 *L 0.0018 *D FA1D0

*CAP
1 *930:A2 0.000123879
2 *883:A2 0.000351034
3 *164 0.000260005
4 *164:4 0.00119745
5 *164:5 0.000604832
6 *164:7 0.000379604
7 *164:8 0.000884421
8 *164:9 0.000514415
9 *164:10 0.00121423992
10 *164:11 2.24375e-05
11 *164:4 *566:Z 0.000251724004
12 *164:4 *163:5 0.000563736992

*RES
1 *164:4 *164:11 27.2000999
2 *164:4 *164:8 15.972
3 *164:7 *164:9 7.3126
4 *930:A2 *164:5 1.54893
5 *164:9 *164:10 10.4644
6 *164:5 *164:6 4.81032
7 *164:10 *164:11 0.451564
8 *883:A2 *164:7 5.75952
9 *164 *164:8 4.43595
10 *930:A2 *164:7 1.49996
11 *767:B *164:6 1.49996
*END

*D_NET *165 0.0064382

*CONN
*P *165 I *C 42.1 0 *L 0.5
*I *927:A2 I *C 56.3 46.4 *L 0.000664 *D NR2D0
*I *886:A2 I *C 53.9 46.4 *L 0.000668 *D AO21D0
*I *783:B I *C 59.3 48 *L 0.0018 *D FA1D0

*CAP
1 *165 0.000644454
2 *165:4 0.000509537
3 *165:5 0.00322104
4 *165:6 0.000530278
5 *165:7 0.00044692
6 *165:8 0.000396198
7 *165 *166 0.000468035977
8 *165:4 *268:4 0.000221743008

*RES
1 *165:7 *165:8 2.33743
2 *165:5 *165:9 35.2232018
3 *927:A2 *165:7 3.19468
4 *886:A2 *165:8 3.25488
5 *783:B *165:4 3.96003
6 *165 *165:6 13.4382
7 *165:5 *165:6 10.1597
8 *165:4 *165:7 4.42171
9 *165:8 *165:9 1.50006
*END

*D_NET *166 0.00550512

*CONN
*P *166 I *C 41.4 0 *L 0.5
*I *926:A2 I *C 51.3 46.4 *L 0.000664 *D NR2D0
*I *877:A2 I *C 51.3 44.4 *L 0.000671 *D AOI21D0
*I *820:B I *C 50.9 48 *L 0.0018 *D FA1D0

*CAP
1 *820:B 9.89061e-05
2 *166 0.000440691
3 *166:4 0.000263943
4 *166:5 0.000210237
5 *166:6 6.16771e-05
6 *166:7 9.96186e-05
7 *166:8 0.000315644
8 *166:10 0.00291842
9 *166 *167 0.000459625977
10 *820:B *80:10 0.000168325996
11 *166 *165 0.000468035977

*RES
1 *166:7 *166:10 3.61164
2 *166:8 *166:9 1.85445
3 *166:7 *166:8 7.04309
4 *166:6 *166:10 34.8333015
5 *166:5 *166:6 1.88953
6 *166:4 *166:5 1.7524
7 *820:B *166:4 3.47823
8 *166 *166:9 9.40514
9 *877:A2 *166:5 1.49993
10 *926:A2 *166:4 1.49993
*END

*D_NET *167 0.0068312

*CONN
*P *167 I *C 40.7 0 *L 0.5
*I *943:A2 I *C 50.5 42.8 *L 0.000606 *D CKND2D0
*I *897:A2 I *C 52.7 42.8 *L 0.000651 *D OAI21D0
*I *837:B2 I *C 54.9 39.2 *L 0.000718 *D AOI22D0
*I *772:A1 I *C 54.5 40.8 *L 0.000711 *D OAI211D0

*CAP
1 *837:B2 0.000387894
2 *167 0.000836267
3 *167:5 0.000433426
4 *167:6 0.000130343
5 *167:7 0.000272234
6 *167:8 0.000530477
7 *167:9 0.000964108984
8 *167:10 0.000472014
9 *167:11 0.000455729
10 *167:13 0.000172432
11 *167:14 0.000601577
12 *167 *154 0.000453296016
13 *167:5 *103:26 0.000206166992
14 *837:B2 *837:B1 0.000180775
15 *167 *166 0.000459625977
16 *167:5 *498:6 0.000274845

*RES
1 *897:A2 *167:11 3.22576
2 *167:5 *167:13 6.39778
3 *167:8 *167:11 3.68544
4 *167:12 *167:14 0.256712
5 *167:6 *167:11 5.91094
6 *167:6 *167:7 1.73037
7 *837:B2 *167:7 5.29689
8 *167:13 *167:14 5.39723
9 *167:5 *167:8 3.90699
10 *167:9 *167:12 14.5451
11 *167:9 *167:10 8.76507
12 *167 *167:10 18.7348003
13 *943:A2 *167:8 1.49996
14 *772:A1 *167:7 2.99992
*END

*D_NET *168 0.0040796

*CONN
*I *649:ZN O *C 40.7 68.4 *L 0 *D CKND12
*P *168 O *C 31.6 100 *L 0.5

*CAP
1 *649:ZN 0.000646283
2 *168 0.00111896
3 *168:2 4.25707e-05
4 *168:3 0.00221947
5 *168:4 5.23244e-05

*RES
1 *168:2 *168:3 10.9968
2 *168:3 *168:4 15.1780996
3 *649:ZN *168:2 5.21794
4 *168 *168:4 13.1713
*END

*D_NET *169 0.00268844

*CONN
*I *679:ZN O *C 32.7 72 *L 0 *D CKND12
*P *169 O *C 30.9 100 *L 0.5

*CAP
1 *679:ZN 0.000215192
2 *169 0.00247327

*RES
1 *169 *679:ZN 33.2059
*END

*D_NET *170 0.00279551

*CONN
*I *677:ZN O *C 29.3 69.2 *L 0 *D CKND12
*P *170 O *C 30.2 100 *L 0.5

*CAP
1 *677:ZN 0.000336057
2 *170 0.00110517
3 *170:2 0.00126209
4 *170:3 9.21893e-05

*RES
1 *170:2 *170:3 16.7378006
2 *677:ZN *170:2 4.21433
3 *170 *170:3 13.1712
*END

*D_NET *171 0.00292598

*CONN
*I *675:ZN O *C 29.1 65.6 *L 0 *D CKND12
*P *171 O *C 29.5 100 *L 0.5

*CAP
1 *171 0.00245548016
2 *171:2 0.000470489

*RES
1 *675:ZN *171:2 2.99976
2 *171 *171:2 33.7612991
*END

*D_NET *172 0.00278829

*CONN
*I *673:ZN O *C 29.3 68.4 *L 0 *D CKND12
*P *172 O *C 28.8 100 *L 0.5

*CAP
1 *172 0.00110518
2 *172:2 0.00159491
3 *172:3 8.82208e-05

*RES
1 *172:2 *172:3 18.6874008
2 *673:ZN *172:2 3.38954
3 *172 *172:3 13.1712
*END

*D_NET *173 0.00247432

*CONN
*I *647:ZN O *C 29.3 72 *L 0 *D CKND12
*P *173 O *C 28.1 100 *L 0.5

*CAP
1 *173 0.00247432

*RES
1 *173 *647:ZN 32.2615
*END

*D_NET *174 0.00404425

*CONN
*I *671:ZN O *C 41.7 72 *L 0 *D CKND12
*P *174 O *C 27.4 100 *L 0.5

*CAP
1 *174 0.00110518
2 *174:2 8.96439e-05
3 *174:3 0.00279354
4 *174:4 5.58836e-05

*RES
1 *174:2 *174:3 15.3284
2 *174:3 *174:4 15.7629995
3 *174 *174:4 13.1711
4 *671:ZN *174:2 1.49991
*END

*D_NET *175 0.0038782

*CONN
*I *667:Z O *C 37.9 69.2 *L 0 *D CKBD12
*P *175 O *C 26.7 100 *L 0.5

*CAP
1 *175 0.00233337
2 *667:Z 0.000248629
3 *175:2 0.000266823
4 *175:3 0.000259062
5 *175:4 0.000257246
6 *175:5 0.000513103

*RES
1 *175:4 *175:5 2.17326
2 *175:2 *175:3 2.66499
3 *667:Z *175:2 6.9261
4 *175 *175:5 29.4573994
5 *175:3 *175:4 3.3109
*END

*D_NET *176 0.00395703

*CONN
*I *665:ZN O *C 42.3 69.2 *L 0 *D CKND12
*P *176 O *C 26 100 *L 0.5

*CAP
1 *176 0.00097185
2 *176:2 8.06699e-05
3 *176:3 0.000897651
4 *176:4 0.000305645
5 *176:5 0.00167619
6 *176:6 2.49888e-05

*RES
1 *176:2 *176:3 9.1268
2 *176:5 *176:6 16.9328003
3 *176:4 *176:5 6.23947
4 *176:3 *176:4 2.66487
5 *176 *176:6 13.1711
6 *665:ZN *176:2 1.50012
*END

*D_NET *177 0.00615814

*CONN
*P *177 O *C 37.9 100 *L 0.5
*I *980:ZN O *C 37.1 44 *L 0 *D INVD12

*CAP
1 *980:ZN 0.000140991
2 *177 0.00170446
3 *177:2 0.000156128
4 *177:3 0.000306093
5 *177:4 0.00022812
6 *177:5 0.000753047
7 *177:6 0.000747871
8 *177:8 0.000394157
9 *177 *178 0.00116748
10 *980:ZN *179:2 0.000559803008

*RES
1 *177:7 *177:8 3.11958
2 *177:2 *177:4 0.650169
3 *980:ZN *177:6 5.64093
4 *177:4 *177:5 14.3655
5 *177:6 *177:7 4.78876
6 *177:3 *177:8 5.28804
7 *177:3 *177:5 0.256796
8 *177 *177:2 26.7984009
*END

*D_NET *178 0.00771237

*CONN
*P *178 O *C 37.2 100 *L 0.5
*I *978:ZN O *C 33.7 44 *L 0 *D INVD12
*I *822:B1 I *C 35.5 40.8 *L 0.000662 *D OA32D0
*I *707:A1 I *C 33.7 40.8 *L 0.00101 *D OAI32D1

*CAP
1 *822:B1 0.000231543
2 *707:A1 0.000140801
3 *178 0.000897082969
4 *178:4 0.000773598
5 *178:5 0.00046607
6 *178:6 0.000683541
7 *178:7 0.000208505
8 *178:8 3.94779e-05
9 *178:9 0.000296221
10 *178:10 0.000322148
11 *178:11 0.000613674
12 *178:13 6.0093e-06
13 *178:14 0.000780812
14 *178 *179 0.000823285
15 *178 *177 0.00116748
16 *178:4 *157:5 0.000262113008

*RES
1 *178:6 *178:7 2.48801
2 *178:9 *178:10 6.96057
3 *178:11 *178:13 0.256748
4 *178:5 *178:9 5.90694
5 *707:A1 *178:6 4.16865
6 *178:4 *178:12 7.316
7 *178:12 *178:14 0.256748
8 *178 *178:8 28.6159992
9 *178:8 *178:11 8.43817
10 *178:13 *178:14 7.34918
11 *178:5 *178:7 1.55751
12 *822:B1 *178:6 7.52166
13 *178:10 *178:4 0.256748
14 *978:ZN *178:7 1.49988
*END

*D_NET *179 0.00696237

*CONN
*P *179 O *C 36.5 100 *L 0.5
*I *979:ZN O *C 30.3 44 *L 0 *D INVD12

*CAP
1 *979:ZN 0.000415065
2 *179 0.000941188984
3 *179:2 0.000688353
4 *179:3 0.000338819
5 *179:4 0.000196237
6 *179:5 0.00075647
7 *179:6 0.000292489
8 *179:7 0.000184762
9 *179:8 8.34698e-05
10 *179:9 0.000174709
11 *179:11 0.000594744
12 *179:12 0.000410369
13 *179:2 *980:ZN 0.000559803008
14 *179 *178 0.000823285
15 *179:3 *35:8 0.000222582988
16 *979:ZN *105:18 0.000280005

*RES
1 *179:8 *179:12 0.784646
2 *179:5 *179:9 11.1501
3 *179:10 *179:11 12.8056
4 *179:2 *179:4 1.91685
5 *179 *179:10 14.1738005
6 *979:ZN *179:4 7.90031
7 *179:3 *179:5 0.256718
8 *179:7 *179:12 5.2252
9 *179:9 *179:11 0.256718
10 *179:6 *179:7 2.53993
11 *179:3 *179:6 4.50458
12 *179:2 *179:8 5.81542
*END

*D_NET *180 0.00752515

*CONN
*P *180 O *C 35.8 100 *L 0.5
*I *976:ZN O *C 34.7 39.6 *L 0 *D INVD12
*I *889:B2 I *C 32.7 37.2 *L 0.000674 *D AOI32D0

*CAP
1 *889:B2 0.00040123
2 *180 0.000106374
3 *180:3 0.000929713
4 *180:4 0.000152084
5 *180:5 0.000150673
6 *180:6 0.000206869
7 *180:7 0.000126736
8 *180:9 0.00308188
9 *180:10 2.68051e-06
10 *180 *181 0.0013442
11 *180:3 *182:5 0.00102273

*RES
1 *180:9 *180:10 0.25674
2 *180:6 *180:9 41.8549995
3 *976:ZN *180:3 4.1832
4 *889:B2 *180:3 7.10314
5 *180:3 *180:10 6.34378
6 *180:7 *180:8 6.19178
7 *180:6 *180:8 0.25674
8 *180:5 *180:7 6.39742
9 *180:4 *180:5 4.75799
10 *180 *180:4 1.0838
*END

*D_NET *181 0.00545685

*CONN
*P *181 O *C 35.1 100 *L 0.5
*I *973:ZN O *C 33.9 46.8 *L 0 *D INVD12

*CAP
1 *181 0.000176392
2 *181:2 0.00279493
3 *181:3 0.000347751
4 *181:4 0.000356963
5 *181:5 3.02374e-05
6 *181:6 1.16002e-05
7 *181:7 0.000193877
8 *181:2 *35:7 0.000200916016
9 *181 *180 0.0013442

*RES
1 *181:5 *181:7 0.256819
2 *181:6 *181:7 4.03218
3 *181:3 *181:4 0.256819
4 *181:2 *181:3 39.6954994
5 *973:ZN *181:2 4.3635
6 *181 *181:6 1.86497
7 *181:4 *181:5 7.36174
*END

*D_NET *182 0.0091698

*CONN
*P *182 O *C 34.4 100 *L 0.5
*I *971:ZN O *C 34.9 33.2 *L 0 *D INVD12
*I *916:A3 I *C 31.1 37.2 *L 0.000669 *D ND3D0
*I *780:A2 I *C 32.5 33.8 *L 0.000727 *D AOI221D0
*I *723:A2 I *C 35.3 37.2 *L 0.000668 *D AO21D0

*CAP
1 *971:ZN 0.000152164
2 *916:A3 0.000347922
3 *780:A2 0.000159661
4 *723:A2 1.19795e-05
5 *182 4.51018e-05
6 *182:5 0.000203613
7 *182:6 0.00019203
8 *182:7 0.000398459
9 *182:8 0.00243383
10 *182:9 0.000278782
11 *182:10 0.000316307
12 *182:11 2.83225e-05
13 *182:12 0.0025996
14 *182:13 0.000373111
15 *182:14 3.7208e-05
16 *182:15 0.000207976
17 *916:A3 *70:4 0.000361071992
18 *182:5 *180:3 0.00102273

*RES
1 *182:11 *182:12 36.0831985
2 *971:ZN *182:7 4.37496
3 *182:10 *182:13 4.24722
4 *182:6 *182:9 5.00042
5 *182:8 *182:14 18.4347
6 *182:6 *182:7 1.00647
7 *780:A2 *182:15 6.204
8 *182:10 *182:12 0.256573
9 *182:5 *182:8 6.13132
10 *182:9 *182:15 4.03469
11 *182:13 *182:14 2.01129
12 *182 *182:11 0.548934
13 *916:A3 *182:9 5.31536
14 *182:6 *182:5 0.779079
15 *723:A2 *182:5 1.98927
*END

*D_NET *183 0.00325838

*CONN
*I *632:Z O *C 36.7 72 *L 0 *D BUFFD12
*P *183 O *C 33.7 100 *L 0.5

*CAP
1 *632:Z 0.000224483
2 *183 0.000522346
3 *183:2 0.00182434
4 *183:3 0.000419597
5 *183:4 0.000266351
6 *183:5 1.28053e-06

*RES
1 *183:3 *183:4 5.431
2 *183:2 *183:5 20.9652004
3 *632:Z *183:2 4.21441
4 *183:4 *183:5 2.36089
5 *183 *183:3 5.53049
*END

*D_NET *184 0.00291069

*CONN
*I *631:Z O *C 35.7 68.4 *L 0 *D BUFFD12
*P *184 O *C 33 100 *L 0.5

*CAP
1 *184 0.00110127
2 *184:2 8.01103e-05
3 *184:3 0.0016144
4 *184:4 0.000114894

*RES
1 *184:2 *184:3 4.03198
2 *184:3 *184:4 18.6874008
3 *184 *184:4 13.1712
4 *631:Z *184:2 1.49987
*END

*D_NET *185 0.00284131

*CONN
*I *630:Z O *C 33.9 69.2 *L 0 *D BUFFD12
*P *185 O *C 32.3 100 *L 0.5

*CAP
1 *630:Z 0.000270833
2 *185 0.00257046016

*RES
1 *185 *630:Z 34.6603
*END

*D_NET *186 0.00549412

*CONN
*P *186 O *C 44.2 100 *L 0.5
*I *977:ZN O *C 48.7 61.2 *L 0 *D INVD12
*I *959:A2 I *C 45.9 64.4 *L 0.00133 *D XOR3D0
*I *777:A1 I *C 46.5 58.8 *L 0.000702 *D OAI32D0

*CAP
1 *977:ZN 0.000175308
2 *186 0.00196424
3 *186:4 0.000389521
4 *186:5 0.000482226
5 *186:6 0.00146643
6 *186:7 0.000386164
7 *186:8 0.000142639
8 *186:4 *223:2 0.000195484004
9 *186:7 *752:I 0.000292142988

*RES
1 *186:6 *186:8 12.8385
2 *186:5 *186:7 5.23777
3 *186:4 *186:6 3.75788
4 *977:ZN *186:7 6.07124
5 *186:4 *186:7 5.0449
6 *959:A2 *186:4 4.49509
7 *186 *186:8 23.8941002
8 *777:A1 *186:5 2.99989
*END

*D_NET *187 0.00496541

*CONN
*P *187 O *C 43.5 100 *L 0.5
*I *970:ZN O *C 43.9 61.2 *L 0 *D INVD12
*I *777:B1 I *C 45.5 58.8 *L 0.000684 *D OAI32D0
*I *693:A1 I *C 45.5 57.2 *L 0.000702 *D OAI32D0

*CAP
1 *693:A1 0.00041092
2 *187 0.00121187
3 *187:4 0.000330609
4 *187:5 0.00144395
5 *187:7 0.000670626
6 *187:8 3.68617e-05
7 *187:10 0.000860575

*RES
1 *187:9 *187:10 10.4681
2 *187:7 *187:8 6.76703
3 *187:6 *187:7 0.256718
4 *187:4 *187:5 4.70723
5 *187:8 *187:10 0.256718
6 *187:5 *187:6 9.14
7 *970:ZN *187:5 2.99995
8 *693:A1 *187:4 6.13486
9 *187 *187:9 14.1738005
10 *777:B1 *187:4 2.99995
*END

*D_NET *188 0.00486597

*CONN
*P *188 O *C 42.8 100 *L 0.5
*I *974:ZN O *C 41.9 54.8 *L 0 *D INVD12
*I *961:A2 I *C 42.3 57.2 *L 0.000658 *D CKXOR2D0
*I *803:B1 I *C 43.5 58.8 *L 0.000658 *D IND2D0

*CAP
1 *974:ZN 0.000281148
2 *803:B1 0.000207326
3 *188 0.00110517
4 *188:4 0.000292137
5 *188:5 0.00025435
6 *188:6 0.000474847
7 *188:7 1.02074e-05
8 *188:8 0.00176502
9 *188:9 0.000138217
10 *188:10 0.000337518

*RES
1 *188:9 *188:10 3.85185
2 *188:7 *188:8 20.2758999
3 *188:6 *188:10 3.48059
4 *188:4 *188:6 4.06471
5 *803:B1 *188:6 4.26303
6 *188:8 *188:9 0.25679
7 *188:4 *188:5 1.48381
8 *974:ZN *188:5 2.89307
9 *188 *188:7 13.1712
10 *961:A2 *188:5 1.4999
*END

*D_NET *189 0.00630511

*CONN
*P *189 O *C 42.1 100 *L 0.5
*I *975:ZN O *C 36.5 58.4 *L 0 *D INVD12
*I *962:A2 I *C 39.9 58.8 *L 0.000658 *D CKXOR2D0
*I *948:A1 I *C 31.1 57.2 *L 0.000647 *D NR2D0
*I *816:B1 I *C 42.5 58.8 *L 0.000658 *D IND2D0

*CAP
1 *962:A2 7.8426e-05
2 *948:A1 0.000141862
3 *189 0.00284745
4 *189:5 0.00017875
5 *189:6 6.9432e-05
6 *189:7 0.000340773
7 *189:8 0.00075415
8 *189:9 0.000426455
9 *189 *190 0.000781782969
10 *189:5 *55:3 0.000458743984
11 *962:A2 *222:2 0.00022718

*RES
1 *948:A1 *189:7 1.88938
2 *189:6 *189:8 4.09751
3 *189:5 *189:6 1.315
4 *189 *189:8 40.9600983
5 *189:7 *189:9 7.82502
6 *189:5 *189:9 6.02751
7 *975:ZN *189:9 4.01938
8 *962:A2 *189:6 2.06376
9 *816:B1 *189:8 3.38938
*END

*D_NET *190 0.00500628

*CONN
*P *190 O *C 41.4 100 *L 0.5
*I *972:ZN O *C 34.7 62 *L 0 *D CKND12
*I *963:S I *C 37.9 62.4 *L 0.00146 *D MUX2ND0
*I *934:A2 I *C 32.7 62.4 *L 0.000664 *D NR2D0

*CAP
1 *963:S 7.40128e-05
2 *934:A2 0.000296734
3 *190 0.000450624
4 *190:4 6.64028e-05
5 *190:5 0.000919391
6 *190:6 0.0012437
7 *190 *191 0.000956222031
8 *934:A2 *972:I 0.000217445996
9 *190 *189 0.000781782969

*RES
1 *190:5 *190:6 28.0979004
2 *972:ZN *190:4 2.99989
3 *190:4 *190:5 3.93755
4 *934:A2 *190:4 5.42142
5 *963:S *190:5 4.50005
6 *190 *190:6 13.1713
*END

*D_NET *191 0.00696477

*CONN
*P *191 O *C 40.7 100 *L 0.5
*I *969:ZN O *C 40.1 65.6 *L 0 *D INVD12
*I *951:A2 I *C 38.5 64.4 *L 0.000606 *D CKND2D0
*I *774:A2 I *C 38.9 51.6 *L 0.000709 *D AOI211D0
*I *702:A2 I *C 41.3 62.4 *L 0.000745 *D AO22D0

*CAP
1 *774:A2 0.000569313
2 *702:A2 0.000590694
3 *191 0.00235498
4 *191:5 2.92149e-05
5 *191:6 0.00017378
6 *191:7 0.000313494
7 *191:8 0.000659473
8 *191:9 0.000103528
9 *191:10 0.000718838
10 *774:A2 *79:14 0.000495279023
11 *191 *190 0.000956222031

*RES
1 *191:8 *191:9 0.584256
2 *191:7 *191:9 4.86318
3 *191:6 *191:7 2.26801
4 *774:A2 *191:5 8.16641
5 *191 *191:8 34.5264015
6 *191:6 *191:10 9.8823
7 *191:5 *191:10 2.26485
8 *969:ZN *191:9 2.99978
9 *702:A2 *191:8 6.98578
10 *951:A2 *191:7 1.49989
*END

*D_NET *192 0.00302945

*CONN
*I *670:ZN O *C 45.7 72 *L 0 *D CKND12
*P *192 O *C 40 100 *L 0.5

*CAP
1 *192 0.00110516
2 *670:ZN 0.000171845
3 *192:2 3.53524e-05
4 *192:3 0.00169606
5 *192:4 2.10147e-05

*RES
1 *192:2 *192:3 6.95351
2 *192:3 *192:4 14.5932999
3 *670:ZN *192:2 2.08425
4 *192 *192:4 13.1713
*END

*D_NET *193 0.00646202

*CONN
*I *705:A1 I *C 53.3 69.6 *L 0.000702 *D OAI32D0
*I *862:A2 I *C 48.7 71.6 *L 0.0007 *D AOI32D0
*I *895:A2 I *C 46.3 68.2 *L 0.000711 *D ND3D0
*I *942:I I *C 54.1 71.8 *L 0.00062 *D CKND0
*P *193 O *C 39.3 100 *L 0.5
*I *668:ZN O *C 55.5 69.2 *L 0 *D CKND12
*I *667:I I *C 40.3 69.2 *L 0.00373 *D CKBD12

*CAP
1 *667:I 8.67385e-05
2 *668:ZN 3.11093e-05
3 *193 0.00112756
4 *895:A2 0.00019022
5 *862:A2 3.77212e-05
6 *705:A1 4.63278e-05
7 *193:7 0.000995073
8 *193:8 0.000618959
9 *193:9 0.00146884
10 *193:10 0.000673602
11 *193:11 0.000133559
12 *193:12 0.000333551
13 *193:13 0.000110989
14 *193:14 1.77063e-06
15 *193:15 4.31003e-05
16 *667:I *32:2 0.000562879961

*RES
1 *193:9 *193:13 0.779132
2 *193:8 *193:13 0.748064
3 *668:ZN *193:10 4.16872
4 *705:A1 *193:11 4.5001
5 *193:14 *193:15 0.256713
6 *862:A2 *193:7 5.26888
7 *193:7 *193:12 4.98165
8 *193 *193:15 13.1095
9 *667:I *193:13 2.99989
10 *193:8 *193:12 5.62643
11 *193:7 *193:11 7.06097
12 *942:I *193:10 5.06258
13 *193:10 *193:11 0.835271
14 *193:9 *193:14 17.8598003
15 *895:A2 *193:12 5.75206
*END

*D_NET *194 0.00317007

*CONN
*I *664:ZN O *C 44.1 68.4 *L 0 *D CKND12
*P *194 O *C 38.6 100 *L 0.5

*CAP
1 *194 0.00110518
2 *194:2 8.83786e-05
3 *194:3 0.00194751
4 *194:4 2.90039e-05

*RES
1 *194:2 *194:3 6.5638
2 *194:3 *194:4 18.6874008
3 *194 *194:4 13.1712
4 *664:ZN *194:2 1.49987
*END

*D_NET *195 0.00437789

*CONN
*I *662:ZN O *C 64.5 65.6 *L 0 *D CKND12
*P *195 O *C 50.5 100 *L 0.5

*CAP
1 *662:ZN 0.000795205
2 *195 0.00221789
3 *195:3 0.000372643
4 *195:4 0.000992136

*RES
1 *195 *195:4 26.1380997
2 *195:3 *195:4 12.8864
3 *195:2 *195:3 5.15735
4 *662:ZN *195:2 6.4735
*END

*D_NET *196 0.00466947

*CONN
*I *660:ZN O *C 62.5 64.8 *L 0 *D CKND12
*P *196 O *C 49.8 100 *L 0.5

*CAP
1 *660:ZN 0.000253829
2 *196 0.00223494
3 *196:2 0.00130123
4 *196:3 2.10074e-05
5 *196:4 0.000632099
6 *196:5 0.000226376

*RES
1 *196:3 *196:4 13.1869
2 *196:2 *196:3 9.57249
3 *660:ZN *196:2 3.09033
4 *196:4 *196:5 1.85412
5 *196 *196:5 23.8351994
*END

*D_NET *197 0.00474174

*CONN
*I *658:ZN O *C 58.9 64.8 *L 0 *D CKND12
*P *197 O *C 49.1 100 *L 0.5

*CAP
1 *658:ZN 0.000440116
2 *197 0.0025312
3 *197:2 0.000237188
4 *197:3 0.0005736
5 *197:4 0.000274035
6 *197:5 0.000334288
7 *197:6 0.000351282

*RES
1 *197 *197:6 29.0347004
2 *197:5 *197:6 3.8956
3 *197:4 *197:5 3.76269
4 *197:2 *197:4 4.03161
5 *197:2 *197:3 4.25047
6 *658:ZN *197:3 4.61553
*END

*D_NET *198 0.0042063

*CONN
*I *656:ZN O *C 58.1 65.6 *L 0 *D CKND12
*P *198 O *C 48.4 100 *L 0.5

*CAP
1 *198 0.00103654
2 *198:2 0.000222735
3 *198:3 0.00286551
4 *198:4 8.15032e-05

*RES
1 *198:2 *198:3 11.3346
2 *198:3 *198:4 20.8320007
3 *198 *198:4 13.1713
4 *656:ZN *198:2 1.50003
*END

*D_NET *199 0.00382452

*CONN
*I *654:ZN O *C 55.1 65.6 *L 0 *D CKND12
*P *199 O *C 47.7 100 *L 0.5

*CAP
1 *654:ZN 0.000974674
2 *199 0.000331238
3 *199:2 2.91049e-05
4 *199:3 0.00247071
5 *199:4 1.87749e-05

*RES
1 *199:2 *199:3 6.89539
2 *199 *199:4 4.81115
3 *199:3 *199:4 27.4391994
4 *654:ZN *199:2 7.81022
*END

*D_NET *200 0.00376424

*CONN
*I *652:ZN O *C 51.1 64.8 *L 0 *D CKND12
*P *200 O *C 47 100 *L 0.5

*CAP
1 *200 0.000997553
2 *200:2 0.000149238
3 *200:3 0.000677379
4 *200:4 0.000146632
5 *200:5 0.000469432
6 *200:6 0.00132399

*RES
1 *200:4 *200:6 16.3880997
2 *200:2 *200:3 6.85321
3 *200:3 *200:5 5.97049
4 *200:5 *200:6 0.256814
5 *200 *200:4 13.1713
6 *652:ZN *200:2 1.49988
*END

*D_NET *201 0.0026813

*CONN
*I *629:Z O *C 47.5 69.2 *L 0 *D BUFFD12
*P *201 O *C 46.3 100 *L 0.5

*CAP
1 *201 0.00211326
2 *201:2 0.00056805

*RES
1 *629:Z *201:2 4.16877
2 *201 *201:2 30.0422993
*END

*D_NET *202 0.00353473

*CONN
*I *634:Z O *C 50.5 68.4 *L 0 *D BUFFD12
*P *202 O *C 45.6 100 *L 0.5

*CAP
1 *202 0.00110517
2 *202:2 0.000344574
3 *202:3 0.0019908
4 *202:4 9.41707e-05

*RES
1 *202:2 *202:3 3.81641
2 *634:Z *202:2 4.43176
3 *202:3 *202:4 18.6874008
4 *202 *202:4 13.1712
*END

*D_NET *203 0.0032573

*CONN
*I *633:Z O *C 46.3 65.6 *L 0 *D BUFFD12
*P *203 O *C 44.9 100 *L 0.5

*CAP
1 *203 0.002437
2 *203:2 0.000820291

*RES
1 *633:Z *203:2 4.40216
2 *203 *203:2 33.7624016
*END

*D_NET *204 0.00231109

*CONN
*P *204 O *C 100 26 *L 0.5
*I *888:ZN O *C 69.5 29.6 *L 0 *D INVD12

*CAP
1 *204 0.00181405
2 *204:2 0.000497033

*RES
1 *888:ZN *204:2 4.81029
2 *204 *204:2 32.4127998
*END

*D_NET *205 0.00735076

*CONN
*I *651:Z O *C 70.5 36 *L 0 *D CKBD12
*P *205 O *C 100 36 *L 0.5
*I *887:A1 I *C 48.1 42.8 *L 0.000647 *D NR2D0
*I *766:A1 I *C 47.7 44.4 *L 0.000718 *D INR3D0

*CAP
1 *766:A1 5.31382e-05
2 *205 6.37212e-05
3 *205:4 3.69479e-05
4 *205:5 0.000845458
5 *205:6 0.000778357
6 *205:7 0.000110955
7 *205:8 0.000297143
8 *205:9 8.7561e-05
9 *205:10 0.000492837
10 *205:11 2.63648e-05
11 *205:12 0.000989387
12 *205:13 0.000285743
13 *205:14 0.00243354984
14 *205:4 *477:4 0.000849659063

*RES
1 *205:12 *205:13 1.89464
2 *205:10 *205:11 0.132819
3 *205:9 *205:10 5.47705
4 *205:8 *205:9 0.132819
5 *205 *205:14 30.3290005
6 *205:11 *205:12 9.2802
7 *205:7 *205:8 4.15256
8 *205:4 *205:5 6.03609
9 *205:6 *205:13 5.13181
10 *205:4 *205:7 3.1784
11 *766:A1 *205:6 3.68792
12 *887:A1 *205:6 1.49988
13 *651:Z *205:5 1.49988
14 *205:5 *205:14 1.49988
*END

*D_NET *206 0.00277291

*CONN
*P *206 O *C 100 46 *L 0.5
*I *719:ZN O *C 70.9 43.2 *L 0 *D INVD12

*CAP
1 *206 6.00546e-05
2 *206:2 0.000481731
3 *206:3 0.00223111016

*RES
1 *206:2 *206:3 4.42537
2 *206 *206:3 28.3806
3 *719:ZN *206:2 1.5001
*END

*D_NET *207 0.00208845

*CONN
*I *988:Q O *C 65.3 44.8 *L 0 *D DFD1
*I *910:B1 I *C 64.1 44.4 *L 0.000689 *D MOAI22D0
*I *910:A1 I *C 63.1 44.4 *L 0.000721 *D MOAI22D0
*I *739:A1 I *C 65.3 50 *L 0.00071 *D IND4D0
*I *681:A2 I *C 65.9 48 *L 0.000712 *D IOA21D0

*CAP
1 *910:B1 4.76915e-05
2 *739:A1 7.2261e-05
3 *207:5 0.000878431953
4 *207:6 0.000574375
5 *207:7 0.000515693

*RES
1 *681:A2 *207:5 3.5679
2 *988:Q *207:7 3.58435
3 *910:B1 *207:6 2.23525
4 *739:A1 *207:5 5.77838
5 *207:5 *207:6 3.00576
6 *910:A1 *207:7 6.05829
7 *207:6 *207:7 1.49997
*END

*D_NET *208 0.000881396

*CONN
*I *610:I I *C 68.5 46.4 *L 0.00104 *D DEL0
*I *990:Q O *C 64.9 46 *L 0 *D DFD1

*CAP
1 *208:2 9.40037e-05
2 *208:3 0.000787388984

*RES
1 *990:Q *208:3 3.00003
2 *208:2 *208:3 6.39921999
3 *610:I *208:2 3.00003
*END

*D_NET *209 0.00199806

*CONN
*I *580:I I *C 68.3 58.8 *L 0.00104 *D DEL0
*I *984:Q O *C 62.9 53.8 *L 0 *D DFXD1

*CAP
1 *580:I 0.000331034
2 *209:2 0.000241737
3 *209:3 0.000787622969
4 *209:4 0.000637658

*RES
1 *209:2 *209:4 5.74191
2 *580:I *209:2 9.83590031
3 *209:3 *209:4 6.32199
4 *984:Q *209:3 1.49994
*END

*D_NET *210 0.00203799

*CONN
*I *594:I I *C 68.3 55.2 *L 0.00104 *D DEL0
*I *991:Q O *C 56.3 55.6 *L 0 *D DFD1

*CAP
1 *594:I 0.000121062
2 *210:2 0.000367016
3 *210:3 0.00154897
4 *210:4 9.45431e-07

*RES
1 *210:2 *210:4 4.11816
2 *594:I *210:2 3.19479
3 *210:3 *210:4 11.8678999
4 *991:Q *210:3 1.49997
*END

*D_NET *211 0.00255454

*CONN
*I *606:I I *C 65.9 51.6 *L 0.00104 *D DEL0
*I *989:Q O *C 52.5 52 *L 0 *D DFD1

*CAP
1 *606:I 0.000198058
2 *211:2 0.00113212
3 *211:3 0.000146613
4 *211:4 0.00107776

*RES
1 *211:3 *211:4 4.78833
2 *989:Q *211:4 4.71697
3 *211:2 *211:3 7.03242016
4 *606:I *211:2 6.55512
*END

*D_NET *212 0.00187584

*CONN
*I *616:I I *C 55.7 58.8 *L 0.00104 *D DEL0
*I *987:Q O *C 50.1 55 *L 0 *D DFXD1

*CAP
1 *616:I 0.000119941
2 *987:Q 0.000753562
3 *212:2 7.43154e-05
4 *212:3 0.000928022031

*RES
1 *212:2 *212:3 8.71306992
2 *987:Q *212:3 7.81685
3 *616:I *212:2 3.50964
*END

*D_NET *213 0.00233401

*CONN
*I *808:A3 I *C 49.5 28.4 *L 0.000717 *D XNR3D0
*I *793:B2 I *C 55.9 28.2 *L 0.000744 *D MAOI22D0
*I *793:A2 I *C 56.7 28.4 *L 0.000697 *D MAOI22D0
*I *734:B2 I *C 57.5 29.8 *L 0.000739 *D MOAI22D0
*I *697:Q O *C 56.3 32.4 *L 0 *D DFKCNQD1

*CAP
1 *808:A3 0.000278056
2 *734:B2 5.27e-07
3 *697:Q 5.31179e-05
4 *213:5 0.000576365
5 *213:6 0.000595463984
6 *213:7 0.000239549
7 *213:8 0.000464014
8 *213:9 0.000126916

*RES
1 *213:7 *213:8 3.76276
2 *213:5 *213:9 2.49765
3 *697:Q *213:6 5.37786007
4 *734:B2 *213:5 4.13425
5 *808:A3 *213:8 4.78227
6 *213:7 *213:9 1.87326
7 *793:B2 *213:6 1.49997
8 *793:A2 *213:5 3.00002
9 *213:6 *213:9 1.49997
*END

*D_NET *214 0.000969499

*CONN
*I *625:I I *C 58.1 33.6 *L 0.00104 *D DEL0
*I *699:Q O *C 54.1 33.2 *L 0 *D DFKCNQD1

*CAP
1 *625:I 0.000172608
2 *214:2 0.000746707969
3 *214:3 5.01793e-05

*RES
1 *214:2 *214:3 5.89031982
2 *625:I *214:3 5.00968
3 *699:Q *214:2 1.49999
*END

*D_NET *215 0.000793593

*CONN
*I *627:I I *C 47.5 32 *L 0.00104 *D DEL0
*I *686:Q O *C 50.7 32.4 *L 0 *D DFKCNQD1

*CAP
1 *627:I 5.75177e-05
2 *215:2 0.000736071016

*RES
1 *627:I *215:2 6.22208023
2 *686:Q *215:2 5.05525
*END

*D_NET *216 0.000446803

*CONN
*I *623:I I *C 50.5 35.6 *L 0.00104 *D DEL0
*I *682:Q O *C 50.5 36.8 *L 0 *D DFKCNQD1

*CAP
1 *623:I 0.000442866992
2 *682:Q 3.93299e-06

*RES
1 *623:I *682:Q 6.51273
*END

*D_NET *217 0.000375971

*CONN
*I *626:I I *C 45.3 37.2 *L 0.00104 *D DEL0
*I *687:Q O *C 45.1 36 *L 0 *D DFKCNQD1

*CAP
1 *626:I 0.000205055996
2 *687:Q 0.000170916

*RES
1 *626:I *687:Q 4.89339
*END

*D_NET *218 0.00192379

*CONN
*I *950:A2 I *C 43.5 35.6 *L 0.000606 *D CKND2D0
*I *899:A2 I *C 42.1 35.6 *L 0.000651 *D OAI21D0
*I *849:A1 I *C 40.9 32 *L 0.000647 *D NR2D0
*I *826:B1 I *C 40.9 33.4 *L 0.00072 *D AOI221D0
*I *735:B2 I *C 40.5 35.8 *L 0.000739 *D MOAI22D0
*I *701:Q O *C 40.1 36.8 *L 0 *D DFKCNQD1

*CAP
1 *950:A2 0.000168818
2 *899:A2 1.35839e-06
3 *849:A1 0.000307254
4 *701:Q 1.31651e-06
5 *218:6 0.000182432
6 *218:7 0.000386352
7 *218:8 0.000119766
8 *218:9 0.000364325
9 *218:10 0.000392168984

*RES
1 *218:7 *218:9 1.8585
2 *218:6 *218:10 4.3956
3 *218:6 *218:7 1.39562
4 *899:A2 *218:6 3.77882
5 *849:A1 *218:8 3.0577
6 *950:A2 *218:10 5.50550985
7 *218:7 *218:8 0.869729
8 *701:Q *218:9 2.94202
9 *735:B2 *218:9 1.50004
10 *826:B1 *218:8 2.99999
*END

*D_NET *219 0.000526847

*CONN
*I *624:I I *C 44.1 40.8 *L 0.00104 *D DEL0
*I *712:Q O *C 43.3 39.6 *L 0 *D DFKCNQD1

*CAP
1 *712:Q 0.000526846992

*RES
1 *712:Q *624:I 6.97595
*END

*D_NET *220 0.000662449

*CONN
*I *1000:Q O *C 48.1 59.2 *L 0 *D DFD1
*I *690:B1 I *C 48.9 57.4 *L 0.000863 *D AO22D0

*CAP
1 *690:B1 0.000136071
2 *220:2 0.000526381016

*RES
1 *690:B1 *220:2 2.08415
2 *1000:Q *220:2 7.00983
*END

*D_NET *221 0.000797269

*CONN
*I *993:Q O *C 47.9 55.6 *L 0 *D DFD1
*I *940:A2 I *C 46.7 53.6 *L 0.000606 *D CKND2D0

*CAP
1 *940:A2 0.000442131016
2 *221:2 0.000355135

*RES
1 *993:Q *221:2 2.99998
2 *940:A2 *221:2 6.71700001
*END

*D_NET *222 0.00535345

*CONN
*I *591:I I *C 65.7 58.8 *L 0.00104 *D DEL0
*I *997:Q O *C 36.5 55.6 *L 0 *D DFD1

*CAP
1 *997:Q 0.000558325
2 *222:2 0.000562617
3 *222:3 5.62743e-05
4 *222:4 0.000559714
5 *222:5 0.000671947
6 *222:6 0.00206838984
7 *222:7 9.014e-05
8 *222:8 0.000501893
9 *222:9 5.70003e-05
10 *222:2 *962:A2 0.00022718

*RES
1 *222:8 *222:9 0.327793
2 *222:7 *222:8 4.34677
3 *997:Q *222:2 5.33641
4 *222:6 *222:7 0.327793
5 *222:5 *222:6 17.0764999
6 *222:4 *222:5 3.08798
7 *222:3 *222:4 6.39431
8 *222:2 *222:9 5.62798
9 *591:I *222:3 2.9999
*END

*D_NET *223 0.00574098

*CONN
*I *590:I I *C 62.5 62.4 *L 0.00104 *D DEL0
*I *998:Q O *C 33.9 56.8 *L 0 *D DFD1

*CAP
1 *590:I 0.000249141
2 *998:Q 0.000440986
3 *223:2 0.00116068992
4 *223:3 0.000294835
5 *223:4 0.00011126
6 *223:5 0.000943748
7 *223:6 0.000241348
8 *223:7 0.000763397
9 *223:8 0.000352821
10 *223:9 0.000418033
11 *223:4 *52:5 0.000370175977
12 *223:2 *186:4 0.000195484004
13 *223:3 *975:I 0.00019906

*RES
1 *223:8 *223:2 11.6630001
2 *223:3 *223:6 1.79974
3 *223:7 *223:8 3.44572
4 *223:3 *223:9 4.67171
5 *223:5 *223:2 7.30219
6 *223:5 *223:6 3.38041
7 *223:4 *223:7 8.02205
8 *590:I *223:4 4.43751
9 *998:Q *223:9 5.01109
*END

*D_NET *224 0.0015268

*CONN
*I *612:I I *C 27.9 55.2 *L 0.00104 *D DEL0
*I *995:Q O *C 33.1 60.4 *L 0 *D DFD1

*CAP
1 *612:I 0.000490314023
2 *995:Q 0.000300862
3 *224:2 0.000434261
4 *224:3 0.000301356

*RES
1 *224:2 *224:3 7.26768017
2 *612:I *224:2 4.76232
3 *995:Q *224:3 4.91657
*END

*D_NET *225 0.00271686

*CONN
*I *619:I I *C 42.3 53.6 *L 0.00104 *D DEL0
*I *992:Q O *C 39.1 64 *L 0 *D DFD1

*CAP
1 *619:I 0.000668092
2 *225:2 0.000885317969
3 *225:3 0.000309142
4 *225:4 0.000771072
5 *225:5 8.32295e-05

*RES
1 *225:4 *225:5 6.09307
2 *619:I *225:2 7.33024979
3 *225:3 *225:5 3.89162
4 *225:2 *225:3 5.90091
5 *992:Q *225:4 1.50003
*END

*D_NET *226 0.00559976

*CONN
*I *959:A3 I *C 43.1 64.4 *L 0.000717 *D XOR3D0
*I *906:B1 I *C 46.7 46.4 *L 0.000689 *D MOAI22D0
*I *906:A1 I *C 47.7 46.4 *L 0.000721 *D MOAI22D0
*I *721:B2 I *C 43.9 44.2 *L 0.000739 *D MOAI22D0
*I *688:Q O *C 47.1 43.2 *L 0 *D DFKCNQD1

*CAP
1 *959:A3 0.000715437
2 *906:B1 0.000182252
3 *906:A1 0.000152393
4 *226:5 5.30994e-05
5 *226:6 0.000515683
6 *226:7 0.000184276
7 *226:8 0.000780871
8 *226:9 0.000309381
9 *226:10 0.00156048
10 *226:11 0.000131034
11 *906:B1 *470:7 0.000272408008
12 *959:A3 *992:CP 0.000209102012
13 *906:A1 *268:9 0.000161227998
14 *959:A3 *12:2 0.000372130977

*RES
1 *226:9 *226:11 2.14969
2 *906:B1 *226:5 2.82486
3 *226:10 *226:11 13.2084999
4 *226:5 *226:6 3.95271
5 *721:B2 *226:8 4.88769
6 *226:7 *226:10 5.74345
7 *226:6 *226:8 4.6164
8 *226:5 *226:7 1.99369
9 *959:A3 *226:9 8.73459
10 *906:A1 *226:7 7.73714
11 *688:Q *226:6 1.4999
*END

*D_NET *227 0.00324647

*CONN
*I *602:I I *C 68.5 51.6 *L 0.00104 *D DEL0
*I *985:Q O *C 48.3 51.4 *L 0 *D EDFKCND1

*CAP
1 *985:Q 0.000533697
2 *227:2 0.000596074
3 *227:3 2.32469e-05
4 *227:4 0.000661598
5 *227:5 0.00143185

*RES
1 *227:2 *227:3 5.17116
2 *602:I *227:2 3.1947
3 *227:4 *227:5 0.132948
4 *985:Q *227:5 16.1648998
5 *227:3 *227:4 4.59374
*END

*D_NET *228 0.00291795

*CONN
*I *608:I I *C 28.3 46.4 *L 0.00104 *D DEL0
*I *986:Q O *C 38.1 53.8 *L 0 *D EDFKCND1

*CAP
1 *608:I 0.000848433
2 *228:2 0.00127812008
3 *228:3 0.000791387

*RES
1 *608:I *228:2 8.6194
2 *228:2 *228:3 10.7621002
3 *986:Q *228:3 7.49435
*END

*D_NET *229 0.00565316

*CONN
*I *596:I I *C 67.9 53.6 *L 0.00104 *D DEL0
*I *695:Q O *C 32.5 53.8 *L 0 *D EDFKCNQD1

*CAP
1 *695:Q 0.000179909
2 *229:2 0.000148785
3 *229:3 0.00222921984
4 *229:4 0.000332368
5 *229:5 0.000428768
6 *229:6 4.62614e-06
7 *229:7 0.000612011
8 *229:8 0.000841651
9 *229:7 *48:5 0.000204387988
10 *229:2 *606:Z 0.000469716016
11 *695:Q *986:E 0.000201697012

*RES
1 *229:6 *229:7 6.48907
2 *229:4 *229:5 3.11648
3 *229:2 *229:3 17.3218002
4 *695:Q *229:8 11.3455
5 *596:I *229:2 4.04077
6 *229:7 *229:8 0.132948
7 *229:5 *229:6 3.43285
8 *229:3 *229:4 5.34143
*END

*D_NET *230 0.00617077

*CONN
*I *595:I I *C 69.5 50 *L 0.00104 *D DEL0
*I *696:Q O *C 32.7 50.2 *L 0 *D EDFKCNQD1

*CAP
1 *595:I 0.00014006
2 *230:2 0.000423795
3 *230:3 7.62125e-05
4 *230:4 0.000819072
5 *230:5 0.00113333
6 *230:6 0.000301962
7 *230:7 0.000677058
8 *230:8 0.000228931
9 *230:9 0.000376808
10 *230:10 0.000462584
11 *230:7 *67:4 0.000182104004
12 *230:2 *443:5 0.000310145996
13 *230:2 *511:13 0.000835473984
14 *230:2 *93:34 0.000203253008

*RES
1 *230:9 *230:10 4.21594
2 *230:7 *230:8 4.5059
3 *230:6 *230:7 7.03723
4 *230:2 *230:6 5.66506
5 *230:4 *230:10 7.73871
6 *230:3 *230:5 11.3315001
7 *230:8 *230:9 3.97024
8 *595:I *230:3 3.50962
9 *230:5 *230:2 3.83382
10 *696:Q *230:4 1.49995
*END

*D_NET *231 0.00242775

*CONN
*I *614:I I *C 48.3 46.4 *L 0.00104 *D DEL0
*I *700:Q O *C 39.9 40.4 *L 0 *D DFKCNQD1

*CAP
1 *700:Q 0.000424734
2 *231:2 0.00022347
3 *231:3 0.000605012
4 *231:4 0.00117452

*RES
1 *231:3 *231:4 7.43723
2 *231:2 *231:4 8.84729958
3 *614:I *231:2 3.77889
4 *700:Q *231:3 4.06226
*END

*D_NET *232 0.000372311

*CONN
*I *1003:Q O *C 37.1 42.4 *L 0 *D DFD1
*I *822:A1 I *C 36.7 41 *L 0.000654 *D OA32D0

*CAP
1 *822:A1 0.000372310977

*RES
1 *822:A1 *1003:Q 5.9631
*END

*D_NET *234 0.00123079

*CONN
*I *1002:Q O *C 28.1 42.4 *L 0 *D DFD1
*I *967:A2 I *C 29.1 40.8 *L 0.000658 *D CKXOR2D0
*I *872:B1 I *C 32.5 40.8 *L 0.000658 *D IND2D0
*I *738:B2 I *C 30.9 40.6 *L 0.000739 *D MOAI22D0

*CAP
1 *872:B1 0.000104803
2 *738:B2 0.000131589
3 *234:4 0.000252756
4 *234:5 0.000741632969

*RES
1 *872:B1 *234:4 4.95171022
2 *1002:Q *234:5 4.9474
3 *234:4 *234:5 1.94779
4 *738:B2 *234:4 3.19471
5 *967:A2 *234:5 3.25659
*END

*D_NET *235 0.000522118

*CONN
*I *999:Q O *C 31.1 38.8 *L 0 *D DFD1
*I *916:A1 I *C 30.5 37 *L 0.000693 *D ND3D0

*CAP
1 *999:Q 2.45024e-06
2 *916:A1 0.000519666016

*RES
1 *916:A1 *999:Q 6.82291
*END

*D_NET *236 0.000905118

*CONN
*I *996:Q O *C 31.1 35.2 *L 0 *D DFD1
*I *916:A2 I *C 30.7 37 *L 0.000711 *D ND3D0
*I *889:A2 I *C 31.9 37.2 *L 0.0007 *D AOI32D0
*I *692:A1 I *C 32.3 35.6 *L 0.00101 *D OAI32D1

*CAP
1 *996:Q 8.09931e-05
2 *916:A2 0.000231212
3 *236:4 0.000506671016
4 *236:5 8.62427e-05

*RES
1 *692:A1 *236:4 4.39622
2 *236:4 *236:5 0.845695
3 *996:Q *236:5 1.66376
4 *889:A2 *236:4 4.51478004
5 *916:A2 *236:5 2.89393
*END

*D_NET *237 0.0022605

*CONN
*I *620:I I *C 30.1 28.4 *L 0.00104 *D DEL0
*I *994:Q O *C 35.3 35.2 *L 0 *D DFD1

*CAP
1 *620:I 0.000589305
2 *994:Q 1.90112e-06
3 *237:2 0.00095107
4 *237:3 0.000718219

*RES
1 *994:Q *237:3 6.72132
2 *237:2 *237:3 8.44235992
3 *620:I *237:2 6.95191
*END

*D_NET *238 0.00280488

*CONN
*I *910:B2 I *C 63.7 44.2 *L 0.000739 *D MOAI22D0
*I *910:A2 I *C 62.9 44.4 *L 0.000697 *D MOAI22D0
*I *905:B1 I *C 62.3 35.6 *L 0.000689 *D MOAI22D0
*I *905:A1 I *C 61.3 35.6 *L 0.000721 *D MOAI22D0
*I *711:Q O *C 63.9 37 *L 0 *D EDFKCNQD1

*CAP
1 *905:A1 0.000307607
2 *711:Q 0.000483692
3 *238:5 0.000191578
4 *238:6 0.000321196
5 *238:7 0.000704588984
6 *238:8 0.000289179
7 *238:9 0.000507033

*RES
1 *238:5 *238:7 4.0734
2 *905:A1 *238:9 4.71151018
3 *711:Q *238:7 4.22653
4 *238:8 *238:9 3.06504
5 *910:B2 *238:6 2.51147
6 *238:7 *238:8 1.84403
7 *238:5 *238:6 1.45495
8 *910:A2 *238:6 3.36771
9 *905:B1 *238:9 1.50003
*END

*D_NET *239 0.00209988

*CONN
*I *983:Q O *C 63.9 40.6 *L 0 *D EDFKCND1
*I *947:A1 I *C 63.9 50.2 *L 0.000617 *D CKND2D0
*I *760:A I *C 64.1 39.2 *L 0.00103 *D FA1D0

*CAP
1 *947:A1 1.44399e-05
2 *760:A 0.000315659
3 *239:3 0.000652748
4 *239:4 0.000859511016
5 *239:5 0.000257519

*RES
1 *239:3 *239:4 4.3144
2 *947:A1 *239:4 6.83974981
3 *760:A *239:5 3.56901
4 *239:3 *239:5 1.50569
5 *983:Q *239:5 1.49995
*END

*D_NET *240 0.00115578

*CONN
*I *601:I I *C 66.9 50 *L 0.00104 *D DEL0
*I *981:Q O *C 63.1 51.4 *L 0 *D EDFKCND1

*CAP
1 *601:I 0.000168103
2 *240:2 0.000987682969

*RES
1 *981:Q *240:2 4.52905
2 *601:I *240:2 9.28332996
*END

*D_NET *241 0.00296312

*CONN
*I *592:I I *C 66.7 57.2 *L 0.00104 *D DEL0
*I *709:Q O *C 60.5 50.2 *L 0 *D EDFKCNQD1

*CAP
1 *592:I 7.24732e-05
2 *709:Q 0.000424667
3 *241:3 0.00090391
4 *241:4 0.000966136953
5 *241:5 0.000523942
6 *241:6 7.19867e-05

*RES
1 *241:5 *241:6 3.56293
2 *241:2 *241:3 0.25664
3 *592:I *241:6 4.49996
4 *241:3 *241:5 7.45529985
5 *241:2 *241:4 6.44535
6 *709:Q *241:4 3.6743
*END

*D_NET *242 0.00327545

*CONN
*I *593:I I *C 69.5 48 *L 0.00104 *D DEL0
*I *710:Q O *C 49.7 50.2 *L 0 *D EDFKCNQD1

*CAP
1 *710:Q 5.7731e-05
2 *242:2 0.000184956
3 *242:3 0.00172837
4 *242:4 0.00130439

*RES
1 *242:2 *242:4 12.424
2 *710:Q *242:3 5.20119
3 *242:3 *242:4 12.5999002
4 *593:I *242:2 3.25476
*END

*D_NET *243 0.000688017

*CONN
*I *615:I I *C 55.5 40.8 *L 0.00104 *D DEL0
*I *698:Q O *C 53.9 39.6 *L 0 *D DFKCNQD1

*CAP
1 *698:Q 7.92872e-05
2 *243:2 0.000608726016

*RES
1 *698:Q *243:2 3.3894
2 *615:I *243:2 8.42796993
*END

*D_NET *246 0.000763373

*CONN
*I *581:I I *C 66.5 39.2 *L 0.00104 *D DEL0
*I *982:Q O *C 69.5 37 *L 0 *D DFXD1

*CAP
1 *581:I 0.000460163008
2 *982:Q 6.98864e-05
3 *246:2 0.000233329

*RES
1 *982:Q *246:2 4.65772
2 *581:I *246:2 7.68829012
*END

*D_NET *247 0.00508561

*CONN
*I *586:I I *C 65.1 60.8 *L 0.00104 *D DEL0
*I *995:QN O *C 32.7 60.4 *L 0 *D DFD1

*CAP
1 *586:I 3.94468e-05
2 *247:2 0.000162057
3 *247:3 0.000728497
4 *247:4 0.000939028047
5 *247:5 0.000442053
6 *247:6 0.000520732
7 *247:7 7.3291e-05
8 *247:8 0.000871053
9 *247:9 0.000348903
10 *247:10 0.000329888
11 *247:11 0.000230505
12 *247:12 0.000400156

*RES
1 *247:8 *247:9 2.68185
2 *247:7 *247:8 4.15207
3 *247:6 *247:7 4.39628
4 *247:3 *247:12 6.36231
5 *247:2 *247:4 8.66483021
6 *586:I *247:2 3.25658
7 *247:4 *247:5 0.132876
8 *247:11 *247:12 3.76032
9 *247:10 *247:11 2.53191
10 *247:9 *247:10 2.72667
11 *247:5 *247:6 3.31119
12 *995:QN *247:3 1.49998
*END

*D_NET *248 0.000425898

*CONN
*I *955:ZN O *C 42.5 29.8 *L 0 *D CKND0
*I *785:A2 I *C 43.7 30.2 *L 0.000727 *D AOI221D0

*CAP
1 *248:2 0.000425897969

*RES
1 *955:ZN *248:2 2.99999
2 *785:A2 *248:2 6.01575994
*END

*D_NET *249 0.00314208

*CONN
*I *613:I I *C 30.5 55.2 *L 0.00104 *D DEL0
*I *992:QN O *C 38.7 64 *L 0 *D DFD1

*CAP
1 *613:I 0.000495272
2 *992:QN 0.000487565
3 *249:2 0.00133269
4 *249:3 0.000318902
5 *249:4 0.000503427
6 *249:5 4.20946e-06

*RES
1 *249:4 *249:5 3.13769
2 *249:2 *249:5 7.34462
3 *613:I *249:3 8.36410046
4 *992:QN *249:4 6.66029
5 *249:2 *249:3 6.18833
*END

*D_NET *250 0.000390859

*CONN
*I *954:ZN O *C 44.3 32.2 *L 0 *D CKND0
*I *785:A1 I *C 44.3 30 *L 0.000675 *D AOI221D0

*CAP
1 *954:ZN 0.000390859023

*RES
1 *785:A1 *954:ZN 6.41936
*END

*D_NET *251 0.00310892

*CONN
*I *587:I I *C 57.5 68 *L 0.00104 *D DEL0
*I *1000:QN O *C 47.7 59.2 *L 0 *D DFD1

*CAP
1 *1000:QN 0.000342753
2 *251:2 0.00072027
3 *251:3 0.000607319
4 *251:4 0.000518098
5 *251:5 0.000485247
6 *251:6 0.000435228

*RES
1 *251:4 *251:6 5.74294
2 *1000:QN *251:4 3.07665
3 *251:2 *251:3 3.55837
4 *587:I *251:2 6.99065018
5 *251:5 *251:6 3.50599
6 *251:3 *251:5 4.96789
*END

*D_NET *252 0.00491915

*CONN
*I *584:I I *C 59.9 55.2 *L 0.00103 *D DEL015
*I *993:QN O *C 48.3 55.6 *L 0 *D DFD1
*I *923:A1 I *C 48.1 53.8 *L 0.000617 *D CKND2D0
*I *875:A1 I *C 42.5 48 *L 0.00069 *D AOI21D0

*CAP
1 *993:QN 6.35738e-05
2 *923:A1 3.07565e-06
3 *875:A1 0.000405064
4 *252:4 0.00050736
5 *252:5 0.000128316
6 *252:6 0.000275948
7 *252:7 0.00103819
8 *252:8 0.00201563
9 *252:9 0.000481986

*RES
1 *252:5 *252:8 2.4293
2 *252:7 *252:9 9.02588
3 *252:6 *252:9 4.26591
4 *252:4 *252:8 18.5231991
5 *584:I *252:4 4.3637
6 *875:A1 *252:7 5.7283
7 *252:5 *252:6 1.97482
8 *923:A1 *252:6 3.48045
9 *993:QN *252:5 2.58589
*END

*D_NET *253 0.00460779

*CONN
*I *598:I I *C 64.7 40.8 *L 0.00104 *D DEL0
*I *1001:QN O *C 36.3 42.4 *L 0 *D DFD1

*CAP
1 *598:I 0.00051518
2 *1001:QN 0.000170903
3 *253:2 0.00086659
4 *253:3 0.00305514

*RES
1 *253:2 *253:3 30.3428001
2 *598:I *253:2 6.19486
3 *1001:QN *253:3 3.66182
*END

*D_NET *254 0.00234972

*CONN
*I *618:I I *C 44.9 32 *L 0.00104 *D DEL0
*I *994:QN O *C 34.9 35.2 *L 0 *D DFD1

*CAP
1 *618:I 8.49748e-05
2 *994:QN 5.63127e-06
3 *254:2 4.92651e-05
4 *254:3 0.00220985

*RES
1 *254:2 *254:3 13.6569004
2 *618:I *254:2 3.22105
3 *994:QN *254:3 6.45356
*END

*D_NET *255 0.00049518

*CONN
*I *986:QN O *C 38.7 54 *L 0 *D EDFKCND1
*I *908:A2 I *C 39.3 55.2 *L 0.000606 *D CKND2D0

*CAP
1 *986:QN 0.00049518

*RES
1 *986:QN *908:A2 5.29538
*END

*D_NET *256 0.00532504

*CONN
*I *603:I I *C 60.7 33.6 *L 0.00104 *D DEL0
*I *999:QN O *C 31.5 38.8 *L 0 *D DFD1

*CAP
1 *603:I 0.000508304
2 *256:2 0.000350198
3 *256:3 0.000482733
4 *256:4 0.000266495
5 *256:5 0.000738767
6 *256:6 0.000345041
7 *256:7 0.000141654
8 *256:8 0.00050408
9 *256:9 0.00107284
10 *256:2 *485:7 0.000594515039
11 *256:2 *711:CN 0.000320392988

*RES
1 *603:I *256:2 6.48881
2 *256:8 *256:9 2.34064
3 *256:7 *256:8 3.7502
4 *256:6 *256:7 4.04808
5 *256:5 *256:6 1.03574
6 *256:4 *256:5 4.9043
7 *256:2 *256:4 5.49006
8 *256:3 *256:9 14.2601004
9 *999:QN *256:3 1.50008
*END

*D_NET *257 0.00167569

*CONN
*I *609:I I *C 33.9 50 *L 0.00104 *D DEL0
*I *1003:QN O *C 36.7 42.4 *L 0 *D DFD1

*CAP
1 *1003:QN 8.69788e-05
2 *257:2 0.000458316
3 *257:3 0.00072337
4 *257:4 0.000376305
5 *257:5 3.07185e-05

*RES
1 *1003:QN *257:5 2.99998
2 *257:3 *257:5 4.1813
3 *257:2 *257:4 2.55199
4 *609:I *257:2 5.95165014
5 *257:3 *257:4 1.78579
*END

*D_NET *258 0.00544306

*CONN
*I *600:I I *C 62.5 35.6 *L 0.00104 *D DEL0
*I *996:QN O *C 31.5 35.2 *L 0 *D DFD1

*CAP
1 *258:2 0.00073204
2 *258:3 0.000174992
3 *258:4 0.000170576
4 *258:5 7.56116e-05
5 *258:6 0.000270242
6 *258:7 0.00143963
7 *258:8 0.000248802
8 *258:3 *905:B2 0.000422963008
9 *258:7 *735:B1 0.000196726992
10 *258:2 *27:2 0.000298811992
11 *258:2 *692:B1 0.000576533984
12 *258:5 *442:2 0.000836117969

*RES
1 *600:I *258:3 5.69968
2 *258:7 *258:8 2.29504
3 *258:6 *258:7 15.0558004
4 *258:5 *258:6 4.14531
5 *258:3 *258:4 2.10987
6 *258:2 *258:8 7.79003
7 *258:4 *258:5 7.87686
8 *996:QN *258:2 1.49993
*END

*D_NET *259 0.00397208

*CONN
*I *605:I I *C 47.9 37.2 *L 0.00104 *D DEL0
*I *1002:QN O *C 27.7 42.4 *L 0 *D DFD1

*CAP
1 *605:I 0.000171459
2 *1002:QN 5.31897e-05
3 *259:2 0.00105152
4 *259:3 0.000215134
5 *259:4 0.000501604
6 *259:5 0.000423047
7 *259:6 0.000818721
8 *259:7 0.000737388

*RES
1 *1002:QN *259:2 5.54588
2 *259:5 *259:6 5.31466
3 *259:4 *259:5 3.16632
4 *259:3 *259:4 3.65189
5 *259:2 *259:6 7.36456
6 *259:3 *259:7 5.83014
7 *605:I *259:7 7.81102991
*END

*D_NET *260 0.000571387

*CONN
*I *985:QN O *C 48.9 51.2 *L 0 *D EDFKCND1
*I *923:A2 I *C 47.7 53.6 *L 0.000606 *D CKND2D0

*CAP
1 *923:A2 0.000260852
2 *260:2 0.00031053502

*RES
1 *985:QN *260:2 4.16826
2 *923:A2 *260:2 4.43935013
*END

*D_NET *261 0.000744112

*CONN
*I *983:QN O *C 64.5 40.4 *L 0 *D EDFKCND1
*I *921:A2 I *C 63.1 42.8 *L 0.000606 *D CKND2D0

*CAP
1 *983:QN 4.92229e-05
2 *921:A2 2.85966e-05
3 *261:2 3.31566e-05
4 *261:3 0.000633135039

*RES
1 *921:A2 *261:2 0.489264
2 *261:2 *261:3 5.94887018
3 *983:QN *261:3 3.00003
*END

*D_NET *262 0.00496893

*CONN
*I *583:I I *C 69.3 57.2 *L 0.00104 *D DEL0
*I *997:QN O *C 36.9 55.6 *L 0 *D DFD1

*CAP
1 *997:QN 2.3274e-05
2 *262:2 0.000262323
3 *262:3 0.00401385031
4 *262:4 0.000669434

*RES
1 *262:3 *262:4 32.4692993
2 *262:2 *262:4 4.99455
3 *583:I *262:2 4.27418
4 *997:QN *262:3 2.22454
*END

*D_NET *263 0.00098668

*CONN
*I *607:I I *C 66.7 33.6 *L 0.00104 *D DEL0
*I *982:QN O *C 69.9 37.6 *L 0 *D DFXD1

*CAP
1 *263:2 0.000506486016
2 *263:3 0.000114559
3 *263:4 0.000365634

*RES
1 *263:2 *263:4 4.96857023
2 *263:3 *263:4 4.61656
3 *982:QN *263:3 1.49999
4 *607:I *263:2 1.49999
*END

*D_NET *264 0.00498673

*CONN
*I *585:I I *C 60.1 66 *L 0.00104 *D DEL0
*I *998:QN O *C 33.5 56.8 *L 0 *D DFD1

*CAP
1 *998:QN 0.000521477
2 *264:2 0.000100358
3 *264:3 0.000412459
4 *264:4 0.000316908
5 *264:5 0.00032032
6 *264:6 0.00120237008
7 *264:7 1.93928e-05
8 *264:8 0.000510615
9 *264:9 4.34824e-05
10 *264:10 0.000832036
11 *264:11 0.000327237
12 *264:12 0.000380095

*RES
1 *264:11 *264:12 3.23874
2 *264:9 *264:10 5.65753
3 *264:7 *264:8 4.54146
4 *264:6 *264:7 0.132879
5 *264:5 *264:6 9.65450954
6 *264:4 *264:5 2.92172
7 *264:2 *264:3 4.84346
8 *264:10 *264:11 4.59229
9 *264:8 *264:9 0.132879
10 *264:3 *264:4 2.34851
11 *998:QN *264:12 7.4539
12 *585:I *264:2 2.99995
*END

*D_NET *265 0.00112963

*CONN
*I *981:QN O *C 63.7 51.2 *L 0 *D EDFKCND1
*I *922:A1 I *C 60.9 53.8 *L 0.000617 *D CKND2D0

*CAP
1 *981:QN 0.000192311
2 *265:2 0.000937311016

*RES
1 *981:QN *265:2 1.95799
2 *922:A1 *265:2 9.34313965
*END

*D_NET *266 0.00210238

*CONN
*I *942:ZN O *C 53.7 71.8 *L 0 *D CKND0
*I *862:B1 I *C 48.1 71.6 *L 0.000712 *D AOI32D0
*I *705:B1 I *C 52.3 69.6 *L 0.000684 *D OAI32D0

*CAP
1 *705:B1 0.00068691
2 *266:3 0.000323723
3 *266:4 0.000133493
4 *266:5 0.000617354
5 *266:6 0.000340903

*RES
1 *266:4 *266:5 5.18688
2 *266:3 *266:4 1.56859
3 *705:B1 *266:4 8.82929039
4 *942:ZN *266:3 4.55772
5 *266:5 *266:6 5.21949
6 *862:B1 *266:6 3.00004
*END

*D_NET *267 0.00306511

*CONN
*I *988:QN O *C 64.9 44.8 *L 0 *D DFD1
*I *924:A1 I *C 57.3 35.6 *L 0.000647 *D NR2D0
*I *876:A1 I *C 57.3 37.2 *L 0.00069 *D AOI21D0

*CAP
1 *988:QN 0.000123617
2 *924:A1 0.00035165
3 *267:3 0.00108756008
4 *267:4 0.000677927
5 *267:5 0.000784102
6 *267:6 4.02431e-05

*RES
1 *924:A1 *267:5 5.24659
2 *267:4 *267:6 6.48095989
3 *267:4 *267:5 4.559
4 *267:3 *267:6 4.85963
5 *988:QN *267:3 5.83955
6 *876:A1 *267:5 2.99998
*END

*D_NET *268 0.00503581

*CONN
*I *582:I I *C 68.9 44.4 *L 0.00104 *D DEL0
*I *935:ZN O *C 38.5 46.8 *L 0 *D CKND2D0

*CAP
1 *582:I 0.000337929
2 *268:2 0.00105493
3 *268:3 0.00102256
4 *268:4 0.000339297
5 *268:5 4.6038e-06
6 *268:6 0.000421119
7 *268:7 5.90445e-05
8 *268:8 0.000560794
9 *268:9 0.000240251
10 *268:2 *935:A2 0.000386083984
11 *268:4 *165:4 0.000221743008
12 *268:9 *906:A1 0.000161227998
13 *268:4 *495:2 0.00022624

*RES
1 *268:7 *268:8 5.51581
2 *268:5 *268:6 6.10015
3 *268:8 *268:9 2.10545
4 *268:6 *268:7 0.132862
5 *268:4 *268:5 3.31147
6 *935:ZN *268:2 2.00974
7 *268:3 *268:4 5.45035
8 *268:2 *268:9 11.5942001
9 *582:I *268:3 7.98216
*END

*D_NET *269 0.000816967

*CONN
*I *920:ZN O *C 30.9 46.6 *L 0 *D CKND0
*I *821:CI I *C 28.7 47.8 *L 0.001 *D FA1D0

*CAP
1 *920:ZN 0.000229791
2 *269:2 0.000587176992

*RES
1 *821:CI *269:2 4.529
2 *920:ZN *269:2 5.67399979
*END

*D_NET *270 0.0025574

*CONN
*I *604:I I *C 63.1 55.2 *L 0.00104 *D DEL0
*I *987:QN O *C 49.7 55.6 *L 0 *D DFXD1

*CAP
1 *987:QN 3.22762e-06
2 *270:2 0.000788233
3 *270:3 0.00156683
4 *270:4 0.000199108

*RES
1 *270:2 *270:4 5.75967
2 *604:I *270:2 3.51117
3 *270:3 *270:4 14.3316002
4 *987:QN *270:3 1.69479
*END

*D_NET *271 0.000403564

*CONN
*I *941:ZN O *C 38.3 28.6 *L 0 *D NR2D0
*I *919:I I *C 38.7 28.6 *L 0.00062 *D CKND0
*I *894:B I *C 38.7 30 *L 0.00072 *D AOI21D0

*CAP
1 *941:ZN 2.21696e-06
2 *919:I 0.00040135

*RES
1 *941:ZN *919:I 0.333977
2 *919:I *894:B 6.50445986
*END

*D_NET *272 0.000325317

*CONN
*I *919:ZN O *C 39.1 28.6 *L 0 *D CKND0
*I *847:A1 I *C 39.7 28.4 *L 0.00069 *D AOI21D0

*CAP
1 *847:A1 0.000325316992

*RES
1 *847:A1 *919:ZN 5.94492
*END

*D_NET *273 0.00059539

*CONN
*I *943:ZN O *C 51.1 43.2 *L 0 *D CKND2D0
*I *918:I I *C 52.7 44.2 *L 0.00062 *D CKND0
*I *897:B I *C 52.1 42.8 *L 0.00073 *D OAI21D0

*CAP
1 *943:ZN 0.000169696
2 *918:I 0.000240856016
3 *897:B 5.67676e-05
4 *273:3 0.000128071

*RES
1 *918:I *273:3 3.51713991
2 *943:ZN *273:3 2.71133
3 *897:B *273:3 3.27075
*END

*D_NET *274 0.000596895

*CONN
*I *918:ZN O *C 53.1 44.2 *L 0 *D CKND0
*I *820:CI I *C 53.1 47.8 *L 0.001 *D FA1D0

*CAP
1 *274:2 0.000596894961

*RES
1 *820:CI *274:2 4.76211023
2 *918:ZN *274:2 1.5
*END

*D_NET *275 0.00106119

*CONN
*I *965:A2 I *C 35.7 32.2 *L 0.000661 *D XNR2D0
*I *909:ZN O *C 36.3 29.8 *L 0 *D NR2D0
*I *880:B I *C 35.1 30 *L 0.00072 *D AOI21D0

*CAP
1 *880:B 0.000265461
2 *275:4 0.000795726016

*RES
1 *880:B *275:4 7.15881014
2 *275:3 *275:4 4.5114
3 *909:ZN *275:4 5.2791
4 *965:A2 *275:3 1.50001
*END

*D_NET *276 0.000623312

*CONN
*I *966:A1 I *C 56.1 35.6 *L 0.00136 *D XNR2D0
*I *924:ZN O *C 57.3 35.8 *L 0 *D NR2D0
*I *876:B I *C 57.1 37.2 *L 0.00072 *D AOI21D0

*CAP
1 *924:ZN 0.000209318
2 *276:3 0.000413993008

*RES
1 *924:ZN *966:A1 4.18522
2 *876:B *276:3 5.03872013
3 *924:ZN *276:3 1.50002
*END

*D_NET *277 0.000898906

*CONN
*I *926:ZN O *C 51.7 46.6 *L 0 *D NR2D0
*I *903:I I *C 53.1 43 *L 0.00062 *D CKND0
*I *877:B I *C 51.9 44.4 *L 0.00072 *D AOI21D0

*CAP
1 *926:ZN 1.18515e-05
2 *903:I 0.000214563
3 *877:B 9.84475e-05
4 *277:3 0.000574051016

*RES
1 *877:B *277:3 3.52556
2 *926:ZN *277:3 2.75831
3 *903:I *277:3 5.00272989
*END

*D_NET *278 0.00063901

*CONN
*I *925:ZN O *C 37.1 33.4 *L 0 *D NR2D0
*I *902:I I *C 38.1 32.2 *L 0.00062 *D CKND0
*I *881:B I *C 38.1 33.6 *L 0.00072 *D AOI21D0

*CAP
1 *925:ZN 0.000246795996
2 *902:I 0.0001959
3 *278:3 0.000196315

*RES
1 *925:ZN *278:3 2.52847
2 *902:I *278:3 2.79008
3 *881:B *278:3 3.87280989
*END

*D_NET *279 0.000604729

*CONN
*I *907:ZN O *C 48.1 47.8 *L 0 *D NR2D0
*I *901:I I *C 46.3 47.8 *L 0.00062 *D CKND0
*I *885:B I *C 46.9 48 *L 0.00072 *D AOI21D0

*CAP
1 *901:I 0.00012856
2 *279:3 0.000124428
3 *279:4 0.000351738984

*RES
1 *907:ZN *279:4 4.48529005
2 *901:I *279:3 2.14827
3 *885:B *279:3 3.52179
4 *279:3 *279:4 1.5
*END

*D_NET *280 0.000198905

*CONN
*I *900:ZN O *C 39.9 45 *L 0 *D OAI21D0
*I *732:A2 I *C 40.9 44.4 *L 0.000697 *D MOAI22D0

*CAP
1 *900:ZN 0.000198905

*RES
1 *732:A2 *900:ZN 5.14602
*END

*D_NET *281 0.000658514

*CONN
*I *899:ZN O *C 42.7 35 *L 0 *D OAI21D0
*I *735:A2 I *C 41.3 35.6 *L 0.000697 *D MOAI22D0

*CAP
1 *899:ZN 1.6138e-06
2 *281:2 0.000656897031

*RES
1 *899:ZN *281:2 3.00003
2 *735:A2 *281:2 7.62348986
*END

*D_NET *282 0.00257708

*CONN
*I *611:I I *C 57.9 44.4 *L 0.00104 *D DEL0
*I *989:QN O *C 52.9 52 *L 0 *D DFD1

*CAP
1 *611:I 0.000338489
2 *282:2 0.000841037
3 *282:3 0.00024689
4 *282:4 0.00110511008
5 *282:5 4.55467e-05

*RES
1 *282:4 *282:5 8.84453011
2 *282:2 *282:3 4.81728
3 *282:3 *282:5 3.22992
4 *611:I *282:2 4.96371
5 *989:QN *282:4 1.50005
*END

*D_NET *283 0.000610451

*CONN
*I *898:ZN O *C 51.7 54 *L 0 *D AOI22D0
*I *753:A2 I *C 50.7 53.6 *L 0.000697 *D MOAI22D0

*CAP
1 *898:ZN 0.000144218
2 *753:A2 0.000132527
3 *283:2 0.00033371

*RES
1 *753:A2 *283:2 4.49996
2 *898:ZN *283:2 5.21483994
*END

*D_NET *284 0.000616921

*CONN
*I *897:ZN O *C 52.1 42.2 *L 0 *D OAI21D0
*I *730:A2 I *C 52.7 40.8 *L 0.000697 *D MOAI22D0

*CAP
1 *897:ZN 0.000420701992
2 *730:A2 0.000196218

*RES
1 *730:A2 *897:ZN 9.69398
*END

*D_NET *285 0.00180488

*CONN
*I *950:ZN O *C 44.1 36 *L 0 *D CKND2D0
*I *899:B I *C 42.7 35.6 *L 0.00073 *D OAI21D0
*I *896:A1 I *C 45.9 33.6 *L 0.000647 *D NR2D0
*I *724:A1 I *C 47.7 33.6 *L 0.000645 *D AOI211D0

*CAP
1 *950:ZN 5.56141e-05
2 *899:B 0.000408445
3 *724:A1 0.000433544
4 *285:4 4.78903e-05
5 *285:5 0.00085939

*RES
1 *950:ZN *285:4 3.16379
2 *724:A1 *285:5 6.67705011
3 *285:4 *285:5 4.88043
4 *899:B *285:4 5.55011
5 *896:A1 *285:5 5.28919
*END

*D_NET *286 0.00101504

*CONN
*I *948:ZN O *C 31.1 57.4 *L 0 *D NR2D0
*I *893:B1 I *C 27.7 57.2 *L 0.000651 *D INR2D0
*I *824:A2 I *C 28.9 57.2 *L 0.000651 *D OAI21D0

*CAP
1 *893:B1 0.000257291
2 *824:A2 9.57821e-05
3 *286:3 0.000109169
4 *286:4 0.000552802969

*RES
1 *893:B1 *286:4 4.33608
2 *286:3 *286:4 4.50968981
3 *824:A2 *286:4 3.49505
4 *948:ZN *286:3 1.49997
*END

*D_NET *287 0.000879283

*CONN
*I *946:ZN O *C 31.7 57.6 *L 0 *D CKND2D0
*I *893:A1 I *C 28.3 57.2 *L 0.00069 *D INR2D0
*I *824:B I *C 29.5 57.2 *L 0.00073 *D OAI21D0

*CAP
1 *946:ZN 0.000124879
2 *824:B 6.07248e-05
3 *287:3 0.000693673047

*RES
1 *824:B *287:3 4.50004
2 *946:ZN *287:3 5.85997009
3 *893:A1 *287:3 4.52946
*END

*D_NET *288 0.00107628

*CONN
*I *936:ZN O *C 53.3 57.6 *L 0 *D CKND2D0
*I *892:B1 I *C 53.3 58.8 *L 0.000658 *D IND2D0
*I *863:B I *C 55.1 58.8 *L 0.00073 *D OAI21D0

*CAP
1 *936:ZN 0.000229115
2 *288:3 0.000317218
3 *288:4 0.000529950039

*RES
1 *936:ZN *288:3 3.05406
2 *288:3 *288:4 7.67803001
3 *892:B1 *288:3 2.30976
4 *863:B *288:4 3.00005
*END

*D_NET *289 0.00109825

*CONN
*I *945:ZN O *C 52.3 57.4 *L 0 *D NR2D0
*I *892:A1 I *C 52.7 58.8 *L 0.000681 *D IND2D0
*I *863:A1 I *C 54.9 58.8 *L 0.0007 *D OAI21D0

*CAP
1 *945:ZN 0.000352738
2 *863:A1 0.000191737
3 *289:3 0.000130789
4 *289:4 0.00042298

*RES
1 *863:A1 *289:4 7.55900002
2 *892:A1 *289:3 1.69471
3 *945:ZN *289:3 3.97812
4 *289:3 *289:4 1.50001
*END

*D_NET *290 0.000966446

*CONN
*I *939:ZN O *C 56.9 57.4 *L 0 *D NR2D0
*I *891:B1 I *C 55.7 57.2 *L 0.000651 *D INR2D0
*I *825:A2 I *C 57.5 57.2 *L 0.000651 *D OAI21D0

*CAP
1 *939:ZN 0.000221079
2 *825:A2 0.000148869
3 *290:3 0.000539966992
4 *290:4 5.65303e-05

*RES
1 *290:3 *290:4 4.13314
2 *825:A2 *290:4 2.99998
3 *939:ZN *290:3 4.92230988
4 *891:B1 *290:3 2.99998
*END

*D_NET *291 0.00102587

*CONN
*I *933:ZN O *C 59.3 57.6 *L 0 *D CKND2D0
*I *891:A1 I *C 56.3 57.2 *L 0.00069 *D INR2D0
*I *825:B I *C 58.1 57.2 *L 0.00073 *D OAI21D0

*CAP
1 *933:ZN 0.000179665
2 *825:B 6.54205e-05
3 *291:3 0.000780793047

*RES
1 *891:A1 *291:3 5.18632
2 *933:ZN *291:3 6.05725002
3 *825:B *291:3 4.49996
*END

*D_NET *292 0.000813576

*CONN
*I *934:ZN O *C 32.3 62.2 *L 0 *D NR2D0
*I *890:B1 I *C 33.3 64.4 *L 0.000651 *D INR2D0
*I *871:A1 I *C 31.3 62.4 *L 0.0007 *D OAI21D0

*CAP
1 *871:A1 0.000238692
2 *292:3 0.000574886992

*RES
1 *890:B1 *292:3 4.81027985
2 *871:A1 *292:3 4.77813
3 *934:ZN *292:3 2.99997
*END

*D_NET *293 0.000929256

*CONN
*I *944:ZN O *C 31.1 61.2 *L 0 *D CKND2D0
*I *890:A1 I *C 32.7 64.4 *L 0.00069 *D INR2D0
*I *871:B I *C 31.1 62.4 *L 0.00073 *D OAI21D0

*CAP
1 *944:ZN 0.000175744
2 *890:A1 3.3384e-05
3 *293:3 0.000616461992
4 *293:4 0.00010367

*RES
1 *890:A1 *293:4 2.99999
2 *944:ZN *293:3 4.22732
3 *293:3 *293:4 6.82167006
4 *871:B *293:3 2.99999
*END

*D_NET *294 0.000736486

*CONN
*I *889:ZN O *C 31.5 37.8 *L 0 *D AOI32D0
*I *706:B2 I *C 28.7 37.2 *L 0.000718 *D OAI22D0

*CAP
1 *706:B2 0.000628023984
2 *294:2 0.000108461

*RES
1 *889:ZN *294:2 3.00001
2 *706:B2 *294:2 8.04751015
*END

*D_NET *295 0.00108789

*CONN
*I *597:I I *C 65.7 55.2 *L 0.00104 *D DEL0
*I *984:QN O *C 62.5 53.2 *L 0 *D DFXD1

*CAP
1 *984:QN 0.000783415938
2 *295:2 0.000304472

*RES
1 *984:QN *295:2 8.83360958
2 *597:I *295:2 4.03198
*END

*D_NET *296 0.000856909

*CONN
*I *599:I I *C 66.9 48 *L 0.00104 *D DEL0
*I *990:QN O *C 64.5 46 *L 0 *D DFD1

*CAP
1 *599:I 0.000223007
2 *990:QN 3.51043e-05
3 *296:2 0.000598793047

*RES
1 *599:I *296:2 8.39538002
2 *990:QN *296:2 4.03295
*END

*D_NET *297 0.00194019

*CONN
*I *937:ZN O *C 37.7 54.8 *L 0 *D CKND2D0
*I *869:A2 I *C 32.5 58.8 *L 0.000606 *D CKND2D0
*I *799:B I *C 33.9 58.8 *L 0.000669 *D IOA21D0

*CAP
1 *937:ZN 3.31206e-05
2 *869:A2 3.17568e-06
3 *799:B 0.000195158
4 *297:3 0.000280454
5 *297:4 0.000151498
6 *297:5 0.0012768

*RES
1 *297:4 *297:5 6.08831978
2 *869:A2 *297:3 3.14654
3 *799:B *297:3 4.38369
4 *937:ZN *297:4 2.27829
5 *297:3 *297:5 5.64667
*END

*D_NET *298 0.00225248

*CONN
*I *908:ZN O *C 39.9 54.8 *L 0 *D CKND2D0
*I *869:A1 I *C 32.1 58.6 *L 0.000617 *D CKND2D0
*I *799:A2 I *C 33.3 58.8 *L 0.000712 *D IOA21D0

*CAP
1 *908:ZN 0.000706181
2 *298:3 0.000976093984
3 *298:4 0.000570211

*RES
1 *869:A1 *298:4 4.44639
2 *799:A2 *298:4 3.2548
3 *298:3 *298:4 8.60801029
4 *908:ZN *298:3 6.18832
*END

*D_NET *299 0.00231947

*CONN
*I *960:B I *C 44.7 62.4 *L 0.000669 *D IOA21D0
*I *940:ZN O *C 46.1 54 *L 0 *D CKND2D0
*I *868:A2 I *C 45.7 62.4 *L 0.000606 *D CKND2D0

*CAP
1 *960:B 0.000412214
2 *940:ZN 0.000326394
3 *299:3 0.000299951
4 *299:4 0.0010152
5 *299:5 0.000265716

*RES
1 *299:4 *299:5 5.00729
2 *868:A2 *299:3 3.22459
3 *299:3 *299:5 3.93263
4 *940:ZN *299:4 8.01968956
5 *960:B *299:3 4.5019
*END

*D_NET *300 0.00260016

*CONN
*I *960:A2 I *C 44.1 62.4 *L 0.000712 *D IOA21D0
*I *923:ZN O *C 48.3 54 *L 0 *D CKND2D0
*I *868:A1 I *C 45.3 62.2 *L 0.000617 *D CKND2D0

*CAP
1 *960:A2 2.37247e-05
2 *923:ZN 0.00114576008
3 *868:A1 0.000126421
4 *300:3 0.000886502
5 *300:4 0.000417743

*RES
1 *868:A1 *300:4 4.2007
2 *300:3 *300:4 1.9489
3 *960:A2 *300:4 3.30041
4 *923:ZN *300:3 14.1084003
*END

*D_NET *301 0.00124666

*CONN
*I *938:ZN O *C 62.3 54.8 *L 0 *D CKND2D0
*I *867:A2 I *C 60.1 57.2 *L 0.000606 *D CKND2D0
*I *800:B I *C 61.3 57.2 *L 0.000669 *D IOA21D0

*CAP
1 *301:3 0.000118957
2 *301:4 0.00112771

*RES
1 *938:ZN *301:4 5.86042976
2 *301:3 *301:4 4.39738
3 *800:B *301:4 1.49998
4 *867:A2 *301:3 2.99996
*END

*D_NET *302 0.00128577

*CONN
*I *922:ZN O *C 60.7 54 *L 0 *D CKND2D0
*I *867:A1 I *C 59.7 57.4 *L 0.000617 *D CKND2D0
*I *800:A2 I *C 60.7 57.2 *L 0.000712 *D IOA21D0

*CAP
1 *922:ZN 0.000547047031
2 *867:A1 0.000208577
3 *302:3 0.000530144

*RES
1 *867:A1 *302:3 7.47136021
2 *922:ZN *302:3 6.25733
3 *800:A2 *302:3 1.49995
*END

*D_NET *303 0.00177035

*CONN
*I *947:ZN O *C 64.1 50.4 *L 0 *D CKND2D0
*I *866:A2 I *C 62.3 57.2 *L 0.000606 *D CKND2D0
*I *784:B I *C 63.9 57.2 *L 0.000669 *D IOA21D0

*CAP
1 *947:ZN 0.000360383
2 *866:A2 0.000445783
3 *303:3 0.000785058984
4 *303:4 0.000179113

*RES
1 *303:3 *303:4 4.9941
2 *947:ZN *303:3 5.17286
3 *866:A2 *303:4 7.52415991
4 *784:B *303:4 1.49999
*END

*D_NET *304 0.00311505

*CONN
*I *921:ZN O *C 62.5 43.2 *L 0 *D CKND2D0
*I *866:A1 I *C 61.9 57.4 *L 0.000617 *D CKND2D0
*I *784:A2 I *C 63.3 57.2 *L 0.000712 *D IOA21D0

*CAP
1 *921:ZN 0.000898889
2 *866:A1 0.00014276
3 *304:3 0.00102249
4 *304:4 0.000617972
5 *304:5 0.00010505
6 *304:6 0.00032788

*RES
1 *304:5 *304:6 3.24882
2 *304:4 *304:5 4.38151
3 *866:A1 *304:6 4.49997
4 *304:3 *304:4 3.48499
5 *921:ZN *304:3 9.61933994
6 *784:A2 *304:5 1.49994
*END

*D_NET *305 0.00125449

*CONN
*I *862:ZN O *C 49.1 71 *L 0 *D AOI32D0
*I *694:A2 I *C 51.3 69.6 *L 0.000705 *D OAI22D0

*CAP
1 *305:2 4.39039e-05
2 *305:3 0.000637545
3 *305:4 0.000573037

*RES
1 *305:2 *305:4 5.45547009
2 *305:2 *305:3 5.39687
3 *862:ZN *305:4 1.49997
4 *694:A2 *305:3 3.00003
*END

*D_NET *306 0.000743102

*CONN
*I *891:ZN O *C 55.7 56.6 *L 0 *D INR2D0
*I *861:I I *C 55.7 61 *L 0.00062 *D CKND0
*I *835:A2 I *C 56.1 60.8 *L 0.000664 *D NR2D0

*CAP
1 *891:ZN 0.000196446
2 *861:I 0.000541315977
3 *835:A2 5.33593e-06

*RES
1 *861:I *891:ZN 7.33557987
2 *861:I *835:A2 0.579136
*END

*D_NET *307 0.000446231

*CONN
*I *861:ZN O *C 55.3 61 *L 0 *D CKND0
*I *844:A2 I *C 55.1 62.4 *L 0.000664 *D NR2D0

*CAP
1 *861:ZN 0.000439361016
2 *844:A2 6.87182e-06

*RES
1 *861:ZN *844:A2 5.03088
*END

*D_NET *308 0.000622975

*CONN
*I *893:ZN O *C 27.7 56.6 *L 0 *D INR2D0
*I *860:I I *C 27.5 61 *L 0.00062 *D CKND0
*I *834:A2 I *C 27.7 58.8 *L 0.000664 *D NR2D0

*CAP
1 *893:ZN 4.79821e-05
2 *860:I 0.000148849
3 *308:3 0.000426143008

*RES
1 *893:ZN *308:3 5.0021801
2 *860:I *308:3 3.90879
3 *834:A2 *308:3 1.49998
*END

*D_NET *309 8.3935e-05

*CONN
*I *860:ZN O *C 27.9 61 *L 0 *D CKND0
*I *845:A2 I *C 28.7 60.8 *L 0.000664 *D NR2D0

*CAP
1 *860:ZN 8.3935e-05

*RES
1 *860:ZN *845:A2 0.987942
*END

*D_NET *310 0.00063729

*CONN
*I *1004:A2 I *C 32.1 66 *L 0.000585 *D CKAN2D0
*I *890:ZN O *C 33.3 63.8 *L 0 *D INR2D0
*I *848:A1 I *C 33.5 66 *L 0.000647 *D NR2D0

*CAP
1 *1004:A2 0.000338458008
2 *890:ZN 0.000163148
3 *310:3 0.000135683

*RES
1 *890:ZN *310:3 4.00452
2 *848:A1 *310:3 1.85851
3 *1004:A2 *310:3 5.08663988
*END

*D_NET *311 0.00256721

*CONN
*I *958:ZN O *C 28.7 28.6 *L 0 *D CKND0
*I *864:A2 I *C 39.3 30 *L 0.000606 *D CKND2D0
*I *855:B1 I *C 40.9 28.4 *L 0.000698 *D IND3D0
*I *846:A2 I *C 40.5 30 *L 0.000657 *D OA21D0

*CAP
1 *958:ZN 0.000149783
2 *855:B1 0.000253646
3 *311:4 0.000246759
4 *311:5 0.000837331016
5 *311:6 0.000146039
6 *311:7 0.000542147
7 *311:8 0.000391496

*RES
1 *311:6 *311:7 4.06581
2 *311:4 *311:8 2.66862
3 *864:A2 *311:8 3.87478
4 *311:6 *311:8 1.13858
5 *311:5 *311:7 8.43618011
6 *855:B1 *311:4 2.8097
7 *846:A2 *311:4 2.67145
8 *958:ZN *311:5 1.88944
*END

*D_NET *312 0.00105832

*CONN
*I *871:ZN O *C 31.1 63 *L 0 *D OAI21D0
*I *854:I I *C 29.1 58.6 *L 0.00062 *D CKND0
*I *845:A1 I *C 29.1 60.8 *L 0.000647 *D NR2D0

*CAP
1 *871:ZN 0.000105453
2 *854:I 0.000288995
3 *312:3 0.00040198
4 *312:4 0.000261896

*RES
1 *312:3 *312:4 4.02474
2 *871:ZN *312:4 4.55812979
3 *854:I *312:3 3.5127
4 *845:A1 *312:3 2.99997
*END

*D_NET *313 0.00262199

*CONN
*I *895:ZN O *C 45.9 67.6 *L 0 *D ND3D0
*I *858:A1 I *C 39.9 62.4 *L 0.000647 *D NR2D0
*I *853:A1 I *C 41.5 60.8 *L 0.000647 *D NR2D0
*I *736:A2 I *C 42.7 62.4 *L 0.000712 *D IOA21D0

*CAP
1 *858:A1 0.000404171
2 *853:A1 0.000397609
3 *736:A2 0.00014934
4 *313:4 0.000523145039
5 *313:5 0.000515027
6 *313:6 0.000229646
7 *313:7 0.000403046

*RES
1 *313:6 *313:7 1.19953
2 *858:A1 *313:6 6.62255
3 *313:5 *313:7 2.63027
4 *313:4 *313:5 4.62922
5 *895:ZN *313:4 4.67754
6 *853:A1 *313:6 7.22937012
7 *736:A2 *313:7 3.25485
*END

*D_NET *314 0.00113642

*CONN
*I *863:ZN O *C 55.1 59.4 *L 0 *D OAI21D0
*I *852:I I *C 57.3 61 *L 0.00062 *D CKND0
*I *844:A1 I *C 55.5 62.4 *L 0.000647 *D NR2D0

*CAP
1 *863:ZN 0.000429771016
2 *852:I 0.00015013
3 *844:A1 2.28346e-05
4 *314:3 0.000276821
5 *314:4 0.000256853

*RES
1 *852:I *314:4 5.14244986
2 *844:A1 *314:3 2.74401
3 *863:ZN *314:3 4.42447
4 *314:3 *314:4 1.49999
*END

*D_NET *315 0.00163196

*CONN
*I *967:A1 I *C 27.7 40.8 *L 0.0013 *D CKXOR2D0
*I *916:ZN O *C 30.3 37.6 *L 0 *D ND3D0
*I *872:A1 I *C 31.9 40.8 *L 0.000681 *D IND2D0

*CAP
1 *967:A1 0.000467421
2 *872:A1 0.000150263
3 *315:3 0.000685565
4 *315:4 0.000328707

*RES
1 *967:A1 *315:4 6.8863802
2 *315:3 *315:4 6.08117
3 *872:A1 *315:4 5.37053
4 *916:ZN *315:3 1.49999
*END

*D_NET *316 0.00149174

*CONN
*I *952:ZN O *C 54.7 57.6 *L 0 *D CKND2D0
*I *873:A2 I *C 51.7 60.8 *L 0.00104 *D AN2XD1
*I *863:A2 I *C 54.5 58.8 *L 0.000651 *D OAI21D0
*I *851:B1 I *C 54.7 60.8 *L 0.000651 *D INR2D0
*I *850:A1 I *C 52.7 60.8 *L 0.00069 *D INR2D0

*CAP
1 *952:ZN 0.000276698
2 *873:A2 0.000313245
3 *316:5 0.000183299
4 *316:6 0.00016865
5 *316:7 0.000549845977

*RES
1 *316:5 *316:7 5.61327982
2 *851:B1 *316:5 3.61425
3 *316:5 *316:6 1.16829
4 *873:A2 *316:7 5.14194
5 *952:ZN *316:6 3.08818
6 *850:A1 *316:7 1.50002
7 *863:A2 *316:6 1.50002
*END

*D_NET *317 0.000697401

*CONN
*I *892:ZN O *C 53.3 58.4 *L 0 *D IND2D0
*I *851:A1 I *C 54.1 60.8 *L 0.00069 *D INR2D0
*I *850:B1 I *C 53.3 60.8 *L 0.000651 *D INR2D0

*CAP
1 *892:ZN 0.000332329
2 *317:4 0.000365073008

*RES
1 *892:ZN *317:3 4.84325981
2 *851:A1 *317:4 4.01969
3 *850:B1 *317:3 2.99999
4 *317:3 *317:4 1.49999
*END

*D_NET *318 0.000795579

*CONN
*I *851:ZN O *C 54.7 60.2 *L 0 *D INR2D0
*I *836:A2 I *C 53.3 62.4 *L 0.00105 *D OR2XD1

*CAP
1 *318:2 0.000795578984

*RES
1 *851:ZN *318:2 4.67851
2 *836:A2 *318:2 5.03938007
*END

*D_NET *319 0.000609279

*CONN
*I *850:ZN O *C 53.3 60.2 *L 0 *D INR2D0
*I *836:A1 I *C 52.9 62.2 *L 0.000964 *D OR2XD1

*CAP
1 *850:ZN 0.000274451
2 *319:2 0.000334831016

*RES
1 *836:A1 *319:2 3
2 *850:ZN *319:2 4.9330802
*END

*D_NET *320 0.0015663

*CONN
*I *894:ZN O *C 38.7 29.6 *L 0 *D AOI21D0
*I *849:A2 I *C 40.5 32 *L 0.000664 *D NR2D0
*I *826:B2 I *C 41.1 33.4 *L 0.000881 *D AOI221D0

*CAP
1 *894:ZN 0.00032759
2 *849:A2 0.000137692
3 *826:B2 5.99884e-05
4 *320:3 0.000240344
5 *320:4 0.00080068

*RES
1 *894:ZN *320:4 5.094
2 *826:B2 *320:3 3.21617
3 *320:3 *320:4 7.66286993
4 *849:A2 *320:4 3.22529
*END

*D_NET *321 0.000575629

*CONN
*I *849:ZN O *C 40.9 32.2 *L 0 *D NR2D0
*I *826:C I *C 40.5 33.4 *L 0.000701 *D AOI221D0

*CAP
1 *826:C 0.000575628984

*RES
1 *826:C *849:ZN 6.07479
*END

*D_NET *322 0.00217555

*CONN
*I *1004:A1 I *C 31.9 66 *L 0.000556 *D CKAN2D0
*I *951:ZN O *C 37.9 64.8 *L 0 *D CKND2D0
*I *871:A2 I *C 31.7 62.4 *L 0.000651 *D OAI21D0
*I *859:A2 I *C 36.1 66 *L 0.00104 *D AN2XD1
*I *848:A2 I *C 33.9 66 *L 0.000664 *D NR2D0

*CAP
1 *951:ZN 0.00034007
2 *871:A2 0.000568546992
3 *859:A2 7.40104e-05
4 *848:A2 8.42996e-05
5 *322:5 0.000421732
6 *322:6 0.00029782
7 *322:7 0.000389069

*RES
1 *322:6 *322:7 2.87378
2 *951:ZN *322:6 8.00681019
3 *871:A2 *322:5 5.27267
4 *322:5 *322:7 4.39595
5 *859:A2 *322:6 2.99999
6 *848:A2 *322:7 2.99999
7 *1004:A1 *322:5 2.99999
*END

*D_NET *323 0.00065373

*CONN
*I *848:ZN O *C 33.5 65.8 *L 0 *D NR2D0
*I *823:A2 I *C 32.7 68 *L 0.00105 *D OR2XD1

*CAP
1 *848:ZN 0.000400953008
2 *823:A2 0.000252778

*RES
1 *823:A2 *848:ZN 6.8329
*END

*D_NET *324 0.00171475

*CONN
*I *917:ZN O *C 37.5 28.8 *L 0 *D NR3D0
*I *864:A1 I *C 39.7 29.8 *L 0.000617 *D CKND2D0
*I *855:B2 I *C 40.5 28.4 *L 0.000657 *D IND3D0
*I *847:B I *C 39.9 28.4 *L 0.00072 *D AOI21D0
*I *846:A1 I *C 40.9 30 *L 0.000705 *D OA21D0

*CAP
1 *864:A1 4.07034e-06
2 *846:A1 0.000499204
3 *324:5 0.000213448
4 *324:6 0.000288029
5 *324:7 0.000143225
6 *324:8 0.000510038008
7 *324:9 5.67357e-05

*RES
1 *324:6 *324:7 1.66654
2 *846:A1 *324:6 6.33406019
3 *324:8 *324:9 4.57232
4 *855:B2 *324:5 2.37199
5 *864:A1 *324:6 1.66915
6 *324:5 *324:7 0.588986
7 *917:ZN *324:8 3.00002
8 *847:B *324:7 3.00002
9 *324:5 *324:9 1.50001
*END

*D_NET *325 0.00136945

*CONN
*I *847:ZN O *C 39.9 28.8 *L 0 *D AOI21D0
*I *828:S I *C 42.9 33.6 *L 0.00146 *D MUX2ND0

*CAP
1 *847:ZN 0.000539057
2 *828:S 0.000117003
3 *325:2 0.000607976992
4 *325:3 2.19683e-05
5 *325:4 8.34385e-05

*RES
1 *847:ZN *325:2 7.8403101
2 *828:S *325:3 4.50002
3 *325:2 *325:4 6.76409
4 *325:3 *325:4 1.49997
*END

*D_NET *326 0.00107197

*CONN
*I *864:ZN O *C 39.9 29.6 *L 0 *D CKND2D0
*I *846:B I *C 41.1 30 *L 0.000732 *D OA21D0
*I *827:A1 I *C 42.3 28.4 *L 0.00069 *D AOI21D0

*CAP
1 *827:A1 0.000114625
2 *326:3 0.000521480039
3 *326:4 0.000435876

*RES
1 *326:3 *326:4 4.52952
2 *827:A1 *326:3 6.3015399
3 *864:ZN *326:4 3
4 *846:B *326:3 3
*END

*D_NET *327 0.000548217

*CONN
*I *845:ZN O *C 29.1 61 *L 0 *D NR2D0
*I *817:A1 I *C 28.7 62.2 *L 0.000964 *D OR2XD1

*CAP
1 *817:A1 5.14468e-05
2 *327:2 0.000496768008

*RES
1 *817:A1 *327:2 0.738822
2 *845:ZN *327:2 5.38232994
*END

*D_NET *328 6.4091e-05

*CONN
*I *844:ZN O *C 55.5 62.2 *L 0 *D NR2D0
*I *818:A1 I *C 56.5 62.2 *L 0.000964 *D OR2XD1

*CAP
1 *844:ZN 6.40909961e-05

*RES
1 *844:ZN *818:A1 1.00958
*END

*D_NET *329 0.00141884

*CONN
*I *853:ZN O *C 41.5 61 *L 0 *D NR2D0
*I *843:I I *C 41.7 53.8 *L 0.00062 *D CKND0
*I *702:B1 I *C 41.1 62.2 *L 0.000863 *D AO22D0

*CAP
1 *843:I 0.000983932969
2 *702:B1 3.82853e-05
3 *329:3 0.000396606

*RES
1 *843:I *329:3 9.08323002
2 *702:B1 *329:3 3.28383
3 *853:ZN *329:3 1.50006
*END

*D_NET *330 0.00109877

*CONN
*I *843:ZN O *C 42.1 53.8 *L 0 *D CKND0
*I *814:B1 I *C 42.1 46.4 *L 0.000663 *D AOI22D0

*CAP
1 *814:B1 0.00108224
2 *330:2 1.65304e-05

*RES
1 *814:B1 *330:2 10.3065004
2 *843:ZN *330:2 1.49999
*END

*D_NET *331 0.000227917

*CONN
*I *842:ZN O *C 43.1 28.6 *L 0 *D CKND0
*I *827:B I *C 42.5 28.4 *L 0.00072 *D AOI21D0

*CAP
1 *827:B 0.000227916992

*RES
1 *842:ZN *827:B 5.14708
*END

*D_NET *332 0.00150463

*CONN
*I *932:ZN O *C 36.3 46.6 *L 0 *D NR2D0
*I *882:B I *C 37.7 46.4 *L 0.00072 *D AOI21D0
*I *841:A2 I *C 40.3 48 *L 0.000606 *D CKND2D0
*I *796:A2 I *C 39.3 48 *L 0.000712 *D IAO21D0

*CAP
1 *932:ZN 0.000406939
2 *841:A2 0.000101553
3 *332:4 0.000553546016
4 *332:5 0.0004426

*RES
1 *841:A2 *332:4 5.77628
2 *332:4 *332:5 6.35691023
3 *932:ZN *332:5 4.09238
4 *882:B *332:5 2.99998
5 *796:A2 *332:4 1.49999
*END

*D_NET *333 0.00114339

*CONN
*I *884:ZN O *C 40.7 51.2 *L 0 *D AOI21D0
*I *841:A1 I *C 40.7 47.8 *L 0.000617 *D CKND2D0
*I *796:A1 I *C 39.7 48 *L 0.000675 *D IAO21D0

*CAP
1 *884:ZN 0.000284467
2 *841:A1 6.37745e-06
3 *796:A1 0.000210534
4 *333:3 0.000642005977

*RES
1 *884:ZN *333:3 6.05238008
2 *796:A1 *333:3 2.3354
3 *841:A1 *333:3 2.36033
*END

*D_NET *334 0.000408248

*CONN
*I *841:ZN O *C 40.9 47.6 *L 0 *D CKND2D0
*I *810:C I *C 40.5 50 *L 0.000698 *D OAI211D0

*CAP
1 *841:ZN 0.000408248008

*RES
1 *841:ZN *810:C 6.45043
*END

*D_NET *335 0.00163309

*CONN
*I *878:ZN O *C 37.1 47.6 *L 0 *D AOI21D0
*I *840:A1 I *C 39.5 53.6 *L 0.000647 *D NR2D0
*I *774:A1 I *C 39.3 51.6 *L 0.000645 *D AOI211D0

*CAP
1 *335:3 0.000546905
2 *335:4 0.000202849
3 *335:5 0.000325191
4 *335:6 0.000558138008

*RES
1 *335:5 *335:6 4.84685993
2 *335:4 *335:6 3
3 *335:3 *335:5 4.12385
4 *840:A1 *335:3 3.60453
5 *878:ZN *335:4 1.5
6 *774:A1 *335:3 1.5
*END

*D_NET *336 0.00080085

*CONN
*I *840:ZN O *C 39.5 53.8 *L 0 *D NR2D0
*I *774:C I *C 38.3 51.6 *L 0.000686 *D AOI211D0

*CAP
1 *774:C 0.000210675
2 *336:2 0.000590175977

*RES
1 *774:C *336:2 2.50519
2 *840:ZN *336:2 6.82121992
*END

*D_NET *337 0.00143014

*CONN
*I *913:ZN O *C 58.3 39.4 *L 0 *D NR2D0
*I *879:B I *C 56.9 39.2 *L 0.00072 *D AOI21D0
*I *837:A2 I *C 55.1 39.2 *L 0.000728 *D AOI22D0
*I *809:A1 I *C 56.1 37.2 *L 0.000711 *D OA211D0

*CAP
1 *913:ZN 0.000134317
2 *837:A2 9.79043e-05
3 *809:A1 0.000244825
4 *337:4 0.000527471016
5 *337:5 0.000425623

*RES
1 *337:4 *337:5 0.801395
2 *879:B *337:5 5.14486
3 *837:A2 *337:4 6.6683898
4 *913:ZN *337:5 4.59144
5 *809:A1 *337:4 6.00548
*END

*D_NET *338 0.000776673

*CONN
*I *876:ZN O *C 57.1 36.8 *L 0 *D AOI21D0
*I *837:A1 I *C 55.5 39.2 *L 0.000665 *D AOI22D0
*I *809:A2 I *C 56.5 37.2 *L 0.000642 *D OA211D0

*CAP
1 *876:ZN 2.26565e-06
2 *837:A1 0.000163378
3 *809:A2 0.000611025977

*RES
1 *809:A2 *837:A1 6.93603992
2 *809:A2 *876:ZN 0.269669
*END

*D_NET *339 0.000376137

*CONN
*I *837:ZN O *C 54.5 39.6 *L 0 *D AOI22D0
*I *809:B I *C 55.9 37.2 *L 0.000735 *D OA211D0

*CAP
1 *837:ZN 8.39317e-05
2 *809:B 0.000292205

*RES
1 *837:ZN *809:B 7.93068
*END

*D_NET *340 0.00094251

*CONN
*I *852:ZN O *C 57.7 61 *L 0 *D CKND0
*I *835:A1 I *C 56.5 60.8 *L 0.000647 *D NR2D0
*I *825:A1 I *C 57.9 57.2 *L 0.0007 *D OAI21D0

*CAP
1 *835:A1 0.000209066
2 *825:A1 0.000632816953
3 *340:3 0.000100627

*RES
1 *852:ZN *340:3 1.66379
2 *825:A1 *340:3 7.11502981
3 *835:A1 *340:3 4.39815
*END

*D_NET *341 0.000398374

*CONN
*I *835:ZN O *C 56.5 61 *L 0 *D NR2D0
*I *818:A2 I *C 56.9 62.4 *L 0.00105 *D OR2XD1

*CAP
1 *835:ZN 0.000398373984

*RES
1 *835:ZN *818:A2 4.56833
*END

*D_NET *342 0.000668688

*CONN
*I *854:ZN O *C 28.7 58.6 *L 0 *D CKND0
*I *834:A1 I *C 28.1 58.8 *L 0.000647 *D NR2D0
*I *824:A1 I *C 29.3 57.2 *L 0.0007 *D OAI21D0

*CAP
1 *834:A1 0.000105525
2 *824:A1 0.000179073
3 *342:3 0.000384092969

*RES
1 *824:A1 *342:3 8.71243954
2 *834:A1 *342:3 3.72182
3 *854:ZN *342:3 1.49998
*END

*D_NET *343 0.000512645

*CONN
*I *834:ZN O *C 28.1 58.6 *L 0 *D NR2D0
*I *817:A2 I *C 28.3 62.4 *L 0.00105 *D OR2XD1

*CAP
1 *343:2 0.000512645

*RES
1 *817:A2 *343:2 4.76771021
2 *834:ZN *343:2 1.50002
*END

*D_NET *344 0.00119482

*CONN
*I *855:ZN O *C 41.1 28.8 *L 0 *D IND3D0
*I *842:I I *C 43.5 28.6 *L 0.00062 *D CKND0
*I *833:A1 I *C 44.1 28.4 *L 0.000647 *D NR2D0
*I *815:A1 I *C 45.5 28.4 *L 0.00069 *D AOI21D0

*CAP
1 *833:A1 0.000138038
2 *815:A1 0.000169056
3 *344:4 0.00012273
4 *344:5 0.000505411016
5 *344:6 0.000259589

*RES
1 *815:A1 *344:6 6.95744991
2 *344:5 *344:6 4.39406
3 *833:A1 *344:4 2.36317
4 *855:ZN *344:5 1.49997
5 *842:I *344:4 1.49997
6 *344:4 *344:6 1.49997
*END

*D_NET *345 0.000860849

*CONN
*I *965:A1 I *C 36.9 32 *L 0.00136 *D XNR2D0
*I *881:ZN O *C 38.1 33.2 *L 0 *D AOI21D0

*CAP
1 *881:ZN 0.000277649
2 *345:2 0.000583196992

*RES
1 *881:ZN *345:2 7.96249008
2 *965:A1 *345:2 1.50001
*END

*D_NET *346 0.00180261

*CONN
*I *914:ZN O *C 42.7 51.4 *L 0 *D NR2D0
*I *884:B I *C 40.7 51.6 *L 0.00072 *D AOI21D0
*I *832:B2 I *C 39.3 50 *L 0.000718 *D AOI22D0
*I *810:A1 I *C 41.1 50 *L 0.000711 *D OAI211D0

*CAP
1 *914:ZN 4.96334e-05
2 *884:B 0.000184939
3 *832:B2 0.000438628
4 *346:4 0.000333924
5 *346:5 0.000795481016

*RES
1 *832:B2 *346:5 7.10944
2 *346:4 *346:5 1.75488
3 *914:ZN *346:5 7.44049978
4 *884:B *346:4 6.20254
5 *810:A1 *346:4 3
*END

*D_NET *347 0.000968058

*CONN
*I *875:ZN O *C 42.3 47.6 *L 0 *D AOI21D0
*I *832:B1 I *C 39.7 50 *L 0.000663 *D AOI22D0
*I *810:A2 I *C 41.5 50 *L 0.00065 *D OAI211D0

*CAP
1 *875:ZN 0.000320069
2 *347:3 8.61364e-05
3 *347:4 0.000561854023

*RES
1 *347:3 *347:4 5.29429007
2 *875:ZN *347:3 4.03236
3 *832:B1 *347:4 1.50001
4 *810:A2 *347:3 1.50001
*END

*D_NET *348 0.00143392

*CONN
*I *928:ZN O *C 35.5 47.8 *L 0 *D NR2D0
*I *878:B I *C 37.1 48 *L 0.00072 *D AOI21D0
*I *832:A2 I *C 39.1 50 *L 0.000728 *D AOI22D0
*I *786:A2 I *C 37.3 50 *L 0.000758 *D OAI221D0

*CAP
1 *928:ZN 0.00040534
2 *878:B 0.00022995
3 *832:A2 0.000233571
4 *786:A2 4.67894e-06
5 *348:4 0.000142631
6 *348:5 0.000417757969

*RES
1 *348:4 *348:5 1.76492
2 *928:ZN *348:5 5.33139
3 *832:A2 *348:5 7.95062017
4 *786:A2 *348:4 3.63271
5 *878:B *348:4 5.19794
*END

*D_NET *349 0.00112664

*CONN
*I *882:ZN O *C 37.7 46.8 *L 0 *D AOI21D0
*I *832:A1 I *C 38.7 50 *L 0.000665 *D AOI22D0
*I *786:A1 I *C 36.7 50 *L 0.00067 *D OAI221D0

*CAP
1 *832:A1 7.83042e-05
2 *786:A1 0.000376211
3 *349:3 0.000471486992
4 *349:4 0.000200631

*RES
1 *832:A1 *349:4 3.58429
2 *786:A1 *349:4 6.13651991
3 *349:3 *349:4 4.61541
4 *882:ZN *349:3 1.50005
*END

*D_NET *350 0.000588793

*CONN
*I *832:ZN O *C 39.7 50.4 *L 0 *D AOI22D0
*I *810:B I *C 40.9 50 *L 0.000726 *D OAI211D0

*CAP
1 *832:ZN 0.000127756
2 *810:B 0.00046104

*RES
1 *810:B *832:ZN 10.0196
*END

*D_NET *351 0.0013211

*CONN
*I *877:ZN O *C 51.9 44 *L 0 *D AOI21D0
*I *831:B1 I *C 54.1 44.4 *L 0.000675 *D OAI22D0
*I *781:A1 I *C 54.5 42.8 *L 0.000675 *D AOI221D0

*CAP
1 *781:A1 0.000383601
2 *351:3 0.000372607
3 *351:4 0.000449461992
4 *351:5 0.000115426

*RES
1 *351:3 *351:5 2.92968
2 *781:A1 *351:5 5.15364981
3 *351:3 *351:4 4.99857
4 *877:ZN *351:4 1.50003
5 *831:B1 *351:3 1.50003
*END

*D_NET *352 0.00137669

*CONN
*I *927:ZN O *C 55.9 46.6 *L 0 *D NR2D0
*I *886:B I *C 54.5 46.4 *L 0.000718 *D AO21D0
*I *831:A2 I *C 54.7 44.4 *L 0.000705 *D OAI22D0
*I *813:A2 I *C 56.9 44.6 *L 0.000727 *D AOI221D0

*CAP
1 *927:ZN 6.57874e-05
2 *886:B 9.8245e-05
3 *831:A2 0.0004316
4 *813:A2 0.00019084
5 *352:4 0.000524435
6 *352:5 6.57794e-05

*RES
1 *831:A2 *352:5 5.90833
2 *352:4 *352:5 0.645987
3 *813:A2 *352:4 6.98604012
4 *886:B *352:5 3.9369
5 *927:ZN *352:4 2.02665
*END

*D_NET *353 0.00109824

*CONN
*I *883:ZN O *C 58.9 43.2 *L 0 *D AOI21D0
*I *831:A1 I *C 55.1 44.4 *L 0.000672 *D OAI22D0
*I *813:A1 I *C 57.5 44.4 *L 0.000675 *D AOI221D0

*CAP
1 *883:ZN 0.000303749
2 *353:3 0.000447964023
3 *353:4 0.000346525

*RES
1 *883:ZN *353:4 5.73016024
2 *353:3 *353:4 4.08332
3 *813:A1 *353:4 4.75482
4 *831:A1 *353:3 1.50004
*END

*D_NET *354 9.9126e-05

*CONN
*I *831:ZN O *C 54.9 44.2 *L 0 *D OAI22D0
*I *813:C I *C 56.3 44.2 *L 0.000701 *D AOI221D0

*CAP
1 *831:ZN 9.91260059e-05

*RES
1 *831:ZN *813:C 1.22497
*END

*D_NET *355 0.00149097

*CONN
*I *901:ZN O *C 45.9 47.8 *L 0 *D CKND0
*I *830:B1 I *C 44.9 46.4 *L 0.000689 *D MOAI22D0
*I *769:A2 I *C 41.9 46.4 *L 0.00065 *D OAI211D0

*CAP
1 *901:ZN 0.000103218
2 *355:3 0.000609258
3 *355:4 0.0007785

*RES
1 *355:3 *355:4 6.2126298
2 *769:A2 *355:4 5.27888
3 *901:ZN *355:3 4.76204
4 *830:B1 *355:3 3.00005
*END

*D_NET *356 0.00115343

*CONN
*I *915:ZN O *C 44.1 47.8 *L 0 *D NR2D0
*I *875:B I *C 42.3 48 *L 0.00072 *D AOI21D0
*I *830:A2 I *C 43.7 46.4 *L 0.000697 *D MOAI22D0
*I *814:A2 I *C 42.7 46.4 *L 0.000728 *D AOI22D0

*CAP
1 *875:B 0.000368522
2 *356:4 0.000414604023
3 *356:5 0.000370306

*RES
1 *875:B *356:5 5.7108798
2 *356:4 *356:5 4.27462
3 *915:ZN *356:4 4.67773
4 *814:A2 *356:5 1.49996
5 *830:A2 *356:4 3.00001
*END

*D_NET *357 0.00140981

*CONN
*I *885:ZN O *C 46.9 47.6 *L 0 *D AOI21D0
*I *830:A1 I *C 43.9 46.4 *L 0.000721 *D MOAI22D0
*I *814:A1 I *C 43.1 46.4 *L 0.000665 *D AOI22D0

*CAP
1 *814:A1 2.94192e-07
2 *357:3 0.000963993047
3 *357:4 0.000445524

*RES
1 *814:A1 *357:3 4.26607
2 *885:ZN *357:4 4.77083
3 *357:3 *357:4 5.87047005
4 *830:A1 *357:3 3
*END

*D_NET *358 0.00102682

*CONN
*I *830:ZN O *C 44.1 45.8 *L 0 *D MOAI22D0
*I *766:B1 I *C 47.1 44.4 *L 0.000894 *D INR3D0

*CAP
1 *766:B1 0.00024212
2 *358:2 0.000784695

*RES
1 *830:ZN *358:2 3.90999
2 *766:B1 *358:2 7.59379005
*END

*D_NET *359 0.00175402

*CONN
*I *911:ZN O *C 33.3 29.8 *L 0 *D NR2D0
*I *874:B I *C 32.3 30 *L 0.00072 *D AOI21D0
*I *829:B2 I *C 29.3 30 *L 0.000718 *D OAI22D0
*I *780:B2 I *C 32.5 33.4 *L 0.000881 *D AOI221D0

*CAP
1 *780:B2 0.000605873008
2 *359:4 0.000198445
3 *359:5 0.000552797
4 *359:6 0.000329197
5 *359:7 6.77106e-05

*RES
1 *359:5 *359:7 7.65390015
2 *911:ZN *359:6 7.40958
3 *359:4 *359:6 2.99997
4 *780:B2 *359:4 7.56829
5 *829:B2 *359:5 2.99997
6 *874:B *359:4 2.99997
7 *359:6 *359:7 1.50004
*END

*D_NET *360 0.0016799

*CONN
*I *865:ZN O *C 28.1 33.2 *L 0 *D AOI21D0
*I *829:B1 I *C 28.9 30 *L 0.000675 *D OAI22D0
*I *780:B1 I *C 32.7 33.4 *L 0.00072 *D AOI221D0

*CAP
1 *865:ZN 4.65813e-06
2 *829:B1 0.00065976
3 *780:B1 8.46932e-06
4 *360:3 0.000313227
5 *360:4 0.000693796016

*RES
1 *865:ZN *360:4 1.69466
2 *780:B1 *360:3 3.25484
3 *360:3 *360:4 8.97463989
4 *829:B1 *360:4 6.04243
*END

*D_NET *361 0.00172048

*CONN
*I *929:ZN O *C 29.1 33.4 *L 0 *D NR2D0
*I *870:B I *C 30.1 33.6 *L 0.00072 *D AOI21D0
*I *829:A2 I *C 29.5 30 *L 0.000705 *D OAI22D0
*I *812:A2 I *C 31.1 30.2 *L 0.000727 *D AOI221D0

*CAP
1 *929:ZN 9.03941e-05
2 *829:A2 7.71361e-05
3 *812:A2 0.0001345
4 *361:4 0.000538662
5 *361:5 0.000556608008
6 *361:6 0.000323187

*RES
1 *361:5 *361:6 2.3374
2 *361:4 *361:6 4.61239
3 *829:A2 *361:5 4.49995
4 *929:ZN *361:4 3.65182
5 *812:A2 *361:5 8.19692039
6 *870:B *361:4 5.13871
*END

*D_NET *362 0.000697679

*CONN
*I *874:ZN O *C 32.3 29.6 *L 0 *D AOI21D0
*I *829:A1 I *C 29.9 30 *L 0.000672 *D OAI22D0
*I *812:A1 I *C 30.5 30 *L 0.000675 *D AOI221D0

*CAP
1 *874:ZN 0.000137862
2 *829:A1 0.000156785
3 *362:3 0.000403033008

*RES
1 *874:ZN *362:3 6.38958979
2 *829:A1 *362:3 2.20032
3 *812:A1 *362:3 2.99999
*END

*D_NET *363 0.000601009

*CONN
*I *829:ZN O *C 29.7 29.8 *L 0 *D OAI22D0
*I *812:C I *C 31.7 29.8 *L 0.000701 *D AOI221D0

*CAP
1 *829:ZN 0.000480778984
2 *812:C 0.000120233

*RES
1 *812:C *829:ZN 11.0681
*END

*D_NET *364 0.00310825

*CONN
*I *964:I I *C 37.1 62.2 *L 0.00062 *D CKND0
*I *858:ZN O *C 39.9 62.2 *L 0 *D NR2D0
*I *839:A1 I *C 40.1 61 *L 0.000617 *D CKND2D0
*I *786:B2 I *C 37.5 50 *L 0.000747 *D OAI221D0

*CAP
1 *964:I 9.8916e-05
2 *858:ZN 2.66738e-05
3 *839:A1 0.000109683
4 *786:B2 0.000275851
5 *364:4 0.000309268
6 *364:5 0.000637043
7 *364:6 0.000185919
8 *364:7 0.00065275
9 *364:8 0.000395106
10 *364:9 0.000417029

*RES
1 *364:7 *364:8 2.33857
2 *839:A1 *364:4 2.00967
3 *364:5 *364:6 4.66859007
4 *858:ZN *364:4 2.51937
5 *364:5 *364:7 4.05909
6 *364:4 *364:9 4.5232
7 *786:B2 *364:8 2.89393
8 *964:I *364:6 2.8462
9 *364:6 *364:9 1.49997
*END

*D_NET *365 0.00116933

*CONN
*I *957:ZN O *C 44.9 33.4 *L 0 *D CKND0
*I *896:A2 I *C 45.5 33.6 *L 0.000664 *D NR2D0
*I *828:I0 I *C 43.1 33.6 *L 0.000706 *D MUX2ND0
*I *724:A2 I *C 48.1 33.6 *L 0.000709 *D AOI211D0

*CAP
1 *957:ZN 3.51048e-05
2 *724:A2 0.000393114
3 *365:4 0.000218484
4 *365:5 0.000522624023

*RES
1 *896:A2 *365:4 2.99995
2 *365:4 *365:5 1.23448
3 *957:ZN *365:5 3.99024
4 *724:A2 *365:4 7.84473991
5 *828:I0 *365:5 5.68485
*END

*D_NET *366 0.000495103

*CONN
*I *828:ZN O *C 43.5 33.4 *L 0 *D MUX2ND0
*I *801:C I *C 42.7 32 *L 0.000698 *D OAI211D0

*CAP
1 *801:C 0.000495103008

*RES
1 *801:C *828:ZN 5.20934
*END

*D_NET *367 0.00127481

*CONN
*I *827:ZN O *C 42.5 28.8 *L 0 *D AOI21D0
*I *802:S I *C 48.5 30 *L 0.00146 *D MUX2ND0

*CAP
1 *827:ZN 0.000100053
2 *367:2 0.000345918
3 *367:3 0.000828845

*RES
1 *367:2 *367:3 7.70205021
2 *802:S *367:2 4.49482
3 *827:ZN *367:3 4.69473
*END

*D_NET *368 0.00111941

*CONN
*I *826:ZN O *C 40.9 33.2 *L 0 *D AOI221D0
*I *801:B I *C 43.1 32 *L 0.000726 *D OAI211D0

*CAP
1 *826:ZN 0.000138962
2 *368:2 0.000890906953
3 *368:3 8.95325e-05

*RES
1 *826:ZN *368:2 4.32754
2 *368:2 *368:3 5.06889009
3 *801:B *368:3 4.50002
*END

*D_NET *369 0.00068548

*CONN
*I *822:Z O *C 37.3 40.4 *L 0 *D OA32D0
*I *703:B2 I *C 38.7 40.8 *L 0.000718 *D OAI22D0

*CAP
1 *822:Z 7.48358e-05
2 *703:B2 0.000151612
3 *369:2 0.000459038008

*RES
1 *822:Z *369:2 5.38114977
2 *703:B2 *369:2 4.50003
*END

*D_NET *370 0.00070872

*CONN
*I *821:CO O *C 27.7 47.6 *L 0 *D FA1D0
*I *782:CI I *C 28.7 51.4 *L 0.001 *D FA1D0

*CAP
1 *821:CO 0.00070872

*RES
1 *821:CO *782:CI 7.52111
*END

*D_NET *371 0.00584825

*CONN
*I *566:I I *C 57.1 28.4 *L 0.00104 *D DEL0
*I *821:S O *C 28.3 47.8 *L 0 *D FA1D0

*CAP
1 *371:2 0.00220369
2 *371:3 0.000211475
3 *371:4 0.000303947
4 *371:5 0.000404455
5 *371:7 0.00128052
6 *371:8 0.000224858
7 *371:7 *160:5 0.000271171992
8 *371:2 *159 0.000748665
9 *371:2 *146:8 0.000199491992

*RES
1 *371:6 *371:7 0.256685
2 *371:4 *371:5 8.1538
3 *371:3 *371:2 22.5195999
4 *566:I *371:3 4.36297
5 *371:7 *371:8 13.0143
6 *371:2 *371:6 8.1026
7 *371:5 *371:8 4.69353
8 *821:S *371:4 1.49991
*END

*D_NET *372 0.000789893

*CONN
*I *820:CO O *C 54.1 47.6 *L 0 *D FA1D0
*I *783:CI I *C 57.1 47.8 *L 0.001 *D FA1D0

*CAP
1 *820:CO 0.000608776992
2 *783:CI 0.000181114

*RES
1 *820:CO *783:CI 10.0477
*END

*D_NET *373 0.00434975

*CONN
*I *575:I I *C 56.9 71.6 *L 0.00104 *D DEL0
*I *820:S O *C 53.5 47.8 *L 0 *D FA1D0

*CAP
1 *820:S 0.000310753
2 *373:2 0.000744714
3 *373:3 0.000404145
4 *373:4 0.000179454
5 *373:5 0.00217345
6 *373:6 0.000537235

*RES
1 *373:5 *373:6 17.6784992
2 *373:2 *373:3 2.48388
3 *373:4 *373:6 5.65212
4 *373:2 *373:5 5.59736
5 *575:I *373:4 4.69477
6 *820:S *373:3 3.27695
*END

*D_NET *374 0.000965493

*CONN
*I *833:ZN O *C 44.1 28.6 *L 0 *D NR2D0
*I *815:B I *C 45.7 28.4 *L 0.00072 *D AOI21D0
*I *808:A1 I *C 48.1 28.4 *L 0.00069 *D XNR3D0

*CAP
1 *833:ZN 0.000325166
2 *374:3 0.000552910977
3 *374:4 8.74145e-05

*RES
1 *374:3 *374:4 3.95917
2 *808:A1 *374:4 3
3 *833:ZN *374:3 4.16014004
4 *815:B *374:3 3
*END

*D_NET *375 0.000865841

*CONN
*I *814:ZN O *C 42.1 46.8 *L 0 *D AOI22D0
*I *769:C I *C 40.9 46.4 *L 0.000698 *D OAI211D0

*CAP
1 *375:2 0.000147696
2 *375:3 0.00071815

*RES
1 *375:2 *375:3 4.62403011
2 *769:C *375:3 3.2222
3 *814:ZN *375:2 3.00002
*END

*D_NET *376 0.000672245

*CONN
*I *962:A1 I *C 41.3 58.8 *L 0.0013 *D CKXOR2D0
*I *839:ZN O *C 40.3 61.2 *L 0 *D CKND2D0
*I *816:A1 I *C 41.9 58.8 *L 0.000681 *D IND2D0

*CAP
1 *962:A1 0.000263935
2 *839:ZN 0.000360473984
3 *816:A1 4.78322e-05

*RES
1 *839:ZN *962:A1 6.32751989
2 *962:A1 *816:A1 0.825602
*END

*D_NET *377 0.00105187

*CONN
*I *930:ZN O *C 60.3 43 *L 0 *D NR2D0
*I *883:B I *C 58.9 42.8 *L 0.00072 *D AOI21D0
*I *813:B2 I *C 56.9 44.2 *L 0.000881 *D AOI221D0
*I *797:B1 I *C 57.1 42.4 *L 0.000899 *D OAI221D0

*CAP
1 *813:B2 0.00028779
2 *797:B1 8.28122e-05
3 *377:4 0.000248832
4 *377:5 0.000432437969

*RES
1 *930:ZN *377:5 4.48207
2 *377:4 *377:5 2.47392
3 *883:B *377:5 4.50001
4 *813:B2 *377:4 5.1561799
5 *797:B1 *377:4 1.7102
*END

*D_NET *378 0.000924301

*CONN
*I *879:ZN O *C 56.9 39.6 *L 0 *D AOI21D0
*I *813:B1 I *C 56.7 44.2 *L 0.00072 *D AOI221D0
*I *797:B2 I *C 56.9 42.8 *L 0.000747 *D OAI221D0

*CAP
1 *879:ZN 0.000563958008
2 *813:B1 0.000267139
3 *378:3 9.32056e-05

*RES
1 *879:ZN *378:3 6.25270987
2 *813:B1 *378:3 5.10532
3 *797:B2 *378:3 3.00003
*END

*D_NET *379 0.000414788

*CONN
*I *813:ZN O *C 56.7 44 *L 0 *D AOI221D0
*I *797:C I *C 56.7 42.8 *L 0.000742 *D OAI221D0

*CAP
1 *797:C 0.000414788008

*RES
1 *797:C *813:ZN 4.88731
*END

*D_NET *380 0.00193271

*CONN
*I *931:ZN O *C 28.3 32.2 *L 0 *D NR2D0
*I *865:B I *C 28.1 33.6 *L 0.00072 *D AOI21D0
*I *812:B2 I *C 31.1 29.8 *L 0.000881 *D AOI221D0
*I *794:A2 I *C 33.1 32 *L 0.000758 *D OAI221D0

*CAP
1 *865:B 0.000364844
2 *812:B2 0.000187078
3 *794:A2 0.000256538
4 *380:4 0.000512162
5 *380:5 0.000612088984

*RES
1 *794:A2 *380:5 9.83794975
2 *865:B *380:4 5.41105
3 *380:4 *380:5 4.47824
4 *812:B2 *380:5 5.72614
5 *931:ZN *380:4 3.00005
*END

*D_NET *381 0.00135818

*CONN
*I *880:ZN O *C 35.1 29.6 *L 0 *D AOI21D0
*I *812:B1 I *C 31.3 29.8 *L 0.00072 *D AOI221D0
*I *794:A1 I *C 33.7 32 *L 0.00067 *D OAI221D0

*CAP
1 *794:A1 0.00034721
2 *381:3 0.000547599961
3 *381:4 0.000463373

*RES
1 *880:ZN *381:4 4.29047
2 *381:3 *381:4 4.70274
3 *794:A1 *381:4 7.75948
4 *812:B1 *381:3 1.50001
*END

*D_NET *382 0.000655665

*CONN
*I *812:ZN O *C 31.3 29.6 *L 0 *D AOI221D0
*I *794:C I *C 32.7 32 *L 0.000742 *D OAI221D0

*CAP
1 *812:ZN 0.000562583047
2 *794:C 9.30814e-05

*RES
1 *812:ZN *794:C 12.0263
*END

*D_NET *383 0.00126945

*CONN
*I *902:ZN O *C 37.7 32.2 *L 0 *D CKND0
*I *811:A1 I *C 35.9 28.4 *L 0.000645 *D AOI211D0
*I *770:A2 I *C 37.9 30 *L 0.00065 *D OAI211D0

*CAP
1 *770:A2 9.67978e-05
2 *383:3 0.000553887
3 *383:4 0.000618771016

*RES
1 *770:A2 *383:3 3.47751
2 *383:3 *383:4 7.71138
3 *902:ZN *383:3 2.84411
4 *811:A1 *383:4 1.50001
*END

*D_NET *384 0.000446032

*CONN
*I *811:ZN O *C 35.9 28.8 *L 0 *D AOI211D0
*I *770:C I *C 36.9 30 *L 0.000698 *D OAI211D0

*CAP
1 *811:ZN 0.000446031992

*RES
1 *811:ZN *770:C 6.96013
*END

*D_NET *385 0.000630148

*CONN
*I *810:ZN O *C 41.5 49.4 *L 0 *D OAI211D0
*I *796:B I *C 38.7 48 *L 0.000655 *D IAO21D0

*CAP
1 *810:ZN 0.000540408008
2 *796:B 8.97423e-05

*RES
1 *810:ZN *796:B 6.47054
*END

*D_NET *386 0.000731782

*CONN
*I *809:Z O *C 55.1 36.8 *L 0 *D OA211D0
*I *772:C I *C 55.1 40.8 *L 0.000698 *D OAI211D0

*CAP
1 *809:Z 0.000731782031

*RES
1 *809:Z *772:C 8.52189
*END

*D_NET *387 0.000773856

*CONN
*I *808:ZN O *C 49.9 28.8 *L 0 *D XNR3D0
*I *773:A2 I *C 47.5 29.8 *L 0.000705 *D ND4D0

*CAP
1 *773:A2 0.00067693
2 *387:2 9.693e-05

*RES
1 *808:ZN *387:2 3
2 *773:A2 *387:2 7.1759901
*END

*D_NET *388 0.000721614

*CONN
*I *867:ZN O *C 59.5 57.6 *L 0 *D CKND2D0
*I *807:A2 I *C 60.7 58.8 *L 0.000664 *D NR2D0
*I *804:A2 I *C 59.3 58.8 *L 0.000585 *D CKAN2D0

*CAP
1 *867:ZN 0.000272956
2 *388:3 6.81433e-05
3 *388:4 0.000380518984

*RES
1 *867:ZN *388:3 4.47384977
2 *388:3 *388:4 4.40231
3 *807:A2 *388:4 1.5
4 *804:A2 *388:3 1.5
*END

*D_NET *389 0.000391732

*CONN
*I *807:ZN O *C 60.3 58.6 *L 0 *D NR2D0
*I *792:A1 I *C 59.9 61 *L 0.000964 *D OR2XD1

*CAP
1 *807:ZN 0.000238091016
2 *792:A1 0.000153641

*RES
1 *792:A1 *807:ZN 4.90273
*END

*D_NET *390 0.000491066

*CONN
*I *869:ZN O *C 31.9 58.4 *L 0 *D CKND2D0
*I *806:A2 I *C 29.7 58.8 *L 0.000585 *D CKAN2D0
*I *805:A2 I *C 31.5 58.8 *L 0.000664 *D NR2D0

*CAP
1 *869:ZN 1.15433e-05
2 *805:A2 0.000164585
3 *390:3 0.000314940996

*RES
1 *806:A2 *390:3 7.94761992
2 *805:A2 *869:ZN 0.586467
3 *805:A2 *390:3 1.75479
*END

*D_NET *391 0.000661455

*CONN
*I *806:Z O *C 30.3 58.6 *L 0 *D CKAN2D0
*I *791:A2 I *C 30.1 62.4 *L 0.00105 *D OR2XD1

*CAP
1 *806:Z 0.000661455

*RES
1 *806:Z *791:A2 6.94656
*END

*D_NET *392 0.00100299

*CONN
*I *824:ZN O *C 29.5 56.6 *L 0 *D OAI21D0
*I *806:A1 I *C 29.5 58.8 *L 0.000556 *D CKAN2D0
*I *805:A1 I *C 31.1 58.8 *L 0.000647 *D NR2D0
*I *799:A1 I *C 32.9 58.8 *L 0.000669 *D IOA21D0

*CAP
1 *824:ZN 0.000178536
2 *806:A1 0.000102467
3 *805:A1 7.74857e-06
4 *799:A1 0.000111449
5 *392:4 5.32253e-05
6 *392:5 0.000549570039

*RES
1 *805:A1 *392:5 3.19469
2 *392:4 *392:5 2.66858
3 *799:A1 *392:5 5.21617985
4 *824:ZN *392:4 4.40163
5 *806:A1 *392:4 3.80978
*END

*D_NET *393 0.000519697

*CONN
*I *805:ZN O *C 31.1 58.6 *L 0 *D NR2D0
*I *791:A1 I *C 30.5 62.2 *L 0.000964 *D OR2XD1

*CAP
1 *805:ZN 0.000519696992

*RES
1 *805:ZN *791:A1 6.61101
*END

*D_NET *394 0.0012711

*CONN
*I *825:ZN O *C 58.1 56.6 *L 0 *D OAI21D0
*I *807:A1 I *C 60.3 58.8 *L 0.000647 *D NR2D0
*I *804:A1 I *C 59.1 58.8 *L 0.000556 *D CKAN2D0
*I *800:A1 I *C 60.3 57.2 *L 0.000669 *D IOA21D0

*CAP
1 *825:ZN 0.000239234
2 *807:A1 1.20746e-06
3 *804:A1 4.38987e-05
4 *800:A1 0.000286392
5 *394:4 0.000541993008
6 *394:5 0.000158368

*RES
1 *807:A1 *394:4 1.90324
2 *394:4 *394:5 5.61345005
3 *804:A1 *394:5 2.87216
4 *800:A1 *394:4 4.85421
5 *825:ZN *394:5 4.2554
*END

*D_NET *395 0.000460281

*CONN
*I *804:Z O *C 59.9 58.6 *L 0 *D CKAN2D0
*I *792:A2 I *C 59.5 60.8 *L 0.00105 *D OR2XD1

*CAP
1 *804:Z 0.000460281016

*RES
1 *804:Z *792:A2 5.09473
*END

*D_NET *396 0.00157114

*CONN
*I *953:ZN O *C 50.5 32.2 *L 0 *D CKND0
*I *838:A2 I *C 50.9 28.4 *L 0.000664 *D NR2D0
*I *802:I0 I *C 48.7 30 *L 0.000706 *D MUX2ND0
*I *722:A2 I *C 50.9 30 *L 0.000709 *D AOI211D0

*CAP
1 *802:I0 0.000630634
2 *396:4 0.000231092
3 *396:5 0.000647732969
4 *396:6 6.16846e-05

*RES
1 *396:4 *396:5 1.19927
2 *722:A2 *396:5 3.85496
3 *953:ZN *396:5 5.03415
4 *802:I0 *396:6 8.71829987
5 *838:A2 *396:4 1.50005
6 *396:4 *396:6 1.50005
*END

*D_NET *397 0.000455973

*CONN
*I *802:ZN O *C 49.1 29.8 *L 0 *D MUX2ND0
*I *773:A4 I *C 48.1 30 *L 0.00068 *D ND4D0

*CAP
1 *802:ZN 0.000145421
2 *773:A4 0.00031055

*RES
1 *773:A4 *802:ZN 4.56216
*END

*D_NET *398 0.00122738

*CONN
*I *846:Z O *C 41.7 29.6 *L 0 *D OA21D0
*I *801:A1 I *C 43.3 32 *L 0.000711 *D OAI211D0
*I *785:B2 I *C 43.7 29.8 *L 0.000881 *D AOI221D0

*CAP
1 *846:Z 0.000481934
2 *785:B2 0.000230035
3 *398:3 0.000515413984

*RES
1 *801:A1 *398:3 5.08423
2 *846:Z *398:3 5.62353
3 *785:B2 *398:3 7.53267002
*END

*D_NET *399 0.000449135

*CONN
*I *801:ZN O *C 43.7 31.4 *L 0 *D OAI211D0
*I *785:C I *C 43.1 29.8 *L 0.000701 *D AOI221D0

*CAP
1 *801:ZN 1.51631e-06
2 *785:C 0.000447618984

*RES
1 *785:C *801:ZN 4.81922
*END

*D_NET *400 0.00104471

*CONN
*I *838:ZN O *C 51.3 28.6 *L 0 *D NR2D0
*I *819:A1 I *C 52.7 28.6 *L 0.000617 *D CKND2D0
*I *798:A1 I *C 54.1 28.4 *L 0.0007 *D OAI21D0
*I *722:C I *C 51.5 30 *L 0.000686 *D AOI211D0

*CAP
1 *838:ZN 2.31334e-05
2 *819:A1 0.000135515
3 *798:A1 0.000169365
4 *722:C 9.13915e-05
5 *400:4 0.00018498
6 *400:5 0.000440328008

*RES
1 *400:4 *400:5 0.648267
2 *722:C *400:5 3.15002
3 *798:A1 *400:4 5.24957991
4 *819:A1 *400:4 1.85845
5 *838:ZN *400:5 2.64153
*END

*D_NET *401 0.000373356

*CONN
*I *798:ZN O *C 54.3 27.8 *L 0 *D OAI21D0
*I *733:A2 I *C 54.7 30 *L 0.000697 *D MOAI22D0

*CAP
1 *733:A2 0.000373356016

*RES
1 *798:ZN *733:A2 6.48134
*END

*D_NET *402 0.000945056

*CONN
*I *903:ZN O *C 53.5 43 *L 0 *D CKND0
*I *797:A2 I *C 57.1 42.8 *L 0.000758 *D OAI221D0
*I *781:B2 I *C 55.1 43 *L 0.000881 *D AOI221D0

*CAP
1 *903:ZN 6.1224e-06
2 *781:B2 8.5514e-06
3 *402:3 0.000123147
4 *402:4 8.03676e-05
5 *402:5 0.000726868984

*RES
1 *402:3 *402:5 2.99996
2 *781:B2 *402:3 0.48934
3 *402:4 *402:5 6.50494003
4 *903:ZN *402:3 0.48934
5 *797:A2 *402:4 2.99996
*END

*D_NET *403 0.00128443

*CONN
*I *886:Z O *C 55.1 46.8 *L 0 *D AO21D0
*I *797:A1 I *C 57.7 42.8 *L 0.00067 *D OAI221D0
*I *781:B1 I *C 55.3 43 *L 0.00072 *D AOI221D0

*CAP
1 *797:A1 0.000173992
2 *403:3 0.000757241016
3 *403:4 0.000353206

*RES
1 *797:A1 *403:4 7.36267996
2 *886:Z *403:3 5.36214
3 *781:B1 *403:3 1.50004
4 *403:3 *403:4 1.50004
*END

*D_NET *404 6.082e-05

*CONN
*I *797:ZN O *C 56.5 43 *L 0 *D OAI221D0
*I *781:C I *C 55.7 43 *L 0.000701 *D AOI221D0

*CAP
1 *781:C 6.082e-05

*RES
1 *781:C *797:ZN 0.978599
*END

*D_NET *405 0.000350975

*CONN
*I *796:ZN O *C 38.9 47.6 *L 0 *D IAO21D0
*I *786:C I *C 37.7 50 *L 0.000742 *D OAI221D0

*CAP
1 *796:ZN 5.93194e-05
2 *405:2 0.000291656992

*RES
1 *796:ZN *405:2 0.978688
2 *786:C *405:2 5.47356987
*END

*D_NET *406 0.000736206

*CONN
*I *815:ZN O *C 45.7 28.8 *L 0 *D AOI21D0
*I *795:B2 I *C 46.1 30.2 *L 0.000744 *D MAOI22D0
*I *795:A2 I *C 45.3 30 *L 0.000697 *D MAOI22D0

*CAP
1 *815:ZN 0.00034171
2 *795:A2 0.000161775
3 *406:3 0.000232718

*RES
1 *795:A2 *406:3 4.64671993
2 *815:ZN *406:3 3.54885
3 *795:B2 *406:3 1.50003
*END

*D_NET *407 0.000743606

*CONN
*I *795:ZN O *C 45.7 29.6 *L 0 *D MAOI22D0
*I *773:A3 I *C 47.7 29.8 *L 0.000708 *D ND4D0

*CAP
1 *795:ZN 0.000521188984
2 *407:2 0.000222417

*RES
1 *773:A3 *407:2 4.71979
2 *795:ZN *407:2 6.24288988
*END

*D_NET *408 0.00124828

*CONN
*I *870:ZN O *C 30.1 33.2 *L 0 *D AOI21D0
*I *794:B2 I *C 32.9 32 *L 0.000747 *D OAI221D0
*I *780:A1 I *C 31.9 33.6 *L 0.000675 *D AOI221D0

*CAP
1 *794:B2 0.000382373
2 *408:3 0.000326208
3 *408:4 0.000539699961

*RES
1 *870:ZN *408:4 3.60583
2 *794:B2 *408:3 3.76404
3 *408:3 *408:4 6.04563999
4 *780:A1 *408:3 3.98323
*END

*D_NET *409 0.000526436

*CONN
*I *794:ZN O *C 32.5 32.2 *L 0 *D OAI221D0
*I *780:C I *C 33.1 33.4 *L 0.000701 *D AOI221D0

*CAP
1 *409:2 0.000526435977

*RES
1 *794:ZN *409:2 6.84700012
2 *780:C *409:2 1.49998
*END

*D_NET *410 0.000732248

*CONN
*I *961:A1 I *C 43.7 57.2 *L 0.0013 *D CKXOR2D0
*I *816:ZN O *C 42.5 58.4 *L 0 *D IND2D0
*I *803:A1 I *C 44.1 58.8 *L 0.000681 *D IND2D0

*CAP
1 *961:A1 0.000233039
2 *816:ZN 0.000247745
3 *803:A1 9.44557e-05
4 *410:3 0.000157005

*RES
1 *803:A1 *410:3 2.53825
2 *816:ZN *410:3 2.77438998
3 *961:A1 *410:3 2.70022
*END

*D_NET *411 0.00104281

*CONN
*I *819:ZN O *C 52.9 28.8 *L 0 *D CKND2D0
*I *798:B I *C 54.3 28.4 *L 0.00073 *D OAI21D0
*I *793:B1 I *C 55.5 28.4 *L 0.000686 *D MAOI22D0
*I *793:A1 I *C 56.5 28.4 *L 0.000713 *D MAOI22D0

*CAP
1 *819:ZN 0.000307428
2 *798:B 0.000121034
3 *793:B1 0.000114037
4 *411:4 0.000335235
5 *411:5 0.000165068

*RES
1 *819:ZN *411:5 4.67165
2 *411:4 *411:5 1.46966
3 *793:A1 *411:4 5.77466011
4 *798:B *411:5 4.73597
5 *793:B1 *411:4 3.00003
*END

*D_NET *412 0.000505489

*CONN
*I *793:ZN O *C 56.3 28.8 *L 0 *D MAOI22D0
*I *734:A2 I *C 58.3 30 *L 0.000697 *D MOAI22D0

*CAP
1 *793:ZN 8.06011e-05
2 *412:2 0.000424886992

*RES
1 *793:ZN *412:2 3.23897
2 *734:A2 *412:2 5.85521984
*END

*D_NET *413 0.000584375

*CONN
*I *866:ZN O *C 61.7 57.6 *L 0 *D CKND2D0
*I *790:A2 I *C 62.7 58.8 *L 0.000664 *D NR2D0
*I *789:A2 I *C 61.9 58.8 *L 0.000585 *D CKAN2D0

*CAP
1 *866:ZN 0.000404061992
2 *790:A2 0.000103163
3 *413:3 7.715e-05

*RES
1 *790:A2 *413:3 2.34299
2 *866:ZN *413:3 3.31327009
3 *789:A2 *413:3 1.50001
*END

*D_NET *414 0.000439143

*CONN
*I *790:ZN O *C 63.1 58.6 *L 0 *D NR2D0
*I *779:A2 I *C 62.7 60.8 *L 0.00105 *D OR2XD1

*CAP
1 *790:ZN 0.00014598
2 *779:A2 0.000293164023

*RES
1 *779:A2 *790:ZN 5.11032
*END

*D_NET *415 0.00122162

*CONN
*I *800:ZN O *C 61.1 56.6 *L 0 *D IOA21D0
*I *790:A1 I *C 63.1 58.8 *L 0.000647 *D NR2D0
*I *789:A1 I *C 61.7 58.8 *L 0.000556 *D CKAN2D0
*I *784:A1 I *C 62.9 57.2 *L 0.000669 *D IOA21D0

*CAP
1 *800:ZN 0.000303024
2 *789:A1 5.5919e-05
3 *784:A1 0.000364492
4 *415:5 0.000498185

*RES
1 *800:ZN *415:4 4.78387
2 *784:A1 *415:5 3.67303
3 *415:4 *415:5 5.18738985
4 *789:A1 *415:4 1.9148
5 *790:A1 *415:5 1.50003
*END

*D_NET *416 0.000795058

*CONN
*I *789:Z O *C 62.5 58.6 *L 0 *D CKAN2D0
*I *779:A1 I *C 63.1 61 *L 0.000964 *D OR2XD1

*CAP
1 *789:Z 4.47967e-05
2 *779:A1 4.36366e-06
3 *416:2 4.83941e-05
4 *416:3 0.000697493984

*RES
1 *779:A1 *416:2 0.49696
2 *416:2 *416:3 6.57158995
3 *789:Z *416:3 3.00001
*END

*D_NET *417 0.00265041

*CONN
*I *868:ZN O *C 45.1 62 *L 0 *D CKND2D0
*I *788:A2 I *C 37.1 64.4 *L 0.000585 *D CKAN2D0
*I *787:A2 I *C 34.7 64.4 *L 0.000664 *D NR2D0

*CAP
1 *868:ZN 0.00031769
2 *787:A2 0.000566243
3 *417:3 6.31325e-05
4 *417:4 0.00170333

*RES
1 *417:3 *417:4 13.3295002
2 *868:ZN *417:3 2.86295
3 *788:A2 *417:4 3.39583
4 *787:A2 *417:4 6.17152
*END

*D_NET *418 3.0816e-05

*CONN
*I *788:Z O *C 36.5 64.6 *L 0 *D CKAN2D0
*I *778:A1 I *C 36.1 64.6 *L 0.000964 *D OR2XD1

*CAP
1 *778:A1 3.0816001e-05

*RES
1 *778:A1 *788:Z 0.512174
*END

*D_NET *419 0.00341941

*CONN
*I *960:A1 I *C 43.7 62.4 *L 0.000669 *D IOA21D0
*I *799:ZN O *C 33.7 59.4 *L 0 *D IOA21D0
*I *788:A1 I *C 37.3 64.4 *L 0.000556 *D CKAN2D0
*I *787:A1 I *C 34.3 64.4 *L 0.000647 *D NR2D0

*CAP
1 *960:A1 0.000651262
2 *799:ZN 0.000769032
3 *788:A1 0.000207932
4 *419:4 0.000265383
5 *419:5 0.00063855
6 *419:6 4.06175e-05
7 *419:7 0.00084665

*RES
1 *799:ZN *419:4 5.81263
2 *419:6 *419:7 5.63098
3 *419:4 *419:5 1.62468
4 *788:A1 *419:7 3.83002
5 *419:5 *419:7 6.09329
6 *960:A1 *419:6 7.04434013
7 *787:A1 *419:5 2.99999
*END

*D_NET *420 0.000612541

*CONN
*I *787:ZN O *C 34.3 64.6 *L 0 *D NR2D0
*I *778:A2 I *C 35.7 64.4 *L 0.00105 *D OR2XD1

*CAP
1 *420:2 0.000612541016

*RES
1 *778:A2 *420:2 7.31345987
2 *787:ZN *420:2 1.50005
*END

*D_NET *421 0.000430698

*CONN
*I *786:ZN O *C 37.9 50.2 *L 0 *D OAI221D0
*I *774:B I *C 38.7 51.6 *L 0.000707 *D AOI211D0

*CAP
1 *774:B 7.80258e-05
2 *421:2 0.000352674023

*RES
1 *774:B *421:2 3.50091004
2 *786:ZN *421:2 3.30945
*END

*D_NET *422 0.000945152

*CONN
*I *785:ZN O *C 43.5 29.6 *L 0 *D AOI221D0
*I *773:A1 I *C 47.1 29.8 *L 0.000678 *D ND4D0

*CAP
1 *773:A1 0.000143768
2 *422:2 0.00080138

*RES
1 *773:A1 *422:2 8.29269028
2 *785:ZN *422:2 3.88593
*END

*D_NET *423 0.00103014

*CONN
*I *783:CO O *C 56.1 47.6 *L 0 *D FA1D0
*I *767:CI I *C 59.7 46.6 *L 0.001 *D FA1D0

*CAP
1 *767:CI 0.000329085
2 *423:2 0.000626206992
3 *423:3 7.48467e-05

*RES
1 *423:2 *423:3 5.53012991
2 *767:CI *423:3 4.36303
3 *783:CO *423:2 1.49999
*END

*D_NET *424 0.00374784

*CONN
*I *576:I I *C 67.7 60.8 *L 0.00104 *D DEL0
*I *783:S O *C 56.7 47.8 *L 0 *D FA1D0

*CAP
1 *576:I 0.00015201
2 *783:S 0.000463478
3 *424:2 0.00108989
4 *424:3 0.000219657
5 *424:4 0.000528043
6 *424:5 0.00129477

*RES
1 *424:4 *424:5 10.8257
2 *783:S *424:2 3.84218
3 *424:3 *424:4 3.92656
4 *424:2 *424:5 11.0381002
5 *576:I *424:3 6.57189
*END

*D_NET *425 0.00111516

*CONN
*I *782:CO O *C 27.7 51.2 *L 0 *D FA1D0
*I *768:CI I *C 33.9 51.4 *L 0.001 *D FA1D0

*CAP
1 *782:CO 0.000381941
2 *425:2 9.37949e-05
3 *425:3 0.000639431016

*RES
1 *425:2 *425:3 6.38940001
2 *782:CO *425:3 5.56294
3 *768:CI *425:2 1.49995
*END

*D_NET *426 0.00670912

*CONN
*I *567:I I *C 60.3 69.6 *L 0.00104 *D DEL0
*I *782:S O *C 28.3 51.4 *L 0 *D FA1D0

*CAP
1 *782:S 0.000592883
2 *426:2 0.00021539
3 *426:3 0.00313192
4 *426:5 0.000489609
5 *426:6 0.000859217
6 *426:7 0.00142013

*RES
1 *426:2 *426:3 41.0211983
2 *782:S *426:6 6.61487
3 *426:4 *426:7 11.2355
4 *426:6 *426:8 9.6882
5 *426:2 *426:5 5.15519
6 *567:I *426:5 3.0001
7 *426:3 *426:4 1.49974
8 *426:7 *426:8 1.49974
*END

*D_NET *427 0.000357767

*CONN
*I *781:ZN O *C 55.3 43.2 *L 0 *D AOI221D0
*I *772:B I *C 54.7 40.8 *L 0.000726 *D OAI211D0

*CAP
1 *772:B 0.000357766992

*RES
1 *772:B *781:ZN 7.9335
*END

*D_NET *428 0.0017205

*CONN
*I *780:ZN O *C 32.7 33.2 *L 0 *D AOI221D0
*I *770:B I *C 37.3 30 *L 0.000726 *D OAI211D0

*CAP
1 *770:B 0.000100708
2 *428:2 0.000700581
3 *428:3 0.000919207969

*RES
1 *770:B *428:2 3.49555
2 *428:2 *428:3 4.45053
3 *780:ZN *428:3 9.25555038
*END

*D_NET *429 0.00091916

*CONN
*I *777:ZN O *C 46.7 58.4 *L 0 *D OAI32D0
*I *690:A2 I *C 49.1 57.2 *L 0.000745 *D AO22D0

*CAP
1 *777:ZN 0.000505617031
2 *690:A2 0.000413544

*RES
1 *777:ZN *690:A2 10.8414
*END

*D_NET *430 0.00320417

*CONN
*I *910:ZN O *C 63.3 45 *L 0 *D MOAI22D0
*I *776:A2 I *C 64.5 57.2 *L 0.000664 *D NR2D0
*I *775:A2 I *C 66.1 57.2 *L 0.000585 *D CKAN2D0

*CAP
1 *910:ZN 0.000289606
2 *776:A2 2.76086e-06
3 *775:A2 0.000246691
4 *430:3 0.000507938
5 *430:4 0.00133039
6 *430:5 0.000826776

*RES
1 *776:A2 *430:5 5.66831
2 *910:ZN *430:4 2.94158
3 *430:3 *430:4 8.12489986
4 *775:A2 *430:5 7.77194
5 *430:3 *430:5 6.04371
*END

*D_NET *431 0.000784292

*CONN
*I *784:ZN O *C 63.7 56.6 *L 0 *D IOA21D0
*I *776:A1 I *C 64.9 57.2 *L 0.000647 *D NR2D0
*I *775:A1 I *C 66.3 57.2 *L 0.000556 *D CKAN2D0

*CAP
1 *784:ZN 0.000140129
2 *776:A1 0.00016733
3 *775:A1 0.000148481
4 *431:3 0.000328351992

*RES
1 *431:3 *431:4 5.03938007
2 *784:ZN *431:4 2.34406
3 *775:A1 *431:3 3.54324
4 *776:A1 *431:4 1.75482
*END

*D_NET *432 0.000545516

*CONN
*I *776:ZN O *C 64.9 57.4 *L 0 *D NR2D0
*I *771:A2 I *C 65.1 58.8 *L 0.00105 *D OR2XD1

*CAP
1 *776:ZN 0.000490418984
2 *771:A2 5.50996e-05

*RES
1 *776:ZN *771:A2 7.58257
*END

*D_NET *433 0.000324689

*CONN
*I *775:Z O *C 65.5 57.4 *L 0 *D CKAN2D0
*I *771:A1 I *C 65.5 58.6 *L 0.000964 *D OR2XD1

*CAP
1 *771:A1 0.000324689004

*RES
1 *775:Z *771:A1 4.83026
*END

*D_NET *434 0.00134894

*CONN
*I *774:ZN O *C 39.3 51.2 *L 0 *D AOI211D0
*I *769:B I *C 41.3 46.4 *L 0.000726 *D OAI211D0

*CAP
1 *774:ZN 0.000148816
2 *769:B 0.000831855
3 *434:2 0.000368271

*RES
1 *774:ZN *434:2 6.88458
2 *769:B *434:2 8.67152023
*END

*D_NET *435 0.00143775

*CONN
*I *769:ZN O *C 41.9 45.8 *L 0 *D OAI211D0
*I *766:B2 I *C 46.7 44.4 *L 0.000774 *D INR3D0

*CAP
1 *766:B2 9.21362e-05
2 *435:2 0.000147092
3 *435:3 0.00119851992

*RES
1 *769:ZN *435:3 4.09153
2 *435:2 *435:3 9.43731022
3 *766:B2 *435:2 2.30979
*END

*D_NET *436 0.00244784

*CONN
*I *768:CO O *C 32.9 51.2 *L 0 *D FA1D0
*I *761:CI I *C 44.5 50.2 *L 0.001 *D FA1D0

*CAP
1 *761:CI 0.000709878
2 *436:2 0.00120078
3 *436:3 0.000507595
4 *436:4 2.95729e-05

*RES
1 *436:3 *436:4 3.89537
2 *436:2 *436:4 9.84144974
3 *761:CI *436:3 7.33018
4 *768:CO *436:2 1.50003
*END

*D_NET *437 0.00673413

*CONN
*I *570:I I *C 60.1 68 *L 0.00104 *D DEL0
*I *768:S O *C 33.5 51.4 *L 0 *D FA1D0

*CAP
1 *768:S 0.000604248
2 *437:2 0.00101934
3 *437:3 0.000800163
4 *437:4 0.000741565
5 *437:5 0.00221597
6 *437:6 0.000405661
7 *437:7 0.000272537
8 *437:8 0.000494185
9 *768:S *782:A 0.000180460996

*RES
1 *437:5 *437:6 3.76429
2 *768:S *437:3 5.28481
3 *437:7 *437:8 3.83656
4 *437:3 *437:6 8.27525
5 *437:2 *437:4 7.34329
6 *570:I *437:2 8.99389
7 *437:5 *437:8 18.9445992
8 *437:4 *437:7 3.48678
*END

*D_NET *438 0.00178193

*CONN
*I *767:CO O *C 58.7 46.8 *L 0 *D FA1D0
*I *760:CI I *C 60.3 39.4 *L 0.001 *D FA1D0

*CAP
1 *767:CO 5.43206e-05
2 *760:CI 0.000591051
3 *438:2 0.000542154
4 *438:3 0.000594407031

*RES
1 *438:2 *438:3 3.1362
2 *760:CI *438:2 5.30159
3 *767:CO *438:3 7.81794977
*END

*D_NET *439 0.0041212

*CONN
*I *577:I I *C 65.1 62.4 *L 0.00104 *D DEL0
*I *767:S O *C 59.3 46.6 *L 0 *D FA1D0

*CAP
1 *767:S 0.000479122
2 *439:2 0.000823406
3 *439:3 0.000607925
4 *439:4 0.000603891
5 *439:5 0.000762072
6 *439:6 0.000844792031

*RES
1 *439:5 *439:6 6.80644989
2 *439:2 *439:3 3.51518
3 *767:S *439:5 4.159
4 *439:3 *439:6 6.23388
5 *439:2 *439:4 5.29251
6 *577:I *439:4 6.64859
*END

*D_NET *440 0.00155307

*CONN
*I *772:ZN O *C 54.1 41.4 *L 0 *D OAI211D0
*I *765:B1 I *C 49.5 40.8 *L 0.000651 *D INR2D0
*I *763:A2 I *C 49.7 43 *L 0.000711 *D ND3D0

*CAP
1 *772:ZN 0.000147447
2 *765:B1 0.000125807
3 *440:3 0.000485897
4 *440:4 0.000248677
5 *440:5 0.000545252031

*RES
1 *763:A2 *440:3 4.45732
2 *440:4 *440:5 3.34843
3 *440:3 *440:5 3.01355
4 *765:B1 *440:3 3.90588
5 *772:ZN *440:4 4.74020004
*END

*D_NET *441 0.00111746

*CONN
*I *956:ZN O *C 49.1 43 *L 0 *D CKND0
*I *887:A2 I *C 48.5 42.8 *L 0.000664 *D NR2D0
*I *764:A2 I *C 49.3 44.4 *L 0.000664 *D NR2D0
*I *757:A2 I *C 48.3 40.8 *L 0.000664 *D NR2D0

*CAP
1 *956:ZN 0.000215043
2 *764:A2 0.000247557
3 *757:A2 0.000319672
4 *441:4 0.000335185

*RES
1 *757:A2 *441:4 3.27773
2 *764:A2 *441:4 4.74747992
3 *764:A2 *956:ZN 4.64867
4 *887:A2 *441:4 2.99999
*END

*D_NET *442 0.00506677

*CONN
*I *569:I I *C 58.7 30 *L 0.00104 *D DEL0
*I *766:ZN O *C 47.1 44 *L 0 *D INR3D0

*CAP
1 *569:I 0.000825814
2 *766:ZN 4.50322e-06
3 *442:2 0.000184824
4 *442:3 0.000148095
5 *442:4 3.19377e-06
6 *442:5 1.91626e-07
7 *442:6 0.00209304
8 *569:I *560:I 0.000178155
9 *442:2 *258:5 0.000836117969
10 *442:2 *65:13 0.000792836016

*RES
1 *442:5 *442:6 7.99684
2 *766:ZN *442:3 0.489456
3 *442:2 *442:4 1.40808
4 *442:3 *442:5 4.84114
5 *442:2 *442:6 20.4703007
6 *569:I *442:4 8.93514
*END

*D_NET *443 0.00545837

*CONN
*I *568:I I *C 64.5 64.4 *L 0.00104 *D DEL0
*I *761:S O *C 44.1 50.2 *L 0 *D FA1D0

*CAP
1 *761:S 0.000201248
2 *443:2 0.000558561
3 *443:3 0.000684874
4 *443:4 0.000274045
5 *443:5 0.000722397031
6 *443:6 0.000369019
7 *443:7 0.000309693
8 *443:8 0.00046966
9 *443:9 6.35811e-05
10 *443:10 0.000677544
11 *443:11 3.88674e-05
12 *443:2 *985:CP 0.00021856
13 *443:3 *473:6 0.000258959004
14 *443:4 *17:36 0.00030120998
15 *443:5 *230:2 0.000310145996

*RES
1 *443:5 *443:11 6.1574
2 *443:3 *443:9 2.31058
3 *443:4 *443:3 8.06659985
4 *761:S *443:2 2.3011
5 *443:10 *443:11 0.256635
6 *443:9 *443:10 6.38548
7 *443:7 *443:8 3.95748
8 *443:6 *443:7 3.76263
9 *443:2 *443:8 5.94496
10 *568:I *443:4 4.36305
11 *443:5 *443:6 4.18187
*END

*D_NET *444 0.00174954

*CONN
*I *578:I I *C 63.3 33.6 *L 0.00104 *D DEL0
*I *760:S O *C 59.9 39.4 *L 0 *D FA1D0

*CAP
1 *578:I 0.000854247969
2 *760:S 0.000825063
3 *444:2 7.02325e-05

*RES
1 *578:I *444:2 9.60606003
2 *760:S *444:2 8.50893
*END

*D_NET *445 0.00306171

*CONN
*I *991:QN O *C 55.9 55.6 *L 0 *D DFD1
*I *927:A1 I *C 55.9 46.4 *L 0.000647 *D NR2D0
*I *886:A1 I *C 54.3 46.4 *L 0.000688 *D AO21D0
*I *756:A3 I *C 55.5 51.6 *L 0.000899 *D NR3D0
*I *716:B1 I *C 56.7 53.6 *L 0.000684 *D OAI32D0

*CAP
1 *991:QN 0.000454564
2 *927:A1 0.000253329
3 *886:A1 0.000547004
4 *716:B1 0.000540963
5 *445:5 0.000230049
6 *445:6 0.000328822
7 *445:7 0.000706976016

*RES
1 *927:A1 *445:7 2.86305
2 *716:B1 *445:5 5.48815
3 *445:5 *445:7 4.31627
4 *445:5 *445:6 0.811234
5 *991:QN *445:6 5.50757
6 *886:A1 *445:7 9.93924999
7 *756:A3 *445:6 1.49993
*END

*D_NET *446 0.00174712

*CONN
*I *765:ZN O *C 49.5 41.4 *L 0 *D INR2D0
*I *759:A1 I *C 45.9 39.4 *L 0.000693 *D ND3D0
*I *757:A1 I *C 47.9 40.8 *L 0.000647 *D NR2D0
*I *755:B2 I *C 48.1 39.2 *L 0.000977 *D IND3D1
*I *751:A1 I *C 49.5 39.2 *L 0.000718 *D INR3D0

*CAP
1 *765:ZN 0.000178531
2 *759:A1 0.000582063008
3 *757:A1 4.44974e-06
4 *755:B2 8.50779e-05
5 *751:A1 0.000423693
6 *446:5 0.000299722
7 *446:6 0.000173584

*RES
1 *755:B2 *446:5 3.55312
2 *757:A1 *446:5 1.69469
3 *765:ZN *446:6 4.54762
4 *759:A1 *446:6 6.23147011
5 *765:ZN *751:A1 4.76412
6 *446:5 *446:6 1.49996
*END

*D_NET *447 0.00208182

*CONN
*I *773:ZN O *C 47.3 30.4 *L 0 *D ND4D0
*I *755:B1 I *C 47.7 39.2 *L 0.00101 *D IND3D1
*I *751:B1 I *C 48.9 39.2 *L 0.000894 *D INR3D0

*CAP
1 *773:ZN 0.000884463047
2 *755:B1 3.64393e-07
3 *751:B1 0.000148834
4 *447:3 0.000285131
5 *447:4 0.000265724
6 *447:5 0.000497302

*RES
1 *447:4 *447:5 2.86918
2 *751:B1 *447:3 3.32473
3 *755:B1 *447:3 1.85849
4 *773:ZN *447:5 6.81309986
5 *447:3 *447:4 1.42529
*END

*D_NET *448 0.00400241

*CONN
*I *770:ZN O *C 37.9 30.6 *L 0 *D OAI211D0
*I *759:A2 I *C 46.1 39.4 *L 0.000711 *D ND3D0
*I *755:A1 I *C 47.1 39.2 *L 0.000696 *D IND3D1
*I *751:B2 I *C 48.5 39.2 *L 0.000774 *D INR3D0

*CAP
1 *770:ZN 0.000702987
2 *755:A1 0.00011044
3 *448:4 0.000284975
4 *448:5 0.000709633
5 *448:7 0.000455967
6 *448:8 0.000770553
7 *448:9 0.000967862031

*RES
1 *755:A1 *448:7 2.99999
2 *770:ZN *448:8 8.24393
3 *448:6 *448:8 5.97845
4 *448:5 *448:9 8.98569965
5 *448:4 *448:7 2.74757
6 *448:4 *448:5 4.30967
7 *751:B2 *448:7 4.78448
8 *759:A2 *448:4 3.23897
9 *448:6 *448:9 1.49999
*END

*D_NET *449 0.00105828

*CONN
*I *754:ZN O *C 32.5 39.4 *L 0 *D CKND0
*I *726:A1 I *C 36.9 39.2 *L 0.00069 *D AOI21D0

*CAP
1 *449:2 0.000838401016
2 *449:3 0.000219876

*RES
1 *726:A1 *449:3 4.72423
2 *449:2 *449:3 6.45431995
3 *754:ZN *449:2 1.50003
*END

*D_NET *450 0.000337214

*CONN
*I *989:D I *C 50.1 51.6 *L 0.000958 *D DFD1
*I *753:ZN O *C 50.3 53 *L 0 *D MOAI22D0

*CAP
1 *989:D 0.000337213984

*RES
1 *989:D *753:ZN 4.56595
*END

*D_NET *451 0.000361832

*CONN
*I *750:ZN O *C 62.1 50.2 *L 0 *D CKND0
*I *683:A3 I *C 61.9 48 *L 0.000714 *D OAI32D0

*CAP
1 *683:A3 0.000361831992

*RES
1 *683:A3 *750:ZN 6.25635
*END

*D_NET *452 0.00529217

*CONN
*I *987:DA I *C 54.5 55.2 *L 0.000727 *D DFXD1
*I *764:ZN O *C 49.7 44.2 *L 0 *D NR2D0
*I *758:A1 I *C 47.9 62.2 *L 0.000617 *D CKND2D0
*I *753:B1 I *C 49.5 53.6 *L 0.000689 *D MOAI22D0
*I *747:B I *C 55.1 53.6 *L 0.00072 *D AOI21D0

*CAP
1 *987:DA 3.03016e-06
2 *764:ZN 0.000952177
3 *747:B 0.00024028
4 *452:5 0.000149522
5 *452:6 0.000176912
6 *452:7 0.000543561
7 *452:8 0.000422605
8 *452:9 4.92769e-06
9 *452:10 0.000963988984
10 *452:11 0.000105585
11 *452:12 0.00060846
12 *452:8 *470:6 0.000547110039
13 *452:6 *753:A1 0.000335193984
14 *452:8 *977:I 0.000238837012

*RES
1 *452:11 *452:12 1.69466
2 *452:5 *452:6 1.40998
3 *987:DA *452:5 1.66381
4 *764:ZN *452:7 7.02456
5 *758:A1 *452:8 1.73893
6 *452:10 *452:12 4.01999
7 *452:9 *452:10 8.79207039
8 *452:8 *452:9 3.07473
9 *452:7 *452:11 3.92622
10 *452:6 *452:12 8.22137
11 *747:B *452:5 5.12222
12 *753:B1 *452:11 1.5
*END

*D_NET *453 0.00156356

*CONN
*I *949:ZN O *C 54.5 51.2 *L 0 *D CKND2D0
*I *756:A2 I *C 55.9 51.6 *L 0.000897 *D NR3D0
*I *747:A2 I *C 54.5 53.6 *L 0.000671 *D AOI21D0
*I *716:A2 I *C 57.5 53.6 *L 0.000704 *D OAI32D0

*CAP
1 *949:ZN 0.00021724
2 *756:A2 0.000241641
3 *747:A2 3.06246e-05
4 *716:A2 0.0002659
5 *453:4 0.000515007031
6 *453:5 0.000293138

*RES
1 *716:A2 *453:5 7.83882999
2 *453:4 *453:5 3.28452
3 *747:A2 *453:4 2.78108
4 *756:A2 *453:5 5.50043
5 *949:ZN *453:4 2.75608
*END

*D_NET *454 0.000919667

*CONN
*I *987:DB I *C 53.5 55.2 *L 0.00109 *D DFXD1
*I *762:ZN O *C 53.7 53.8 *L 0 *D CKND0
*I *747:A1 I *C 54.9 53.6 *L 0.00069 *D AOI21D0

*CAP
1 *762:ZN 7.47383e-05
2 *747:A1 0.00012591
3 *454:3 0.000719021953

*RES
1 *747:A1 *454:3 8.51836967
2 *762:ZN *454:3 1.75655
3 *987:DB *454:3 4.8606
*END

*D_NET *455 0.000862671

*CONN
*I *905:ZN O *C 61.5 35 *L 0 *D MOAI22D0
*I *745:B2 I *C 59.1 35.8 *L 0.000739 *D MOAI22D0
*I *745:A2 I *C 59.9 35.6 *L 0.000697 *D MOAI22D0

*CAP
1 *905:ZN 0.000292
2 *455:3 0.000570668984

*RES
1 *905:ZN *455:3 4.20281982
2 *745:B2 *455:3 3.03129
3 *745:A2 *455:3 3
*END

*D_NET *456 0.00115401

*CONN
*I *760:CO O *C 59.3 39.6 *L 0 *D FA1D0
*I *745:B1 I *C 58.7 35.6 *L 0.000689 *D MOAI22D0
*I *745:A1 I *C 59.7 35.6 *L 0.000721 *D MOAI22D0

*CAP
1 *760:CO 8.97438e-05
2 *745:B1 0.000284109
3 *745:A1 0.000242356
4 *456:3 0.000537797969

*RES
1 *745:A1 *456:3 4.99161005
2 *745:B1 *456:3 2.78249
3 *760:CO *456:3 4.68047
*END

*D_NET *457 0.0006515

*CONN
*I *579:I I *C 60.3 32 *L 0.00104 *D DEL0
*I *745:ZN O *C 59.5 35 *L 0 *D MOAI22D0

*CAP
1 *579:I 0.000195486
2 *745:ZN 0.000456011016

*RES
1 *745:ZN *579:I 10.0722
*END

*D_NET *458 0.00092479

*CONN
*I *906:ZN O *C 47.5 45.8 *L 0 *D MOAI22D0
*I *744:B2 I *C 45.5 46.2 *L 0.000744 *D MAOI22D0
*I *744:A2 I *C 46.3 46.4 *L 0.000697 *D MAOI22D0

*CAP
1 *906:ZN 0.000269615
2 *744:B2 1.08542e-05
3 *458:3 0.000644321992

*RES
1 *744:B2 *458:3 3.22205
2 *906:ZN *458:3 6.39588022
3 *744:A2 *458:3 3.00002
*END

*D_NET *459 0.00140335

*CONN
*I *761:CO O *C 43.5 50.4 *L 0 *D FA1D0
*I *744:B1 I *C 45.1 46.4 *L 0.000686 *D MAOI22D0
*I *744:A1 I *C 46.1 46.4 *L 0.000713 *D MAOI22D0

*CAP
1 *761:CO 3.78049e-05
2 *744:B1 0.000208748
3 *744:A1 0.000221924
4 *459:3 0.000476266992
5 *459:4 0.000458607

*RES
1 *459:3 *459:4 5.26539993
2 *744:A1 *459:3 5.24218
3 *744:B1 *459:3 4.52423
4 *761:CO *459:4 4.28754
*END

*D_NET *460 0.000747974

*CONN
*I *744:ZN O *C 45.9 46.8 *L 0 *D MAOI22D0
*I *721:A2 I *C 44.7 44.4 *L 0.000697 *D MOAI22D0

*CAP
1 *744:ZN 0.000100464
2 *721:A2 0.000647511016

*RES
1 *721:A2 *744:ZN 8.31411
*END

*D_NET *461 0.0035065

*CONN
*I *561:I I *C 69.1 39.2 *L 0.00104 *D DEL0
*I *751:ZN O *C 48.9 39.6 *L 0 *D INR3D0

*CAP
1 *461:2 9.92912e-05
2 *461:3 0.0026355
3 *461:4 0.000494888
4 *461:5 0.000276841

*RES
1 *461:3 *461:5 20.1886997
2 *461:2 *461:4 4.635
3 *461:4 *461:5 2.05195
4 *751:ZN *461:3 3.00015
5 *561:I *461:2 3.00015
*END

*D_NET *462 0.000451148

*CONN
*I *982:SA I *C 64.7 37.2 *L 0.00154 *D DFXD1
*I *743:ZN O *C 65.5 39.6 *L 0 *D IND2D0

*CAP
1 *743:ZN 2.45106e-05
2 *462:2 0.00042664

*RES
1 *743:ZN *462:2 0.762865
2 *982:SA *462:2 5.28769016
*END

*D_NET *463 0.00100816

*CONN
*I *998:D I *C 36.3 57.2 *L 0.000958 *D DFD1
*I *742:ZN O *C 38.9 56.6 *L 0 *D MOAI22D0

*CAP
1 *742:ZN 0.000150991
2 *463:2 0.000857172031

*RES
1 *998:D *463:2 1.8895
2 *742:ZN *463:2 8.7432003
*END

*D_NET *464 0.00149319

*CONN
*I *997:D I *C 34.1 55.2 *L 0.000958 *D DFD1
*I *741:ZN O *C 40.9 56.6 *L 0 *D MOAI22D0

*CAP
1 *997:D 0.000140814
2 *741:ZN 0.000236525
3 *464:2 0.000533992
4 *464:3 0.000581856016

*RES
1 *741:ZN *464:3 8.33988953
2 *997:D *464:2 2.08421
3 *464:2 *464:3 5.14002
*END

*D_NET *465 0.000450479

*CONN
*I *749:ZN O *C 48.3 64.6 *L 0 *D NR2D0
*I *740:I I *C 47.7 64.6 *L 0.00062 *D CKND0
*I *737:A1 I *C 49.1 64.4 *L 0.000647 *D NR2D0

*CAP
1 *740:I 0.000177559004
2 *737:A1 0.000156052
3 *465:3 0.000116866

*RES
1 *737:A1 *465:3 2.38910007
2 *740:I *465:3 2.34842
3 *749:ZN *465:3 1.5
*END

*D_NET *466 0.000604662

*CONN
*I *740:ZN O *C 47.3 64.6 *L 0 *D CKND0
*I *720:B I *C 46.5 64.4 *L 0.00073 *D OAI21D0

*CAP
1 *740:ZN 0.000138779
2 *720:B 0.00046588

*RES
1 *720:B *740:ZN 12.143
*END

*D_NET *467 0.00434573

*CONN
*I *542:I I *C 66.5 66 *L 0.00104 *D DEL0
*I *756:ZN O *C 56.3 51.2 *L 0 *D NR3D0

*CAP
1 *756:ZN 0.00102169
2 *467:2 0.000625237
3 *467:3 0.000419885
4 *467:4 0.000621074
5 *467:5 0.000749629
6 *467:6 0.000198429
7 *467:7 0.000709781

*RES
1 *467:5 *467:7 6.51025
2 *467:2 *467:3 2.72963
3 *756:ZN *467:5 7.61002016
4 *467:6 *467:7 4.36726
5 *467:4 *467:6 2.8627
6 *542:I *467:2 6.87707
7 *467:3 *467:4 3.7516
*END

*D_NET *468 0.000489528

*CONN
*I *739:ZN O *C 65.9 49.6 *L 0 *D IND4D0
*I *681:B I *C 66.5 48 *L 0.000669 *D IOA21D0

*CAP
1 *681:B 0.000489528008

*RES
1 *681:B *739:ZN 5.10821
*END

*D_NET *469 0.00655175

*CONN
*I *560:I I *C 59.7 28.4 *L 0.00104 *D DEL0
*I *738:ZN O *C 30.5 41.4 *L 0 *D MOAI22D0

*CAP
1 *560:I 0.00091383
2 *738:ZN 0.000432479
3 *469:2 0.000296629
4 *469:3 0.000660354
5 *469:4 0.000477801
6 *469:5 0.00258505016
7 *469:6 0.000246376
8 *469:4 *22:2 0.000233265996
9 *469:5 *63:6 0.000240658008
10 *560:I *569:I 0.000178155
11 *469:3 *477:2 0.000287165996

*RES
1 *469:5 *469:6 2.51887
2 *469:3 *469:5 25.0723991
3 *469:3 *469:4 7.28575
4 *469:2 *469:4 6.27805
5 *560:I *469:2 8.77511
6 *738:ZN *469:6 6.34194
*END

*D_NET *470 0.00658199

*CONN
*I *887:ZN O *C 48.1 43 *L 0 *D NR2D0
*I *856:I I *C 46.9 62.2 *L 0.00062 *D CKND0
*I *742:B1 I *C 38.1 57.2 *L 0.000689 *D MOAI22D0
*I *741:B1 I *C 40.1 57.2 *L 0.000689 *D MOAI22D0
*I *737:A2 I *C 48.7 64.4 *L 0.000664 *D NR2D0
*I *729:B I *C 46.9 57.2 *L 0.00072 *D AOI21D0

*CAP
1 *887:ZN 3.31463e-05
2 *742:B1 0.000401074
3 *741:B1 0.000122608
4 *737:A2 0.000128063
5 *470:6 5.25196e-05
6 *470:7 0.000692089
7 *470:8 0.000110495
8 *470:9 0.000710426
9 *470:10 0.000494352
10 *470:11 0.000196638
11 *470:12 0.000421194
12 *470:13 0.00135935
13 *470:14 0.000455295
14 *737:A2 *749:A1 0.000354672031
15 *470:6 *452:8 0.000547110039
16 *470:7 *906:B1 0.000272408008
17 *737:A2 *52:13 0.000230535996

*RES
1 *742:B1 *470:14 5.71695
2 *737:A2 *470:10 7.89884
3 *741:B1 *470:14 3.00007
4 *470:8 *470:13 11.0459
5 *470:8 *470:9 0.764464
6 *470:8 *470:11 2.98493
7 *470:6 *470:9 8.03785
8 *470:7 *470:13 12.0985003
9 *470:6 *470:10 2.83522
10 *470:12 *470:14 4.06563
11 *887:ZN *470:7 2.27013
12 *470:11 *470:12 2.5452
13 *856:I *470:6 1.49994
14 *729:B *470:9 3.00007
*END

*D_NET *471 0.00141943

*CONN
*I *856:ZN O *C 46.5 62.2 *L 0 *D CKND0
*I *758:A2 I *C 47.5 62.4 *L 0.000606 *D CKND2D0
*I *736:B I *C 43.3 62.4 *L 0.000669 *D IOA21D0
*I *720:A1 I *C 46.7 64.4 *L 0.0007 *D OAI21D0

*CAP
1 *758:A2 4.67617e-05
2 *720:A1 0.000297718
3 *471:4 0.00017661
4 *471:5 0.000645843047
5 *471:6 0.000252483

*RES
1 *720:A1 *471:4 5.29852009
2 *471:5 *471:6 5.07319
3 *758:A2 *471:6 4.09565
4 *736:B *471:5 1.49999
5 *856:ZN *471:4 1.49999
6 *471:4 *471:6 1.49999
*END

*D_NET *472 0.00709313

*CONN
*I *547:I I *C 67.5 68 *L 0.00104 *D DEL0
*I *735:ZN O *C 40.9 35 *L 0 *D MOAI22D0

*CAP
1 *735:ZN 0.000135529
2 *472:2 1.85662e-05
3 *472:3 0.00114901
4 *472:4 7.99637e-05
5 *472:5 0.00291783
6 *472:6 0.00214277
7 *472:2 *18:3 0.000253336992
8 *472:2 *474:4 0.000396166016

*RES
1 *472:5 *472:6 22.9467
2 *472:2 *472:3 5.68832
3 *735:ZN *472:4 3.49504
4 *472:4 *472:6 3.38994
5 *472:3 *472:5 33.2728996
6 *547:I *472:2 3.00002
*END

*D_NET *473 0.00654613

*CONN
*I *550:I I *C 62.1 71.6 *L 0.00104 *D DEL0
*I *734:ZN O *C 57.9 30.6 *L 0 *D MOAI22D0

*CAP
1 *550:I 0.000165943
2 *734:ZN 0.000471905
3 *473:2 0.00037225
4 *473:3 0.000829386
5 *473:4 0.000528237
6 *473:5 0.000481648
7 *473:6 0.000969308
8 *473:7 2.28887e-05
9 *473:8 0.00126689992
10 *473:9 0.000214987
11 *473:2 *13:2 0.000221144004
12 *473:3 *31:3 0.000432826016
13 *473:6 *443:3 0.000258959004
14 *734:ZN *163:5 0.000309764004

*RES
1 *473:6 *473:7 0.256671
2 *473:5 *473:6 9.12331
3 *473:4 *473:5 3.5704
4 *550:I *473:2 8.1879
5 *734:ZN *473:3 5.30687
6 *473:7 *473:8 11.2440996
7 *473:8 *473:9 2.34006
8 *473:3 *473:9 10.6714
9 *473:2 *473:4 5.95438
*END

*D_NET *474 0.00726534

*CONN
*I *546:I I *C 68.1 69.6 *L 0.00104 *D DEL0
*I *733:ZN O *C 55.1 30.6 *L 0 *D MOAI22D0

*CAP
1 *733:ZN 0.000603491
2 *474:2 0.00322961
3 *474:3 0.000344423
4 *474:4 5.44552e-05
5 *474:5 0.00133097
6 *474:6 9.24506e-05
7 *474:4 *472:2 0.000396166016
8 *474:6 *15:2 0.000201800996
9 *733:ZN *516:3 0.000392686016
10 *474:2 *562:Z 0.000367615
11 *733:ZN *162:6 0.000251708008

*RES
1 *474:6 *474:2 5.15941
2 *733:ZN *474:3 6.80013
3 *474:5 *474:2 35.417099
4 *474:3 *474:6 6.88768
5 *474:4 *474:5 4.07748
6 *546:I *474:4 6.10299
*END

*D_NET *475 0.000969018

*CONN
*I *732:ZN O *C 41.3 45 *L 0 *D MOAI22D0
*I *700:D I *C 42.5 40.8 *L 0.000885 *D DFKCNQD1

*CAP
1 *732:ZN 1.10894e-05
2 *700:D 0.00025913
3 *475:2 0.000698793984

*RES
1 *700:D *475:2 2.66377
2 *732:ZN *475:2 5.62412024
*END

*D_NET *476 0.00075364

*CONN
*I *731:ZN O *C 44.5 38.6 *L 0 *D MOAI22D0
*I *712:D I *C 40.7 39.2 *L 0.000885 *D DFKCNQD1

*CAP
1 *731:ZN 0.000166352
2 *476:2 0.000587291016

*RES
1 *731:ZN *476:2 8.16172028
2 *712:D *476:2 1.50006
*END

*D_NET *477 0.00690028

*CONN
*I *543:I I *C 69.9 71.6 *L 0.00104 *D DEL0
*I *730:ZN O *C 52.3 41.4 *L 0 *D MOAI22D0

*CAP
1 *543:I 3.6094e-08
2 *730:ZN 0.000274784
3 *477:2 0.000449515
4 *477:3 0.00236542016
5 *477:4 0.000610927
6 *477:5 3.86206e-05
7 *477:6 0.000641607
8 *477:7 1.98517e-06
9 *477:8 0.00020588
10 *477:9 0.000277166
11 *477:10 0.000169606
12 *477:11 0.000461137
13 *477:2 *469:3 0.000287165996
14 *477:3 *11:3 0.000266797988
15 *477:4 *205:4 0.000849659063

*RES
1 *543:I *477:3 24.0265007
2 *477:10 *477:11 5.19494
3 *477:9 *477:10 2.09631
4 *477:7 *477:4 4.21021
5 *477:5 *477:6 4.81879
6 *477:5 *477:3 0.256631
7 *730:ZN *477:11 6.31715
8 *477:2 *477:9 4.0269
9 *477:8 *477:2 3.89565
10 *477:4 *477:8 4.48884
11 *477:6 *477:7 0.256631
*END

*D_NET *478 0.00160383

*CONN
*I *803:ZN O *C 43.5 58.4 *L 0 *D IND2D0
*I *777:A3 I *C 45.9 58.8 *L 0.000714 *D OAI32D0
*I *729:A2 I *C 46.3 57.2 *L 0.000671 *D AOI21D0
*I *693:A2 I *C 45.3 57.2 *L 0.000704 *D OAI32D0

*CAP
1 *803:ZN 0.000415797
2 *729:A2 0.000496351992
3 *693:A2 0.000419591
4 *478:4 5.94168e-05
5 *478:5 0.000212674

*RES
1 *693:A2 *478:5 7.46666002
2 *803:ZN *478:5 5.39093
3 *478:4 *478:5 2.26474
4 *729:A2 *478:4 4.16935
5 *777:A3 *478:4 2.99995
*END

*D_NET *479 0.000699027

*CONN
*I *748:ZN O *C 34.1 37 *L 0 *D NR2D0
*I *728:A1 I *C 33.5 37.2 *L 0.000647 *D NR2D0
*I *723:B I *C 35.9 37.2 *L 0.000718 *D AO21D0

*CAP
1 *748:ZN 0.000108044
2 *728:A1 0.000102509
3 *479:3 0.000297333008
4 *479:4 0.00019114

*RES
1 *479:3 *479:4 5.29547977
2 *728:A1 *479:3 1.97659
3 *748:ZN *479:3 3.23202
4 *723:B *479:4 3.00004
*END

*D_NET *480 0.001176

*CONN
*I *747:ZN O *C 55.1 54 *L 0 *D AOI21D0
*I *727:B I *C 59.3 53.6 *L 0.00073 *D OAI21D0
*I *716:B2 I *C 56.9 53.6 *L 0.000733 *D OAI32D0

*CAP
1 *727:B 0.000219436
2 *716:B2 0.000119148
3 *480:3 0.000450073984
4 *480:4 0.000387345

*RES
1 *727:B *480:3 3.50972
2 *480:3 *480:4 4.78596
3 *747:ZN *480:4 4.36346
4 *716:B2 *480:4 4.8071599
*END

*D_NET *481 0.00427282

*CONN
*I *757:ZN O *C 47.9 40.6 *L 0 *D NR2D0
*I *738:B1 I *C 31.3 40.8 *L 0.000689 *D MOAI22D0
*I *728:A2 I *C 33.1 37.2 *L 0.000664 *D NR2D0
*I *726:B I *C 37.1 39.2 *L 0.00072 *D AOI21D0
*I *723:A1 I *C 35.7 37.2 *L 0.000688 *D AO21D0

*CAP
1 *757:ZN 9.15264e-05
2 *738:B1 0.000514442
3 *726:B 8.39074e-05
4 *481:5 0.000440076
5 *481:6 0.000454032
6 *481:7 0.000359794
7 *481:8 0.000452503
8 *481:9 0.00161589
9 *481:10 0.000260648

*RES
1 *481:9 *481:10 1.60722
2 *481:8 *481:10 3.28201
3 *481:7 *481:10 3.66616
4 *481:6 *481:8 6.99159
5 *738:B1 *481:8 6.02442
6 *726:B *481:9 4.98176
7 *757:ZN *481:5 3.54176
8 *481:5 *481:9 13.2993002
9 *728:A2 *481:6 1.50007
10 *723:A1 *481:7 2.99993
*END

*D_NET *482 0.00160571

*CONN
*I *872:ZN O *C 32.5 40.4 *L 0 *D IND2D0
*I *822:A3 I *C 36.1 41 *L 0.00065 *D OA32D0
*I *726:A2 I *C 36.5 39.2 *L 0.000671 *D AOI21D0
*I *707:A2 I *C 33.9 40.8 *L 0.00102 *D OAI32D1

*CAP
1 *872:ZN 0.000219352
2 *822:A3 1.0442e-05
3 *726:A2 0.000549034
4 *482:4 0.000162499
5 *482:5 0.000664381953

*RES
1 *872:ZN *482:5 4.26847
2 *822:A3 *482:4 3.25484
3 *482:4 *482:5 4.48297
4 *707:A2 *482:5 4.49996
5 *726:A2 *482:4 7.18310022
*END

*D_NET *483 0.00148535

*CONN
*I *896:ZN O *C 45.9 33.4 *L 0 *D NR2D0
*I *857:A1 I *C 51.3 33.4 *L 0.000617 *D CKND2D0
*I *724:C I *C 48.7 33.6 *L 0.000686 *D AOI211D0
*I *717:A2 I *C 49.1 33.6 *L 0.00065 *D OAI211D0

*CAP
1 *896:ZN 0.000151243
2 *857:A1 0.000287743
3 *724:C 3.664e-06
4 *483:4 0.000710413984
5 *483:5 0.000332285

*RES
1 *483:4 *483:5 0.458071
2 *717:A2 *483:5 3.19469
3 *896:ZN *483:4 6.96683979
4 *724:C *483:4 3.19469
5 *857:A1 *483:5 5.49057
*END

*D_NET *484 0.000607152

*CONN
*I *724:ZN O *C 47.7 33.2 *L 0 *D AOI211D0
*I *715:B I *C 46.9 33.6 *L 0.000718 *D AO21D0

*CAP
1 *724:ZN 0.000607151992

*RES
1 *715:B *724:ZN 11.1599
*END

*D_NET *485 0.00600429

*CONN
*I *555:I I *C 64.9 28.4 *L 0.00104 *D DEL0
*I *723:Z O *C 36.5 36.8 *L 0 *D AO21D0

*CAP
1 *555:I 0.000599922
2 *723:Z 0.000128864
3 *485:2 0.000459427
4 *485:3 3.9748e-05
5 *485:5 0.000296647
6 *485:6 0.000834589
7 *485:7 0.00110799
8 *485:8 2.43628e-05
9 *485:9 0.000355162
10 *485:10 1.58755e-05
11 *485:11 0.00089116
12 *485:12 7.06368e-05
13 *485:2 *982:DA 0.000390293008
14 *485:7 *256:2 0.000594515039
15 *555:I *103:22 0.000195062988

*RES
1 *485:4 *485:5 2.33653
2 *485:9 *485:10 0.133574
3 *485:7 *485:8 0.132899
4 *485:3 *485:7 11.0529003
5 *485:10 *485:11 9.95311
6 *723:Z *485:6 1.7002
7 *555:I *485:4 7.45534
8 *485:8 *485:9 4.34722
9 *485:11 *485:12 0.133405
10 *485:2 *485:5 2.41411
11 *485:2 *485:3 1.76682
12 *485:6 *485:12 9.5168
*END

*D_NET *486 0.00195679

*CONN
*I *857:ZN O *C 51.5 33.2 *L 0 *D CKND2D0
*I *838:A1 I *C 51.3 28.4 *L 0.000647 *D NR2D0
*I *722:A1 I *C 50.5 30 *L 0.000645 *D AOI211D0
*I *717:C I *C 50.1 33.6 *L 0.000698 *D OAI211D0

*CAP
1 *857:ZN 9.52017e-06
2 *717:C 2.29168e-05
3 *486:4 0.000747191016
4 *486:5 0.000437107
5 *486:6 0.000740054

*RES
1 *486:4 *486:6 4.27524
2 *486:4 *486:5 4.80212
3 *857:ZN *486:5 2.0188
4 *838:A1 *486:6 5.19471979
5 *717:C *486:4 2.00969
6 *722:A1 *486:6 1.50001
*END

*D_NET *487 0.000424338

*CONN
*I *722:ZN O *C 50.5 29.6 *L 0 *D AOI211D0
*I *714:B I *C 52.9 30 *L 0.000718 *D AO21D0

*CAP
1 *722:ZN 0.000422030977
2 *714:B 2.30544e-06

*RES
1 *722:ZN *714:B 6.76456
*END

*D_NET *488 0.00610599

*CONN
*I *544:I I *C 67.3 71.6 *L 0.00104 *D DEL0
*I *721:ZN O *C 44.3 45 *L 0 *D MOAI22D0

*CAP
1 *544:I 0.000116617
2 *721:ZN 5.87084e-05
3 *488:2 0.00073763
4 *488:3 0.000153344
5 *488:4 0.000262189
6 *488:5 0.000277288
7 *488:6 0.000180966
8 *488:7 0.00117603
9 *488:8 0.00291033
10 *544:I *9:4 0.000232860996

*RES
1 *488:7 *488:8 28.3449993
2 *488:6 *488:7 10.0269
3 *544:I *488:3 4.07598
4 *721:ZN *488:2 1.23698
5 *488:5 *488:6 0.132781
6 *488:4 *488:5 4.1521
7 *488:3 *488:4 4.58547
8 *488:2 *488:8 7.60353
*END

*D_NET *489 0.00131035

*CONN
*I *720:ZN O *C 46.5 63.8 *L 0 *D OAI21D0
*I *708:D I *C 52.1 66 *L 0.000963 *D DFQD1

*CAP
1 *720:ZN 0.000323213
2 *489:2 0.000242327
3 *489:3 0.000744813047

*RES
1 *489:2 *489:3 7.34313011
2 *708:D *489:2 2.08419
3 *720:ZN *489:3 4.63853
*END

*D_NET *490 0.000949687

*CONN
*I *729:ZN O *C 46.9 57.6 *L 0 *D AOI21D0
*I *718:I I *C 47.9 57.4 *L 0.00062 *D CKND0
*I *693:B2 I *C 44.7 57.2 *L 0.000733 *D OAI32D0

*CAP
1 *729:ZN 0.000239284
2 *490:3 0.000710406016

*RES
1 *729:ZN *490:3 1.84697
2 *693:B2 *490:3 8.22189999
3 *718:I *729:ZN 0.734044
*END

*D_NET *491 1.3898e-05

*CONN
*I *718:ZN O *C 48.3 57.4 *L 0 *D CKND0
*I *690:B2 I *C 48.5 57.4 *L 0.000698 *D AO22D0

*CAP
1 *718:ZN 1.38980005e-05

*RES
1 *718:ZN *690:B2 0.250481
*END

*D_NET *492 0.000350698

*CONN
*I *717:ZN O *C 49.1 34.2 *L 0 *D OAI211D0
*I *691:B I *C 49.3 35.6 *L 0.000669 *D IOA21D0

*CAP
1 *717:ZN 0.000350698008

*RES
1 *717:ZN *691:B 6.1506
*END

*D_NET *493 0.00325224

*CONN
*I *551:I I *C 59.5 71.6 *L 0.00104 *D DEL0
*I *716:ZN O *C 57.9 54 *L 0 *D OAI32D0

*CAP
1 *716:ZN 0.00037894
2 *493:2 0.000949079
3 *493:3 0.000293121
4 *493:4 0.00163112

*RES
1 *493:2 *493:3 2.77461
2 *551:I *493:2 8.86428
3 *493:3 *493:4 12.8053999
4 *716:ZN *493:4 6.11586
*END

*D_NET *494 0.00703075

*CONN
*I *549:I I *C 69.1 66 *L 0.00104 *D DEL0
*I *715:Z O *C 47.5 33.2 *L 0 *D AO21D0

*CAP
1 *549:I 0.000100027
2 *715:Z 0.000179854
3 *494:2 0.00227061016
4 *494:3 5.33568e-06
5 *494:4 0.000430319
6 *494:5 0.000358322
7 *494:6 0.000399691
8 *494:7 0.00173115
9 *494:2 *12:2 0.000399523008
10 *494:2 *14:2 0.000652056992
11 *494:2 *18:2 0.000503835039

*RES
1 *494:5 *494:6 3.45272
2 *494:4 *494:7 24.1162
3 *715:Z *494:2 5.0734
4 *494:3 *494:4 3.44933
5 *549:I *494:3 4.50009
6 *494:5 *494:7 7.00773
7 *494:2 *494:6 24.7352009
*END

*D_NET *495 0.00641527

*CONN
*I *552:I I *C 69.3 64.4 *L 0.00104 *D DEL0
*I *755:ZN O *C 47.5 38.6 *L 0 *D IND3D1

*CAP
1 *552:I 0.000268268
2 *755:ZN 0.000486821
3 *495:2 0.000284185
4 *495:3 0.00113281
5 *495:4 0.000218644
6 *495:5 0.000361959
7 *495:6 0.000318799
8 *495:7 0.000785141
9 *495:8 0.000114381
10 *495:9 0.00197939
11 *495:6 *33:2 0.000238587012
12 *495:2 *268:4 0.00022624

*RES
1 *495:2 *495:8 2.0814
2 *495:7 *495:9 18.4582996
3 *495:6 *495:7 7.06579
4 *755:ZN *495:4 5.7685
5 *495:2 *495:9 4.64753
6 *495:4 *495:5 2.14308
7 *495:3 *495:8 8.73795
8 *552:I *495:6 6.41714
9 *495:3 *495:5 2.68019
*END

*D_NET *496 0.00766608

*CONN
*I *548:I I *C 65.5 69.6 *L 0.00104 *D DEL0
*I *714:Z O *C 53.5 29.6 *L 0 *D AO21D0

*CAP
1 *548:I 1.17989e-06
2 *714:Z 4.9341e-06
3 *496:2 0.00118121
4 *496:3 0.00022552
5 *496:4 0.000795114
6 *496:5 0.000571578
7 *496:6 0.00015588
8 *496:7 0.000500275
9 *496:8 0.000204872
10 *496:9 0.000645187
11 *496:10 0.000270464
12 *496:11 0.00175737
13 *496:12 0.00022906
14 *496:13 0.000578469
15 *496:14 0.000150463
16 *496:2 *93:35 0.000394478008

*RES
1 *496:13 *496:14 0.25673
2 *496:11 *496:14 14.5293999
3 *496:7 *496:8 1.12425
4 *548:I *496:3 4.40232
5 *496:5 *496:7 5.36472
6 *714:Z *496:2 0.51878
7 *496:3 *496:4 5.19556
8 *496:6 *496:11 2.51963
9 *496:9 *496:10 1.87315
10 *496:10 *496:12 4.64974
11 *496:4 *496:5 3.67004
12 *496:12 *496:13 3.85117
13 *496:2 *496:6 11.324
14 *496:8 *496:9 5.5157
*END

*D_NET *497 0.00211914

*CONN
*I *984:DA I *C 67.3 53.6 *L 0.000727 *D DFXD1
*I *727:ZN O *C 59.3 53 *L 0 *D OAI21D0
*I *713:B I *C 65.5 51.6 *L 0.000655 *D IAO21D0

*CAP
1 *727:ZN 0.000385425
2 *713:B 0.000356401
3 *497:3 0.000866572031
4 *497:4 0.000510753

*RES
1 *727:ZN *497:3 4.67833
2 *713:B *497:4 4.60214
3 *984:DA *497:4 5.29426
4 *497:3 *497:4 7.29944992
*END

*D_NET *498 0.00506197

*CONN
*I *554:I I *C 69.3 32 *L 0.00104 *D DEL0
*I *763:ZN O *C 50.1 42.4 *L 0 *D ND3D0

*CAP
1 *554:I 0.000660757
2 *763:ZN 3.89839e-06
3 *498:2 0.000514822
4 *498:3 0.00090276
5 *498:4 4.31578e-05
6 *498:5 0.000122379
7 *498:6 0.000662809
8 *498:7 0.000371697
9 *498:8 1.65303e-07
10 *498:6 *167:5 0.000274845
11 *498:2 *17:22 0.000261220996
12 *498:3 *22:4 0.000470059023
13 *498:3 *65:12 0.000773406016

*RES
1 *498:2 *498:8 6.42083
2 *554:I *498:4 7.72853994
3 *498:3 *498:7 4.79378
4 *498:5 *498:6 6.20385
5 *498:4 *498:3 7.5579
6 *763:ZN *498:5 1.99546
7 *498:7 *498:8 6.13203
8 *498:6 *498:2 1.4024
*END

*D_NET *499 0.00136772

*CONN
*I *726:ZN O *C 37.1 39.6 *L 0 *D AOI21D0
*I *707:B2 I *C 34.5 40.8 *L 0.00106 *D OAI32D1
*I *703:A1 I *C 38.1 40.8 *L 0.000672 *D OAI22D0

*CAP
1 *726:ZN 0.000184063
2 *707:B2 0.000726703984
3 *703:A1 4.96667e-05
4 *499:3 0.00040728

*RES
1 *707:B2 *499:3 10.5306997
2 *726:ZN *499:3 2.5954
3 *703:A1 *499:3 4.90011
*END

*D_NET *500 0.00655103

*CONN
*I *557:I I *C 62.3 28.4 *L 0.00104 *D DEL0
*I *707:ZN O *C 34.3 41.4 *L 0 *D OAI32D1

*CAP
1 *557:I 0.000386218
2 *707:ZN 0.000820243
3 *500:2 0.000345652
4 *500:3 0.00196056
5 *500:4 5.78281e-05
6 *500:5 2.09414e-07
7 *500:6 0.000387774
8 *500:7 2.60271e-06
9 *500:8 0.00013914
10 *500:9 0.000340716
11 *500:10 0.00107244
12 *500:2 *734:B1 0.000373393008
13 *500:3 *515:8 0.000664273984

*RES
1 *500:9 *500:10 10.6113997
2 *500:7 *500:2 4.15236
3 *707:ZN *500:5 6.75826
4 *500:8 *500:9 2.93378
5 *500:2 *500:8 2.39815
6 *500:6 *500:7 0.132934
7 *500:3 *500:10 7.53708
8 *500:3 *500:5 6.46195
9 *500:4 *500:6 5.80311
10 *557:I *500:4 5.52882
*END

*D_NET *501 0.00175045

*CONN
*I *728:ZN O *C 33.5 37 *L 0 *D NR2D0
*I *706:A1 I *C 29.3 37.2 *L 0.000672 *D OAI22D0
*I *692:B2 I *C 33.1 35.6 *L 0.00106 *D OAI32D1

*CAP
1 *728:ZN 9.26742e-05
2 *706:A1 0.000478221016
3 *692:B2 0.000463393
4 *501:3 0.000299973
5 *501:4 0.000261976
6 *501:5 0.000154211

*RES
1 *501:3 *501:4 3.4238
2 *728:ZN *501:3 3.00006
3 *692:B2 *501:5 8.90371037
4 *706:A1 *501:4 4.8002
5 *501:3 *501:5 1.50003
*END

*D_NET *502 0.00468025

*CONN
*I *556:I I *C 69.3 33.6 *L 0.00104 *D DEL0
*I *706:ZN O *C 29.1 37 *L 0 *D OAI22D0

*CAP
1 *502:2 0.000477219
2 *502:3 0.000219275
3 *502:4 0.000207116
4 *502:5 0.00377666

*RES
1 *502:4 *502:5 40.4944992
2 *556:I *502:2 4.50014
3 *706:ZN *502:3 4.71517
4 *502:3 *502:5 2.99989
5 *502:2 *502:4 3.83899
*END

*D_NET *503 0.00181552

*CONN
*I *737:ZN O *C 49.1 64.6 *L 0 *D NR2D0
*I *705:B2 I *C 52.5 69.6 *L 0.000733 *D OAI32D0
*I *694:B1 I *C 50.7 69.6 *L 0.000675 *D OAI22D0

*CAP
1 *737:ZN 0.000965637969
2 *694:B1 8.75388e-05
3 *503:3 0.00075894
4 *503:4 3.40371e-06

*RES
1 *503:3 *503:4 0.256646
2 *705:B2 *503:3 8.59455013
3 *737:ZN *503:4 7.6098
4 *694:B1 *503:3 3.18361
*END

*D_NET *504 0.000729314

*CONN
*I *705:ZN O *C 53.5 69.2 *L 0 *D OAI32D0
*I *685:D I *C 54.7 68 *L 0.000963 *D DFQD1

*CAP
1 *504:2 0.000729314063

*RES
1 *705:ZN *504:2 4.52906
2 *685:D *504:2 4.52954006
*END

*D_NET *505 0.00121697

*CONN
*I *736:ZN O *C 43.1 63 *L 0 *D IOA21D0
*I *704:B2 I *C 39.1 61 *L 0.000698 *D AO22D0
*I *702:A1 I *C 40.9 62.6 *L 0.00073 *D AO22D0

*CAP
1 *736:ZN 0.000142222
2 *704:B2 0.000566596992
3 *505:3 0.000508152

*RES
1 *704:B2 *505:3 7.86851978
2 *736:ZN *505:3 7.03948
3 *702:A1 *505:3 5.42906
*END

*D_NET *506 0.000660466

*CONN
*I *995:D I *C 35.5 60.8 *L 0.000958 *D DFD1
*I *704:Z O *C 37.7 60.2 *L 0 *D AO22D0

*CAP
1 *995:D 8.35665e-05
2 *506:2 0.000576901953

*RES
1 *704:Z *506:2 5.06950998
2 *995:D *506:2 3.64557
*END

*D_NET *507 0.00624769

*CONN
*I *759:ZN O *C 45.7 38.8 *L 0 *D ND3D0
*I *754:I I *C 32.1 39.4 *L 0.00062 *D CKND0
*I *748:A1 I *C 34.1 37.2 *L 0.000647 *D NR2D0
*I *738:A1 I *C 30.3 40.8 *L 0.000721 *D MOAI22D0
*I *707:A3 I *C 34.3 40.8 *L 0.00103 *D OAI32D1
*I *706:B1 I *C 28.3 37.2 *L 0.000675 *D OAI22D0
*I *703:B1 I *C 39.1 40.8 *L 0.000675 *D OAI22D0
*I *692:A3 I *C 32.9 35.6 *L 0.00103 *D OAI32D1

*CAP
1 *759:ZN 0.000203937
2 *748:A1 0.000385292
3 *692:A3 0.000101831
4 *507:8 8.28063e-05
5 *507:9 0.000811944
6 *507:10 0.000705979
7 *507:11 0.000121521
8 *507:12 0.000514721
9 *507:13 0.000211555
10 *507:14 0.000617506
11 *507:15 1.71453e-05
12 *507:16 0.000853911
13 *507:17 0.000947401016
14 *507:14 *628:Z 0.000273032012
15 *759:ZN *508:3 0.000399114023

*RES
1 *707:A3 *507:9 3.48716
2 *507:9 *507:10 1.47666
3 *748:A1 *507:10 3.44708
4 *507:12 *507:13 0.525538
5 *507:11 *507:12 1.82655
6 *507:10 *507:11 6.32497
7 *507:9 *507:15 7.73423
8 *738:A1 *507:12 4.99957
9 *507:13 *507:14 7.94052
10 *759:ZN *507:8 4.27413
11 *507:8 *507:16 8.3657198
12 *703:B1 *507:16 3.38938
13 *692:A3 *507:17 7.72683
14 *507:15 *507:16 1.16851
15 *507:13 *507:17 5.59634
16 *706:B1 *507:14 1.50002
17 *754:I *507:11 1.50002
*END

*D_NET *508 0.00564412

*CONN
*I *558:I I *C 70.1 37.2 *L 0.00104 *D DEL0
*I *703:ZN O *C 38.3 40.6 *L 0 *D OAI22D0

*CAP
1 *558:I 0.000677948
2 *508:2 0.000388208
3 *508:3 0.00110441008
4 *508:4 0.000539911
5 *508:5 0.000220292
6 *508:6 1.51333e-05
7 *508:7 0.000858064
8 *508:8 0.000667095
9 *508:2 *698:D 0.000603945977
10 *508:3 *759:ZN 0.000399114023
11 *508:4 *712:CN 0.000170018008

*RES
1 *508:4 *508:8 8.24763
2 *508:2 *508:3 9.7626
3 *508:6 *508:7 9.59654
4 *508:3 *508:4 0.133002
5 *508:7 *508:2 2.51606
6 *508:5 *508:6 3.50619
7 *703:ZN *508:8 6.22564
8 *558:I *508:5 9.98441982
*END

*D_NET *509 0.00402404

*CONN
*I *752:ZN O *C 46.3 62.2 *L 0 *D CKND0
*I *736:A1 I *C 42.3 62.4 *L 0.000669 *D IOA21D0
*I *729:A1 I *C 46.7 57.2 *L 0.00069 *D AOI21D0
*I *704:A1 I *C 38.9 60.6 *L 0.00073 *D AO22D0
*I *702:B2 I *C 40.7 62.2 *L 0.000698 *D AO22D0
*I *690:A1 I *C 48.7 57 *L 0.00073 *D AO22D0

*CAP
1 *704:A1 0.000349892
2 *702:B2 7.75126e-05
3 *690:A1 0.000115762
4 *509:6 0.000365864
5 *509:7 0.000688319
6 *509:8 0.000475975
7 *509:9 0.00071496
8 *509:10 0.00054788
9 *509:11 0.000687861

*RES
1 *509:8 *509:10 3.21634
2 *690:A1 *509:6 3.19468
3 *752:ZN *509:10 5.35568
4 *702:B2 *509:9 6.20047
5 *509:8 *509:11 1.52744
6 *509:7 *509:10 7.39471006
7 *509:6 *509:7 4.94767
8 *736:A1 *509:11 5.75173
9 *509:9 *509:11 1.75288
10 *704:A1 *509:9 6.14067
11 *729:A1 *509:7 3.00004
*END

*D_NET *510 0.000501994

*CONN
*I *992:D I *C 41.5 64.4 *L 0.000958 *D DFD1
*I *702:Z O *C 42.1 63 *L 0 *D AO22D0

*CAP
1 *992:D 0.000379563984
2 *702:Z 0.000122432

*RES
1 *992:D *702:Z 5.32293
*END

*D_NET *511 0.0119329

*CONN
*I *986:E I *C 33.3 53.6 *L 0.00161 *D EDFKCND1
*I *985:E I *C 43.5 51.6 *L 0.00161 *D EDFKCND1
*I *983:E I *C 59.1 40.8 *L 0.00161 *D EDFKCND1
*I *981:E I *C 58.3 51.6 *L 0.00161 *D EDFKCND1
*I *746:ZN O *C 54.9 36.8 *L 0 *D INVD1
*I *717:B I *C 49.7 33.6 *L 0.000726 *D OAI211D0
*I *711:E I *C 59.1 37.2 *L 0.00161 *D EDFKCNQD1
*I *710:E I *C 54.5 50 *L 0.00161 *D EDFKCNQD1
*I *709:E I *C 55.7 50 *L 0.00161 *D EDFKCNQD1
*I *696:E I *C 27.9 50 *L 0.00161 *D EDFKCNQD1
*I *695:E I *C 27.7 53.6 *L 0.00161 *D EDFKCNQD1

*CAP
1 *986:E 9.90656e-05
2 *985:E 4.84751e-05
3 *981:E 3.76544e-05
4 *746:ZN 7.43345e-05
5 *717:B 0.000623445
6 *710:E 6.82703e-05
7 *709:E 0.000133438
8 *696:E 0.000552944
9 *695:E 2.32439e-05
10 *511:11 0.000435635
11 *511:12 0.000129848
12 *511:13 0.000447109
13 *511:14 0.000337351
14 *511:15 0.000352595
15 *511:16 0.000641869
16 *511:17 0.000470251
17 *511:18 0.000840205
18 *511:19 0.000407404
19 *511:20 0.00018958
20 *511:21 0.00026526
21 *511:22 0.000649574
22 *511:23 0.000318197
23 *511:24 0.000224183
24 *511:25 6.89241e-05
25 *511:26 0.00029221
26 *511:27 0.000190426
27 *511:28 0.000148502
28 *511:29 0.000236491
29 *511:30 0.000184349
30 *511:31 0.000559842
31 *511:26 *67:4 0.000514366992
32 *511:11 *768:B 0.000272011016
33 *511:12 *22:7 0.000684207969
34 *717:B *103:19 0.000374498008
35 *511:13 *230:2 0.000835473984
36 *986:E *695:Q 0.000201697012

*RES
1 *511:28 *511:11 3.89527
2 *511:14 *511:15 2.33931
3 *511:25 *511:30 3.48935
4 *511:24 *511:30 0.615234
5 *511:13 *511:24 6.15324
6 *511:16 *511:13 1.00458
7 *986:E *511:19 2.28686
8 *511:14 *511:16 3.92389
9 *710:E *511:30 3.19468
10 *511:19 *511:31 6.90344
11 *511:18 *511:26 6.62432
12 *511:17 *511:29 8.12821
13 *695:E *511:20 2.00968
14 *985:E *511:23 2.65107
15 *511:19 *511:11 3.72819
16 *981:E *511:13 3.11813
17 *511:25 *511:26 4.34588
18 *511:23 *511:27 5.43102
19 *709:E *511:24 4.09331
20 *511:12 *511:22 0.525604
21 *511:12 *511:29 5.9688
22 *511:27 *511:28 1.8808
23 *511:21 *511:22 4.87615
24 *511:18 *511:23 2.38698
25 *511:15 *511:21 3.68531
26 *696:E *511:20 8.48841
27 *717:B *511:17 7.00045
28 *746:ZN *511:29 3.00001
29 *711:E *511:22 1.5
30 *983:E *511:21 1.5
31 *511:20 *511:31 1.5
*END

*D_NET *512 0.00537635

*CONN
*I *758:ZN O *C 48.1 62 *L 0 *D CKND2D0
*I *752:I I *C 45.9 62.2 *L 0.00062 *D CKND0
*I *749:A1 I *C 48.3 64.4 *L 0.000647 *D NR2D0
*I *742:A1 I *C 39.1 57.2 *L 0.000721 *D MOAI22D0
*I *741:A1 I *C 41.1 57.2 *L 0.000721 *D MOAI22D0
*I *705:A3 I *C 52.7 69.6 *L 0.000714 *D OAI32D0
*I *694:A1 I *C 51.7 69.6 *L 0.000672 *D OAI22D0
*I *693:A3 I *C 44.9 57.2 *L 0.000714 *D OAI32D0

*CAP
1 *752:I 1.59872e-05
2 *749:A1 1.68548e-06
3 *742:A1 0.00036591
4 *741:A1 0.000137627
5 *705:A3 0.00018218
6 *693:A3 8.35178e-05
7 *512:8 0.000267805
8 *512:9 0.000812188984
9 *512:10 6.86956e-05
10 *512:11 0.000121032
11 *512:12 0.000135321
12 *512:13 0.000683362
13 *512:14 0.000174695
14 *512:15 0.000382269
15 *512:16 9.22675e-05
16 *512:17 0.000554993
17 *512:18 0.000390436
18 *512:19 0.000259551
19 *749:A1 *737:A2 0.000354672031
20 *752:I *186:7 0.000292142988

*RES
1 *694:A1 *512:8 2.0532
2 *752:I *512:11 2.40535
3 *741:A1 *512:18 5.00378
4 *742:A1 *512:18 7.28485012
5 *512:10 *512:15 2.61721
6 *512:9 *512:17 4.90562
7 *512:16 *512:18 3.61608
8 *512:13 *512:14 0.498544
9 *693:A3 *512:14 3.2148
10 *512:14 *512:16 2.24817
11 *512:12 *512:13 4.36606
12 *705:A3 *512:8 4.93786
13 *512:15 *512:19 4.70032
14 *512:11 *512:12 1.33634
15 *749:A1 *512:10 3.19468
16 *512:8 *512:9 4.91096
17 *758:ZN *512:15 3.00004
18 *512:10 *512:17 1.49997
19 *512:11 *512:19 1.49997
*END

*D_NET *513 0.000470453

*CONN
*I *694:ZN O *C 51.5 69.4 *L 0 *D OAI22D0
*I *684:D I *C 52.5 71.6 *L 0.000963 *D DFQD1

*CAP
1 *694:ZN 0.000470453008

*RES
1 *694:ZN *684:D 5.33108
*END

*D_NET *514 0.00490274

*CONN
*I *553:I I *C 64.9 68 *L 0.00104 *D DEL0
*I *693:ZN O *C 45.7 57.6 *L 0 *D OAI32D0

*CAP
1 *553:I 0.000261402
2 *693:ZN 0.000456818
3 *514:2 0.00039564
4 *514:3 0.00057577
5 *514:4 5.64271e-05
6 *514:5 0.000761207969
7 *514:6 0.000288048
8 *514:7 0.000393398
9 *514:8 0.000690529
10 *514:9 0.000532038
11 *514:10 0.000491431

*RES
1 *514:6 *514:7 2.34276
2 *693:ZN *514:8 4.55473
3 *514:8 *514:10 5.79494
4 *514:7 *514:9 5.30259
5 *514:5 *514:6 2.25431
6 *514:4 *514:5 6.48957
7 *514:3 *514:4 0.32802
8 *514:9 *514:10 3.83472
9 *514:2 *514:3 4.93131
10 *553:I *514:2 8.48682976
*END

*D_NET *515 0.00524708

*CONN
*I *562:I I *C 61.3 30 *L 0.00104 *D DEL0
*I *692:ZN O *C 32.9 35 *L 0 *D OAI32D1

*CAP
1 *562:I 0.000187746
2 *692:ZN 5.73607e-05
3 *515:2 0.000244141
4 *515:3 3.84634e-05
5 *515:4 0.000100339
6 *515:5 0.00114177
7 *515:6 0.000476817
8 *515:7 0.000121429
9 *515:8 0.00121773008
10 *515:5 *20:2 0.000374781992
11 *515:2 *93:27 0.000246334004
12 *515:8 *500:3 0.000664273984
13 *515:2 *734:A1 0.000375880977

*RES
1 *515:7 *515:8 5.56141
2 *515:3 *515:2 7.3406
3 *515:6 *515:8 6.57693
4 *515:2 *515:4 3.74835
5 *562:I *515:3 3.93265
6 *692:ZN *515:7 4.29726
7 *515:5 *515:6 3.83425
8 *515:4 *515:5 12.4004002
*END

*D_NET *516 0.00788811

*CONN
*I *545:I I *C 70.1 68 *L 0.00104 *D DEL0
*I *691:ZN O *C 49.5 35 *L 0 *D IOA21D0

*CAP
1 *691:ZN 0.000443913
2 *516:2 0.000462528
3 *516:3 0.000454867
4 *516:4 0.0017134
5 *516:5 4.24853e-05
6 *516:7 0.000605932
7 *516:8 0.00121202
8 *516:9 3.84329e-06
9 *516:10 0.000654169
10 *516:11 0.000576022
11 *516:12 0.000239591
12 *516:13 0.000326993
13 *516:14 0.00044054
14 *516:2 *11:3 0.000319092988
15 *516:3 *733:ZN 0.000392686016

*RES
1 *516:8 *516:9 0.256553
2 *545:I *516:2 7.3203
3 *516:4 *516:11 6.98496
4 *516:5 *516:8 8.69486
5 *516:6 *516:7 0.256553
6 *516:9 *516:10 5.01171
7 *691:ZN *516:14 7.50932
8 *516:13 *516:14 3.95755
9 *516:4 *516:6 12.7181997
10 *516:3 *516:13 3.14384
11 *516:12 *516:3 4.96436
12 *516:7 *516:10 4.15395
13 *516:11 *516:12 2.47044
14 *516:2 *516:5 0.646428
*END

*D_NET *517 0.00367147

*CONN
*I *559:I I *C 69.9 62.4 *L 0.00104 *D DEL0
*I *690:Z O *C 49.9 56.6 *L 0 *D AO22D0

*CAP
1 *690:Z 0.000765381
2 *517:2 0.00180689
3 *517:3 0.00027916
4 *517:4 0.000406209
5 *517:5 0.000413819

*RES
1 *559:I *517:3 6.08912
2 *690:Z *517:2 6.43143
3 *517:4 *517:5 3.34897
4 *517:3 *517:4 2.72206
5 *517:2 *517:5 16.0237999
*END

*D_NET *518 0.00189222

*CONN
*I *713:ZN O *C 65.3 51.2 *L 0 *D IAO21D0
*I *689:B I *C 63.9 48 *L 0.00073 *D OAI21D0
*I *683:B2 I *C 61.7 48 *L 0.000733 *D OAI32D0

*CAP
1 *713:ZN 2.34991e-05
2 *683:B2 0.000548311
3 *518:3 0.000810958984
4 *518:4 0.000509456

*RES
1 *713:ZN *518:3 8.03267956
2 *683:B2 *518:4 6.3139
3 *518:3 *518:4 3.53942
4 *689:B *518:4 5.39585
*END

*D_NET *519 0.000607002

*CONN
*I *689:ZN O *C 63.9 48.6 *L 0 *D OAI21D0
*I *681:A1 I *C 65.5 48 *L 0.000669 *D IOA21D0

*CAP
1 *689:ZN 0.000164762
2 *519:2 0.000442236992

*RES
1 *689:ZN *519:2 8.18776035
2 *681:A1 *519:2 2.99995
*END

*D_NET *520 0.0012911

*CONN
*I *990:D I *C 67.3 46.4 *L 0.000958 *D DFD1
*I *683:ZN O *C 62.7 47.6 *L 0 *D OAI32D0

*CAP
1 *990:D 0.000177158
2 *683:ZN 0.000137086
3 *520:2 5.41106e-05
4 *520:3 0.000922752969

*RES
1 *520:2 *520:3 6.13793993
2 *990:D *520:2 1.69473
3 *683:ZN *520:3 5.378
*END

*D_NET *521 0.00371983

*CONN
*I *541:I I *C 62.9 69.6 *L 0.00104 *D DEL0
*I *681:ZN O *C 66.3 48.6 *L 0 *D IOA21D0

*CAP
1 *541:I 0.000629141
2 *681:ZN 0.000212595
3 *521:2 0.00134436
4 *521:3 4.93012e-05
5 *521:4 3.94674e-05
6 *521:5 0.00144497

*RES
1 *521:3 *521:5 14.5597
2 *521:2 *521:4 9.01517
3 *681:ZN *521:2 5.91999
4 *541:I *521:3 8.67415
5 *521:4 *521:5 1.50005
*END

*D_NET *522 0.000654152

*CONN
*I *588:I I *C 67.9 28.4 *L 0.00104 *D DEL0
*I *904:QN O *C 69.1 32.4 *L 0 *D DFKCND1

*CAP
1 *588:I 0.000654151992

*RES
1 *588:I *904:QN 8.88156
*END

*D_NET *523 0.000285621

*CONN
*I *589:I I *C 69.3 40.8 *L 0.00104 *D DEL0
*I *725:QN O *C 68.9 43.2 *L 0 *D DFKCND1

*CAP
1 *589:I 2.47078e-05
2 *523:2 0.000260913008

*RES
1 *589:I *523:2 0.517215
2 *725:QN *523:2 4.36300993
*END

*D_NET *524 0.000376026

*CONN
*I *960:ZN O *C 44.5 63 *L 0 *D IOA21D0
*I *959:A1 I *C 44.5 64.4 *L 0.00067 *D XOR3D0

*CAP
1 *960:ZN 0.000296014004
2 *959:A1 8.00121e-05

*RES
1 *960:ZN *959:A1 6.1589
*END

*D_NET *525 0.000404504

*CONN
*I *961:Z O *C 41.9 57.6 *L 0 *D CKXOR2D0
*I *741:A2 I *C 41.3 57.2 *L 0.000697 *D MOAI22D0

*CAP
1 *741:A2 7.79799e-05
2 *525:2 0.000326523008

*RES
1 *961:Z *525:2 4.04111
2 *741:A2 *525:2 4.5
*END

*D_NET *526 0.000323985

*CONN
*I *962:Z O *C 39.5 58.4 *L 0 *D CKXOR2D0
*I *742:A2 I *C 39.3 57.2 *L 0.000697 *D MOAI22D0

*CAP
1 *742:A2 0.00032398502

*RES
1 *742:A2 *962:Z 6.04064
*END

*D_NET *527 0.000566733

*CONN
*I *964:ZN O *C 36.7 62.2 *L 0 *D CKND0
*I *963:I0 I *C 38.1 62.4 *L 0.000706 *D MUX2ND0

*CAP
1 *527:2 0.000566733008

*RES
1 *963:I0 *527:2 6.28434992
2 *964:ZN *527:2 2.99997
*END

*D_NET *528 0.000381171

*CONN
*I *963:ZN O *C 38.5 62.2 *L 0 *D MUX2ND0
*I *704:A2 I *C 38.5 60.8 *L 0.000745 *D AO22D0

*CAP
1 *963:ZN 0.000381170977

*RES
1 *704:A2 *963:ZN 5.42861
*END

*D_NET *529 0.000764924

*CONN
*I *965:ZN O *C 35.3 32.2 *L 0 *D XNR2D0
*I *811:B I *C 35.3 28.4 *L 0.000707 *D AOI211D0

*CAP
1 *965:ZN 0.000659738984
2 *811:B 0.00010519

*RES
1 *965:ZN *811:B 9.16454
*END

*D_NET *530 0.000509941

*CONN
*I *966:ZN O *C 54.5 35.8 *L 0 *D XNR2D0
*I *809:C I *C 55.5 37.2 *L 0.000717 *D OA211D0

*CAP
1 *966:ZN 0.000509940977

*RES
1 *966:ZN *809:C 5.34396
*END

*D_NET *531 0.000193139

*CONN
*I *967:Z O *C 29.5 40.4 *L 0 *D CKXOR2D0
*I *738:A2 I *C 30.1 40.8 *L 0.000697 *D MOAI22D0

*CAP
1 *967:Z 0.000193139004

*RES
1 *738:A2 *967:Z 5.14784
*END

*D_NET *532 0.000193

*CONN
*I *968:ZN O *C 34.5 28.6 *L 0 *D XNR2D0
*I *811:C I *C 34.9 28.4 *L 0.000686 *D AOI211D0

*CAP
1 *811:C 0.000193

*RES
1 *968:ZN *811:C 3.4513
*END

*D_NET *533 0.000473028

*CONN
*I *1004:Z O *C 32.7 65.8 *L 0 *D CKAN2D0
*I *823:A1 I *C 33.1 68.2 *L 0.000964 *D OR2XD1

*CAP
1 *1004:Z 0.000473028008

*RES
1 *1004:Z *823:A1 5.57777
*END

*D_NET *534 6.3715e-05

*CONN
*I *1005:ZN O *C 37.1 65.6 *L 0 *D IND2D0
*I *859:A1 I *C 36.3 66 *L 0.00098 *D AN2XD1

*CAP
1 *859:A1 6.37150049e-05

*RES
1 *859:A1 *1005:ZN 0.755214
*END

*D_NET *535 0.000702958

*CONN
*I *1006:ZN O *C 51.3 57.6 *L 0 *D IND2D0
*I *873:A1 I *C 51.9 60.8 *L 0.00098 *D AN2XD1

*CAP
1 *1006:ZN 9.70181e-05
2 *873:A1 2.95731e-07
3 *535:2 0.000605647031

*RES
1 *1006:ZN *535:2 1.92264
2 *873:A1 *535:2 6.65340996
*END

