*SPEF "IEEE 1481-1998"
*DESIGN "sram_wrapper_c"
*DATE "Thu Apr  2 21:36:09 2026"
*VENDOR "Cadence Design Systems, Inc."
*PROGRAM "Innovus"
*VERSION "21.16-s078_1"
*DESIGN_FLOW "COUPLING C" "PIN_CAP NONE" "NAME_SCOPE LOCAL"
*DIVIDER /
*DELIMITER :
*BUS_DELIMITER []
*T_UNIT 1 NS
*C_UNIT 1 PF
*R_UNIT 1 OHM
*L_UNIT 1 HENRY

// MMMC spef file for corner 'RC_WORST'

*NAME_MAP

*1 FE_PHN235_sram_din_18
*2 FE_PHN234_sram_din_13
*3 FE_PHN233_sram_din_1
*4 FE_PHN232_sram_din_8
*5 FE_PHN231_sram_din_9
*6 FE_PHN230_sram_din_3
*7 FE_PHN229_sram_din_5
*8 FE_PHN228_sram_din_4
*9 FE_PHN227_sram_din_11
*10 FE_PHN226_sram_din_10
*11 FE_PHN225_sram_din_0
*12 FE_PHN224_sram_din_12
*13 FE_PHN223_sram_din_6
*14 FE_PHN222_sram_din_2
*15 FE_PHN221_sram_din_33
*16 FE_PHN220_sram_din_35
*17 FE_PHN219_sram_din_34
*18 FE_PHN218_sram_din_42
*19 FE_PHN217_sram_din_47
*20 FE_PHN216_sram_din_37
*21 FE_PHN215_sram_din_49
*22 FE_PHN214_sram_din_32
*23 FE_PHN213_sram_din_43
*24 FE_PHN212_sram_din_38
*25 FE_PHN211_sram_din_50
*26 FE_PHN210_sram_din_41
*27 FE_PHN209_sram_din_45
*28 FE_PHN208_sram_din_46
*29 FE_PHN207_sram_addr_2
*30 FE_PHN206_sram_din_48
*31 FE_PHN205_sram_addr_7
*32 FE_PHN204_sram_addr_8
*33 FE_PHN203_sram_din_36
*34 FE_PHN202_sram_din_53
*35 FE_PHN201_sram_din_51
*36 FE_PHN200_sram_din_62
*37 FE_PHN199_sram_din_54
*38 FE_PHN198_sram_din_52
*39 FE_PHN197_sram_din_55
*40 FE_PHN196_sram_din_60
*41 FE_PHN195_sram_din_7
*42 FE_PHN194_tpu_we
*43 FE_PHN193_bus_addr_0
*44 FE_PHN192_bus_addr_5
*45 FE_PHN191_bus_addr_10
*46 FE_PHN190_bus_addr_11
*47 FE_PHN189_bus_addr_2
*48 FE_PHN188_bus_addr_1
*49 FE_PDN16_n_16
*50 FE_PHN187_tpu_din_18
*51 FE_PHN186_sram_din_1
*52 FE_PHN185_sram_din_8
*53 FE_PHN184_sram_din_0
*54 FE_PHN183_sram_din_19
*55 FE_PHN182_sram_din_20
*56 FE_PHN181_sram_din_21
*57 FE_PHN180_bus_addr_2
*58 FE_PHN179_tpu_we
*59 FE_PHN178_sram_din_11
*60 FE_PHN177_sram_din_9
*61 FE_PHN176_sram_din_10
*62 FE_PHN175_sram_din_8
*63 FE_PHN174_sram_din_0
*64 FE_PHN173_sram_din_1
*65 FE_PHN172_sram_din_12
*66 FE_PHN171_sram_din_13
*67 FE_PHN170_sram_din_4
*68 FE_PHN169_sram_din_3
*69 FE_PHN168_sram_din_5
*70 FE_PHN167_sram_din_33
*71 FE_PHN166_sram_din_32
*72 FE_PHN165_sram_din_35
*73 FE_PHN164_sram_din_34
*74 FE_PHN163_sram_din_37
*75 FE_PHN162_sram_din_38
*76 FE_PHN161_sram_din_36
*77 FE_PHN160_sram_din_31
*78 FE_PHN159_sram_din_16
*79 FE_PHN158_sram_din_28
*80 FE_PHN157_sram_din_22
*81 FE_PHN156_sram_din_23
*82 FE_PHN155_sram_din_24
*83 FE_PHN154_sram_din_25
*84 FE_PHN153_sram_din_26
*85 FE_PHN152_sram_din_29
*86 FE_PHN151_sram_din_27
*87 FE_PHN150_sram_din_14
*88 FE_PHN149_sram_din_15
*89 FE_PHN148_sram_din_44
*90 FE_PHN147_sram_addr_4
*91 FE_PHN146_sram_din_41
*92 FE_PHN145_bus_addr_1
*93 FE_PHN144_sram_din_39
*94 FE_PHN143_sram_din_49
*95 FE_PHN142_bus_addr_0
*96 FE_PHN141_sram_din_40
*97 FE_PHN140_sram_din_42
*98 FE_PHN139_sram_din_47
*99 FE_PHN138_sram_din_43
*100 FE_PHN137_sram_addr_0
*101 FE_PHN136_sram_din_58
*102 FE_PHN135_sram_din_56
*103 FE_PHN134_sram_din_59
*104 FE_PHN133_sram_din_57
*105 FE_PHN132_sram_din_61
*106 FE_PHN131_sram_din_63
*107 FE_PHN130_sram_addr_1
*108 FE_PHN129_sram_din_45
*109 FE_PHN128_sram_din_50
*110 FE_PHN127_sram_din_48
*111 FE_PHN126_sram_din_51
*112 FE_PHN125_sram_din_46
*113 FE_PHN124_sram_din_52
*114 FE_PHN123_sram_addr_6
*115 FE_PHN122_sram_din_62
*116 FE_PHN121_sram_din_53
*117 FE_PHN120_sram_din_60
*118 FE_PHN119_sram_din_54
*119 FE_PHN118_sram_addr_5
*120 FE_PHN117_sram_din_55
*121 FE_PHN116_sram_addr_2
*122 FE_PHN115_sram_addr_3
*123 FE_PHN114_sram_addr_7
*124 FE_PHN113_sram_addr_8
*125 FE_PHN112_sram_cen
*126 FE_PHN111_sram_din_30
*127 FE_PHN110_tpu_we
*128 FE_PHN109_bus_addr_2
*129 FE_PHN108_rstn
*130 FE_PHN107_sram_din_7
*131 FE_PHN106_sram_din_5
*132 FE_PHN105_sram_din_2
*133 FE_PHN104_sram_din_3
*134 FE_PHN103_sram_din_4
*135 FE_PHN102_sram_din_6
*136 FE_PHN101_sram_din_0
*137 FE_PHN100_sram_din_11
*138 FE_PHN99_sram_din_1
*139 FE_PHN98_sram_din_8
*140 FE_PHN97_sram_din_9
*141 FE_PHN96_sram_din_13
*142 FE_PHN95_sram_din_10
*143 FE_PHN94_sram_din_12
*144 FE_PHN93_sram_din_33
*145 FE_PHN92_sram_din_32
*146 FE_PHN91_sram_din_35
*147 FE_PHN90_sram_din_34
*148 FE_PHN89_sram_din_37
*149 FE_PHN88_sram_din_39
*150 FE_PHN87_sram_din_41
*151 FE_PHN86_sram_din_38
*152 FE_PHN85_sram_din_40
*153 FE_PHN84_sram_din_42
*154 FE_PHN83_sram_din_44
*155 FE_PHN82_sram_din_43
*156 FE_PHN81_sram_din_36
*157 FE_PHN80_sram_addr_6
*158 FE_PHN79_sram_addr_4
*159 FE_PHN78_sram_addr_0
*160 FE_PHN77_sram_addr_2
*161 FE_PHN76_sram_addr_5
*162 FE_PHN75_sram_addr_1
*163 FE_PHN74_sram_addr_3
*164 FE_PHN73_sram_addr_7
*165 FE_PHN72_sram_addr_8
*166 FE_PHN71_sram_din_45
*167 FE_PHN70_sram_din_47
*168 FE_PHN69_sram_din_46
*169 FE_PHN68_sram_din_49
*170 FE_PHN67_sram_din_48
*171 FE_PHN66_sram_din_50
*172 FE_PHN65_sram_din_53
*173 FE_PHN64_sram_din_52
*174 FE_PHN63_sram_din_51
*175 FE_PHN62_sram_din_54
*176 FE_PHN61_sram_din_62
*177 FE_PHN60_sram_din_60
*178 FE_PHN59_sram_din_56
*179 FE_PHN58_sram_din_61
*180 FE_PHN57_sram_din_63
*181 FE_PHN56_sram_din_59
*182 FE_PHN55_sram_din_57
*183 FE_PHN54_FE_OFN10_bus_dout_5
*184 FE_PHN53_FE_OFN11_bus_dout_4
*185 FE_PHN52_sram_din_55
*186 FE_PHN51_rstn
*187 FE_PHN50_FE_OFN13_bus_dout_2
*188 FE_PHN49_FE_OFN12_bus_dout_3
*189 FE_PHN48_FE_OFN15_bus_dout_0
*190 FE_PHN47_FE_OFN9_bus_dout_6
*191 FE_PHN46_FE_OFN14_bus_dout_1
*192 FE_PHN45_n_38
*193 FE_PHN44_n_14
*194 FE_PHN43_FE_OFN8_bus_dout_7
*195 FE_PHN42_sram_din_58
*196 FE_PHN41_sram_cen
*197 FE_PHN40_tpu_we
*198 FE_PHN39_tpu_din_17
*199 FE_PHN38_bus_byte_sel_d1_2
*200 FE_PHN37_bus_byte_sel_d1_1
*201 FE_PHN36_bus_byte_sel_d1_0
*202 FE_PHN35_tpu_din_18
*203 FE_PHN34_tpu_din_31
*204 FE_PHN33_tpu_din_20
*205 FE_PHN32_tpu_din_16
*206 FE_PHN31_tpu_din_19
*207 FE_PHN30_tpu_din_21
*208 FE_PHN29_tpu_din_28
*209 FE_PHN28_tpu_din_22
*210 FE_PHN27_tpu_din_23
*211 FE_PHN26_tpu_din_24
*212 FE_PHN25_tpu_din_25
*213 FE_PHN24_bus_addr_0
*214 FE_PHN23_bus_addr_2
*215 FE_PHN22_bus_addr_1
*216 FE_PHN21_tpu_din_26
*217 FE_PHN20_tpu_din_14
*218 FE_PHN19_tpu_din_29
*219 FE_PHN18_tpu_din_15
*220 FE_PHN17_tpu_din_27
*221 FE_PHN16_tpu_din_30
*222 CTS_2
*223 CTS_1
*224 LTIELO_NET
*225 LTIEHI_NET
*226 FE_OFN15_bus_dout_0
*227 FE_OFN14_bus_dout_1
*228 FE_OFN13_bus_dout_2
*229 FE_OFN12_bus_dout_3
*230 FE_OFN11_bus_dout_4
*231 FE_OFN10_bus_dout_5
*232 FE_OFN9_bus_dout_6
*233 FE_OFN8_bus_dout_7
*234 FE_OFN7_n_43
*235 FE_OFN6_n_36
*236 FE_OFN5_n_32
*237 FE_OFN4_n_26
*238 FE_OFN3_n_25
*239 FE_OFN2_n_22
*240 FE_OFN1_n_21
*241 FE_OFN0_n_15
*242 clk
*243 rstn
*244 tpu_we
*245 tpu_addr[8]
*246 tpu_addr[7]
*247 tpu_addr[6]
*248 tpu_addr[5]
*249 tpu_addr[4]
*250 tpu_addr[3]
*251 tpu_addr[2]
*252 tpu_addr[1]
*253 tpu_addr[0]
*254 tpu_din[63]
*255 tpu_din[62]
*256 tpu_din[61]
*257 tpu_din[60]
*258 tpu_din[59]
*259 tpu_din[58]
*260 tpu_din[57]
*261 tpu_din[56]
*262 tpu_din[55]
*263 tpu_din[54]
*264 tpu_din[53]
*265 tpu_din[52]
*266 tpu_din[51]
*267 tpu_din[50]
*268 tpu_din[49]
*269 tpu_din[48]
*270 tpu_din[47]
*271 tpu_din[46]
*272 tpu_din[45]
*273 tpu_din[44]
*274 tpu_din[43]
*275 tpu_din[42]
*276 tpu_din[41]
*277 tpu_din[40]
*278 tpu_din[39]
*279 tpu_din[38]
*280 tpu_din[37]
*281 tpu_din[36]
*282 tpu_din[35]
*283 tpu_din[34]
*284 tpu_din[33]
*285 tpu_din[32]
*286 tpu_din[31]
*287 tpu_din[30]
*288 tpu_din[29]
*289 tpu_din[28]
*290 tpu_din[27]
*291 tpu_din[26]
*292 tpu_din[25]
*293 tpu_din[24]
*294 tpu_din[23]
*295 tpu_din[22]
*296 tpu_din[21]
*297 tpu_din[20]
*298 tpu_din[19]
*299 tpu_din[18]
*300 tpu_din[17]
*301 tpu_din[16]
*302 tpu_din[15]
*303 tpu_din[14]
*304 tpu_din[13]
*305 tpu_din[12]
*306 tpu_din[11]
*307 tpu_din[10]
*308 tpu_din[9]
*309 tpu_din[8]
*310 tpu_din[7]
*311 tpu_din[6]
*312 tpu_din[5]
*313 tpu_din[4]
*314 tpu_din[3]
*315 tpu_din[2]
*316 tpu_din[1]
*317 tpu_din[0]
*318 bus_re
*319 bus_addr[11]
*320 bus_addr[10]
*321 bus_addr[9]
*322 bus_addr[8]
*323 bus_addr[7]
*324 bus_addr[6]
*325 bus_addr[5]
*326 bus_addr[4]
*327 bus_addr[3]
*328 bus_addr[2]
*329 bus_addr[1]
*330 bus_addr[0]
*331 bus_dout[7]
*332 bus_dout[6]
*333 bus_dout[5]
*334 bus_dout[4]
*335 bus_dout[3]
*336 bus_dout[2]
*337 bus_dout[1]
*338 bus_dout[0]
*339 sram_addr[8]
*340 sram_addr[7]
*341 sram_addr[6]
*342 sram_addr[5]
*343 sram_addr[4]
*344 sram_addr[3]
*345 sram_addr[2]
*346 sram_addr[1]
*347 sram_addr[0]
*348 sram_din[63]
*349 sram_din[62]
*350 sram_din[61]
*351 sram_din[60]
*352 sram_din[59]
*353 sram_din[58]
*354 sram_din[57]
*355 sram_din[56]
*356 sram_din[55]
*357 sram_din[54]
*358 sram_din[53]
*359 sram_din[52]
*360 sram_din[51]
*361 sram_din[50]
*362 sram_din[49]
*363 sram_din[48]
*364 sram_din[47]
*365 sram_din[46]
*366 sram_din[45]
*367 sram_din[44]
*368 sram_din[43]
*369 sram_din[42]
*370 sram_din[41]
*371 sram_din[40]
*372 sram_din[39]
*373 sram_din[38]
*374 sram_din[37]
*375 sram_din[36]
*376 sram_din[35]
*377 sram_din[34]
*378 sram_din[33]
*379 sram_din[32]
*380 sram_din[31]
*381 sram_din[30]
*382 sram_din[29]
*383 sram_din[28]
*384 sram_din[27]
*385 sram_din[26]
*386 sram_din[25]
*387 sram_din[24]
*388 sram_din[23]
*389 sram_din[22]
*390 sram_din[21]
*391 sram_din[20]
*392 sram_din[19]
*393 sram_din[18]
*394 sram_din[17]
*395 sram_din[16]
*396 sram_din[15]
*397 sram_din[14]
*398 sram_din[13]
*399 sram_din[12]
*400 sram_din[11]
*401 sram_din[10]
*402 sram_din[9]
*403 sram_din[8]
*404 sram_din[7]
*405 sram_din[6]
*406 sram_din[5]
*407 sram_din[4]
*408 sram_din[3]
*409 sram_din[2]
*410 sram_din[1]
*411 sram_din[0]
*412 sram_q[63]
*413 sram_q[62]
*414 sram_q[61]
*415 sram_q[60]
*416 sram_q[59]
*417 sram_q[58]
*418 sram_q[57]
*419 sram_q[56]
*420 sram_q[55]
*421 sram_q[54]
*422 sram_q[53]
*423 sram_q[52]
*424 sram_q[51]
*425 sram_q[50]
*426 sram_q[49]
*427 sram_q[48]
*428 sram_q[47]
*429 sram_q[46]
*430 sram_q[45]
*431 sram_q[44]
*432 sram_q[43]
*433 sram_q[42]
*434 sram_q[41]
*435 sram_q[40]
*436 sram_q[39]
*437 sram_q[38]
*438 sram_q[37]
*439 sram_q[36]
*440 sram_q[35]
*441 sram_q[34]
*442 sram_q[33]
*443 sram_q[32]
*444 sram_q[31]
*445 sram_q[30]
*446 sram_q[29]
*447 sram_q[28]
*448 sram_q[27]
*449 sram_q[26]
*450 sram_q[25]
*451 sram_q[24]
*452 sram_q[23]
*453 sram_q[22]
*454 sram_q[21]
*455 sram_q[20]
*456 sram_q[19]
*457 sram_q[18]
*458 sram_q[17]
*459 sram_q[16]
*460 sram_q[15]
*461 sram_q[14]
*462 sram_q[13]
*463 sram_q[12]
*464 sram_q[11]
*465 sram_q[10]
*466 sram_q[9]
*467 sram_q[8]
*468 bus_byte_sel_d1[2]
*469 bus_byte_sel_d1[1]
*470 bus_byte_sel_d1[0]
*471 n_0
*472 n_1
*473 n_2
*474 n_3
*475 n_4
*476 n_5
*477 n_6
*478 n_7
*479 n_8
*480 n_9
*481 n_10
*482 n_11
*483 n_12
*484 n_13
*485 n_14
*486 n_15
*487 n_16
*488 n_17
*489 n_18
*490 n_19
*491 n_20
*492 n_21
*493 n_22
*494 n_23
*495 n_24
*496 n_25
*497 n_26
*498 n_27
*499 n_28
*500 n_29
*501 n_30
*502 n_31
*503 n_32
*504 n_33
*505 n_34
*506 n_35
*507 n_36
*508 n_37
*509 n_38
*510 n_39
*511 n_40
*512 n_41
*513 n_42
*514 n_43
*515 n_44
*516 n_45
*517 n_60
*518 n_61
*519 n_62
*520 n_63
*521 n_64
*522 n_65
*523 n_66
*524 n_67
*525 sram_cen
*526 FE_PHC235_sram_din_18
*527 FE_PHC234_sram_din_13
*528 FE_PHC233_sram_din_1
*529 FE_PHC232_sram_din_8
*530 FE_PHC231_sram_din_9
*531 FE_PHC230_sram_din_3
*532 FE_PHC229_sram_din_5
*533 FE_PHC228_sram_din_4
*534 FE_PHC227_sram_din_11
*535 FE_PHC226_sram_din_10
*536 FE_PHC225_sram_din_0
*537 FE_PHC224_sram_din_12
*538 FE_PHC223_sram_din_6
*539 FE_PHC222_sram_din_2
*540 FE_PHC221_sram_din_33
*541 FE_PHC220_sram_din_35
*542 FE_PHC219_sram_din_34
*543 FE_PHC218_sram_din_42
*544 FE_PHC217_sram_din_47
*545 FE_PHC216_sram_din_37
*546 FE_PHC215_sram_din_49
*547 FE_PHC214_sram_din_32
*548 FE_PHC213_sram_din_43
*549 FE_PHC212_sram_din_38
*550 FE_PHC211_sram_din_50
*551 FE_PHC210_sram_din_41
*552 FE_PHC209_sram_din_45
*553 FE_PHC208_sram_din_46
*554 FE_PHC207_sram_addr_2
*555 FE_PHC206_sram_din_48
*556 FE_PHC205_sram_addr_7
*557 FE_PHC204_sram_addr_8
*558 FE_PHC203_sram_din_36
*559 FE_PHC202_sram_din_53
*560 FE_PHC201_sram_din_51
*561 FE_PHC200_sram_din_62
*562 FE_PHC199_sram_din_54
*563 FE_PHC198_sram_din_52
*564 FE_PHC197_sram_din_55
*565 FE_PHC196_sram_din_60
*566 FE_PHC195_sram_din_7
*567 FE_PHC194_tpu_we
*568 FE_PHC193_bus_addr_0
*569 FE_PHC192_bus_addr_5
*570 FE_PHC191_bus_addr_10
*571 FE_PHC190_bus_addr_11
*572 FE_PHC189_bus_addr_2
*573 FE_PHC188_bus_addr_1
*574 FE_PDC16_n_16
*575 FE_PHC187_tpu_din_18
*576 FE_PHC186_sram_din_1
*577 FE_PHC185_sram_din_8
*578 FE_PHC184_sram_din_0
*579 FE_PHC183_sram_din_19
*580 FE_PHC182_sram_din_20
*581 FE_PHC181_sram_din_21
*582 FE_PHC180_bus_addr_2
*583 FE_PHC179_tpu_we
*584 FE_PHC178_sram_din_11
*585 FE_PHC177_sram_din_9
*586 FE_PHC176_sram_din_10
*587 FE_PHC175_sram_din_8
*588 FE_PHC174_sram_din_0
*589 FE_PHC173_sram_din_1
*590 FE_PHC172_sram_din_12
*591 FE_PHC171_sram_din_13
*592 FE_PHC170_sram_din_4
*593 FE_PHC169_sram_din_3
*594 FE_PHC168_sram_din_5
*595 FE_PHC167_sram_din_33
*596 FE_PHC166_sram_din_32
*597 FE_PHC165_sram_din_35
*598 FE_PHC164_sram_din_34
*599 FE_PHC163_sram_din_37
*600 FE_PHC162_sram_din_38
*601 FE_PHC161_sram_din_36
*602 FE_PHC160_sram_din_31
*603 FE_PHC159_sram_din_16
*604 FE_PHC158_sram_din_28
*605 FE_PHC157_sram_din_22
*606 FE_PHC156_sram_din_23
*607 FE_PHC155_sram_din_24
*608 FE_PHC154_sram_din_25
*609 FE_PHC153_sram_din_26
*610 FE_PHC152_sram_din_29
*611 FE_PHC151_sram_din_27
*612 FE_PHC150_sram_din_14
*613 FE_PHC149_sram_din_15
*614 FE_PHC148_sram_din_44
*615 FE_PHC147_sram_addr_4
*616 FE_PHC146_sram_din_41
*617 FE_PHC145_bus_addr_1
*618 FE_PHC144_sram_din_39
*619 FE_PHC143_sram_din_49
*620 FE_PHC142_bus_addr_0
*621 FE_PHC141_sram_din_40
*622 FE_PHC140_sram_din_42
*623 FE_PHC139_sram_din_47
*624 FE_PHC138_sram_din_43
*625 FE_PHC137_sram_addr_0
*626 FE_PHC136_sram_din_58
*627 FE_PHC135_sram_din_56
*628 FE_PHC134_sram_din_59
*629 FE_PHC133_sram_din_57
*630 FE_PHC132_sram_din_61
*631 FE_PHC131_sram_din_63
*632 FE_PHC130_sram_addr_1
*633 FE_PHC129_sram_din_45
*634 FE_PHC128_sram_din_50
*635 FE_PHC127_sram_din_48
*636 FE_PHC126_sram_din_51
*637 FE_PHC125_sram_din_46
*638 FE_PHC124_sram_din_52
*639 FE_PHC123_sram_addr_6
*640 FE_PHC122_sram_din_62
*641 FE_PHC121_sram_din_53
*642 FE_PHC120_sram_din_60
*643 FE_PHC119_sram_din_54
*644 FE_PHC118_sram_addr_5
*645 FE_PHC117_sram_din_55
*646 FE_PHC116_sram_addr_2
*647 FE_PHC115_sram_addr_3
*648 FE_PHC114_sram_addr_7
*649 FE_PHC113_sram_addr_8
*650 FE_PHC112_sram_cen
*651 FE_PHC111_sram_din_30
*652 FE_PHC110_tpu_we
*653 FE_PHC109_bus_addr_2
*654 FE_PHC108_rstn
*655 FE_PHC107_sram_din_7
*656 FE_PHC106_sram_din_5
*657 FE_PHC105_sram_din_2
*658 FE_PHC104_sram_din_3
*659 FE_PHC103_sram_din_4
*660 FE_PHC102_sram_din_6
*661 FE_PHC101_sram_din_0
*662 FE_PHC100_sram_din_11
*663 FE_PHC99_sram_din_1
*664 FE_PHC98_sram_din_8
*665 FE_PHC97_sram_din_9
*666 FE_PHC96_sram_din_13
*667 FE_PHC95_sram_din_10
*668 FE_PHC94_sram_din_12
*669 FE_PHC93_sram_din_33
*670 FE_PHC92_sram_din_32
*671 FE_PHC91_sram_din_35
*672 FE_PHC90_sram_din_34
*673 FE_PHC89_sram_din_37
*674 FE_PHC88_sram_din_39
*675 FE_PHC87_sram_din_41
*676 FE_PHC86_sram_din_38
*677 FE_PHC85_sram_din_40
*678 FE_PHC84_sram_din_42
*679 FE_PHC83_sram_din_44
*680 FE_PHC82_sram_din_43
*681 FE_PHC81_sram_din_36
*682 FE_PHC80_sram_addr_6
*683 FE_PHC79_sram_addr_4
*684 FE_PHC78_sram_addr_0
*685 FE_PHC77_sram_addr_2
*686 FE_PHC76_sram_addr_5
*687 FE_PHC75_sram_addr_1
*688 FE_PHC74_sram_addr_3
*689 FE_PHC73_sram_addr_7
*690 FE_PHC72_sram_addr_8
*691 FE_PHC71_sram_din_45
*692 FE_PHC70_sram_din_47
*693 FE_PHC69_sram_din_46
*694 FE_PHC68_sram_din_49
*695 FE_PHC67_sram_din_48
*696 FE_PHC66_sram_din_50
*697 FE_PHC65_sram_din_53
*698 FE_PHC64_sram_din_52
*699 FE_PHC63_sram_din_51
*700 FE_PHC62_sram_din_54
*701 FE_PHC61_sram_din_62
*702 FE_PHC60_sram_din_60
*703 FE_PHC59_sram_din_56
*704 FE_PHC58_sram_din_61
*705 FE_PHC57_sram_din_63
*706 FE_PHC56_sram_din_59
*707 FE_PHC55_sram_din_57
*708 FE_PHC54_FE_OFN10_bus_dout_5
*709 FE_PHC53_FE_OFN11_bus_dout_4
*710 FE_PHC52_sram_din_55
*711 FE_PHC51_rstn
*712 FE_PHC50_FE_OFN13_bus_dout_2
*713 FE_PHC49_FE_OFN12_bus_dout_3
*714 FE_PHC48_FE_OFN15_bus_dout_0
*715 FE_PHC47_FE_OFN9_bus_dout_6
*716 FE_PHC46_FE_OFN14_bus_dout_1
*717 FE_PHC45_n_38
*718 FE_PHC44_n_14
*719 FE_PHC43_FE_OFN8_bus_dout_7
*720 FE_PHC42_sram_din_58
*721 FE_PHC41_sram_cen
*722 FE_PHC40_tpu_we
*723 FE_PHC39_tpu_din_17
*724 FE_PHC38_bus_byte_sel_d1_2
*725 FE_PHC37_bus_byte_sel_d1_1
*726 FE_PHC36_bus_byte_sel_d1_0
*727 FE_PHC35_tpu_din_18
*728 FE_PHC34_tpu_din_31
*729 FE_PHC33_tpu_din_20
*730 FE_PHC32_tpu_din_16
*731 FE_PHC31_tpu_din_19
*732 FE_PHC30_tpu_din_21
*733 FE_PHC29_tpu_din_28
*734 FE_PHC28_tpu_din_22
*735 FE_PHC27_tpu_din_23
*736 FE_PHC26_tpu_din_24
*737 FE_PHC25_tpu_din_25
*738 FE_PHC24_bus_addr_0
*739 FE_PHC23_bus_addr_2
*740 FE_PHC22_bus_addr_1
*741 FE_PHC21_tpu_din_26
*742 FE_PHC20_tpu_din_14
*743 FE_PHC19_tpu_din_29
*744 FE_PHC18_tpu_din_15
*745 FE_PHC17_tpu_din_27
*746 FE_PHC16_tpu_din_30
*747 CTS_ccl_a_inv_00001
*748 CTS_cmf_inv_00047
*749 LTIELO
*750 LTIEHI
*751 FE_OFC15_bus_dout_0
*752 FE_OFC14_bus_dout_1
*753 FE_OFC13_bus_dout_2
*754 FE_OFC12_bus_dout_3
*755 FE_OFC11_bus_dout_4
*756 FE_OFC10_bus_dout_5
*757 FE_OFC9_bus_dout_6
*758 FE_OFC8_bus_dout_7
*759 FE_OFC7_n_43
*760 FE_OFC6_n_36
*761 FE_OFC5_n_32
*762 FE_OFC4_n_26
*763 FE_OFC3_n_25
*764 FE_OFC2_n_22
*765 FE_OFC1_n_21
*766 FE_OFC0_n_15
*767 u_sram
*768 p70817A__2398
*769 p70817A1797__5107
*770 p70817A1798__6260
*771 p70817A1799__4319
*772 p70817A1800__8428
*773 p70817A1801__5526
*774 p70817A1802__6783
*775 p70817A1803__3680
*776 p70812A__1617
*777 p70816A__2802
*778 p70824A__1705
*779 p70812A1804__5122
*780 p70812A1805__8246
*781 p70810A__7098
*782 p70824A1806__6131
*783 p70810A1807__1881
*784 p70812A1808__5115
*785 p70816A1809__7482
*786 p70812A1810__4733
*787 p70824A1811__6161
*788 p70810A1812__9315
*789 p70824A1813__9945
*790 p70824A1814__2883
*791 p70816A1815__2346
*792 p70810A1816__1666
*793 p70812A1817__7410
*794 p70816A1818__6417
*795 p70816A1819__5477
*796 p70816A1820__2398
*797 p70810A1821__5107
*798 p70810A1822__6260
*799 p70824A1823__4319
*800 p70824A1824__8428
*801 p70810A1825__5526
*802 p70816A1826__6783
*803 p70816A1827__3680
*804 p70812A1828__1617
*805 p70810A1829__2802
*806 p70824A1830__1705
*807 p70812A1831__5122
*808 p71871A__8246
*809 p71849A__7098
*810 p71898A__6131
*811 p71884A__1881
*812 p71849A1832__5115
*813 p71859A__7482
*814 p71846A__4733
*815 p71862A__6161
*816 p71824A__9315
*817 p71822A__9945
*818 p71825A__2883
*819 p71861A__2346
*820 bus_byte_sel_d1_reg\[2\]
*821 bus_byte_sel_d1_reg\[1\]
*822 p96144A__1666
*823 p96144A1087__7410
*824 p96144A1088__6417
*825 p96144A1089__5477
*826 p96144A1090__2398
*827 p96144A1091__5107
*828 p96144A1092__6260
*829 p96144A1093__4319
*830 p96144A1094__8428
*831 p96447A__5526
*832 p96447A1095__6783
*833 p96447A1096__3680
*834 p96447A1097__1617
*835 p96447A1098__2802
*836 p96447A1099__1705
*837 p96447A1100__5122
*838 p96447A1101__8246
*839 p96447A1102__7098
*840 p96447A1103__6131
*841 p96447A1104__1881
*842 p96447A1105__5115
*843 p96447A1106__7482
*844 p96447A1107__4733
*845 p96447A1108__6161
*846 p96447A1109__9315
*847 p96447A1110__9945
*848 p96447A1111__2883
*849 p96447A1112__2346
*850 p96447A1113__1666
*851 p96447A1114__7410
*852 p96447A1115__6417
*853 p96447A1116__5477
*854 p96447A1117__2398
*855 p96447A1118__5107
*856 p96447A1119__6260
*857 p96447A1120__4319
*858 p96447A1121__8428
*859 p96447A1122__5526
*860 p96447A1123__6783
*861 p96447A1124__3680
*862 p96447A1125__1617
*863 p96447A1126__2802
*864 p96447A1127__1705
*865 p96447A1128__5122
*866 p96447A1129__8246
*867 p96447A1130__7098
*868 p96447A1131__6131
*869 p96447A1132__1881
*870 p96447A1133__5115
*871 p96447A1134__7482
*872 p96447A1135__4733
*873 p96407A__6161
*874 p96447A1136__9315
*875 p96447A1137__9945
*876 p96447A1138__2883
*877 p96447A1139__2346
*878 p96447A1140__1666
*879 p96447A1141__7410
*880 p96447A1142__6417
*881 p96447A1143__5477
*882 p96447A1144__2398
*883 p96447A1145__5107
*884 p96447A1146__6260
*885 p96447A1147__4319
*886 p96447A1148__8428
*887 p96447A1149__5526
*888 p96447A1150__6783
*889 p96447A1151__3680
*890 p96447A1152__1617
*891 p96447A1153__2802
*892 p96447A1154__1705
*893 p96447A1155__5122
*894 p96447A1156__8246
*895 p96447A1157__7098
*896 Fp96144A1836
*897 bus_byte_sel_d1_reg\[0\]


*PORTS

*242 I *C 10 153
*243 I *C 15 153
*244 I *C 0 5
*245 I *C 0 37.4
*246 I *C 0 33.8
*247 I *C 0 30.2
*248 I *C 0 26.6
*249 I *C 0 23
*250 I *C 0 19.4
*251 I *C 0 15.8
*252 I *C 0 12.2
*253 I *C 0 8.6
*254 I *C 0 267.8
*255 I *C 0 264.2
*256 I *C 0 260.6
*257 I *C 0 257
*258 I *C 0 253.4
*259 I *C 0 249.8
*260 I *C 0 246.2
*261 I *C 0 242.6
*262 I *C 0 239
*263 I *C 0 235.4
*264 I *C 0 231.8
*265 I *C 0 228.2
*266 I *C 0 224.6
*267 I *C 0 221
*268 I *C 0 217.4
*269 I *C 0 213.8
*270 I *C 0 210.2
*271 I *C 0 206.6
*272 I *C 0 203
*273 I *C 0 199.4
*274 I *C 0 195.8
*275 I *C 0 192.2
*276 I *C 0 188.6
*277 I *C 0 185
*278 I *C 0 181.4
*279 I *C 0 177.8
*280 I *C 0 174.2
*281 I *C 0 170.6
*282 I *C 0 167
*283 I *C 0 163.4
*284 I *C 0 159.8
*285 I *C 0 156.2
*286 I *C 0 152.6
*287 I *C 0 149
*288 I *C 0 145.4
*289 I *C 0 141.8
*290 I *C 0 138.2
*291 I *C 0 134.6
*292 I *C 0 131
*293 I *C 0 127.4
*294 I *C 0 123.8
*295 I *C 0 120.2
*296 I *C 0 116.6
*297 I *C 0 113
*298 I *C 0 109.4
*299 I *C 0 105.8
*300 I *C 0 102.2
*301 I *C 0 98.6
*302 I *C 0 95
*303 I *C 0 91.4
*304 I *C 0 87.8
*305 I *C 0 84.2
*306 I *C 0 80.6
*307 I *C 0 77
*308 I *C 0 73.4
*309 I *C 0 69.8
*310 I *C 0 66.2
*311 I *C 0 62.6
*312 I *C 0 59
*313 I *C 0 55.4
*314 I *C 0 51.8
*315 I *C 0 48.2
*316 I *C 0 44.6
*317 I *C 0 41
*318 I *C 324 5
*319 I *C 324 48.2
*320 I *C 324 44.6
*321 I *C 324 41
*322 I *C 324 37.4
*323 I *C 324 33.8
*324 I *C 324 30.2
*325 I *C 324 26.6
*326 I *C 324 23
*327 I *C 324 19.4
*328 I *C 324 15.8
*329 I *C 324 12.2
*330 I *C 324 8.6
*331 O *C 324 77
*332 O *C 324 73.4
*333 O *C 324 69.8
*334 O *C 324 66.2
*335 O *C 324 62.6
*336 O *C 324 59
*337 O *C 324 55.4
*338 O *C 324 51.8


*D_NET *1 0.00276634

*CONN
*I *526:Z O *C 230.1 145.6 *L 0 *D DEL015
*I *767:D[18] I *C 238.585 134.265 *L 0.00183 *D sram00

*CAP
1 *1:3 0.000334886
2 *1:4 7.40887e-05
3 *1:5 0.000218987
4 *1:6 5.82643e-05
5 *1:7 0.000540489
6 *1:8 0.000220512
7 *1:9 6.96464e-05
8 *1:11 0.00124946

*RES
1 *1:10 *1:11 3.20797
2 *1:7 *1:9 0.45047
3 *1:2 *1:3 3.44158
4 *1:8 *1:9 1.34763
5 *1:4 *1:5 0.45047
6 *1:6 *1:11 9.77272
7 *1:5 *1:6 1.74638
8 *1:4 *1:7 3.82102
9 *526:Z *1:2 1.5
10 *1:3 *1:10 1.5
11 *526:Z *767:D[18] 0.0001
*END

*D_NET *2 0.0023271

*CONN
*I *527:Z O *C 250.9 142.8 *L 0 *D DEL01
*I *767:D[13] I *C 259.855 134.265 *L 0.00183 *D sram00

*CAP
1 *2:2 9.62048e-05
2 *2:3 0.000466311
3 *2:4 8.80757e-05
4 *2:5 7.66673e-05
5 *2:6 6.14268e-05
6 *2:7 9.76999e-05
7 *2:8 3.46774e-05
8 *2:9 1.28533e-05
9 *2:10 0.000247944
10 *2:11 1.96003e-06
11 *2:12 0.000823400938
12 *2:13 6.86262e-05
13 *2:14 0.000251261

*RES
1 *2:11 *2:12 0.613552
2 *2:10 *2:11 0.132006
3 *2:9 *2:10 3.36285
4 *2:7 *2:14 2.47545
5 *2:8 *2:14 2.11355
6 *2:8 *2:9 0.132006
7 *2:4 *2:5 0.131057
8 *2:3 *2:6 5.83865
9 *2:12 *2:15 11.4496
10 *2:5 *2:7 2.00822
11 *527:Z *2:2 1.5
12 *2:2 *2:3 1.5
13 *2:6 *2:13 1.5
14 *2:13 *2:15 1.5
15 *527:Z *767:D[13] 0.0001
*END

*D_NET *3 0.000294774

*CONN
*I *528:I I *C 287.3 141.6 *L 0.00103 *D DEL015
*I *576:Z O *C 287.3 142.8 *L 0 *D BUFFD1

*CAP
1 *528:I 0.000294774004

*RES
1 *576:Z *528:I 4.16495
*END

*D_NET *4 0.00139415

*CONN
*I *529:Z O *C 273.9 142 *L 0 *D DEL015
*I *767:D[8] I *C 280.585 134.265 *L 0.00183 *D sram00

*CAP
1 *4:2 0.000143877
2 *4:3 3.70474e-05
3 *4:4 0.000455019
4 *4:5 2.02466e-05
5 *4:7 0.000737963984

*RES
1 *4:6 *4:7 3.63574
2 *4:4 *4:5 4.40254
3 *4:5 *4:7 7.90723
4 *529:Z *4:2 1.5
5 *4:2 *4:3 1.5
6 *4:3 *4:6 1.5
7 *529:Z *767:D[8] 0.0001
*END

*D_NET *5 0.00607701

*CONN
*I *530:I I *C 231.3 141.6 *L 0.00104 *D DEL0
*I *585:Z O *C 189.5 142 *L 0 *D CKBD0

*CAP
1 *585:Z 6.95008e-05
2 *5:2 0.000234792
3 *5:3 0.000185979
4 *5:4 0.00156198
5 *5:5 0.000108947
6 *5:6 3.12706e-05
7 *5:7 0.00041076
8 *5:4 *48:3 0.000286383984
9 *5:4 *135:3 0.00186015
10 *5:3 *392:3 0.00047332
11 *585:Z *480:10 0.00030597498
12 *585:Z *477:10 0.000547932969

*RES
1 *5:4 *5:5 2.33419
2 *5:3 *5:6 8.25232
3 *5:5 *5:7 9.99103
4 *585:Z *5:3 3.00002
5 *5:6 *5:7 1.69398
6 *5:2 *5:4 32.9328995
7 *530:I *5:2 4.694
*END

*D_NET *6 0.000380345

*CONN
*I *531:I I *C 252.1 141.6 *L 0.00104 *D DEL0
*I *593:Z O *C 252.1 139.2 *L 0 *D CKBD0

*CAP
1 *531:I 0.000380345

*RES
1 *593:Z *531:I 6.19289
*END

*D_NET *7 0.000783118

*CONN
*I *532:I I *C 247.3 139.6 *L 0.00104 *D DEL0
*I *594:Z O *C 250.5 139.2 *L 0 *D CKBD0

*CAP
1 *7:2 0.00012361
2 *7:3 0.000659511953

*RES
1 *532:I *7:3 4.50001
2 *7:2 *7:3 5.5861001
3 *594:Z *7:2 1.5
*END

*D_NET *8 1.0537e-05

*CONN
*I *533:I I *C 249.5 141.6 *L 0.00104 *D DEL0
*I *592:Z O *C 249.3 142 *L 0 *D CKBD0

*CAP
1 *592:Z 1.05370007e-05

*RES
1 *592:Z *533:I 0.24323
*END

*D_NET *9 0.00744192

*CONN
*I *534:I I *C 228.5 143.2 *L 0.00104 *D DEL0
*I *584:Z O *C 179.7 142.8 *L 0 *D CKBD0

*CAP
1 *584:Z 6.83109e-05
2 *534:I 0.000519339
3 *9:2 9.93373e-05
4 *9:3 0.000615592
5 *9:4 0.00288823
6 *534:I *10:2 0.00210398
7 *9:2 *31:2 0.000274945996
8 *9:2 *141:2 0.00025456
9 *9:3 *241:2 0.000617627031

*RES
1 *9:2 *9:4 49.3364983
2 *584:Z *9:3 1.75632
3 *9:3 *9:4 8.49477
4 *534:I *9:2 11.1311
*END

*D_NET *10 0.00659959

*CONN
*I *535:I I *C 228.7 141.6 *L 0.00104 *D DEL0
*I *586:Z O *C 188.7 142 *L 0 *D CKBD0

*CAP
1 *10:2 0.000729103
2 *10:3 0.000800051
3 *10:4 0.000133075
4 *10:5 0.00283336
5 *10:2 *534:I 0.00210398

*RES
1 *10:3 *10:5 9.26655
2 *10:2 *10:4 11.6285
3 *10:4 *10:5 39.9455986
4 *586:Z *10:3 3.38833
5 *535:I *10:2 3.00006
*END

*D_NET *11 1.1031e-05

*CONN
*I *536:I I *C 290.5 145.2 *L 0.00103 *D DEL015
*I *578:Z O *C 290.3 145.6 *L 0 *D BUFFD1

*CAP
1 *578:Z 1.10309998e-05

*RES
1 *578:Z *536:I 0.263037
*END

*D_NET *12 0.00644597

*CONN
*I *537:I I *C 230.5 139.6 *L 0.00104 *D DEL0
*I *590:Z O *C 188.1 139.2 *L 0 *D CKBD0

*CAP
1 *12:2 0.000209291
2 *12:3 0.000711248
3 *12:4 0.00220584016
4 *12:3 *131:2 0.000207249004
5 *12:3 *394:2 0.00311234

*RES
1 *12:3 *12:4 50.6072998
2 *590:Z *12:2 4.03787
3 *537:I *12:3 8.03326
4 *12:2 *12:4 3.19384
*END

*D_NET *13 0.00222114

*CONN
*I *538:Z O *C 271.3 142 *L 0 *D DEL0
*I *767:D[6] I *C 288.985 134.265 *L 0.00183 *D sram00

*CAP
1 *13:2 0.000111986
2 *13:3 0.000106203
3 *13:4 0.000723418
4 *13:5 0.00124264
5 *13:6 3.6899e-05

*RES
1 *13:4 *13:6 8.62076
2 *13:5 *13:6 18.5859
3 *538:Z *13:2 1.5
4 *13:2 *13:3 1.5
5 *13:3 *13:5 1.5
6 *538:Z *767:D[6] 0.0001
*END

*D_NET *14 0.00242106

*CONN
*I *539:Z O *C 288.1 145.6 *L 0 *D DEL0
*I *767:D[2] I *C 305.785 134.265 *L 0.00183 *D sram00

*CAP
1 *14:2 7.13526e-05
2 *14:3 2.36173e-05
3 *14:5 0.000489616
4 *14:6 0.000246162
5 *14:7 7.75868e-05
6 *14:8 9.55615e-07
7 *14:9 0.0014911
8 *14:10 2.06367e-05

*RES
1 *14:9 *14:10 18.3155
2 *14:6 *14:8 0.256311
3 *14:4 *14:6 2.65607
4 *14:7 *14:8 0.494203
5 *14:5 *14:10 8.26908
6 *14:4 *14:5 0.256311
7 *14:3 *14:9 1.88832
8 *539:Z *14:2 1.5
9 *14:2 *14:3 1.5
10 *539:Z *767:D[2] 0.0001
*END

*D_NET *15 0.00861171

*CONN
*I *540:I I *C 21.7 145.2 *L 0.00103 *D DEL01
*I *884:Z O *C 79.5 141.8 *L 0 *D CKAN2D0

*CAP
1 *540:I 0.000131933
2 *15:2 0.00429092969
3 *15:3 3.7321e-05
4 *15:4 0.0014709
5 *15:3 *281:2 0.00114001
6 *15:2 *282:2 0.00117534992
7 *15:2 *268:2 0.000365314023

*RES
1 *15:3 *15:2 69.1069031
2 *15:3 *15:4 11.8999
3 *540:I *15:2 10.8148
4 *884:Z *15:4 1.49948
*END

*D_NET *16 0.00662221

*CONN
*I *541:I I *C 21.7 143.2 *L 0.00103 *D DEL01
*I *881:Z O *C 79.1 143 *L 0 *D CKAN2D0

*CAP
1 *541:I 6.29343e-05
2 *16:2 0.000115272
3 *16:3 1.24156e-05
4 *16:4 0.000706298
5 *16:5 0.00350714
6 *16:2 *234:2 0.000267221992
7 *16:4 *238:2 0.000416531992
8 *16:4 *417:2 0.00153444

*RES
1 *16:4 *16:5 58.7616005
2 *881:Z *16:2 3.00013
3 *541:I *16:3 3.00013
4 *16:3 *16:5 3.00013
5 *16:2 *16:4 1.50006
*END

*D_NET *17 0.00839285

*CONN
*I *542:I I *C 23.9 145.2 *L 0.00103 *D DEL01
*I *883:Z O *C 80.3 145.4 *L 0 *D CKAN2D0

*CAP
1 *883:Z 0.000201376
2 *542:I 8.96437e-05
3 *17:2 0.00072822
4 *17:3 0.000302906
5 *17:4 2.39032e-05
6 *17:5 0.000373116
7 *17:6 0.000200298
8 *17:7 0.000186571
9 *17:8 0.00172332
10 *17:3 *271:3 0.000505208008
11 *17:6 *279:2 0.000877428984
12 *17:3 *300:2 0.000633173008
13 *17:5 *223:5 0.000638071016
14 *17:5 *203:2 0.00166468
15 *17:2 *110:2 0.000244925

*RES
1 *17:7 *17:8 3.44159
2 *17:6 *17:8 24.8194
3 *17:5 *17:7 26.4108009
4 *17:2 *17:6 2.27653
5 *883:Z *17:3 6.91986
6 *17:3 *17:4 0.132183
7 *17:4 *17:2 10.8845
8 *542:I *17:5 2.99991
*END

*D_NET *18 0.00761034

*CONN
*I *543:I I *C 23.7 143.2 *L 0.00103 *D BUFFD2
*I *870:Z O *C 72.9 141.8 *L 0 *D CKAN2D0

*CAP
1 *543:I 0.00036545
2 *18:2 0.000214557
3 *18:3 0.000154734
4 *18:4 0.000416803
5 *18:5 0.0014722
6 *18:6 0.000104414
7 *18:7 3.88633e-06
8 *543:I *208:3 0.00297162
9 *18:2 *374:2 0.00190667

*RES
1 *18:5 *18:6 0.132301
2 *18:4 *18:7 16.8834
3 *18:3 *18:5 39.4113007
4 *543:I *18:4 7.93025
5 *18:6 *18:7 4.67444
6 *18:2 *18:3 3.00023
7 *870:Z *18:2 1.49981
*END

*D_NET *19 0.00771044

*CONN
*I *544:I I *C 26.1 145.2 *L 0.00103 *D DEL01
*I *858:Z O *C 66.5 145.4 *L 0 *D CKAN2D0

*CAP
1 *858:Z 0.000146073
2 *19:2 0.00242906
3 *19:3 0.000438925
4 *19:4 0.000420503
5 *19:2 *258:2 0.000380266016
6 *19:3 *366:2 0.00204215
7 *19:3 *27:2 0.00118014
8 *19:3 *378:3 0.00067334

*RES
1 *19:3 *19:2 56.9589005
2 *858:Z *19:3 7.11117
3 *19:2 *19:4 6.32809
4 *544:I *19:4 1.50011
*END

*D_NET *20 0.0097928

*CONN
*I *545:I I *C 27.1 141.6 *L 0.00103 *D DEL01
*I *878:Z O *C 86.5 143 *L 0 *D CKAN2D0

*CAP
1 *878:Z 9.62869e-05
2 *545:I 6.41268e-05
3 *20:2 0.000657252
4 *20:3 0.00422367
5 *20:4 0.000122775
6 *20:5 0.00123755
7 *20:2 *24:3 0.000529278984
8 *20:2 *282:2 0.00187903
9 *20:2 *240:2 0.000982901953

*RES
1 *20:2 *20:3 72.4459
2 *20:3 *20:4 0.934094
3 *878:Z *20:2 11.9675
4 *20:4 *20:5 10.2971
5 *545:I *20:5 1.75654
*END

*D_NET *21 0.00325616

*CONN
*I *546:Z O *C 31.9 142.8 *L 0 *D DEL01
*I *694:I I *C 53.5 143.2 *L 0.00105 *D DEL1

*CAP
1 *546:Z 0.000119081
2 *21:2 0.000444192
3 *21:3 0.00269289

*RES
1 *21:2 *21:3 25.0202007
2 *694:I *21:2 3.38828
3 *546:Z *21:3 3.00001
*END

*D_NET *22 0.00966263

*CONN
*I *547:I I *C 28.3 145.2 *L 0.00103 *D DEL01
*I *886:Z O *C 75.5 145.4 *L 0 *D CKAN2D0

*CAP
1 *22:2 0.000107368
2 *22:3 0.00229272016
3 *22:4 0.000486357
4 *22:5 0.000526064
5 *22:2 *27:2 0.00328828
6 *22:2 *30:2 0.00296182

*RES
1 *22:2 *22:5 4.41183
2 *22:2 *22:3 87.6163025
3 *22:3 *22:4 4.60702
4 *886:Z *22:5 1.50002
5 *547:I *22:4 1.50002
*END

*D_NET *23 0.00806892

*CONN
*I *548:I I *C 30.5 145.2 *L 0.00103 *D DEL01
*I *869:Z O *C 70.7 145.4 *L 0 *D CKAN2D0

*CAP
1 *869:Z 0.000506586
2 *23:2 1.40316e-05
3 *23:3 0.00193592
4 *23:4 0.000673843
5 *869:Z *378:4 0.00150844
6 *869:Z *285:2 0.000352833008
7 *869:Z *28:4 0.00275943
8 *869:Z *370:5 0.000317822012

*RES
1 *23:2 *23:3 59.1366005
2 *869:Z *23:2 8.5886
3 *23:3 *23:4 5.96546
4 *548:I *23:4 1.49971
*END

*D_NET *24 0.00886121

*CONN
*I *549:I I *C 32.7 145.2 *L 0.00103 *D DEL01
*I *877:Z O *C 83.5 145.4 *L 0 *D CKAN2D0

*CAP
1 *24:2 6.40967e-05
2 *24:3 0.00135873
3 *24:4 2.28757e-05
4 *24:5 0.00162247
5 *24:6 0.00083541
6 *24:7 0.000719546
7 *24:3 *285:2 0.00154837
8 *24:3 *20:2 0.000529278984
9 *24:2 *240:2 0.00216042

*RES
1 *24:3 *24:4 37.5337982
2 *24:2 *24:3 0.449585
3 *24:5 *24:6 6.74206
4 *24:4 *24:5 32.8174
5 *24:2 *24:7 6.15961
6 *877:Z *24:7 1.49995
7 *549:I *24:6 1.49995
*END

*D_NET *25 0.0046187

*CONN
*I *550:I I *C 32.3 143.2 *L 0.00103 *D DEL01
*I *634:Z O *C 54.1 139.2 *L 0 *D DEL015

*CAP
1 *25:2 0.000502055
2 *25:3 0.000144069
3 *25:5 0.00251507
4 *25:6 0.0014575

*RES
1 *25:4 *25:6 6.86388
2 *25:2 *25:5 23.3327007
3 *25:3 *25:6 6.32948
4 *25:3 *25:5 2.08241
5 *634:Z *25:2 2.51641
6 *550:I *25:4 1.49995
*END

*D_NET *26 1.0498e-05

*CONN
*I *551:I I *C 69.1 143.2 *L 0.000643 *D CKBD0
*I *871:Z O *C 68.9 143 *L 0 *D CKAN2D0

*CAP
1 *871:Z 1.04980005e-05

*RES
1 *871:Z *551:I 0.24678
*END

*D_NET *27 0.00793201

*CONN
*I *552:I I *C 34.9 145.2 *L 0.00103 *D DEL01
*I *864:Z O *C 71.9 143 *L 0 *D CKAN2D0

*CAP
1 *864:Z 0.000832502
2 *27:2 0.00211958
3 *27:3 0.000310167
4 *27:4 0.000201333
5 *27:2 *19:3 0.00118014
6 *27:2 *22:2 0.00328828

*RES
1 *27:2 *27:4 60.3240013
2 *27:2 *27:3 4.92176
3 *864:Z *27:4 6.66973
4 *552:I *27:3 1.50037
*END

*D_NET *28 0.0101594

*CONN
*I *553:Z O *C 40.1 139.2 *L 0 *D DEL01
*I *693:I I *C 75.1 141.6 *L 0.00105 *D DEL1

*CAP
1 *693:I 9.45641e-05
2 *28:2 0.00136782
3 *28:3 0.000185716
4 *28:4 0.00122425
5 *28:5 0.00150091
6 *28:4 *869:Z 0.00275943
7 *28:2 *886:A2 0.00302669

*RES
1 *28:2 *28:3 4.73231
2 *28:3 *28:4 66.0286026
3 *693:I *28:2 13.8372
4 *28:4 *28:5 12.7259
5 *553:Z *28:5 1.50019
*END

*D_NET *29 0.00835982

*CONN
*I *554:I I *C 225.9 145.2 *L 0.00103 *D DEL01
*I *646:Z O *C 159.9 145.6 *L 0 *D DEL015

*CAP
1 *29:4 0.00435621969
2 *29:5 7.16564e-05
3 *29:6 0.000754919
4 *29:7 0.000954533
5 *29:2 *490:2 0.00222247

*RES
1 *29:3 *29:2 0.20567
2 *29:4 *29:5 0.20567
3 *29:2 *29:4 80.2309036
4 *29:3 *29:6 8.68344
5 *29:5 *29:7 8.31617
6 *646:Z *29:7 1.49968
7 *554:I *29:6 1.49968
*END

*D_NET *30 0.00757833

*CONN
*I *555:Z O *C 38.9 145.6 *L 0 *D DEL01
*I *695:I I *C 72.1 143.2 *L 0.00105 *D DEL1

*CAP
1 *30:2 0.00196317
2 *30:3 2.33657e-05
3 *30:4 0.000441432
4 *30:5 0.000338473
5 *30:6 0.000626231
6 *30:7 0.000239978
7 *30:2 *22:2 0.00296182
8 *30:2 *373:2 0.000702667031
9 *30:2 *379:3 0.000281212988

*RES
1 *30:2 *30:5 4.02408
2 *30:2 *30:3 53.6020012
3 *30:6 *30:7 5.53147
4 *30:4 *30:6 4.27599
5 *30:3 *30:7 2.27704
6 *555:Z *30:5 1.50003
7 *695:I *30:4 3.00006
*END

*D_NET *31 0.00657631

*CONN
*I *556:I I *C 223.7 145.2 *L 0.00103 *D DEL01
*I *648:Z O *C 185.5 142.8 *L 0 *D DEL015

*CAP
1 *648:Z 0.0008071
2 *31:2 0.0019834
3 *31:3 0.00013262
4 *31:4 0.000143515
5 *648:Z *141:4 0.000197969004
6 *31:2 *237:3 0.00201779016
7 *31:2 *9:2 0.000274945996
8 *31:2 *241:4 0.00101898

*RES
1 *31:2 *31:4 47.4490013
2 *648:Z *31:2 6.35395
3 *31:3 *31:4 4.99497
4 *556:I *31:3 1.50016
*END

*D_NET *32 0.00564986

*CONN
*I *557:I I *C 219.9 141.6 *L 0.00103 *D DEL01
*I *649:Z O *C 187.3 139.2 *L 0 *D DEL015

*CAP
1 *649:Z 2.00093e-05
2 *32:2 0.00204572016
3 *32:3 0.000568812
4 *32:2 *394:13 0.00034213
5 *32:2 *403:5 0.000427231992
6 *32:3 *45:2 0.000277965996
7 *32:3 *396:4 0.000182804004
8 *32:3 *46:2 0.00178518

*RES
1 *32:3 *32:2 40.5848007
2 *557:I *32:3 4.99507
3 *649:Z *32:2 4.35908
*END

*D_NET *33 0.00848572

*CONN
*I *558:Z O *C 42.1 142.8 *L 0 *D DEL01
*I *681:I I *C 107.1 143.2 *L 0.00105 *D DEL1

*CAP
1 *681:I 0.000452448
2 *33:2 2.05755e-05
3 *33:3 0.000221489
4 *33:4 0.000129932
5 *33:5 0.000981217
6 *33:6 0.0023329
7 *33:7 0.00144192
8 *33:8 0.000722101
9 *33:5 *288:3 0.000432083008
10 *33:8 *197:92 0.000286500996
11 *33:3 *223:6 0.000542646992
12 *33:2 *624:I 0.000921897031

*RES
1 *33:7 *33:8 3.90251
2 *33:6 *33:8 37.9570999
3 *681:I *33:3 4.21816
4 *33:2 *33:5 3.58222
5 *33:3 *33:5 13.4995
6 *33:2 *33:7 22.3673
7 *33:4 *33:6 2.27675
8 *558:Z *33:4 3.00015
*END

*D_NET *34 0.00234146

*CONN
*I *559:I I *C 39.3 145.2 *L 0.00103 *D DEL01
*I *840:Z O *C 50.5 145.4 *L 0 *D CKAN2D0

*CAP
1 *34:2 7.47098e-05
2 *34:3 0.000281013
3 *34:4 0.000903027
4 *34:5 0.00108273008

*RES
1 *34:2 *34:4 2.27657
2 *34:3 *34:4 8.14806
3 *34:2 *34:5 9.37994957
4 *559:I *34:5 3.38838
5 *840:Z *34:3 1.49997
*END

*D_NET *35 0.00257673

*CONN
*I *560:I I *C 67.3 139.6 *L 0.00103 *D DEL01
*I *848:Z O *C 59.7 145.4 *L 0 *D CKAN2D0

*CAP
1 *848:Z 0.000280973
2 *35:2 5.98147e-05
3 *35:3 0.00113622
4 *35:4 0.00109972

*RES
1 *35:2 *35:4 8.46026
2 *35:2 *35:3 9.80272007
3 *848:Z *35:3 4.27059
4 *560:I *35:4 1.49996
*END

*D_NET *36 0.000774955

*CONN
*I *561:Z O *C 15.9 145.6 *L 0 *D DEL01
*I *640:I I *C 13.7 141.6 *L 0.00103 *D DEL015

*CAP
1 *640:I 9.77991e-05
2 *561:Z 0.000168322
3 *36:2 0.000508833008

*RES
1 *561:Z *36:2 5.33044
2 *640:I *36:2 7.42983007
*END

*D_NET *37 0.00158904

*CONN
*I *562:Z O *C 51.7 142 *L 0 *D DEL01
*I *643:I I *C 46.7 145.2 *L 0.00103 *D DEL015

*CAP
1 *37:2 0.00116454992
2 *37:3 0.000424487

*RES
1 *37:2 *37:3 7.15837002
2 *643:I *37:2 6.07974
3 *562:Z *37:3 4.49889
*END

*D_NET *38 0.0020543

*CONN
*I *563:Z O *C 61.1 142.8 *L 0 *D DEL01
*I *638:I I *C 55.5 145.2 *L 0.00103 *D DEL015

*CAP
1 *638:I 0.000371696
2 *563:Z 0.000493009
3 *38:2 0.00103116
4 *38:3 0.000158431

*RES
1 *38:2 *38:3 12.2917995
2 *563:Z *38:3 4.60661
3 *638:I *38:2 6.47844
*END

*D_NET *39 0.000702194

*CONN
*I *564:I I *C 40.5 139.6 *L 0.00103 *D DEL01
*I *834:Z O *C 42.5 141.8 *L 0 *D CKAN2D0

*CAP
1 *39:2 0.000702193984

*RES
1 *834:Z *39:2 2.27665
2 *564:I *39:2 7.45865011
*END

*D_NET *40 0.000934899

*CONN
*I *565:Z O *C 25.7 139.2 *L 0 *D DEL01
*I *642:I I *C 21.3 139.6 *L 0.00103 *D DEL015

*CAP
1 *565:Z 0.000190772
2 *40:2 7.07727e-05
3 *40:3 0.000673358047

*RES
1 *40:2 *40:3 6.83802986
2 *642:I *40:3 4.49998
3 *565:Z *40:2 1.72714
*END

*D_NET *41 0.00190289

*CONN
*I *566:I I *C 41.3 145.2 *L 0.00103 *D BUFFD2
*I *655:Z O *C 49.1 142 *L 0 *D BUFFD2

*CAP
1 *566:I 0.000126878
2 *41:2 0.00122476992
3 *41:3 0.000540461
4 *41:4 1.07834e-05

*RES
1 *566:I *41:2 4.99718
2 *41:3 *41:4 0.328588
3 *41:2 *41:4 7.28495979
4 *655:Z *41:3 5.98773
*END

*D_NET *42 0.00105559

*CONN
*I *567:Z O *C 9.7 139.2 *L 0 *D CKBD0
*I *583:I I *C 13.3 139.6 *L 0.00105 *D DEL1

*CAP
1 *42:2 0.000354009
2 *42:3 0.000701583984

*RES
1 *42:2 *42:3 4.64309
2 *567:Z *42:3 3.77664
3 *583:I *42:2 5.9917202
*END

*D_NET *43 0.00759563

*CONN
*I *568:Z O *C 217.9 142 *L 0 *D DEL01
*I *738:I I *C 184.7 145.2 *L 0.00105 *D DEL1

*CAP
1 *568:Z 0.000800644
2 *43:2 3.97233e-05
3 *43:3 0.00114379
4 *43:2 *121:2 0.00273701
5 *568:Z *123:2 0.00287447

*RES
1 *43:2 *43:3 58.4945984
2 *738:I *43:3 6.52816
3 *568:Z *43:2 6.50049
*END

*D_NET *44 0.00726451

*CONN
*I *569:Z O *C 139.7 142 *L 0 *D DEL01
*I *825:A2 I *C 164.5 139.6 *L 0.000745 *D AO22D0

*CAP
1 *569:Z 0.000196002
2 *44:2 1.01395e-05
3 *44:3 0.000512768
4 *44:4 7.51184e-05
5 *44:5 0.000265157
6 *44:6 0.000745976
7 *44:7 0.00112626008
8 *44:3 *239:3 0.000747600938
9 *44:2 *502:2 0.00166922
10 *44:2 *512:2 0.00191627

*RES
1 *44:2 *44:3 37.2891998
2 *44:4 *44:5 10.3175
3 *44:3 *44:4 0.42731
4 *44:2 *44:7 9.26654
5 *569:Z *44:6 2.50696
6 *44:5 *44:6 6.57238
7 *825:A2 *44:7 1.49985
*END

*D_NET *45 0.00635474

*CONN
*I *570:Z O *C 211.3 145.6 *L 0 *D DEL01
*I *823:A2 I *C 174.7 139.6 *L 0.000745 *D AO22D0

*CAP
1 *570:Z 1.38455e-07
2 *45:2 0.00302456
3 *45:3 0.000230159
4 *45:4 0.000471626
5 *45:2 *32:3 0.000277965996
6 *45:2 *690:I 0.000713500938
7 *45:2 *394:13 0.000192022988
8 *570:Z *663:I 0.00026969
9 *45:2 *403:5 0.00117507008

*RES
1 *45:3 *45:4 6.86106
2 *45:2 *45:4 43.0861015
3 *570:Z *45:3 3.14126
4 *823:A2 *45:2 2.66724
*END

*D_NET *46 0.00578057

*CONN
*I *571:Z O *C 208.5 142 *L 0 *D DEL01
*I *824:A2 I *C 176.3 139.6 *L 0.000745 *D AO22D0

*CAP
1 *46:2 0.00162856
2 *46:4 0.000359558
3 *46:2 *32:3 0.00178518
4 *46:2 *394:13 0.000285635
5 *46:2 *410:9 0.000177667012
6 *46:2 *403:6 0.000418636992
7 *46:2 *396:4 0.00112533

*RES
1 *46:2 *46:4 39.1493988
2 *824:A2 *46:2 4.04481
3 *46:3 *46:4 4.80048
4 *571:Z *46:3 1.5
*END

*D_NET *47 0.000486488

*CONN
*I *572:Z O *C 290.9 142.8 *L 0 *D DEL015
*I *582:I I *C 287.9 143.2 *L 0.00072 *D BUFFD1

*CAP
1 *582:I 0.000417362969
2 *47:2 6.91242e-05

*RES
1 *582:I *47:2 7.80069017
2 *572:Z *47:2 1.5
*END

*D_NET *48 0.00971563

*CONN
*I *573:Z O *C 280.3 139.2 *L 0 *D CKBD1
*I *740:I I *C 183.3 141.6 *L 0.00105 *D DEL1

*CAP
1 *740:I 0.000140591
2 *573:Z 0.000111338
3 *48:2 0.000328857
4 *48:3 0.00482896
5 *48:4 5.10638e-05
6 *48:5 0.000174929
7 *48:3 *320:2 0.00103421
8 *48:2 *132:3 0.000618310977
9 *48:2 *476:4 0.000451986992
10 *48:2 *134:3 0.000480428008
11 *48:3 *774:A2 0.000849497031
12 *48:3 *5:4 0.000286383984
13 *48:4 *135:3 0.000359023984

*RES
1 *48:2 *48:3 95.5982971
2 *573:Z *48:5 3.00058
3 *740:I *48:4 4.50013
4 *48:4 *48:3 4.55265
5 *48:5 *48:2 4.41261
*END

*D_NET *49 0.00975316

*CONN
*I *770:A4 I *C 187.9 141.6 *L 0.00102 *D ND4D1
*I *574:Z O *C 254.3 139.2 *L 0 *D CKBD0

*CAP
1 *49:2 0.00194974
2 *49:3 8.30056e-06
3 *49:4 0.00173824
4 *49:5 0.000263387
5 *49:6 8.0328e-07
6 *49:7 0.000804322
7 *49:8 1.60061e-05
8 *49:9 0.00027737
9 *49:11 0.000640185
10 *49:12 0.000585562
11 *49:7 *124:3 0.000914681016
12 *49:5 *133:4 0.00157305
13 *49:2 *143:2 0.000332005
14 *49:3 *515:3 0.000476258984
15 *49:4 *59:2 0.000173291992

*RES
1 *49:9 *49:10 0.169855
2 *49:5 *49:4 27.0841999
3 *49:7 *49:8 0.169855
4 *49:6 *49:7 13.4508
5 *49:8 *49:9 5.4242
6 *49:3 *49:2 18.1898
7 *49:10 *49:11 15.6399
8 *49:11 *49:3 0.169855
9 *49:2 *49:13 9.28994
10 *49:5 *49:12 3.2165
11 *574:Z *49:12 5.0258
12 *49:4 *49:6 0.169855
13 *770:A4 *49:13 1.50018
*END

*D_NET *50 0.000923219

*CONN
*I *575:Z O *C 119.3 142 *L 0 *D DEL01
*I *727:I I *C 123.9 141.6 *L 0.00105 *D DEL1

*CAP
1 *727:I 0.000172186
2 *50:2 0.00075103

*RES
1 *50:2 *50:3 5.90454006
2 *575:Z *50:2 1.72976
3 *727:I *50:3 3.75755
*END

*D_NET *51 0.00299106

*CONN
*I *528:Z O *C 289.5 142 *L 0 *D DEL015
*I *767:D[1] I *C 310.255 134.265 *L 0.00183 *D sram00

*CAP
1 *51:2 9.18073e-05
2 *51:3 0.000260671
3 *51:4 8.75039e-05
4 *51:5 0.000777331
5 *51:6 0.00177376

*RES
1 *51:4 *51:6 23.8593
2 *51:2 *51:3 3.63574
3 *51:3 *51:5 8.68386
4 *51:5 *51:6 1.88832
5 *528:Z *51:2 1.5
6 *528:Z *767:D[1] 0.0001
*END

*D_NET *52 0.00186526

*CONN
*I *529:I I *C 271.7 141.6 *L 0.00103 *D DEL015
*I *577:Z O *C 262.3 139.2 *L 0 *D BUFFD1

*CAP
1 *577:Z 5.31307e-05
2 *52:3 0.000634594
3 *52:4 5.1068e-05
4 *52:5 0.00112647

*RES
1 *52:4 *52:5 10.2370996
2 *52:2 *52:3 4.60213
3 *577:Z *52:5 7.48288
4 *529:I *52:2 2.99993
5 *52:3 *52:4 1.50004
*END

*D_NET *53 0.00280846

*CONN
*I *536:Z O *C 292.7 145.6 *L 0 *D DEL015
*I *767:D[0] I *C 314.185 134.265 *L 0.00183 *D sram00

*CAP
1 *53:2 7.29254e-05
2 *53:4 0.000320513
3 *53:5 0.000212624
4 *53:6 0.000176486
5 *53:7 0.00202593

*RES
1 *53:6 *53:7 4.03238
2 *53:4 *53:5 7.50908
3 *53:3 *53:6 3.8299
4 *53:5 *53:7 24.7162
5 *536:Z *53:2 1.5
6 *53:2 *53:3 1.5
7 *536:Z *767:D[0] 0.0001
*END

*D_NET *54 0.0060442

*CONN
*I *579:Z O *C 204.3 142 *L 0 *D DEL0
*I *767:D[19] I *C 234.655 134.265 *L 0.00183 *D sram00

*CAP
1 *54:2 0.000998211953
2 *54:3 3.60535e-05
3 *54:4 6.49634e-05
4 *54:5 0.000181532
5 *54:6 7.13455e-05
6 *54:7 5.67382e-05
7 *54:8 0.00031152
8 *54:9 0.000136461
9 *54:10 1.60695e-05
10 *54:11 0.000605553
11 *54:12 0.000160862
12 *54:13 0.000707712
13 *54:14 0.000623359
14 *54:8 *130:9 0.000999836953
15 *54:2 *768:ZN 0.000183904004
16 *54:2 *201:17 0.000890070938

*RES
1 *54:8 *54:10 0.559404
2 *54:7 *54:13 8.2381
3 *54:8 *54:14 3.85633
4 *54:9 *54:12 0.45047
5 *54:4 *54:5 3.07495
6 *54:6 *54:7 0.519374
7 *54:10 *54:11 0.45047
8 *54:13 *54:14 9.26603
9 *54:2 *54:5 13.3972
10 *54:11 *54:12 4.98597
11 *54:3 *54:4 1.54075
12 *54:3 *54:9 2.0594
13 *579:Z *54:2 1.5
14 *579:Z *767:D[19] 0.0001
*END

*D_NET *55 0.0124652

*CONN
*I *580:Z O *C 138.7 142.8 *L 0 *D DEL0
*I *767:D[20] I *C 230.185 134.265 *L 0.00183 *D sram00

*CAP
1 *580:Z 5.37785e-06
2 *55:2 0.000211882
3 *55:3 0.000314708
4 *55:4 0.00092062
5 *55:5 4.58151e-05
6 *55:7 0.000728052
7 *55:8 3.6378e-05
8 *55:10 0.00030858
9 *55:11 3.36116e-06
10 *55:12 0.000294618
11 *55:13 1.06006e-06
12 *55:14 0.000221371
13 *55:15 3.62746e-05
14 *55:16 0.00113912
15 *55:17 0.00122835
16 *55:18 7.55743e-05
17 *55:19 7.13599e-06
18 *55:20 0.000221423
19 *55:21 2.02704e-05
20 *55:22 0.00123621
21 *55:23 0.00169441
22 *55:5 *133:3 0.00074512
23 *55:2 *322:3 0.000417501016
24 *55:3 *515:12 0.000724861953
25 *55:4 *130:6 0.000841912969
26 *55:4 *83:2 0.000985231016

*RES
1 *55:2 *55:22 12.2365
2 *55:5 *55:6 0.37081
3 *55:9 *55:3 1.70823
4 *55:22 *55:23 15.1333
5 *55:19 *55:20 3.94612
6 *55:13 *55:14 2.58621
7 *55:23 *55:24 0.156175
8 *55:7 *55:8 1.72523
9 *55:9 *55:10 0.256311
10 *55:4 *55:24 5.60966
11 *580:Z *55:10 2.87782
12 *55:3 *55:11 0.256311
13 *55:11 *55:4 4.62662
14 *55:14 *55:15 0.132006
15 *55:20 *55:21 0.132067
16 *55:18 *55:19 0.132946
17 *55:17 *55:18 2.39253
18 *55:16 *55:17 23.7537
19 *55:8 *55:12 5.02593
20 *55:12 *55:13 0.132884
21 *55:21 *55:2 6.08232
22 *55:15 *55:16 13.4916
23 *55:6 *55:7 11.9768
24 *580:Z *767:D[20] 0.0001
*END

*D_NET *56 0.0106262

*CONN
*I *581:Z O *C 136.1 139.2 *L 0 *D DEL0
*I *767:D[21] I *C 226.255 134.265 *L 0.00183 *D sram00

*CAP
1 *56:2 0.000501568
2 *56:3 0.000493091
3 *56:4 0.00313857
4 *56:5 3.6637e-05
5 *56:6 4.76042e-05
6 *56:7 0.000174086
7 *56:8 0.000208089
8 *56:9 1.27391e-05
9 *56:10 0.000249467
10 *56:2 *82:12 0.00114754
11 *56:3 *407:2 0.000475023008
12 *56:3 *435:4 0.000233145996
13 *56:4 *291:2 0.000500244961
14 *56:4 *80:15 0.00109186008
15 *56:2 *334:3 0.000465604023
16 *56:3 *396:7 0.00185089

*RES
1 *56:8 *56:9 0.132096
2 *56:7 *56:8 3.16963
3 *56:4 *56:7 0.132123
4 *56:6 *56:2 0.133073
5 *56:5 *56:6 0.478866
6 *581:Z *56:3 4.27112
7 *56:2 *56:4 83.3757
8 *56:5 *56:10 3.57264
9 *56:3 *56:9 3.04121
10 *581:Z *767:D[21] 0.0001
*END

*D_NET *57 0.00372319

*CONN
*I *582:Z O *C 288.5 142.8 *L 0 *D BUFFD1
*I *653:I I *C 251.9 143.2 *L 0.000643 *D CKBD0

*CAP
1 *653:I 0.000150479
2 *582:Z 0.000322649
3 *57:2 0.000195624
4 *57:3 2.0279e-05
5 *57:4 0.000448781
6 *57:5 0.000228731
7 *57:6 2.2226e-05
8 *57:7 0.000945718
9 *57:8 1.4e-08
10 *57:9 0.000402172
11 *57:10 4.1143e-05
12 *57:11 0.000681745
13 *57:12 0.000263624

*RES
1 *57:3 *57:4 4.72194
2 *57:7 *57:8 0.13206
3 *57:4 *57:5 0.13206
4 *57:8 *57:9 4.5278
5 *57:2 *57:3 2.32985
6 *57:11 *57:12 0.13206
7 *57:10 *57:11 7.24609
8 *57:5 *57:6 2.52399
9 *57:6 *57:7 10.3525
10 *57:9 *57:10 0.13206
11 *582:Z *57:2 4.57029
12 *653:I *57:12 7.83183
*END

*D_NET *58 0.000807507

*CONN
*I *583:Z O *C 16.5 139.2 *L 0 *D DEL1
*I *722:I I *C 12.5 141.6 *L 0.000975 *D CKBD2

*CAP
1 *722:I 0.000388123008
2 *583:Z 0.000254644
3 *58:2 0.000164737

*RES
1 *583:Z *58:2 4.32835
2 *722:I *58:2 8.84926033
*END

*D_NET *59 0.00533219

*CONN
*I *534:Z O *C 230.9 142.8 *L 0 *D DEL0
*I *767:D[11] I *C 268.255 134.265 *L 0.00183 *D sram00

*CAP
1 *534:Z 0.00018506
2 *59:2 0.00270531
3 *59:3 4.30142e-05
4 *59:4 2.92265e-05
5 *59:6 1.68837e-05
6 *59:7 2.35298e-06
7 *59:8 0.000315671
8 *59:9 3.31481e-05
9 *59:2 *335:2 0.00113739
10 *59:2 *49:4 0.000173291992
11 *59:2 *130:7 0.000269426992
12 *59:2 *133:2 0.000236569004
13 *59:2 *87:4 0.000184829004

*RES
1 *59:3 *59:2 10.2165
2 *59:8 *59:9 0.132006
3 *59:7 *59:8 7.24601
4 *59:6 *59:7 0.132006
5 *59:4 *59:5 0.294139
6 *59:2 *59:9 28.5191
7 *534:Z *59:3 2.32097
8 *59:5 *59:6 0.406784
9 *534:Z *767:D[11] 0.0001
*END

*D_NET *60 0.00685735

*CONN
*I *530:Z O *C 233.7 142 *L 0 *D DEL0
*I *767:D[9] I *C 276.655 134.265 *L 0.00183 *D sram00

*CAP
1 *60:2 8.45017e-05
2 *60:3 0.000103865
3 *60:4 4.70463e-05
4 *60:5 0.00198275
5 *60:6 1.78806e-05
6 *60:7 5.53663e-05
7 *60:8 0.000249844
8 *60:9 0.000114151
9 *60:10 0.00189014
10 *60:11 0.000137175
11 *60:8 *61:4 0.000324335
12 *60:10 *130:5 0.000527115
13 *60:2 *228:10 0.000313345996
14 *60:3 *331:6 0.000359356992
15 *60:4 *338:8 0.000221192012
16 *60:5 *394:6 0.000429284023

*RES
1 *60:10 *60:11 21.7412
2 *60:9 *60:11 2.26599
3 *60:5 *60:4 26.4014
4 *60:10 *60:4 5.20671
5 *60:3 *60:7 0.131057
6 *60:6 *60:8 5.81988
7 *60:8 *60:5 5.83468
8 *60:7 *60:9 2.00822
9 *530:Z *60:2 1.5
10 *60:2 *60:6 1.5
11 *530:Z *767:D[9] 0.0001
*END

*D_NET *61 0.0056313

*CONN
*I *535:Z O *C 231.1 142 *L 0 *D DEL0
*I *767:D[10] I *C 272.185 134.265 *L 0.00183 *D sram00

*CAP
1 *61:2 0.000278212
2 *61:3 0.000352224
3 *61:4 0.000328004
4 *61:5 9.57156e-05
5 *61:6 0.00113698008
6 *61:7 4.20024e-05
7 *61:8 1.7141e-05
8 *61:9 0.000575282
9 *61:10 0.000159058
10 *61:11 0.000668725
11 *61:12 2.042e-05
12 *61:7 *69:2 0.000219199004
13 *61:5 *495:2 0.000209429004
14 *61:2 *331:6 0.000193903008
15 *61:3 *338:2 0.0010107
16 *61:4 *60:8 0.000324335

*RES
1 *61:11 *61:12 0.132006
2 *61:10 *61:11 8.79928
3 *61:7 *61:3 4.54343
4 *61:4 *61:5 0.872836
5 *61:9 *61:10 0.132006
6 *61:8 *61:9 13.7747
7 *61:2 *61:8 0.132931
8 *61:6 *61:12 17.4521
9 *61:5 *61:6 1.52913
10 *535:Z *61:4 3.21635
11 *61:7 *61:2 2.51281
12 *535:Z *767:D[10] 0.0001
*END

*D_NET *62 0.00232496

*CONN
*I *577:I I *C 261.7 139.6 *L 0.00072 *D BUFFD1
*I *587:Z O *C 241.1 139.4 *L 0 *D DEL005

*CAP
1 *62:2 9.91405e-05
2 *62:3 0.000807093
3 *62:4 0.000407751
4 *62:5 0.000100809
5 *62:6 0.000888806016
6 *62:7 2.13606e-05

*RES
1 *62:3 *62:7 8.52909
2 *62:2 *62:4 6.50715
3 *62:6 *62:7 0.13196
4 *62:4 *62:5 0.13196
5 *62:5 *62:6 8.60511971
6 *587:Z *62:3 1.50001
7 *577:I *62:2 1.50001
*END

*D_NET *63 0.00221444

*CONN
*I *578:I I *C 289.7 145.2 *L 0.00072 *D BUFFD1
*I *588:Z O *C 265.1 145.6 *L 0 *D CKBD0

*CAP
1 *588:Z 0.00010346
2 *63:2 8.45987e-05
3 *63:3 0.00202638

*RES
1 *63:2 *63:3 25.3815002
2 *588:Z *63:3 2.99996
3 *578:I *63:2 1.49998
*END

*D_NET *64 0.00251169

*CONN
*I *576:I I *C 286.7 143.2 *L 0.00072 *D BUFFD1
*I *589:Z O *C 263.1 142.8 *L 0 *D CKBD0

*CAP
1 *576:I 0.000162938
2 *64:2 0.000432037
3 *64:3 0.000132617
4 *64:4 0.000543656
5 *64:5 0.000176141
6 *64:6 0.00106429992

*RES
1 *64:5 *64:6 11.1292
2 *64:2 *64:6 5.35216
3 *64:4 *64:5 2.26775
4 *64:3 *64:4 5.49854
5 *576:I *64:3 4.71636
6 *589:Z *64:2 1.5
*END

*D_NET *65 0.00462861

*CONN
*I *537:Z O *C 232.9 139.2 *L 0 *D DEL0
*I *767:D[12] I *C 263.785 134.265 *L 0.00183 *D sram00

*CAP
1 *65:2 4.64618e-05
2 *65:3 0.000918645
3 *65:4 2.87983e-05
4 *65:5 0.000203873
5 *65:6 8.81359e-06
6 *65:7 0.00039984
7 *65:8 5.3752e-05
8 *65:9 0.000318196
9 *65:10 3.10833e-05
10 *65:11 0.00237695
11 *65:12 0.000242211

*RES
1 *65:10 *65:11 19.495
2 *65:9 *65:10 0.17003
3 *65:2 *65:3 9.76765
4 *65:8 *65:9 3.23553
5 *65:7 *65:8 0.170098
6 *65:6 *65:7 3.96041
7 *65:4 *65:5 2.01939
8 *65:3 *65:4 0.170098
9 *65:11 *65:13 5.81988
10 *65:5 *65:6 0.170098
11 *65:2 *65:12 2.99017
12 *537:Z *65:13 1.5
13 *537:Z *767:D[12] 0.0001
*END

*D_NET *66 0.00422234

*CONN
*I *527:I I *C 249.1 143.2 *L 0.00103 *D DEL01
*I *591:Z O *C 218.3 145.6 *L 0 *D DEL01

*CAP
1 *591:Z 0.000530326
2 *66:2 0.000200822
3 *66:3 0.00057403
4 *66:4 6.68792e-06
5 *66:5 0.000792908
6 *66:6 0.00048129
7 *66:7 0.000926623984
8 *66:8 0.000709655

*RES
1 *66:7 *66:8 4.98287
2 *66:6 *66:7 7.82848978
3 *66:2 *66:3 7.55004
4 *527:I *66:2 2.43517
5 *591:Z *66:8 5.81128
6 *66:5 *66:6 3.74761
7 *66:4 *66:5 6.78495
8 *66:3 *66:4 0.131996
*END

*D_NET *67 0.0070195

*CONN
*I *533:Z O *C 251.9 142 *L 0 *D DEL0
*I *767:D[4] I *C 297.385 134.265 *L 0.00183 *D sram00

*CAP
1 *67:2 3.56079e-05
2 *67:3 9.87567e-05
3 *67:5 0.000536956
4 *67:6 2.39356e-05
5 *67:7 0.00193657
6 *67:8 5.46383e-05
7 *67:9 0.00105216
8 *67:10 0.000590265
9 *67:11 0.000255609
10 *67:12 0.000124613
11 *67:13 0.000203896
12 *67:14 0.0010438
13 *67:14 *335:2 0.000327648008
14 *67:2 *68:3 0.000735076016

*RES
1 *67:7 *67:8 0.413374
2 *67:2 *67:3 0.807096
3 *67:12 *67:14 7.59527
4 *67:5 *67:6 0.170098
5 *67:9 *67:12 0.413374
6 *67:4 *67:5 7.85803
7 *67:6 *67:7 31.9424
8 *67:10 *67:15 4.3552
9 *67:10 *67:11 3.35298
10 *67:8 *67:9 12.9668
11 *67:11 *67:14 4.21822
12 *67:2 *67:13 2.79601
13 *67:3 *67:4 0.170098
14 *533:Z *67:15 1.5
15 *533:Z *767:D[4] 0.0001
*END

*D_NET *68 0.00616827

*CONN
*I *531:Z O *C 254.5 142 *L 0 *D DEL0
*I *767:D[3] I *C 301.855 134.265 *L 0.00183 *D sram00

*CAP
1 *531:Z 5.46436e-05
2 *68:2 6.56325e-05
3 *68:4 0.000780465
4 *68:6 0.000167243
5 *68:7 2.10245e-05
6 *68:8 4.30023e-05
7 *68:9 0.000238244
8 *68:10 0.0032884
9 *68:4 *337:3 0.000448841992
10 *68:3 *67:2 0.000735076016
11 *68:10 *511:2 0.000325724004

*RES
1 *68:8 *68:10 6.1598
2 *68:7 *68:10 43.7693
3 *68:2 *68:3 0.450194
4 *531:Z *68:8 1.03174
5 *68:6 *68:7 0.170098
6 *68:4 *68:5 0.170098
7 *68:3 *68:4 11.3013
8 *68:5 *68:6 3.47905
9 *68:2 *68:9 2.99017
10 *531:Z *767:D[3] 0.0001
*END

*D_NET *69 0.00631029

*CONN
*I *532:Z O *C 249.7 139.2 *L 0 *D DEL0
*I *767:D[5] I *C 293.455 134.265 *L 0.00183 *D sram00

*CAP
1 *69:2 0.000505692
2 *69:3 8.85031e-05
3 *69:4 2.91564e-05
4 *69:5 0.0015397
5 *69:6 4.80224e-05
6 *69:8 1.51773e-05
7 *69:9 7.07884e-05
8 *69:11 0.00138755
9 *69:12 0.000257756
10 *69:13 5.84773e-05
11 *69:14 0.000209334
12 *69:2 *495:3 0.000820788047
13 *69:2 *61:7 0.000219199004
14 *69:3 *500:3 0.00106014

*RES
1 *69:3 *69:8 0.170098
2 *69:4 *69:5 19.742
3 *69:4 *69:14 2.44665
4 *69:12 *69:13 2.23572
5 *69:2 *69:7 0.170098
6 *69:6 *69:2 6.39837
7 *69:7 *69:3 1.53284
8 *69:10 *69:11 20.2302
9 *69:8 *69:9 6.59646
10 *69:9 *69:10 0.170098
11 *69:13 *69:14 0.616645
12 *69:11 *69:15 3.98173
13 *69:5 *69:6 0.170098
14 *532:Z *69:15 1.5
15 *532:Z *767:D[5] 0.0001
*END

*D_NET *70 0.00145715

*CONN
*I *595:Z O *C 129.7 139.2 *L 0 *D DEL015
*I *767:D[33] I *C 135.275 134.195 *L 0.00183 *D sram00

*CAP
1 *595:Z 5.51674e-05
2 *70:2 0.000766461016
3 *70:3 4.08522e-05
4 *70:4 1.23738e-05
5 *70:5 8.97742e-05
6 *70:6 0.000492519

*RES
1 *70:4 *70:5 0.902692
2 *70:3 *70:4 0.294231
3 *70:2 *70:6 2.30791
4 *595:Z *70:2 6.18234015
5 *70:5 *70:6 4.05452
6 *595:Z *767:D[33] 9.4335e-05
*END

*D_NET *71 0.00265342

*CONN
*I *596:Z O *C 131.9 145.6 *L 0 *D DEL015
*I *767:D[32] I *C 139.205 134.195 *L 0.00183 *D sram00

*CAP
1 *71:3 0.000245998
2 *71:4 5.91074e-05
3 *71:5 0.00119445
4 *71:6 6.84574e-05
5 *71:7 3.35361e-06
6 *71:8 0.000534226
7 *71:9 0.000230087
8 *71:10 0.000317754

*RES
1 *71:9 *71:10 2.44886
2 *71:8 *71:10 5.12457
3 *71:2 *71:5 7.5159
4 *71:2 *71:3 0.256311
5 *596:Z *71:8 1.69416
6 *71:6 *71:7 0.494203
7 *71:4 *71:9 3.33234
8 *71:3 *71:4 1.71635
9 *71:5 *71:7 0.256311
10 *596:Z *767:D[32] 0.0001
*END

*D_NET *72 0.00213747

*CONN
*I *597:Z O *C 132.3 142.8 *L 0 *D DEL015
*I *767:D[35] I *C 126.875 134.195 *L 0.00183 *D sram00

*CAP
1 *72:3 3.17143e-05
2 *72:4 0.000269223
3 *72:5 0.000102102
4 *72:6 0.00108589008
5 *72:7 1.6901e-06
6 *72:8 9.01719e-05
7 *72:9 0.000364548
8 *72:10 9.75951e-06
9 *72:11 7.55575e-05
10 *72:12 0.000106808

*RES
1 *72:11 *72:12 0.520709
2 *72:9 *72:10 0.132171
3 *72:5 *72:11 2.69666
4 *72:4 *72:6 8.4897
5 *72:2 *72:4 2.47079
6 *72:10 *72:12 1.61625
7 *72:8 *72:9 4.72455
8 *72:7 *72:8 0.721666
9 *72:6 *72:7 1.72532
10 *72:3 *72:4 0.417571
11 *597:Z *72:2 1.5
12 *597:Z *767:D[35] 0.0001
*END

*D_NET *73 0.00181768

*CONN
*I *598:Z O *C 123.1 142 *L 0 *D DEL015
*I *767:D[34] I *C 130.805 134.195 *L 0.00183 *D sram00

*CAP
1 *73:2 0.000149816
2 *73:3 3.54314e-05
3 *73:4 8.13873e-05
4 *73:5 2.11802e-05
5 *73:6 0.00122727
6 *73:7 3.01316e-05
7 *73:8 1.75846e-05
8 *73:9 0.000242757
9 *73:10 1.21351e-05

*RES
1 *73:9 *73:10 0.132171
2 *73:8 *73:9 2.58759
3 *73:7 *73:8 0.132171
4 *73:4 *73:5 0.325215
5 *73:3 *73:6 7.71307
6 *73:6 *73:10 5.92649
7 *73:5 *73:7 2.11386
8 *598:Z *73:2 1.5
9 *73:2 *73:3 1.5
10 *598:Z *767:D[34] 0.0001
*END

*D_NET *74 0.00190604

*CONN
*I *599:Z O *C 123.1 142.8 *L 0 *D DEL015
*I *767:D[37] I *C 118.475 134.195 *L 0.00183 *D sram00

*CAP
1 *74:2 0.00104507992
2 *74:3 0.000506123
3 *74:4 4.34234e-05
4 *74:5 0.000307998
5 *74:6 3.42858e-06

*RES
1 *74:2 *74:3 5.84186
2 *74:3 *74:4 0.370976
3 *74:2 *74:6 8.45643
4 *74:5 *74:6 0.256311
5 *599:Z *74:5 2.71481
6 *599:Z *767:D[37] 0.0001
*END

*D_NET *75 0.00147744

*CONN
*I *600:Z O *C 111.1 139.2 *L 0 *D DEL015
*I *767:D[38] I *C 114.005 134.195 *L 0.00183 *D sram00

*CAP
1 *75:2 0.000110499
2 *75:3 4.58299e-05
3 *75:4 0.000174569
4 *75:5 0.000236075
5 *75:6 4.00106e-05
6 *75:7 0.000386961
7 *75:8 2.97345e-05
8 *75:9 0.000409637969
9 *75:10 4.41235e-05

*RES
1 *75:9 *75:10 4.30332994
2 *75:4 *75:6 0.522354
3 *75:2 *75:3 0.876609
4 *75:7 *75:8 2.65609
5 *75:6 *75:7 0.256285
6 *75:5 *75:10 3.1229
7 *75:3 *75:4 0.451437
8 *75:5 *75:8 0.256285
9 *600:Z *75:9 1.50002
10 *600:Z *767:D[38] 0.000131327
*END

*D_NET *76 0.0023927

*CONN
*I *601:Z O *C 115.9 142.8 *L 0 *D DEL015
*I *767:D[36] I *C 122.405 134.195 *L 0.00183 *D sram00

*CAP
1 *76:2 4.1188e-05
2 *76:3 0.000146584
3 *76:4 5.374e-06
4 *76:5 0.000193794
5 *76:6 1.5004e-05
6 *76:7 0.000832588984
7 *76:8 0.000208341
8 *76:9 0.000299381
9 *76:11 2.88392e-06
10 *76:12 0.000647573

*RES
1 *76:11 *76:12 4.41557
2 *76:7 *76:10 3.26269
3 *76:2 *76:3 1.59136
4 *76:10 *76:12 0.256305
5 *76:9 *76:11 0.256305
6 *76:6 *76:7 4.60956001
7 *76:4 *76:5 2.09138
8 *76:3 *76:4 0.0485321
9 *76:2 *76:8 2.79601
10 *601:Z *76:9 3.00856
11 *76:5 *76:6 0.0485321
12 *601:Z *767:D[36] 7.03363e-05
*END

*D_NET *77 0.0168555

*CONN
*I *602:Z O *C 45.5 142.8 *L 0 *D DEL1
*I *767:D[31] I *C 184.255 134.265 *L 0.00183 *D sram00

*CAP
1 *77:2 9.52653e-07
2 *77:3 0.000188525
3 *77:4 7.26523e-05
4 *77:5 0.000143475
5 *77:6 0.000303445
6 *77:7 2.12091e-05
7 *77:8 4.21173e-06
8 *77:9 0.000422802
9 *77:10 0.000112137
10 *77:11 0.000239291
11 *77:12 0.000160697
12 *77:13 0.000108277
13 *77:14 0.000205221
14 *77:15 2.45684e-05
15 *77:17 9.95773e-05
16 *77:18 1.70725e-05
17 *77:19 0.00103797
18 *77:20 3.42203e-05
19 *77:21 0.00018311
20 *77:22 5.16438e-06
21 *77:23 2.61729e-05
22 *77:24 2.5872e-05
23 *77:25 0.000483321
24 *77:26 2.43929e-05
25 *77:27 0.000516664
26 *77:28 1.20084e-05
27 *77:29 1.86519e-05
28 *77:30 0.000262982
29 *77:31 0.00164295
30 *77:32 4.10142e-05
31 *77:33 0.00120724
32 *77:34 0.000163355
33 *77:35 0.00106078
34 *77:36 3.00838e-05
35 *77:37 7.96719e-05
36 *77:38 0.000124697
37 *77:39 0.000227809
38 *77:32 *313:2 0.000427639023
39 *77:14 *79:3 0.000510916992
40 *77:2 *394:17 0.000669311016
41 *77:3 *428:2 0.00110343
42 *77:2 *80:17 0.00111693
43 *77:4 *86:14 0.000307496016
44 *77:5 *432:2 0.000213304004
45 *77:5 *301:3 0.000865411016
46 *77:2 *396:3 0.000797496953
47 *77:3 *295:4 0.00151141

*RES
1 *77:37 *77:38 2.4746
2 *77:16 *77:17 4.52872
3 *77:4 *77:37 2.01937
4 *77:18 *77:19 12.2967
5 *602:Z *77:6 2.90819
6 *77:20 *77:21 4.91711
7 *77:27 *77:28 0.132171
8 *77:8 *77:9 3.06189
9 *77:34 *77:35 10.9444
10 *77:12 *77:36 2.30836
11 *77:2 *77:15 0.613664
12 *77:31 *77:32 0.132256
13 *77:3 *77:30 0.132171
14 *77:33 *77:34 0.132256
15 *77:6 *77:8 0.256311
16 *77:29 *77:3 17.8621
17 *77:24 *77:25 12.1039
18 *77:19 *77:20 0.132067
19 *77:28 *77:5 4.72455
20 *77:14 *77:38 3.97359
21 *77:32 *77:33 25.9073
22 *77:7 *77:9 0.256311
23 *77:21 *77:22 0.132067
24 *77:10 *77:11 0.397972
25 *77:17 *77:18 0.132067
26 *77:30 *77:31 31.5381
27 *77:15 *77:16 0.132067
28 *77:22 *77:23 1.42153
29 *77:7 *77:11 2.63387
30 *77:2 *77:39 5.48504
31 *77:35 *77:36 0.132267
32 *77:13 *77:37 0.301814
33 *77:5 *77:29 0.132171
34 *77:26 *77:27 6.2787
35 *77:23 *77:24 0.132067
36 *77:25 *77:26 0.132171
37 *77:11 *77:12 1.5
38 *77:14 *77:39 1.5
39 *602:Z *767:D[31] 0.0001
*END

*D_NET *78 0.0049366

*CONN
*I *603:Z O *C 218.1 142.8 *L 0 *D DEL1
*I *767:D[16] I *C 246.985 134.265 *L 0.00183 *D sram00

*CAP
1 *78:3 0.000433291
2 *78:4 0.000153414
3 *78:5 8.19338e-05
4 *78:7 0.000284627
5 *78:8 0.00048715
6 *78:9 7.82442e-06
7 *78:10 0.00138963
8 *78:11 0.00109686
9 *78:12 6.70271e-05
10 *78:13 0.000904452
11 *78:14 3.03647e-05

*RES
1 *78:2 *78:3 3.38666
2 *78:6 *78:8 3.04588
3 *78:12 *78:13 7.4403
4 *78:4 *78:5 1.10185
5 *78:6 *78:7 0.256311
6 *78:8 *78:9 0.256311
7 *78:9 *78:10 1.58164
8 *78:13 *78:14 0.132011
9 *78:10 *78:14 11.3008
10 *78:3 *78:7 2.87066
11 *78:5 *78:11 12.4041
12 *78:11 *78:12 0.132011
13 *603:Z *78:2 1.5
14 *603:Z *767:D[16] 0.0001
*END

*D_NET *79 0.01062

*CONN
*I *604:Z O *C 116.9 145.6 *L 0 *D DEL1
*I *767:D[28] I *C 196.585 134.265 *L 0.00183 *D sram00

*CAP
1 *79:2 0.00116961
2 *79:3 0.000513281
3 *79:4 5.08838e-06
4 *79:5 0.000121058
5 *79:6 0.000668401
6 *79:7 0.000178929
7 *79:8 0.000184853
8 *79:9 0.000204978
9 *79:10 9.4211e-05
10 *79:11 3.77072e-05
11 *79:13 2.3847e-05
12 *79:14 0.000126678
13 *79:15 0.00248856
14 *79:16 9.87298e-06
15 *79:17 0.000449372
16 *79:18 3.01885e-05
17 *79:19 0.000125956
18 *79:20 0.000132108
19 *79:21 0.000179308
20 *79:2 *82:2 0.000592014023
21 *79:3 *85:8 0.000335788008
22 *79:4 *80:17 0.000954901016
23 *79:5 *86:10 0.000489645
24 *79:2 *432:7 0.000176425
25 *79:3 *77:14 0.000510916992
26 *79:4 *84:2 0.000816263984

*RES
1 *79:5 *79:19 0.397928
2 *79:12 *79:13 5.69391
3 *79:10 *79:19 2.01937
4 *79:8 *79:9 1.85057
5 *79:4 *79:11 1.19626
6 *79:4 *79:21 4.59935
7 *79:13 *79:14 0.132067
8 *79:3 *79:20 14.8574
9 *79:19 *79:20 2.86443
10 *79:17 *79:18 0.32644
11 *79:6 *79:9 8.01604
12 *79:7 *79:2 10.3586
13 *79:16 *79:17 6.08443
14 *79:15 *79:16 0.32644
15 *79:2 *79:18 3.20187
16 *79:11 *79:12 0.132067
17 *79:14 *79:15 40.6553
18 *79:7 *79:8 1.48756
19 *604:Z *79:6 1.5
20 *79:3 *79:21 1.5
21 *604:Z *767:D[28] 0.0001
*END

*D_NET *80 0.0134255

*CONN
*I *605:Z O *C 120.7 145.6 *L 0 *D DEL1
*I *767:D[22] I *C 221.785 134.265 *L 0.00183 *D sram00

*CAP
1 *605:Z 0.000235989
2 *80:2 0.000132858
3 *80:3 0.000728261
4 *80:4 3.53331e-05
5 *80:5 0.000253807
6 *80:6 0.000256893
7 *80:7 0.000115952
8 *80:8 1.143e-05
9 *80:9 1.95571e-05
10 *80:10 2.286e-05
11 *80:11 0.000552074
12 *80:12 2.10347e-05
13 *80:13 5.87146e-05
14 *80:14 5.95404e-06
15 *80:15 0.000304742
16 *80:16 2.40335e-05
17 *80:17 0.00284816
18 *80:18 0.00029705
19 *80:19 9.05275e-05
20 *80:21 0.000106651
21 *80:22 2.98571e-05
22 *80:23 5.40644e-05
23 *80:24 0.000398486
24 *80:25 0.000150633
25 *80:26 0.000143375
26 *80:27 4.34167e-05
27 *80:28 0.000146374
28 *80:29 0.000436601
29 *80:30 2.1252e-05
30 *80:31 0.000618698
31 *80:32 0.000183749
32 *80:17 *77:2 0.00111693
33 *80:17 *79:4 0.000954901016
34 *80:15 *56:4 0.00109186008
35 *605:Z *411:4 0.00101618
36 *80:2 *331:5 0.000897377031

*RES
1 *80:15 *80:16 2.2668
2 *605:Z *80:3 2.66495
3 *80:4 *80:18 4.01213
4 *80:26 *80:27 0.132011
5 *80:9 *80:10 0.132096
6 *80:8 *80:9 0.644779
7 *80:5 *80:6 3.33887
8 *80:13 *80:14 0.132096
9 *80:31 *80:32 0.132067
10 *80:22 *80:25 0.256311
11 *80:4 *80:5 3.13343
12 *80:17 *80:32 43.0487
13 *80:29 *80:30 0.132067
14 *80:28 *80:29 15.401
15 *80:16 *80:26 5.32398
16 *80:23 *80:24 0.256311
17 *80:19 *80:22 0.520322
18 *80:18 *80:19 0.256311
19 *80:27 *80:2 2.58625
20 *80:6 *80:7 1.20111
21 *80:3 *80:14 11.1061
22 *80:20 *80:21 0.256311
23 *80:7 *80:8 0.132096
24 *80:30 *80:31 10.3547
25 *80:21 *80:23 0.526497
26 *80:10 *80:11 7.44244
27 *80:17 *80:20 1.32803
28 *80:2 *80:28 0.132011
29 *80:11 *80:12 0.132096
30 *80:12 *80:13 0.644779
31 *80:24 *80:25 4.99568
32 *605:Z *767:D[22] 0.0001
*END

*D_NET *81 0.0105668

*CONN
*I *606:Z O *C 124.1 145.6 *L 0 *D DEL1
*I *767:D[23] I *C 217.855 134.265 *L 0.00183 *D sram00

*CAP
1 *81:2 0.000425961
2 *81:3 0.000196658
3 *81:4 0.00173431
4 *81:6 6.49922e-05
5 *81:7 0.0064829
6 *81:8 0.00128817
7 *81:3 *411:3 0.000373728984

*RES
1 *81:6 *81:8 1.67085
2 *81:3 *81:7 2.66495
3 *81:2 *81:3 3.76824
4 *81:7 *81:8 90.8021
5 *81:4 *81:5 12.216
6 *81:5 *81:6 0.212626
7 *606:Z *81:2 1.5
8 *606:Z *767:D[23] 0.0001
*END

*D_NET *82 0.0110369

*CONN
*I *607:Z O *C 126.5 142.8 *L 0 *D DEL1
*I *767:D[24] I *C 213.385 134.265 *L 0.00183 *D sram00

*CAP
1 *82:2 0.000560698
2 *82:4 3.78512e-06
3 *82:5 0.000328979
4 *82:6 0.000272833
5 *82:7 1.28346e-06
6 *82:8 2.85624e-05
7 *82:9 4.81189e-05
8 *82:10 0.000194477
9 *82:11 1.94259e-05
10 *82:12 0.000365895
11 *82:13 0.000270549
12 *82:14 0.000874124
13 *82:15 2.12315e-05
14 *82:16 0.00142562
15 *82:17 7.468e-05
16 *82:18 0.000227695
17 *82:15 *291:2 0.000868365
18 *82:2 *79:2 0.000592014023
19 *82:12 *56:2 0.00114754
20 *82:8 *83:2 0.0022207
21 *82:6 *137:3 0.000598267031
22 *82:6 *407:2 0.000356185
23 *82:8 *435:2 0.000192601992
24 *82:2 *143:4 0.000343206992

*RES
1 *82:7 *82:8 0.745557
2 *82:12 *82:13 0.132006
3 *82:3 *82:6 1.68677
4 *82:4 *82:5 1.91155
5 *82:6 *82:7 0.256311
6 *82:3 *82:5 0.256311
7 *82:9 *82:18 2.79601
8 *82:10 *82:11 0.132006
9 *82:2 *82:4 0.256311
10 *82:9 *82:10 1.7785
11 *82:13 *82:14 52.1061
12 *607:Z *82:2 4.78947
13 *82:16 *82:17 0.132096
14 *82:15 *82:16 26.4412
15 *82:11 *82:12 4.44314
16 *82:14 *82:15 0.132067
17 *82:8 *82:17 1.9195
18 *607:Z *767:D[24] 0.0001
*END

*D_NET *83 0.0102413

*CONN
*I *608:Z O *C 123.7 139.2 *L 0 *D DEL1
*I *767:D[25] I *C 209.455 134.265 *L 0.00183 *D sram00

*CAP
1 *83:2 0.0041464
2 *83:3 2.38528e-05
3 *83:4 0.00010699
4 *83:5 9.11088e-06
5 *83:6 0.000139637
6 *83:7 0.00087205
7 *83:8 9.07925e-05
8 *83:2 *55:4 0.000985231016
9 *83:2 *84:4 0.000704066016
10 *83:2 *143:4 0.00048345
11 *83:2 *82:8 0.0022207
12 *83:2 *130:8 0.000459066992

*RES
1 *83:6 *83:7 0.132006
2 *83:4 *83:5 0.132006
3 *83:3 *83:4 2.74929
4 *83:2 *83:7 79.0638
5 *608:Z *83:2 5.18901
6 *83:5 *83:6 3.75116
7 *83:3 *83:8 2.60185
8 *608:Z *767:D[25] 0.0001
*END

*D_NET *84 0.0102374

*CONN
*I *609:Z O *C 135.9 145.6 *L 0 *D DEL1
*I *767:D[26] I *C 204.985 134.265 *L 0.00183 *D sram00

*CAP
1 *84:2 0.00238892
2 *84:3 0.000167463
3 *84:4 0.000278206
4 *84:5 0.000747788
5 *84:6 5.61005e-05
6 *84:7 0.00114778
7 *84:8 0.000224511
8 *84:9 5.63557e-05
9 *84:11 0.000263115
10 *84:12 2.95266e-06
11 *84:13 0.000193126
12 *84:14 3.08753e-05
13 *84:15 0.000233297
14 *84:16 7.91021e-05
15 *84:17 8.00863e-05
16 *84:18 0.000112748
17 *84:19 0.000140014
18 *84:20 1.16648e-06
19 *84:21 0.000118763
20 *84:22 0.000121934
21 *84:2 *79:4 0.000816263984
22 *84:2 *86:15 0.000346473984
23 *84:3 *130:8 0.00192638
24 *84:4 *83:2 0.000704066016

*RES
1 *84:21 *84:22 0.132067
2 *84:10 *84:4 1.68527
3 *84:11 *84:14 1.49729
4 *84:18 *84:19 6.68075
5 *84:6 *84:13 2.88016
6 *84:13 *84:16 0.256311
7 *84:7 *84:8 1.85503
8 *84:3 *84:9 1.10185
9 *84:2 *84:22 37.8612
10 *84:10 *84:11 0.256311
11 *84:19 *84:20 0.132067
12 *84:17 *84:18 6.2364
13 *609:Z *84:5 2.98207
14 *84:5 *84:8 4.84063
15 *84:15 *84:16 2.28837
16 *84:2 *84:12 0.746007
17 *84:9 *84:17 5.22015
18 *84:4 *84:12 0.256311
19 *84:20 *84:21 3.94612
20 *84:14 *84:15 0.256311
21 *84:6 *84:7 10.4087
22 *609:Z *767:D[26] 0.0001
*END

*D_NET *85 0.00689767

*CONN
*I *610:Z O *C 139.3 145.6 *L 0 *D DEL1
*I *767:D[29] I *C 192.655 134.265 *L 0.00183 *D sram00

*CAP
1 *85:2 0.000582664
2 *85:3 0.000102404
3 *85:4 2.98959e-05
4 *85:5 7.66044e-05
5 *85:6 0.0020033
6 *85:7 0.000117688
7 *85:8 0.00014734
8 *85:9 0.001117
9 *85:10 1.89524e-06
10 *85:11 9.71464e-05
11 *85:12 0.000360279
12 *85:13 9.59542e-05
13 *85:14 8.55915e-07
14 *85:15 4.32237e-05
15 *85:16 0.000107203
16 *85:18 0.000109527
17 *85:16 *245:3 0.00022307
18 *85:6 *288:2 0.000218545
19 *85:8 *79:3 0.000335788008
20 *85:4 *223:6 0.000274118984
21 *85:6 *132:2 0.000625261016
22 *85:2 *247:5 0.000227947988

*RES
1 *85:8 *85:9 19.2568
2 *85:5 *85:13 2.01937
3 *85:13 *85:14 2.05387
4 *85:7 *85:13 0.397928
5 *85:11 *85:17 2.45277
6 *85:9 *85:10 0.132811
7 *85:10 *85:11 4.91863
8 *85:14 *85:15 0.256692
9 *85:8 *85:15 2.84182
10 *85:17 *85:18 0.256692
11 *85:2 *85:16 2.29219
12 *85:12 *85:2 8.35306
13 *85:6 *85:12 29.1593
14 *85:16 *85:18 1.94919
15 *610:Z *85:3 1.5
16 *85:3 *85:4 1.5
17 *85:4 *85:6 1.5
18 *610:Z *767:D[29] 0.0001
*END

*D_NET *86 0.00944868

*CONN
*I *611:Z O *C 142.7 145.6 *L 0 *D DEL1
*I *767:D[27] I *C 201.055 134.265 *L 0.00183 *D sram00

*CAP
1 *86:3 0.000159282
2 *86:4 0.00159538
3 *86:5 0.000335094
4 *86:6 5.9667e-05
5 *86:7 7.31292e-05
6 *86:9 0.000131116
7 *86:10 0.000329982
8 *86:11 1.10035e-05
9 *86:12 1.60183e-05
10 *86:13 0.00034471
11 *86:14 4.13847e-06
12 *86:15 0.000904256
13 *86:16 0.00139919
14 *86:17 7.77302e-05
15 *86:18 5.8255e-05
16 *86:19 6.08842e-05
17 *86:14 *77:4 0.000307496016
18 *86:10 *79:5 0.000489645
19 *86:15 *84:2 0.000346473984
20 *86:2 *130:8 0.000521134023
21 *86:3 *234:4 0.000566102969
22 *86:2 *322:8 0.00050947
23 *86:3 *238:10 0.00114851

*RES
1 *86:3 *86:8 0.242247
2 *86:4 *86:5 15.9758
3 *86:12 *86:13 8.9953
4 *86:6 *86:7 0.482495
5 *86:2 *86:6 0.888477
6 *86:8 *86:9 0.256311
7 *86:13 *86:14 0.132067
8 *86:16 *86:19 26.7043
9 *86:15 *86:19 12.0761
10 *86:16 *86:17 2.00413
11 *86:3 *86:17 3.2266
12 *86:11 *86:12 0.132067
13 *86:11 *86:18 2.11366
14 *86:14 *86:15 3.46197
15 *86:7 *86:10 7.99734
16 *86:5 *86:9 2.82803
17 *86:10 *86:18 2.4746
18 *611:Z *86:4 1.5
19 *611:Z *767:D[27] 0.0001
*END

*D_NET *87 0.0146967

*CONN
*I *612:Z O *C 117.1 142 *L 0 *D DEL1
*I *767:D[14] I *C 255.385 134.265 *L 0.00183 *D sram00

*CAP
1 *87:2 0.000126945
2 *87:3 4.26909e-05
3 *87:4 7.06253e-05
4 *87:5 6.07983e-05
5 *87:6 0.00160447
6 *87:7 7.4975e-05
7 *87:8 0.000152044
8 *87:9 0.000128653
9 *87:10 0.00014995
10 *87:11 0.00198795
11 *87:12 0.000116699
12 *87:13 0.000454876
13 *87:14 1.08258e-05
14 *87:15 0.00211151
15 *87:17 0.000171698
16 *87:18 2.05883e-05
17 *87:19 0.000727325
18 *87:20 3.2574e-05
19 *87:21 0.000328253
20 *87:22 2.28759e-05
21 *87:23 0.000584979
22 *87:24 4.21754e-05
23 *87:25 0.0014263
24 *87:26 1.49177e-05
25 *87:19 *249:3 0.000597872031
26 *87:8 *294:2 0.000607933984
27 *87:19 *325:2 0.000496878008
28 *87:4 *59:2 0.000184829004
29 *87:5 *130:2 0.000551640977
30 *87:6 *131:2 0.000189755
31 *87:6 *139:2 0.000423151992
32 *87:11 *393:2 0.00117990008

*RES
1 *87:21 *87:22 0.132171
2 *87:22 *87:23 7.44431
3 *87:18 *87:19 12.3031
4 *87:12 *87:13 4.91662
5 *87:24 *87:25 23.7629
6 *87:23 *87:24 0.132171
7 *87:4 *87:5 0.131057
8 *87:6 *87:7 5.68513
9 *87:9 *87:10 0.132827
10 *87:5 *87:9 4.9836
11 *87:13 *87:14 0.132067
12 *87:25 *87:26 0.132171
13 *87:19 *87:20 0.132067
14 *87:17 *87:18 0.132067
15 *87:8 *87:26 2.11386
16 *87:16 *87:17 2.58672
17 *87:15 *87:16 0.132067
18 *87:11 *87:12 0.132011
19 *87:20 *87:21 5.694
20 *87:14 *87:15 26.6674
21 *87:3 *87:8 2.47079
22 *87:6 *87:10 15.3286
23 *87:7 *87:11 36.0919
24 *612:Z *87:2 1.5
25 *87:2 *87:3 1.5
26 *612:Z *767:D[14] 0.0001
*END

*D_NET *88 0.00408689

*CONN
*I *613:Z O *C 221.1 139.2 *L 0 *D DEL1
*I *767:D[15] I *C 251.455 134.265 *L 0.00183 *D sram00

*CAP
1 *88:2 0.00082121
2 *88:3 0.000286658
3 *88:4 1.64208e-05
4 *88:5 0.000431307
5 *88:6 6.4585e-06
6 *88:7 6.86117e-05
7 *88:8 0.000317538
8 *88:9 0.000129549
9 *88:10 9.19355e-05
10 *88:11 0.000856796953
11 *88:12 1.36753e-05
12 *88:13 0.000125039
13 *88:14 7.51748e-06
14 *88:15 0.000436642
15 *88:16 5.27793e-05
16 *88:17 0.000373286
17 *88:18 1.58325e-05
18 *88:19 3.56394e-05

*RES
1 *88:12 *88:13 1.15137
2 *88:5 *88:6 0.132006
3 *88:4 *88:5 4.72195
4 *88:2 *88:6 2.50187
5 *88:8 *88:18 3.29489
6 *88:10 *88:11 11.5177
7 *88:9 *88:10 0.326164
8 *88:13 *88:14 0.132011
9 *88:17 *88:18 0.132011
10 *88:9 *88:19 1.54075
11 *613:Z *88:2 6.03468
12 *88:16 *88:17 2.78042
13 *88:15 *88:16 0.132011
14 *88:11 *88:12 0.326172
15 *88:14 *88:15 3.74396
16 *88:3 *88:8 4.44345
17 *88:3 *88:4 0.132006
18 *88:7 *88:19 1.5
19 *613:Z *767:D[15] 0.0001
*END

*D_NET *89 0.000963224

*CONN
*I *614:Z O *C 48.9 139.2 *L 0 *D DEL0
*I *679:I I *C 51.9 141.6 *L 0.00105 *D DEL1

*CAP
1 *614:Z 0.000629010039
2 *89:2 0.000334215

*RES
1 *614:Z *89:2 8.43402004
2 *679:I *89:2 4.65804
*END

*D_NET *90 0.00404134

*CONN
*I *615:Z O *C 141.7 142.8 *L 0 *D DEL0
*I *683:I I *C 168.7 143.2 *L 0.00105 *D DEL1

*CAP
1 *683:I 0.000141171
2 *90:2 3.40403e-05
3 *90:3 0.00224882
4 *90:4 0.0010023
5 *90:5 0.000615024

*RES
1 *90:2 *90:4 10.8726
2 *90:4 *90:5 2.71074
3 *90:3 *90:5 18.6725998
4 *683:I *90:2 3.5826
5 *615:Z *90:3 1.50011
*END

*D_NET *91 0.00408099

*CONN
*I *616:Z O *C 111.9 142 *L 0 *D DEL015
*I *675:I I *C 86.7 143.2 *L 0.00105 *D DEL1

*CAP
1 *675:I 0.000605797
2 *616:Z 0.000356882
3 *91:2 0.000463593
4 *91:3 0.000571095
5 *91:4 0.000380606
6 *91:5 0.000178767
7 *91:6 0.00152426

*RES
1 *91:2 *91:3 5.12891
2 *616:Z *91:2 3.38267
3 *91:5 *91:6 3.92197
4 *91:3 *91:4 4.86932
5 *675:I *91:6 17.3423004
6 *91:4 *91:5 3.49593
*END

*D_NET *92 0.00357409

*CONN
*I *617:Z O *C 199.7 145.6 *L 0 *D DEL015
*I *821:D I *C 181.7 139.6 *L 0.000971 *D DFCNQD1

*CAP
1 *821:D 0.000611393
2 *617:Z 0.000479641
3 *92:2 0.000280709
4 *92:3 0.000285344
5 *92:4 0.000362062
6 *92:5 0.00126548008
7 *92:6 0.000289476

*RES
1 *617:Z *92:3 6.44648981
2 *92:5 *92:6 5.30102
3 *92:4 *92:5 4.16175
4 *821:D *92:2 4.99481
5 *92:3 *92:4 5.11127
6 *92:2 *92:6 6.01073
*END

*D_NET *93 0.0034167

*CONN
*I *618:Z O *C 112.9 142.8 *L 0 *D DEL0
*I *674:I I *C 87.1 145.2 *L 0.00105 *D DEL1

*CAP
1 *618:Z 0.000145459
2 *93:2 0.00117236
3 *93:3 0.00132398
4 *93:4 8.36591e-05
5 *93:5 0.000640444
6 *93:6 5.07894e-05

*RES
1 *93:5 *93:6 0.132075
2 *93:3 *93:6 10.5579
3 *674:I *93:3 4.31683
4 *618:Z *93:2 2.11355
5 *93:4 *93:5 6.52428
6 *93:2 *93:4 11.3740997
*END

*D_NET *94 0.00266149

*CONN
*I *546:I I *C 30.1 143.2 *L 0.00103 *D DEL01
*I *619:Z O *C 48.3 142 *L 0 *D DEL015

*CAP
1 *94:2 0.00266149

*RES
1 *546:I *94:2 2.2766
2 *619:Z *94:2 23.7919006
*END

*D_NET *95 0.00249964

*CONN
*I *620:Z O *C 192.9 145.6 *L 0 *D DEL015
*I *897:D I *C 180.9 145.2 *L 0.000949 *D DFCND1

*CAP
1 *897:D 0.000323718
2 *95:2 0.000320777
3 *95:3 0.000448468
4 *95:4 0.00105873
5 *95:5 0.000347918

*RES
1 *897:D *95:5 4.74737
2 *95:4 *95:5 3.48212
3 *95:3 *95:4 9.64962959
4 *95:2 *95:3 4.70246
5 *620:Z *95:2 4.35909
*END

*D_NET *96 0.002164

*CONN
*I *621:Z O *C 104.1 145.6 *L 0 *D DEL0
*I *677:I I *C 91.9 145.2 *L 0.00105 *D DEL1

*CAP
1 *96:2 0.002164

*RES
1 *677:I *96:2 4.16481
2 *621:Z *96:2 19.5128002
*END

*D_NET *97 0.00226685

*CONN
*I *622:Z O *C 101.5 142.8 *L 0 *D DEL015
*I *678:I I *C 86.7 141.6 *L 0.00105 *D DEL1

*CAP
1 *678:I 0.000446851
2 *97:2 0.000938782969
3 *97:3 0.000881225

*RES
1 *622:Z *97:2 1.75409
2 *678:I *97:3 14.4363003
3 *97:2 *97:3 7.68074
*END

*D_NET *98 0.00300805

*CONN
*I *623:Z O *C 99.1 142.8 *L 0 *D DEL015
*I *692:I I *C 79.7 141.6 *L 0.00105 *D DEL1

*CAP
1 *692:I 0.000338016
2 *98:2 0.000365165
3 *98:3 0.00103853
4 *98:4 0.00126633

*RES
1 *98:2 *98:3 10.0345001
2 *623:Z *98:2 2.8591
3 *98:3 *98:4 9.57148
4 *692:I *98:4 6.25288
*END

*D_NET *99 0.00248729

*CONN
*I *624:Z O *C 97.5 145.6 *L 0 *D DEL015
*I *680:I I *C 83.7 145.2 *L 0.00105 *D DEL1

*CAP
1 *624:Z 0.00022159
2 *99:2 8.3608e-05
3 *99:3 0.0021821

*RES
1 *99:2 *99:3 18.1627998
2 *680:I *99:3 5.66507
3 *624:Z *99:2 2.27672
*END

*D_NET *100 0.0029413

*CONN
*I *625:Z O *C 145.3 145.6 *L 0 *D DEL0
*I *684:I I *C 160.1 143.2 *L 0.00105 *D DEL1

*CAP
1 *100:2 0.00152654
2 *100:3 0.000566521
3 *100:4 0.000848233

*RES
1 *625:Z *100:2 2.01349
2 *100:3 *100:4 6.99788
3 *684:I *100:3 6.81298
4 *100:2 *100:4 12.1787004
*END

*D_NET *101 0.000623647

*CONN
*I *626:Z O *C 32.7 142 *L 0 *D DEL0
*I *720:I I *C 30.1 139.6 *L 0.00105 *D DEL1

*CAP
1 *101:2 0.000623646992

*RES
1 *626:Z *101:2 2.27666
2 *720:I *101:2 7.60734987
*END

*D_NET *102 0.000639044

*CONN
*I *627:Z O *C 39.9 142.8 *L 0 *D DEL0
*I *703:I I *C 37.7 141.6 *L 0.00105 *D DEL1

*CAP
1 *703:I 0.000359116992
2 *627:Z 9.65701e-05
3 *102:2 0.000183359

*RES
1 *703:I *102:2 8.00207043
2 *627:Z *102:2 3.00004
*END

*D_NET *103 0.00111967

*CONN
*I *628:Z O *C 28.3 142.8 *L 0 *D DEL0
*I *706:I I *C 25.9 139.6 *L 0.00105 *D DEL1

*CAP
1 *628:Z 0.000349729
2 *103:2 0.000769937969

*RES
1 *706:I *103:2 6.6685
2 *628:Z *103:2 7.50261021
*END

*D_NET *104 0.000953958

*CONN
*I *629:Z O *C 36.7 142.8 *L 0 *D DEL0
*I *707:I I *C 34.3 139.6 *L 0.00105 *D DEL1

*CAP
1 *104:2 0.000953957969

*RES
1 *629:Z *104:2 4.0813
2 *707:I *104:2 7.80143976
*END

*D_NET *105 0.00065563

*CONN
*I *630:Z O *C 20.3 142 *L 0 *D DEL0
*I *704:I I *C 16.9 139.6 *L 0.00105 *D DEL1

*CAP
1 *105:2 0.00065563

*RES
1 *630:Z *105:2 2.27665
2 *704:I *105:2 9.88422966
*END

*D_NET *106 0.00081803

*CONN
*I *631:Z O *C 12.5 142.8 *L 0 *D DEL0
*I *705:I I *C 9.9 139.6 *L 0.00105 *D DEL1

*CAP
1 *106:2 0.000534838984
2 *106:3 0.000283191

*RES
1 *106:2 *106:3 4.02484
2 *705:I *106:3 4.49997
3 *631:Z *106:2 4.97092009
*END

*D_NET *107 0.0014315

*CONN
*I *632:Z O *C 156.3 145.6 *L 0 *D DEL0
*I *687:I I *C 159.9 141.6 *L 0.00105 *D DEL1

*CAP
1 *687:I 0.00025654
2 *107:2 0.0002802
3 *107:3 0.000894748984

*RES
1 *107:2 *107:3 6.79714012
2 *687:I *107:2 5.95901
3 *632:Z *107:3 3.58246
*END

*D_NET *108 0.000783942

*CONN
*I *633:Z O *C 85.3 142 *L 0 *D DEL015
*I *691:I I *C 81.9 143.2 *L 0.00105 *D DEL1

*CAP
1 *691:I 0.000371944
2 *633:Z 0.000411996016

*RES
1 *633:Z *691:I 11.969
*END

*D_NET *109 0.00494306

*CONN
*I *550:Z O *C 34.1 142.8 *L 0 *D DEL01
*I *696:I I *C 64.5 141.6 *L 0.00105 *D DEL1

*CAP
1 *696:I 1.99787e-06
2 *109:2 0.000543234
3 *109:3 0.000632233
4 *109:4 0.00135905
5 *109:5 0.00204579
6 *109:6 0.000360741

*RES
1 *109:5 *109:6 22.5596008
2 *109:3 *109:4 10.3614
3 *109:4 *109:6 3.82993
4 *696:I *109:3 7.82371
5 *109:2 *109:5 5.07157
6 *550:Z *109:2 1.50016
*END

*D_NET *110 0.00555365

*CONN
*I *555:I I *C 37.1 145.2 *L 0.00103 *D DEL01
*I *635:Z O *C 72.9 139.2 *L 0 *D DEL015

*CAP
1 *555:I 0.000273012
2 *110:2 0.00223564
3 *110:3 0.000226515
4 *110:4 9.55183e-06
5 *110:5 0.0010011
6 *110:2 *271:3 0.000477015
7 *110:2 *300:2 0.000266714004
8 *110:2 *223:5 0.000207248008
9 *110:2 *17:2 0.000244925
10 *110:2 *377:2 0.000611933008

*RES
1 *110:3 *110:5 8.11377
2 *110:2 *110:3 37.7551994
3 *555:I *110:2 3.27858
4 *110:4 *110:5 2.00828
5 *635:Z *110:4 2.99975
*END

*D_NET *111 0.000780218

*CONN
*I *636:Z O *C 62.7 142 *L 0 *D DEL015
*I *699:I I *C 60.5 139.6 *L 0.00105 *D DEL1

*CAP
1 *111:2 0.000780217969

*RES
1 *636:Z *111:2 2.08244
2 *699:I *111:2 9.55838013
*END

*D_NET *112 0.00990107

*CONN
*I *553:I I *C 38.3 139.6 *L 0.00103 *D DEL01
*I *637:Z O *C 80.9 139.2 *L 0 *D DEL015

*CAP
1 *637:Z 0.000222392
2 *112:2 0.000449436
3 *112:3 0.00191719
4 *112:4 0.000605508
5 *112:5 1.56511e-05
6 *112:2 *309:2 0.00331582
7 *112:2 *311:2 0.00337508

*RES
1 *112:2 *112:4 6.18513
2 *112:2 *112:3 77.6083984
3 *112:3 *112:5 4.60658
4 *637:Z *112:4 10.6709
5 *553:I *112:5 1.50039
*END

*D_NET *113 0.000863986

*CONN
*I *638:Z O *C 57.7 145.6 *L 0 *D DEL015
*I *698:I I *C 55.3 141.6 *L 0.00105 *D DEL1

*CAP
1 *638:Z 0.000314078
2 *113:2 0.000549908984

*RES
1 *698:I *113:2 6.2474
2 *638:Z *113:2 6.73216009
*END

*D_NET *114 0.00390786

*CONN
*I *639:Z O *C 194.7 142.8 *L 0 *D DEL0
*I *682:I I *C 173.1 145.2 *L 0.00105 *D DEL1

*CAP
1 *682:I 0.00028073
2 *639:Z 0.000465485
3 *114:2 0.000124785
4 *114:3 0.00104085
5 *114:4 0.00160412
6 *114:5 0.000359523
7 *114:6 3.2359e-05

*RES
1 *114:5 *114:6 3.30143
2 *114:2 *114:4 15.0890999
3 *114:4 *114:5 0.132159
4 *114:3 *114:6 10.9201
5 *682:I *114:3 4.50536
6 *639:Z *114:2 4.21871
*END

*D_NET *115 0.000511573

*CONN
*I *640:Z O *C 15.9 142 *L 0 *D DEL015
*I *701:I I *C 14.3 143.2 *L 0.00105 *D DEL1

*CAP
1 *640:Z 0.000511573008

*RES
1 *640:Z *701:I 7.099
*END

*D_NET *116 0.000515832

*CONN
*I *641:Z O *C 52.5 142.8 *L 0 *D DEL015
*I *697:I I *C 50.7 145.2 *L 0.00105 *D DEL1

*CAP
1 *697:I 0.00027412502
2 *641:Z 0.000241708

*RES
1 *697:I *641:Z 7.46405
*END

*D_NET *117 0.000462723

*CONN
*I *642:Z O *C 23.5 139.2 *L 0 *D DEL015
*I *702:I I *C 21.9 141.6 *L 0.00105 *D DEL1

*CAP
1 *702:I 0.000334571016
2 *642:Z 0.000128151

*RES
1 *702:I *642:Z 7.28982
*END

*D_NET *118 0.000734583

*CONN
*I *643:Z O *C 48.9 145.6 *L 0 *D DEL015
*I *700:I I *C 46.9 143.2 *L 0.00105 *D DEL1

*CAP
1 *643:Z 0.000222462
2 *118:2 0.00051212

*RES
1 *700:I *118:2 6.02466011
2 *643:Z *118:2 5.04709
*END

*D_NET *119 0.00249717

*CONN
*I *644:Z O *C 156.3 142.8 *L 0 *D DEL0
*I *686:I I *C 172.3 143.2 *L 0.00105 *D DEL1

*CAP
1 *686:I 0.000159717
2 *119:2 0.000771962969
3 *119:3 0.000332332
4 *119:4 0.00033907
5 *119:5 0.000506632
6 *119:6 0.000387472

*RES
1 *119:4 *119:5 3.49558
2 *119:5 *119:6 3.93775
3 *119:3 *119:4 3.30133
4 *119:2 *119:6 6.3075
5 *686:I *119:3 7.55038023
6 *644:Z *119:2 1.50003
*END

*D_NET *120 0.000507714

*CONN
*I *645:Z O *C 44.7 139.2 *L 0 *D DEL015
*I *710:I I *C 42.7 141.6 *L 0.00105 *D DEL1

*CAP
1 *710:I 0.000408498984
2 *645:Z 9.04389e-05
3 *120:2 8.77648e-06

*RES
1 *710:I *120:2 7.60710001
2 *645:Z *120:2 2.99996
*END

*D_NET *121 0.0109816

*CONN
*I *554:Z O *C 227.7 145.6 *L 0 *D DEL01
*I *685:I I *C 165.3 143.2 *L 0.00105 *D DEL1

*CAP
1 *554:Z 0.000281493
2 *685:I 0.000522496
3 *121:2 0.00133253
4 *121:3 3.13862e-05
5 *121:4 0.000887889
6 *121:5 0.000752026
7 *121:6 1.25429e-05
8 *121:7 0.00189401
9 *121:8 6.77433e-05
10 *121:4 *411:5 0.00246252984
11 *121:2 *43:2 0.00273701

*RES
1 *121:5 *121:8 47.3875999
2 *121:2 *121:8 2.11356
3 *121:6 *121:7 17.5939
4 *121:5 *121:6 0.328277
5 *121:3 *121:2 20.1486
6 *554:Z *121:3 2.85905
7 *121:4 *121:7 10.3783
8 *685:I *121:4 4.94368
*END

*D_NET *122 0.00170859

*CONN
*I *647:Z O *C 157.1 142 *L 0 *D DEL0
*I *688:I I *C 168.7 141.6 *L 0.00105 *D DEL1

*CAP
1 *688:I 5.34096e-05
2 *122:2 0.000142052
3 *122:3 0.000741725
4 *122:4 0.000484376
5 *122:5 0.000287024

*RES
1 *122:3 *122:5 6.41090012
2 *688:I *122:2 2.65207
3 *122:2 *122:4 5.9977
4 *122:4 *122:5 2.10358
5 *647:Z *122:3 1.50001
*END

*D_NET *123 0.00981746

*CONN
*I *556:Z O *C 225.5 145.6 *L 0 *D DEL01
*I *689:I I *C 172.1 141.6 *L 0.00105 *D DEL1

*CAP
1 *556:Z 0.000227726
2 *689:I 0.000251142
3 *123:2 0.0033432
4 *123:3 0.000132024
5 *123:4 0.000285678
6 *123:5 5.61664e-05
7 *123:6 0.000915139
8 *123:2 *568:Z 0.00287447
9 *123:2 *193:3 0.00173188

*RES
1 *556:Z *123:3 2.47101
2 *123:5 *123:6 3.9355
3 *123:4 *123:5 2.1485
4 *123:3 *123:2 63.8566017
5 *689:I *123:6 13.1657
6 *123:4 *123:2 6.22235
*END

*D_NET *124 0.00703663

*CONN
*I *557:Z O *C 221.7 142 *L 0 *D DEL01
*I *690:I I *C 177.3 139.6 *L 0.00105 *D DEL1

*CAP
1 *690:I 0.000373015
2 *124:2 0.00327776
3 *124:3 0.000402474
4 *124:4 0.000567025
5 *124:2 *407:3 0.000270944004
6 *124:3 *506:3 0.000517233008
7 *690:I *45:2 0.000713500938
8 *124:3 *49:7 0.000914681016

*RES
1 *124:3 *124:2 43.8591003
2 *690:I *124:4 17.9911
3 *124:2 *124:4 4.2182
4 *124:3 *124:5 6.54781
5 *557:Z *124:5 1.49976
*END

*D_NET *125 0.000851504

*CONN
*I *650:Z O *C 159.7 142 *L 0 *D DEL0
*I *721:I I *C 163.3 141.6 *L 0.00105 *D DEL1

*CAP
1 *650:Z 0.000756831016
2 *125:2 9.46746e-05

*RES
1 *650:Z *125:2 9.10750008
2 *721:I *125:2 2.99993
*END

*D_NET *126 0.00454849

*CONN
*I *651:Z O *C 166.1 145.6 *L 0 *D DEL1
*I *767:D[30] I *C 188.185 134.265 *L 0.00183 *D sram00

*CAP
1 *126:3 0.000685279
2 *126:4 9.48189e-05
3 *126:5 4.56381e-05
4 *126:6 0.000897752
5 *126:7 0.000566563
6 *126:8 0.00211071984
7 *126:9 0.000147736

*RES
1 *126:7 *126:9 2.27968
2 *126:6 *126:8 2.0826
3 *126:2 *126:3 5.38317
4 *126:8 *126:9 21.5608
5 *126:4 *126:5 0.519374
6 *126:3 *126:6 7.32475
7 *126:5 *126:7 5.13185
8 *651:Z *126:2 1.5
9 *651:Z *767:D[30] 0.0001
*END

*D_NET *127 0.000345059

*CONN
*I *652:Z O *C 11.9 142 *L 0 *D BUFFD1
*I *876:A1 I *C 10.9 141.6 *L 0.000556 *D CKAN2D0

*CAP
1 *876:A1 0.00025209502
2 *652:Z 9.29638e-05

*RES
1 *652:Z *876:A1 5.9498
*END

*D_NET *128 0.00915758

*CONN
*I *653:Z O *C 252.5 142.8 *L 0 *D CKBD0
*I *739:I I *C 179.9 143.2 *L 0.00105 *D DEL1

*CAP
1 *739:I 0.000417459
2 *653:Z 0.000152175
3 *128:3 0.00205964
4 *128:4 0.000270344
5 *128:5 0.00048569
6 *128:6 0.00011795
7 *128:7 0.000947777
8 *128:8 0.000329901
9 *128:9 0.000596034
10 *128:3 *568:I 0.00121566
11 *128:3 *132:3 0.000692933047
12 *128:2 *136:2 0.00129341992
13 *653:Z *138:2 0.000578601016

*RES
1 *128:6 *128:7 10.7433
2 *128:2 *128:3 45.3364983
3 *653:Z *128:2 2.27665
4 *128:8 *128:9 2.13622
5 *128:7 *128:8 0.13213
6 *128:5 *128:6 6.25784
7 *128:3 *128:4 0.159801
8 *739:I *128:9 12.9259
9 *128:4 *128:5 4.99258
*END

*D_NET *129 0.00286619

*CONN
*I *654:Z O *C 169.5 145.6 *L 0 *D DEL1
*I *897:CDN I *C 183.3 145.2 *L 0.00167 *D DFCND1

*CAP
1 *897:CDN 0.000314203
2 *654:Z 0.000763983
3 *129:2 0.000129961
4 *129:3 0.00162136
5 *129:4 3.66652e-05

*RES
1 *129:2 *129:3 15.191
2 *129:3 *129:4 0.132124
3 *654:Z *129:4 7.92442
4 *897:CDN *129:2 3.06249
*END

*D_NET *130 0.0293216

*CONN
*I *566:Z O *C 41.9 145.6 *L 0 *D BUFFD2
*I *767:D[7] I *C 285.055 134.265 *L 0.00183 *D sram00

*CAP
1 *566:Z 9.06746e-05
2 *130:2 4.32312e-05
3 *130:3 0.000505206
4 *130:4 0.00136136
5 *130:5 0.00076282
6 *130:6 0.00195826
7 *130:7 0.000157982
8 *130:8 0.000391342
9 *130:9 0.000237395
10 *130:10 0.0014492
11 *130:11 0.000645053
12 *130:12 2.43868e-05
13 *130:13 0.000128142
14 *130:14 5.99472e-05
15 *130:15 6.85491e-05
16 *130:16 7.84812e-05
17 *130:17 0.000631131
18 *130:18 1.68047e-05
19 *130:20 0.000474479
20 *130:21 0.000112002
21 *130:22 0.000257835
22 *130:23 5.67991e-05
23 *130:24 0.000895927
24 *130:25 0.000594107
25 *130:26 0.000591092
26 *130:27 9.08076e-05
27 *130:28 7.22737e-06
28 *130:29 0.000282621
29 *130:30 3.99057e-06
30 *130:31 5.05472e-06
31 *130:32 0.000143927
32 *130:34 0.000199085
33 *130:35 0.000324744
34 *130:36 2.09727e-05
35 *130:37 0.000214693
36 *130:38 1.28585e-06
37 *130:39 0.000107923
38 *130:40 3.35208e-05
39 *130:41 7.33821e-05
40 *130:42 0.000214781
41 *130:43 4.24331e-05
42 *130:44 0.00016521
43 *130:45 1.68047e-05
44 *130:46 0.00023132
45 *130:47 2.35e-06
46 *130:48 0.000187557
47 *130:49 4.28321e-05
48 *130:50 0.0029058
49 *130:51 1.15283e-05
50 *130:52 0.000262446
51 *130:53 9.75473e-06
52 *130:54 0.000139936
53 *130:55 2.96632e-05
54 *130:8 *319:2 0.000677512969
55 *130:6 *55:4 0.000841912969
56 *130:8 *83:2 0.000459066992
57 *130:8 *84:3 0.00192638
58 *130:49 *430:2 0.00136158
59 *130:49 *431:3 0.00110103
60 *130:2 *87:5 0.000551640977
61 *130:3 *322:3 0.00122341
62 *130:4 *316:4 0.000681185
63 *130:5 *60:10 0.000527115
64 *130:6 *291:3 0.000816510938
65 *130:7 *59:2 0.000269426992
66 *130:8 *86:2 0.000521134023
67 *130:9 *54:8 0.000999836953

*RES
1 *130:40 *130:41 3.75192
2 *130:38 *130:39 1.34882
3 *130:19 *130:20 2.94345
4 *130:7 *130:21 0.132006
5 *130:22 *130:23 0.132011
6 *130:28 *130:29 4.91619
7 *130:15 *130:2 0.131057
8 *130:45 *130:46 2.54524
9 *130:37 *130:38 0.132067
10 *130:3 *130:36 0.132067
11 *130:11 *130:14 6.93818
12 *130:18 *130:5 13.4591
13 *130:33 *130:34 12.1461
14 *130:11 *130:12 0.616776
15 *566:Z *130:12 1.75631
16 *130:52 *130:53 0.132256
17 *130:51 *130:52 3.75425
18 *130:31 *130:32 1.80973
19 *130:2 *130:16 2.00822
20 *130:46 *130:47 0.132171
21 *130:6 *130:43 0.132171
22 *130:35 *130:3 13.9598
23 *130:48 *130:49 0.132171
24 *130:8 *130:31 0.132198
25 *130:7 *130:55 5.22009
26 *130:26 *130:9 3.10957
27 *130:21 *130:22 8.41101
28 *130:29 *130:30 0.132011
29 *130:13 *130:4 7.72139
30 *130:47 *130:48 5.11309
31 *130:39 *130:40 0.132067
32 *130:34 *130:35 4.8621
33 *130:23 *130:24 12.1793
34 *130:10 *130:14 5.96564
35 *130:20 *130:55 3.06072
36 *130:32 *130:33 0.132067
37 *130:5 *130:19 0.132006
38 *130:44 *130:45 0.132171
39 *130:41 *130:42 0.132067
40 *130:24 *130:25 6.83754
41 *130:50 *130:51 0.132256
42 *130:4 *130:53 5.07694
43 *130:42 *130:6 28.47
44 *130:17 *130:54 9.29741
45 *130:36 *130:37 2.97512
46 *130:49 *130:50 61.7055
47 *130:43 *130:44 2.39332
48 *130:16 *130:54 2.47545
49 *130:30 *130:8 8.92089
50 *130:10 *130:13 7.94022
51 *130:27 *130:28 0.132011
52 *130:25 *130:26 8.44675
53 *130:17 *130:18 0.132006
54 *130:9 *130:27 2.00377
55 *566:Z *767:D[7] 0.0001
*END

*D_NET *131 0.0052435

*CONN
*I *594:I I *C 249.9 139.6 *L 0.000643 *D CKBD0
*I *656:Z O *C 206.5 139.2 *L 0 *D DEL1

*CAP
1 *594:I 5.98459e-06
2 *131:2 0.00245125
3 *131:3 0.000872179
4 *131:4 0.000104319
5 *131:5 0.000401192
6 *131:6 3.55335e-05
7 *131:5 *139:3 0.000315638008
8 *131:2 *12:3 0.000207249004
9 *131:2 *87:6 0.000189755
10 *131:2 *338:3 0.000230626992
11 *131:3 *791:A2 0.000429811016

*RES
1 *131:4 *131:2 33.9462013
2 *131:2 *131:6 0.132602
3 *131:5 *131:3 5.08965
4 *594:I *131:4 3.25394
5 *131:6 *131:3 8.21668
6 *656:Z *131:5 1.50006
*END

*D_NET *132 0.0174382

*CONN
*I *539:I I *C 285.7 145.2 *L 0.00104 *D DEL0
*I *657:Z O *C 96.7 142.8 *L 0 *D DEL1

*CAP
1 *539:I 0.000177951
2 *132:2 0.00554278
3 *132:3 0.00432478
4 *132:4 0.0008555
5 *132:5 0.000107498
6 *132:6 0.000721784
7 *132:7 0.000209667
8 *132:8 0.000108597
9 *132:9 7.94182e-05
10 *132:2 *85:6 0.000625261016
11 *132:3 *332:3 0.00109693
12 *132:3 *128:3 0.000692933047
13 *132:3 *136:2 0.000345371992
14 *132:3 *48:2 0.000618310977
15 *132:3 *138:4 0.00029754
16 *132:4 *234:12 0.00163391

*RES
1 *132:7 *132:8 2.52466
2 *132:5 *132:2 2.27633
3 *539:I *132:3 5.08304
4 *132:2 *132:9 73.4787
5 *132:5 *132:6 6.12387
6 *132:4 *132:8 7.53105
7 *132:3 *132:9 100.459
8 *132:6 *132:7 0.131828
9 *657:Z *132:4 1.50069
*END

*D_NET *133 0.00729217

*CONN
*I *593:I I *C 251.5 139.6 *L 0.000643 *D CKBD0
*I *658:Z O *C 203.1 139.2 *L 0 *D DEL1

*CAP
1 *133:2 0.0014364
2 *133:3 0.000546658
3 *133:4 0.000497496
4 *133:6 5.89596e-06
5 *133:7 0.000327127
6 *133:9 0.00103313
7 *133:10 0.000814234
8 *133:11 7.65159e-05
9 *133:2 *59:2 0.000236569004
10 *133:3 *55:5 0.00074512
11 *133:4 *49:5 0.00157305

*RES
1 *133:4 *133:2 25.5760994
2 *133:9 *133:10 1.62895
3 *133:8 *133:9 14.0088
4 *133:7 *133:8 0.0483923
5 *133:6 *133:7 6.39715
6 *133:5 *133:3 13.0027
7 *133:2 *133:5 0.0483923
8 *133:10 *133:12 6.17041
9 *133:3 *133:6 0.0483923
10 *133:4 *133:11 6.15987
11 *658:Z *133:12 1.50016
12 *593:I *133:11 1.50016
*END

*D_NET *134 0.00609359

*CONN
*I *592:I I *C 248.7 141.6 *L 0.000643 *D CKBD0
*I *659:Z O *C 200.1 142 *L 0 *D DEL1

*CAP
1 *592:I 0.000309617
2 *659:Z 0.000242254
3 *134:2 5.69774e-05
4 *134:3 0.00237987
5 *134:4 0.000400222
6 *134:5 0.000225077
7 *134:6 0.000375274
8 *134:3 *48:2 0.000480428008
9 *659:Z *476:3 0.00129934
10 *134:2 *504:3 0.000324562012

*RES
1 *659:Z *134:6 6.70098
2 *592:I *134:2 3.423
3 *134:5 *134:6 2.32994
4 *134:2 *134:3 39.2733994
5 *134:4 *134:5 4.65988
6 *134:3 *134:4 0.131838
*END

*D_NET *135 0.0173032

*CONN
*I *538:I I *C 268.9 141.6 *L 0.00104 *D DEL0
*I *660:Z O *C 96.7 142 *L 0 *D DEL1

*CAP
1 *135:2 1.03836e-05
2 *135:3 0.00850611
3 *135:4 0.000295932
4 *135:5 0.000254009
5 *135:6 0.000317349
6 *135:7 3.66022e-05
7 *135:8 0.000420146
8 *135:9 0.000118243
9 *135:10 0.000508796
10 *135:3 *48:4 0.000359023984
11 *135:3 *392:4 0.0013347
12 *135:2 *504:4 0.00032256002
13 *135:2 *228:5 0.000492685
14 *135:3 *393:2 0.0024667
15 *135:3 *5:4 0.00186015

*RES
1 *135:8 *135:9 0.131999
2 *135:7 *135:8 6.47343
3 *135:6 *135:7 0.131999
4 *135:5 *135:3 69.1067
5 *135:9 *135:10 4.3367
6 *135:3 *135:6 90.1110001
7 *135:4 *135:10 6.21768
8 *538:I *135:2 3.00022
9 *660:Z *135:4 1.50011
10 *135:2 *135:5 1.50011
*END

*D_NET *136 0.00552264

*CONN
*I *588:I I *C 264.5 145.2 *L 0.000643 *D CKBD0
*I *661:Z O *C 214.7 145.6 *L 0 *D DEL1

*CAP
1 *588:I 0.000121127
2 *136:2 0.00238308
3 *136:3 0.000146618
4 *136:4 0.000136618
5 *136:5 8.72723e-07
6 *136:2 *132:3 0.000345371992
7 *136:2 *192:3 0.00109554008
8 *136:2 *128:2 0.00129341992

*RES
1 *136:2 *136:5 39.2514
2 *136:4 *136:5 0.131764
3 *136:3 *136:4 9.38162
4 *588:I *136:3 5.13581
5 *661:Z *136:2 1.49972
*END

*D_NET *137 0.0115281

*CONN
*I *584:I I *C 179.1 143.2 *L 0.000643 *D CKBD0
*I *662:Z O *C 94.9 139.2 *L 0 *D DEL1

*CAP
1 *137:2 0.000110659
2 *137:3 0.00335741
3 *137:4 0.000337918
4 *137:5 0.000452983
5 *137:7 0.000484131
6 *137:8 9.78508e-05
7 *137:9 0.000429519
8 *137:10 0.000521683
9 *137:11 0.000544071
10 *137:12 0.000462102
11 *137:5 *302:2 0.000770268984
12 *137:2 *143:4 0.00110657
13 *137:3 *82:6 0.000598267031
14 *137:2 *407:8 0.00202749984
15 *137:3 *435:3 0.00022714

*RES
1 *137:5 *137:6 0.170298
2 *137:2 *137:3 68.8930969
3 *137:8 *137:9 7.85896
4 *137:7 *137:8 3.08955
5 *137:3 *137:4 4.79359
6 *137:4 *137:5 6.05821
7 *137:6 *137:7 11.9955
8 *137:10 *137:13 4.60647
9 *137:11 *137:12 3.89794
10 *584:I *137:12 5.82904
11 *137:9 *137:10 1.75134
12 *137:2 *137:11 2.24542
13 *662:Z *137:13 1.5001
*END

*D_NET *138 0.00568232

*CONN
*I *589:I I *C 262.5 143.2 *L 0.000643 *D CKBD0
*I *663:Z O *C 214.7 142.8 *L 0 *D DEL1

*CAP
1 *589:I 0.000125992
2 *138:2 0.000417334
3 *138:3 2.78084e-05
4 *138:4 0.00151364
5 *138:5 0.000605548
6 *138:6 7.89675e-05
7 *138:7 0.000981193
8 *138:8 0.000390749
9 *138:10 0.000643427
10 *138:11 2.15261e-05
11 *138:4 *132:3 0.00029754
12 *138:2 *653:Z 0.000578601016

*RES
1 *138:7 *138:8 0.131941
2 *138:6 *138:7 15.9830999
3 *589:I *138:3 2.60345
4 *138:9 *138:10 8.60516
5 *138:4 *138:11 13.0865
6 *138:3 *138:5 8.13251
7 *138:10 *138:11 0.131941
8 *138:8 *138:9 3.11024
9 *138:2 *138:6 4.0187
10 *138:5 *138:2 0.131941
11 *663:Z *138:4 1.49988
*END

*D_NET *139 0.00516261

*CONN
*I *587:I I *C 240.5 139.6 *L 0.00182 *D DEL005
*I *664:Z O *C 199.7 139.2 *L 0 *D DEL1

*CAP
1 *139:2 0.000174727
2 *139:3 0.00116085992
3 *139:4 0.000233784
4 *139:5 9.23409e-05
5 *139:6 0.000899585
6 *139:7 0.000271089
7 *139:8 0.000144543
8 *139:9 1.08584e-05
9 *139:2 *87:6 0.000423151992
10 *139:3 *804:B2 0.000899586016
11 *139:4 *791:A2 0.000236693984
12 *139:3 *201:18 0.000299755996
13 *139:3 *131:5 0.000315638008

*RES
1 *139:8 *139:4 4.722
2 *139:6 *139:7 3.88324
3 *139:5 *139:2 4.7697
4 *139:4 *139:9 0.132115
5 *139:7 *139:8 3.28767
6 *139:3 *139:9 14.0816
7 *139:2 *139:6 15.3243999
8 *664:Z *139:3 1.50003
9 *587:I *139:5 1.50003
*END

*D_NET *140 0.0128468

*CONN
*I *585:I I *C 188.9 141.6 *L 0.000643 *D CKBD0
*I *665:Z O *C 100.3 142 *L 0 *D DEL1

*CAP
1 *140:2 0.00466137969
2 *140:3 0.000973815
3 *140:4 2.61751e-05
4 *140:5 0.000920326
5 *140:2 *398:4 0.000500545977
6 *140:4 *512:5 0.0018229
7 *140:2 *762:Z 0.000432500977
8 *140:3 *812:ZN 0.000258089004
9 *140:2 *201:9 0.00043565
10 *140:2 *370:3 0.000413356992
11 *140:2 *746:I 0.000517961992
12 *140:4 *510:6 0.00188413

*RES
1 *140:4 *140:3 10.9956
2 *140:4 *140:2 108.985001
3 *140:2 *140:5 7.7129
4 *665:Z *140:5 1.50001
5 *585:I *140:3 3.00001
*END

*D_NET *141 0.00630223

*CONN
*I *591:I I *C 216.5 145.2 *L 0.00103 *D DEL01
*I *666:Z O *C 172.9 145.6 *L 0 *D DEL1

*CAP
1 *591:I 0.000456864
2 *141:2 0.00126385
3 *141:3 6.61672e-05
4 *141:4 0.000537688
5 *141:6 0.00033396
6 *141:7 7.76997e-05
7 *141:8 0.000630508
8 *141:2 *9:2 0.00025456
9 *141:3 *769:A4 0.00078825
10 *141:2 *772:A1 0.000368497031
11 *591:I *510:2 0.00132624
12 *141:4 *648:Z 0.000197969004

*RES
1 *141:7 *141:4 16.338
2 *141:6 *141:7 2.53519
3 *141:5 *141:2 24.1175995
4 *141:4 *141:8 5.25843
5 *141:3 *141:6 8.10201
6 *141:2 *141:3 2.46416
7 *591:I *141:5 7.08926
8 *666:Z *141:8 1.49999
*END

*D_NET *142 0.0113873

*CONN
*I *586:I I *C 188.1 141.6 *L 0.000643 *D CKBD0
*I *667:Z O *C 103.7 142 *L 0 *D DEL1

*CAP
1 *586:I 0.000190427
2 *667:Z 0.0007803
3 *142:2 7.32412e-07
4 *142:3 0.0036922
5 *142:4 1.56623e-05
6 *142:5 0.00111715
7 *142:6 0.00126696
8 *142:7 0.000446827
9 *586:I *236:3 0.000747311016
10 *142:2 *240:3 0.00170469
11 *142:2 *491:2 0.00142511

*RES
1 *142:6 *142:8 7.31375
2 *667:Z *142:7 6.52014
3 *142:4 *142:5 18.4443
4 *142:2 *142:8 2.92374
5 *142:2 *142:3 82.5549011
6 *586:I *142:6 5.29321
7 *142:5 *142:7 4.64825
8 *142:3 *142:4 0.170058
*END

*D_NET *143 0.0111621

*CONN
*I *590:I I *C 187.5 139.6 *L 0.000643 *D CKBD0
*I *668:Z O *C 105.3 139.2 *L 0 *D DEL1

*CAP
1 *668:Z 0.000522639
2 *143:2 0.000582098
3 *143:3 0.000191602
4 *143:4 0.00370403
5 *143:5 0.000338215
6 *143:6 0.000588937
7 *143:7 8.13886e-06
8 *143:8 0.000917996
9 *143:8 *302:2 0.000363900977
10 *143:2 *49:2 0.000332005
11 *143:4 *82:2 0.000343206992
12 *143:4 *83:2 0.00048345
13 *143:4 *137:2 0.00110657
14 *143:2 *515:2 0.00167935

*RES
1 *143:6 *143:7 0.049058
2 *143:7 *143:8 12.3478
3 *143:5 *143:6 5.73522
4 *143:3 *143:4 74.768898
5 *143:2 *143:9 7.78424
6 *143:2 *143:3 5.23779
7 *668:Z *143:8 6.88523
8 *143:4 *143:5 4.13342
9 *590:I *143:9 3.00052
*END

*D_NET *144 0.00468146

*CONN
*I *595:I I *C 127.5 139.6 *L 0.00103 *D DEL015
*I *669:Z O *C 93.3 142 *L 0 *D DEL1

*CAP
1 *595:I 0.000171726
2 *669:Z 0.000401727
3 *144:2 6.17999e-05
4 *144:3 0.00186295
5 *144:4 0.000267866
6 *144:5 0.000579679
7 *144:6 0.000300613
8 *144:7 0.000442463
9 *144:8 0.000592642

*RES
1 *144:7 *144:8 4.91761
2 *144:2 *144:3 16.8600998
3 *669:Z *144:8 5.34802
4 *144:6 *144:7 3.74963
5 *144:5 *144:6 4.34572
6 *144:4 *144:5 3.30174
7 *144:3 *144:4 3.24025
8 *595:I *144:2 3.58241
*END

*D_NET *145 0.0022068

*CONN
*I *596:I I *C 129.7 145.2 *L 0.00103 *D DEL015
*I *670:Z O *C 112.3 145.6 *L 0 *D DEL1

*CAP
1 *596:I 0.00018641
2 *670:Z 0.000214266
3 *145:2 4.22826e-05
4 *145:3 0.00176384

*RES
1 *145:2 *145:3 18.2819996
2 *596:I *145:2 4.16489
3 *670:Z *145:3 4.30102
*END

*D_NET *146 0.00460655

*CONN
*I *597:I I *C 130.1 143.2 *L 0.00103 *D DEL015
*I *671:Z O *C 93.3 142.8 *L 0 *D DEL1

*CAP
1 *597:I 0.000224999
2 *671:Z 0.000347475
3 *146:2 3.41807e-05
4 *146:3 0.000357815
5 *146:4 0.000428341
6 *146:5 0.000410245
7 *146:6 0.000359003
8 *146:7 0.000454843
9 *146:8 0.00012644
10 *146:9 0.00125492
11 *146:10 0.000124621
12 *146:11 0.000483681

*RES
1 *146:8 *146:9 12.2979002
2 *146:7 *146:8 0.132106
3 *146:6 *146:7 5.42405
4 *146:2 *146:3 4.96487
5 *146:10 *146:11 3.7078
6 *146:5 *146:6 2.51208
7 *146:4 *146:5 3.55805
8 *597:I *146:2 4.35913
9 *671:Z *146:11 5.31784
10 *146:9 *146:10 1.16531
11 *146:3 *146:4 3.88438
*END

*D_NET *147 0.0023527

*CONN
*I *598:I I *C 120.9 141.6 *L 0.00103 *D DEL015
*I *672:Z O *C 108.9 145.6 *L 0 *D DEL1

*CAP
1 *598:I 0.000266908
2 *147:2 0.000128328
3 *147:3 0.000958403984
4 *147:4 0.000545765
5 *147:5 0.000443628
6 *147:6 9.66667e-06

*RES
1 *147:2 *147:4 5.84125
2 *672:Z *147:3 3.05327
3 *147:5 *147:6 0.132065
4 *147:3 *147:6 7.60544014
5 *598:I *147:2 4.46153
6 *147:4 *147:5 4.08194
*END

*D_NET *148 0.00246199

*CONN
*I *599:I I *C 120.9 143.2 *L 0.00103 *D DEL015
*I *673:Z O *C 105.7 142.8 *L 0 *D DEL1

*CAP
1 *599:I 0.000142284
2 *148:2 0.000992925
3 *148:3 0.000520045
4 *148:4 0.000303506
5 *148:5 0.000503243

*RES
1 *148:4 *148:5 4.17915
2 *148:2 *148:5 8.70323
3 *148:3 *148:4 2.91327
4 *599:I *148:3 9.25693035
5 *673:Z *148:2 1.50007
*END

*D_NET *149 0.00304261

*CONN
*I *674:Z O *C 90.3 145.6 *L 0 *D DEL1
*I *767:D[39] I *C 110.075 134.195 *L 0.00183 *D sram00

*CAP
1 *149:2 0.000107182
2 *149:3 3.36723e-05
3 *149:4 0.000100101
4 *149:5 0.000402196
5 *149:6 2.32499e-05
6 *149:7 0.000119838
7 *149:8 0.000971666
8 *149:10 3.37486e-05
9 *149:11 0.00125097

*RES
1 *149:10 *149:11 10.8625
2 *149:4 *149:6 1.91959
3 *149:9 *149:11 5.22321
4 *149:8 *149:9 0.132256
5 *149:7 *149:8 13.2735
6 *149:6 *149:7 0.524034
7 *149:5 *149:10 3.49867
8 *149:3 *149:5 2.66495
9 *674:Z *149:2 1.5
10 *149:2 *149:3 1.5
11 *674:Z *767:D[39] 0.0001
*END

*D_NET *150 0.00263531

*CONN
*I *675:Z O *C 89.9 142.8 *L 0 *D DEL1
*I *767:D[41] I *C 101.675 134.195 *L 0.00183 *D sram00

*CAP
1 *150:3 0.000267775
2 *150:4 0.00100750008
3 *150:5 9.39626e-05
4 *150:6 0.000612464
5 *150:7 0.000310037
6 *150:8 1.81099e-05
7 *150:9 0.000296308
8 *150:10 2.91635e-05

*RES
1 *150:9 *150:10 0.132256
2 *150:2 *150:3 2.08248
3 *150:8 *150:9 2.78262
4 *150:7 *150:8 0.132256
5 *150:4 *150:5 7.70324
6 *150:6 *150:10 7.16646
7 *150:5 *150:7 4.63976
8 *675:Z *150:2 1.5
9 *150:3 *150:6 1.5
10 *675:Z *767:D[41] 0.0001
*END

*D_NET *151 0.00209865

*CONN
*I *600:I I *C 108.9 139.6 *L 0.00103 *D DEL015
*I *676:Z O *C 101.5 145.6 *L 0 *D DEL1

*CAP
1 *600:I 0.000409879
2 *676:Z 0.000240342
3 *151:2 5.24438e-05
4 *151:3 0.00139598

*RES
1 *151:2 *151:3 10.4287004
2 *676:Z *151:3 6.25331
3 *600:I *151:2 5.5969
*END

*D_NET *152 0.00278008

*CONN
*I *677:Z O *C 95.1 145.6 *L 0 *D DEL1
*I *767:D[40] I *C 105.605 134.195 *L 0.00183 *D sram00

*CAP
1 *152:2 0.00111571
2 *152:3 3.58028e-05
3 *152:4 0.000153188
4 *152:5 2.89419e-06
5 *152:6 0.000189586
6 *152:7 2.3511e-05
7 *152:8 8.96518e-05
8 *152:9 5.67091e-05
9 *152:10 0.000204125
10 *152:11 4.79584e-05
11 *152:12 0.000860936

*RES
1 *152:10 *152:11 0.132101
2 *152:9 *152:10 2.19854
3 *152:8 *152:9 0.132096
4 *152:7 *152:8 1.03322
5 *152:6 *152:7 0.132096
6 *152:4 *152:5 0.132096
7 *152:3 *152:12 7.45581
8 *152:3 *152:4 1.2685
9 *677:Z *152:2 5.57733
10 *152:5 *152:6 2.00431
11 *152:2 *152:11 5.4155
12 *677:Z *767:D[40] 0.0001
*END

*D_NET *153 0.00188946

*CONN
*I *678:Z O *C 89.9 142 *L 0 *D DEL1
*I *767:D[42] I *C 97.205 134.195 *L 0.00183 *D sram00

*CAP
1 *153:3 0.000382474
2 *153:4 0.000647368008
3 *153:5 3.39415e-05
4 *153:6 0.000154021
5 *153:7 0.000167959
6 *153:8 3.81101e-05
7 *153:9 0.000452837
8 *153:10 1.27528e-05

*RES
1 *153:9 *153:10 0.326572
2 *153:2 *153:3 3.44156
3 *153:8 *153:9 4.53154
4 *153:7 *153:8 0.326572
5 *153:4 *153:5 4.59670019
6 *153:6 *153:10 2.89131
7 *153:5 *153:7 3.04198
8 *678:Z *153:2 1.50002
9 *153:3 *153:6 1.50002
10 *678:Z *767:D[42] 7.01401e-05
*END

*D_NET *154 0.00587531

*CONN
*I *679:Z O *C 55.1 142 *L 0 *D DEL1
*I *767:D[44] I *C 88.805 134.195 *L 0.00183 *D sram00

*CAP
1 *154:2 0.000837287
2 *154:3 9.39135e-05
3 *154:4 7.90851e-05
4 *154:5 0.00175096
5 *154:6 1.83285e-05
6 *154:2 *315:3 0.000291559004
7 *154:2 *374:6 0.00280417

*RES
1 *154:2 *154:6 8.23244
2 *154:5 *154:6 43.9745
3 *679:Z *154:3 1.5
4 *154:3 *154:4 1.5
5 *154:4 *154:5 1.5
6 *679:Z *767:D[44] 0.0001
*END

*D_NET *155 0.00230213

*CONN
*I *680:Z O *C 86.9 145.6 *L 0 *D DEL1
*I *767:D[43] I *C 93.275 134.195 *L 0.00183 *D sram00

*CAP
1 *155:2 0.000140575
2 *155:3 6.10739e-05
3 *155:4 0.000152963
4 *155:5 0.00135082
5 *155:6 0.000177368
6 *155:7 2.5621e-05
7 *155:8 0.00026328
8 *155:9 1.57889e-05
9 *155:10 0.000114624

*RES
1 *155:9 *155:10 1.2645
2 *155:4 *155:6 3.2072
3 *155:8 *155:9 0.334831
4 *155:7 *155:8 3.55992
5 *155:6 *155:7 0.326581
6 *155:5 *155:10 1.88865
7 *155:3 *155:5 11.9671
8 *680:Z *155:2 1.5
9 *155:2 *155:3 1.5
10 *680:Z *767:D[43] 0.0001
*END

*D_NET *156 0.000814168

*CONN
*I *601:I I *C 113.7 143.2 *L 0.00103 *D DEL015
*I *681:Z O *C 110.3 142.8 *L 0 *D DEL1

*CAP
1 *601:I 0.000148624
2 *681:Z 9.7482e-05
3 *156:2 0.000568067031

*RES
1 *601:I *156:2 7.57379007
2 *681:Z *156:2 3
*END

*D_NET *157 0.00192822

*CONN
*I *682:Z O *C 176.3 145.6 *L 0 *D DEL1
*I *767:A[6] I *C 173.3 134.265 *L 0.00555 *D sram00

*CAP
1 *157:2 0.000891497031
2 *157:3 2.0201e-05
3 *157:4 0.000644541
4 *157:5 0.000333609
5 *157:6 3.83751e-05

*RES
1 *157:2 *157:5 4.63829
2 *157:2 *157:3 6.41323996
3 *682:Z *157:4 5.90702
4 *157:3 *157:4 0.256487
5 *157:5 *157:6 0.29426
6 *682:Z *767:A[6] 9.78583e-05
*END

*D_NET *158 0.00170489

*CONN
*I *683:Z O *C 171.9 142.8 *L 0 *D DEL1
*I *767:A[4] I *C 170.05 134.265 *L 0.00555 *D sram00

*CAP
1 *158:2 0.000495101992
2 *158:3 0.000426814
3 *158:5 5.61546e-05
4 *158:6 0.000309836
5 *158:7 7.81617e-05
6 *158:8 0.000338816

*RES
1 *158:4 *158:6 0.256307
2 *158:2 *158:4 3.40067
3 *158:7 *158:8 3.78745
4 *158:3 *158:5 0.256307
5 *158:5 *158:6 2.27315
6 *158:3 *158:8 4.39604998
7 *683:Z *158:7 1.50001
8 *683:Z *767:A[4] 6.70784e-05
*END

*D_NET *159 0.00187726

*CONN
*I *684:Z O *C 163.3 142.8 *L 0 *D DEL1
*I *767:A[0] I *C 160.755 134.195 *L 0.00555 *D sram00

*CAP
1 *159:2 0.000211965
2 *159:3 0.00038893
3 *159:4 0.000133816
4 *159:5 0.00039811
5 *159:7 6.92365e-05
6 *159:8 0.00067521

*RES
1 *159:6 *159:8 0.256313
2 *159:4 *159:6 0.494215
3 *159:2 *159:3 4.34652
4 *159:7 *159:8 4.98597002
5 *159:3 *159:5 4.00697
6 *684:Z *159:2 1.69415
7 *159:5 *159:7 0.256313
8 *684:Z *767:A[0] 7.60799e-05
*END

*D_NET *160 0.00173572

*CONN
*I *685:Z O *C 168.5 142.8 *L 0 *D DEL1
*I *767:A[2] I *C 166.8 134.265 *L 0.00555 *D sram00

*CAP
1 *160:2 0.000251878
2 *160:4 0.000835027969
3 *160:5 0.000306922
4 *160:6 4.16654e-06
5 *160:7 9.81239e-05
6 *160:8 0.000239595

*RES
1 *160:6 *160:7 0.494203
2 *160:3 *160:5 1.87943
3 *160:3 *160:4 0.256311
4 *160:2 *160:8 3.39966
5 *685:Z *160:2 2.66495
6 *160:5 *160:6 0.256311
7 *160:4 *160:8 7.1562
8 *685:Z *767:A[2] 0.0001
*END

*D_NET *161 0.001701

*CONN
*I *686:Z O *C 175.5 142.8 *L 0 *D DEL1
*I *767:A[5] I *C 171.71 134.265 *L 0.00555 *D sram00

*CAP
1 *161:2 0.000106825
2 *161:3 0.000244883
3 *161:4 0.000547871
4 *161:5 0.000206065
5 *161:6 0.000595355977

*RES
1 *161:2 *161:3 4.21879
2 *161:4 *161:5 1.06547
3 *161:3 *161:4 5.90749979
4 *161:5 *161:6 3.98316
5 *686:Z *161:2 1.50004
6 *686:Z *767:A[5] 9.01413e-05
*END

*D_NET *162 0.00157698

*CONN
*I *687:Z O *C 163.1 142 *L 0 *D DEL1
*I *767:A[1] I *C 161.335 134.265 *L 0.00555 *D sram00

*CAP
1 *162:2 0.000310145
2 *162:3 0.00115269008
3 *162:4 0.000111039
4 *162:5 3.11324e-06

*RES
1 *162:2 *162:5 3.78748
2 *162:2 *162:3 7.7297
3 *687:Z *162:4 1.5
4 *162:4 *162:5 1.5
5 *687:Z *767:A[1] 0.0001
*END

*D_NET *163 0.00144405

*CONN
*I *688:Z O *C 171.9 142 *L 0 *D DEL1
*I *767:A[3] I *C 168.46 134.265 *L 0.00555 *D sram00

*CAP
1 *163:3 0.000184769
2 *163:4 0.000299699
3 *163:5 0.000247321
4 *163:6 0.000387643984
5 *163:7 7.8765e-05
6 *163:8 0.000245848

*RES
1 *163:2 *163:4 2.46188
2 *163:2 *163:3 0.256327
3 *163:7 *163:8 4.02459002
4 *163:4 *163:5 1.0363
5 *163:5 *163:6 2.81818
6 *163:3 *163:8 2.64703
7 *688:Z *163:7 1.50001
8 *688:Z *767:A[3] 0.000122821
*END

*D_NET *164 0.00121321

*CONN
*I *689:Z O *C 175.3 142 *L 0 *D DEL1
*I *767:A[7] I *C 174.96 134.265 *L 0.00555 *D sram00

*CAP
1 *164:2 0.000718371953
2 *164:3 0.000107589
3 *164:4 0.000387253

*RES
1 *164:2 *164:3 0.393728
2 *164:3 *164:4 2.62404
3 *689:Z *164:2 6.58165
4 *689:Z *767:A[7] 0.0001
*END

*D_NET *165 0.00119539

*CONN
*I *690:Z O *C 180.5 139.2 *L 0 *D DEL1
*I *767:A[8] I *C 176.55 134.265 *L 0.00555 *D sram00

*CAP
1 *165:2 0.000740078984
2 *165:3 0.000372292
3 *165:4 2.53525e-05
4 *165:5 5.76615e-05

*RES
1 *165:2 *165:5 5.96564007
2 *165:2 *165:3 4.8418
3 *165:3 *165:4 0.371214
4 *690:Z *165:5 1.49997
5 *690:Z *767:A[8] 9.10284e-05
*END

*D_NET *166 0.00158692

*CONN
*I *691:Z O *C 85.1 142.8 *L 0 *D DEL1
*I *767:D[45] I *C 84.875 134.195 *L 0.00183 *D sram00

*CAP
1 *166:3 0.000399376992
2 *166:4 0.000174121
3 *166:5 0.000240199
4 *166:6 5.16536e-05
5 *166:7 0.000385958
6 *166:8 0.000335614

*RES
1 *166:4 *166:6 0.452176
2 *166:2 *166:4 1.19716
3 *166:2 *166:3 0.256287
4 *166:7 *166:8 2.49205
5 *691:Z *166:3 3.5404799
6 *166:5 *166:7 2.46071
7 *166:5 *166:6 0.762325
8 *691:Z *767:D[45] 0.000108047
*END

*D_NET *167 0.00221648

*CONN
*I *692:Z O *C 82.9 142 *L 0 *D DEL1
*I *767:D[47] I *C 76.475 134.195 *L 0.00183 *D sram00

*CAP
1 *167:2 0.000930122031
2 *167:3 0.000138479
3 *167:4 1.37386e-05
4 *167:5 0.00042161
5 *167:6 5.05404e-05
6 *167:7 0.000402549
7 *167:8 0.000242143
8 *167:9 1.7301e-05

*RES
1 *167:2 *167:3 1.47504
2 *167:7 *167:8 3.57264
3 *167:6 *167:7 3.17375
4 *167:4 *167:5 4.20937
5 *167:3 *167:4 0.17014
6 *167:5 *167:6 0.17014
7 *167:2 *167:9 6.94567
8 *692:Z *167:9 1.5
9 *692:Z *767:D[47] 0.0001
*END

*D_NET *168 0.00135349

*CONN
*I *693:Z O *C 78.3 142 *L 0 *D DEL1
*I *767:D[46] I *C 80.405 134.195 *L 0.00183 *D sram00

*CAP
1 *168:2 5.90344e-05
2 *168:4 0.000466963
3 *168:6 0.000570791016
4 *168:7 0.000237827
5 *168:8 1.88827e-05

*RES
1 *168:2 *168:3 0.370968
2 *168:7 *168:8 0.256291
3 *168:3 *168:4 2.46961
4 *693:Z *168:6 4.73267984
5 *168:5 *168:7 1.49109
6 *168:5 *168:6 0.256291
7 *168:4 *168:8 3.02263
8 *693:Z *767:D[46] 7.2215e-05
*END

*D_NET *169 0.00287203

*CONN
*I *694:Z O *C 56.7 142.8 *L 0 *D DEL1
*I *767:D[49] I *C 68.075 134.195 *L 0.00183 *D sram00

*CAP
1 *169:2 2.16805e-07
2 *169:3 0.00012117
3 *169:4 6.95702e-05
4 *169:5 0.000385334
5 *169:6 0.000488461
6 *169:7 1.46945e-06
7 *169:8 0.0015787
8 *169:9 0.000214107
9 *169:10 1.30083e-05

*RES
1 *169:9 *169:10 0.132101
2 *169:8 *169:10 11.442
3 *169:2 *169:5 2.48175
4 *169:2 *169:3 0.256311
5 *694:Z *169:8 3.27877
6 *169:6 *169:7 3.40067
7 *169:4 *169:9 3.23672
8 *169:3 *169:4 0.745557
9 *169:5 *169:7 0.256311
10 *694:Z *767:D[49] 0.0001
*END

*D_NET *170 0.00171387

*CONN
*I *695:Z O *C 75.3 142.8 *L 0 *D DEL1
*I *767:D[48] I *C 72.005 134.195 *L 0.00183 *D sram00

*CAP
1 *170:2 0.00116168
2 *170:3 0.000278459
3 *170:4 4.30921e-05
4 *170:5 0.00021383
5 *170:6 1.68043e-05

*RES
1 *170:2 *170:3 3.68617
2 *170:3 *170:4 0.370955
3 *170:2 *170:6 9.02795
4 *170:5 *170:6 0.256311
5 *695:Z *170:5 2.24556
6 *695:Z *767:D[48] 0.0001
*END

*D_NET *171 0.00164327

*CONN
*I *696:Z O *C 67.7 142 *L 0 *D DEL1
*I *767:D[50] I *C 63.605 134.195 *L 0.00183 *D sram00

*CAP
1 *171:2 0.000509008
2 *171:3 0.000545966
3 *171:4 0.000588301016

*RES
1 *171:2 *171:3 5.64167023
2 *171:3 *171:4 5.32006
3 *696:Z *171:2 4.21825
4 *696:Z *767:D[50] 8.60851e-05
*END

*D_NET *172 0.00211011

*CONN
*I *697:Z O *C 53.9 145.6 *L 0 *D DEL1
*I *767:D[53] I *C 51.275 134.195 *L 0.00183 *D sram00

*CAP
1 *697:Z 8.70895e-05
2 *172:2 0.000697897969
3 *172:3 0.000196329
4 *172:4 0.000164648
5 *172:5 0.000121337
6 *172:6 0.000364289
7 *172:7 0.000478513

*RES
1 *172:4 *172:6 2.45569
2 *172:3 *172:7 4.54347
3 *172:2 *172:3 2.03346
4 *172:4 *172:5 0.977741
5 *172:2 *172:6 5.82678986
6 *697:Z *172:5 2.57607
7 *697:Z *767:D[53] 8.89098e-05
*END

*D_NET *173 0.00175589

*CONN
*I *698:Z O *C 58.5 142 *L 0 *D DEL1
*I *767:D[52] I *C 55.205 134.195 *L 0.00183 *D sram00

*CAP
1 *173:2 0.00109344008
2 *173:3 0.000479739
3 *173:4 0.000182716

*RES
1 *173:2 *173:5 8.08049
2 *173:2 *173:3 4.45037
3 *173:3 *173:4 2.21353
4 *698:Z *173:5 1.5
5 *698:Z *767:D[52] 0.0001
*END

*D_NET *174 0.00136878

*CONN
*I *699:Z O *C 63.7 139.2 *L 0 *D DEL1
*I *767:D[51] I *C 59.675 134.195 *L 0.00183 *D sram00

*CAP
1 *174:2 0.000223554
2 *174:3 0.000155301
3 *174:5 5.98998e-05
4 *174:6 0.000466713984
5 *174:7 6.22214e-05
6 *174:8 0.000315287
7 *174:9 5.41313e-05
8 *174:10 3.16697e-05

*RES
1 *174:9 *174:10 0.294283
2 *174:4 *174:6 0.256331
3 *174:2 *174:4 0.81814
4 *174:8 *174:9 0.644775
5 *174:7 *174:8 2.85601
6 *174:3 *174:5 0.256331
7 *174:2 *174:7 2.11373
8 *699:Z *174:3 2.05989
9 *174:5 *174:6 3.04437995
10 *699:Z *767:D[51] 9.29071e-05
*END

*D_NET *175 0.00191921

*CONN
*I *700:Z O *C 50.1 142.8 *L 0 *D DEL1
*I *767:D[54] I *C 46.805 134.195 *L 0.00183 *D sram00

*CAP
1 *175:2 0.000449868
2 *175:3 0.00102582
3 *175:4 0.000443512

*RES
1 *175:2 *175:4 5.26275
2 *175:3 *175:4 8.22048
3 *700:Z *175:2 3.55108
4 *700:Z *767:D[54] 0.0001
*END

*D_NET *176 0.00198611

*CONN
*I *701:Z O *C 17.5 142.8 *L 0 *D DEL1
*I *767:D[62] I *C 13.205 134.195 *L 0.00183 *D sram00

*CAP
1 *176:2 0.000257461
2 *176:3 4.85425e-05
3 *176:4 6.60299e-05
4 *176:5 0.00117302
5 *176:6 9.41137e-05
6 *176:7 0.000346957

*RES
1 *176:4 *176:6 0.437914
2 *176:2 *176:5 4.94267
3 *176:2 *176:3 0.370928
4 *176:6 *176:7 3.35812
5 *176:5 *176:7 9.61793
6 *701:Z *176:6 1.5
7 *701:Z *767:D[62] 0.0001
*END

*D_NET *177 0.001392

*CONN
*I *702:Z O *C 25.1 142 *L 0 *D DEL1
*I *767:D[60] I *C 21.605 134.195 *L 0.00183 *D sram00

*CAP
1 *702:Z 7.34246e-05
2 *177:2 0.000930372031
3 *177:3 0.000343443
4 *177:4 4.47476e-05

*RES
1 *177:2 *177:5 7.70243
2 *177:2 *177:3 4.41584
3 *177:3 *177:4 0.370928
4 *702:Z *177:5 1.75631
5 *702:Z *767:D[60] 0.0001
*END

*D_NET *178 0.00129424

*CONN
*I *703:Z O *C 40.9 142 *L 0 *D DEL1
*I *767:D[56] I *C 38.405 134.195 *L 0.00183 *D sram00

*CAP
1 *178:2 0.00103579
2 *178:3 0.000214476
3 *178:4 2.09102e-05
4 *178:5 2.30597e-05

*RES
1 *178:2 *178:5 7.71307
2 *178:2 *178:3 2.95609
3 *178:3 *178:4 0.370928
4 *703:Z *178:5 1.5
5 *703:Z *767:D[56] 0.0001
*END

*D_NET *179 0.001006

*CONN
*I *704:Z O *C 20.1 139.2 *L 0 *D DEL1
*I *767:D[61] I *C 17.675 134.195 *L 0.00183 *D sram00

*CAP
1 *179:2 0.000737102969
2 *179:3 0.000219731
3 *179:4 1.92332e-06
4 *179:5 4.72394e-05

*RES
1 *179:2 *179:5 5.96564007
2 *179:2 *179:3 2.95606
3 *179:3 *179:4 0.370941
4 *704:Z *179:5 1.49997
5 *704:Z *767:D[61] 9.10284e-05
*END

*D_NET *180 0.0012683

*CONN
*I *705:Z O *C 13.1 139.2 *L 0 *D DEL1
*I *767:D[63] I *C 9.275 134.195 *L 0.00183 *D sram00

*CAP
1 *180:2 0.000808851016
2 *180:3 5.87986e-05
3 *180:4 0.000320751
4 *180:5 4.92457e-05
5 *180:6 3.06459e-05

*RES
1 *180:2 *180:3 2.11374
2 *180:4 *180:5 0.644751
3 *180:3 *180:4 2.65624
4 *705:Z *180:2 6.30380011
5 *180:5 *180:6 0.29424
6 *705:Z *767:D[63] 9.61884e-05
*END

*D_NET *181 0.00109661

*CONN
*I *706:Z O *C 29.1 139.2 *L 0 *D DEL1
*I *767:D[59] I *C 26.075 134.195 *L 0.00183 *D sram00

*CAP
1 *181:2 0.000772751953
2 *181:3 0.000247903
3 *181:4 5.10569e-06
4 *181:5 7.08548e-05

*RES
1 *181:2 *181:5 5.96564007
2 *181:2 *181:3 3.68601
3 *181:3 *181:4 0.370941
4 *706:Z *181:5 1.49997
5 *706:Z *767:D[59] 9.10284e-05
*END

*D_NET *182 0.0010956

*CONN
*I *707:Z O *C 37.5 139.2 *L 0 *D DEL1
*I *767:D[57] I *C 34.475 134.195 *L 0.00183 *D sram00

*CAP
1 *182:2 0.000771103047
2 *182:3 0.000244915
3 *182:4 8.73058e-06
4 *182:5 7.08565e-05

*RES
1 *182:2 *182:5 5.96564007
2 *182:2 *182:3 3.68601
3 *182:3 *182:4 0.370941
4 *707:Z *182:5 1.49997
5 *707:Z *767:D[57] 9.10284e-05
*END

*D_NET *183 0.000837722

*CONN
*I *708:Z O *C 204.3 142.8 *L 0 *D DEL1
*I *756:I I *C 200.5 145.2 *L 0.00382 *D BUFFD12

*CAP
1 *756:I 0.000100768
2 *183:2 0.000647876016
3 *183:3 8.90823e-05

*RES
1 *183:2 *183:3 7.07852983
2 *756:I *183:2 2.77056
3 *708:Z *183:3 1.50004
*END

*D_NET *184 0.000717414

*CONN
*I *709:Z O *C 209.1 145.6 *L 0 *D DEL1
*I *755:I I *C 205.9 143.2 *L 0.00382 *D BUFFD12

*CAP
1 *709:Z 0.000183757
2 *184:2 0.000533657031

*RES
1 *755:I *184:2 4.16497
2 *709:Z *184:2 6.10653019
*END

*D_NET *185 0.00147097

*CONN
*I *710:Z O *C 45.9 142 *L 0 *D DEL1
*I *767:D[55] I *C 42.875 134.195 *L 0.00183 *D sram00

*CAP
1 *185:2 0.000398031016
2 *185:3 0.000287243
3 *185:4 4.39847e-05
4 *185:6 0.000324662
5 *185:7 0.000369935
6 *185:8 4.71187e-05

*RES
1 *185:2 *185:3 3.68598
2 *185:7 *185:8 0.256317
3 *185:3 *185:4 0.370939
4 *185:2 *185:8 3.41049
5 *710:Z *185:6 3.80733991
6 *185:5 *185:7 1.88014
7 *185:5 *185:6 0.256317
8 *710:Z *767:D[55] 0.000116191
*END

*D_NET *186 0.00116803

*CONN
*I *711:Z O *C 178.7 142 *L 0 *D DEL1
*I *820:CDN I *C 182.3 141.6 *L 0.00163 *D DFCNQD1
*I *821:CDN I *C 184.1 139.6 *L 0.00163 *D DFCNQD1

*CAP
1 *821:CDN 0.000288134
2 *186:3 0.000538311016
3 *186:4 0.000341583

*RES
1 *820:CDN *186:4 3.19416
2 *186:3 *186:4 4.9956
3 *821:CDN *186:4 6.45909023
4 *711:Z *186:3 1.49995
*END

*D_NET *187 0.000528514

*CONN
*I *712:Z O *C 319.5 142 *L 0 *D DEL1
*I *753:I I *C 316.3 139.6 *L 0.00382 *D BUFFD12

*CAP
1 *187:2 8.13474e-05
2 *187:3 0.000447165

*RES
1 *753:I *187:3 4.35912
2 *187:2 *187:3 4.43202019
3 *712:Z *187:2 1.49997
*END

*D_NET *188 0.00011925

*CONN
*I *713:Z O *C 224.5 139.2 *L 0 *D DEL1
*I *754:I I *C 225.5 139.6 *L 0.0045 *D BUFFD16

*CAP
1 *713:Z 0.00011925

*RES
1 *713:Z *754:I 1.29829
*END

*D_NET *189 0.000840629

*CONN
*I *714:Z O *C 223.3 145.6 *L 0 *D DEL1
*I *751:I I *C 220.1 143.2 *L 0.0045 *D BUFFD16

*CAP
1 *189:2 0.000840628984

*RES
1 *714:Z *189:2 2.0825
2 *751:I *189:2 9.08829021
*END

*D_NET *190 0.00151905

*CONN
*I *715:Z O *C 199.5 142.8 *L 0 *D DEL1
*I *757:I I *C 193.5 145.2 *L 0.00382 *D BUFFD12

*CAP
1 *190:2 3.63956e-05
2 *190:3 0.000985207031
3 *190:4 0.000497437

*RES
1 *190:2 *190:4 4.34155
2 *190:2 *190:3 7.48087978
3 *757:I *190:3 4.16496
4 *715:Z *190:4 1.50003
*END

*D_NET *191 0.00109367

*CONN
*I *716:Z O *C 228.3 142.8 *L 0 *D DEL1
*I *752:I I *C 223.7 141.6 *L 0.0045 *D BUFFD16

*CAP
1 *191:2 0.00109367

*RES
1 *716:Z *191:2 2.08245
2 *752:I *191:2 10.4603004
*END

*D_NET *192 0.00782987

*CONN
*I *717:Z O *C 262.5 142 *L 0 *D DEL0
*I *772:A4 I *C 200.9 143.2 *L 0.00102 *D ND4D1

*CAP
1 *772:A4 0.000410404
2 *717:Z 8.65282e-05
3 *192:2 0.000226547
4 *192:4 0.000258756
5 *192:5 0.00045542
6 *192:6 9.47159e-05
7 *192:7 0.000440192
8 *192:8 0.00104393008
9 *192:9 0.000204294
10 *192:10 0.000504626
11 *192:11 8.8392e-05
12 *192:12 2.1425e-05
13 *192:13 0.000155263
14 *192:14 3.53472e-05
15 *192:15 0.000196138
16 *192:2 *333:3 0.000761823984
17 *192:2 *332:3 0.000696103984
18 *192:2 *193:3 0.000448325977
19 *192:3 *136:2 0.00109554008
20 *192:4 *330:3 0.000606096992

*RES
1 *192:7 *192:3 0.131929
2 *192:14 *192:15 5.24501
3 *192:2 *192:15 6.63898
4 *192:9 *192:10 11.1291
5 *192:6 *192:7 10.2681
6 *192:8 *192:9 3.04446
7 *192:3 *192:8 20.0604992
8 *192:5 *192:6 0.423335
9 *192:10 *192:11 0.131929
10 *192:13 *192:14 0.131929
11 *717:Z *192:5 4.83942
12 *192:12 *192:13 3.94531
13 *192:4 *192:12 0.131929
14 *772:A4 *192:2 3.81644
15 *192:11 *192:4 4.52782
*END

*D_NET *193 0.00807992

*CONN
*I *718:Z O *C 265.1 142 *L 0 *D DEL0
*I *774:A3 I *C 205.5 141.8 *L 0.00103 *D ND4D1

*CAP
1 *774:A3 0.000129347
2 *718:Z 4.44322e-06
3 *193:2 0.000647996
4 *193:3 0.000607459
5 *193:4 8.99614e-06
6 *193:5 0.00359489
7 *193:3 *333:3 0.000906623984
8 *193:3 *123:2 0.00173188
9 *193:3 *192:2 0.000448325977

*RES
1 *718:Z *193:2 2.01611
2 *193:4 *193:5 66.030899
3 *193:2 *193:4 5.9234
4 *193:3 *193:5 6.40299
5 *774:A3 *193:3 4.49973
*END

*D_NET *194 0.0012696

*CONN
*I *719:Z O *C 196.3 139.2 *L 0 *D DEL1
*I *758:I I *C 190.5 141.6 *L 0.0045 *D BUFFD16

*CAP
1 *194:2 0.000116881
2 *194:3 0.00115272

*RES
1 *758:I *194:3 4.35914
2 *194:2 *194:3 8.31676006
3 *719:Z *194:2 1.5
*END

*D_NET *195 0.00109359

*CONN
*I *720:Z O *C 33.3 139.2 *L 0 *D DEL1
*I *767:D[58] I *C 30.005 134.195 *L 0.00183 *D sram00

*CAP
1 *195:2 0.000748077969
2 *195:3 0.000289038
3 *195:4 9.23469e-06
4 *195:5 4.7235e-05

*RES
1 *195:2 *195:5 5.96564007
2 *195:2 *195:3 3.92924
3 *195:3 *195:4 0.370941
4 *720:Z *195:5 1.49997
5 *720:Z *767:D[58] 9.10284e-05
*END

*D_NET *196 0.00430868

*CONN
*I *721:Z O *C 166.5 142 *L 0 *D DEL1
*I *767:CEN I *C 145.65 134.195 *L 0.00171 *D sram00

*CAP
1 *196:2 0.000248543
2 *196:3 4.19905e-06
3 *196:4 0.000252329
4 *196:5 0.000268301
5 *196:7 3.60655e-06
6 *196:8 0.000298364
7 *196:9 0.00168825
8 *196:10 0.00112104
9 *196:11 0.000238367
10 *196:12 0.000185608

*RES
1 *196:11 *196:12 2.21353
2 *196:10 *196:11 1.54121
3 *196:9 *196:10 8.27272
4 *196:6 *196:8 0.256311
5 *196:4 *196:6 1.32803
6 *196:2 *196:3 0.256465
7 *196:7 *196:8 2.46191
8 *196:4 *196:9 12.9148
9 *196:3 *196:5 1.49442
10 *721:Z *196:2 2.52295
11 *196:5 *196:7 0.256311
12 *721:Z *767:CEN 0.0001
*END

*D_NET *197 0.0423085

*CONN
*I *722:Z O *C 13.3 141.8 *L 0 *D CKBD2
*I *857:A1 I *C 66.1 139.6 *L 0.00098 *D AN2XD1
*I *867:A1 I *C 66.1 143.2 *L 0.000556 *D CKAN2D0
*I *871:A1 I *C 68.1 143.2 *L 0.000556 *D CKAN2D0
*I *870:A1 I *C 72.1 141.6 *L 0.000556 *D CKAN2D0
*I *864:A1 I *C 71.1 143.2 *L 0.000556 *D CKAN2D0
*I *880:A1 I *C 105.1 141.6 *L 0.000993 *D AN2D2
*I *891:A1 I *C 112.9 141.6 *L 0.000556 *D CKAN2D0
*I *889:A1 I *C 145.5 143.2 *L 0.000556 *D CKAN2D0
*I *872:A1 I *C 145.7 145.2 *L 0.000556 *D CKAN2D0
*I *896:I I *C 148.9 143 *L 0.00062 *D CKND0
*I *873:A1 I *C 163.3 139.6 *L 0.000647 *D NR2D0
*I *824:B2 I *C 175.7 139.4 *L 0.000698 *D AO22D0
*I *823:B2 I *C 174.1 139.4 *L 0.000698 *D AO22D0
*I *829:B2 I *C 171.9 139.4 *L 0.000698 *D AO22D0
*I *822:B2 I *C 170.3 139.4 *L 0.000698 *D AO22D0
*I *830:B2 I *C 167.5 139.4 *L 0.000698 *D AO22D0
*I *827:B2 I *C 165.9 139.4 *L 0.000698 *D AO22D0
*I *825:B2 I *C 163.9 139.4 *L 0.000698 *D AO22D0
*I *828:B2 I *C 162.1 139.4 *L 0.000698 *D AO22D0
*I *826:B2 I *C 157.9 139.4 *L 0.000698 *D AO22D0
*I *892:A1 I *C 150.9 139.6 *L 0.000556 *D CKAN2D0
*I *894:A1 I *C 149.5 139.6 *L 0.000556 *D CKAN2D0
*I *832:A1 I *C 148.3 139.6 *L 0.000556 *D CKAN2D0
*I *895:A1 I *C 146.5 139.6 *L 0.000556 *D CKAN2D0
*I *846:A1 I *C 144.5 139.6 *L 0.000556 *D CKAN2D0
*I *833:A1 I *C 142.5 139.6 *L 0.000556 *D CKAN2D0
*I *835:A1 I *C 136.5 139.6 *L 0.000556 *D CKAN2D0
*I *839:A1 I *C 132.7 139.6 *L 0.000556 *D CKAN2D0
*I *836:A1 I *C 130.1 139.6 *L 0.000556 *D CKAN2D0
*I *838:A1 I *C 126.5 139.6 *L 0.000556 *D CKAN2D0
*I *841:A1 I *C 125.3 139.6 *L 0.000556 *D CKAN2D0
*I *843:A1 I *C 124.1 139.6 *L 0.000556 *D CKAN2D0
*I *831:A1 I *C 112.9 139.6 *L 0.00098 *D AN2XD1
*I *866:A1 I *C 111.7 139.6 *L 0.00098 *D AN2XD1
*I *868:A1 I *C 107.9 139.6 *L 0.00098 *D AN2XD1
*I *849:A1 I *C 106.1 139.6 *L 0.00098 *D AN2XD1
*I *845:A1 I *C 101.1 139.6 *L 0.00098 *D AN2XD1
*I *842:A1 I *C 99.9 139.6 *L 0.00098 *D AN2XD1
*I *854:A1 I *C 96.7 139.6 *L 0.00098 *D AN2XD1
*I *856:A1 I *C 90.7 139.6 *L 0.00098 *D AN2XD1
*I *865:A1 I *C 87.7 139.6 *L 0.00098 *D AN2XD1
*I *878:A1 I *C 85.7 143.2 *L 0.000556 *D CKAN2D0
*I *850:A1 I *C 85.7 141.6 *L 0.00098 *D AN2XD1
*I *879:A1 I *C 84.5 139.6 *L 0.00098 *D AN2XD1
*I *862:A1 I *C 81.7 139.6 *L 0.00098 *D AN2XD1
*I *852:A1 I *C 73.3 139.6 *L 0.00098 *D AN2XD1
*I *860:A1 I *C 75.3 139.6 *L 0.00098 *D AN2XD1
*I *859:A1 I *C 77.7 139.6 *L 0.00098 *D AN2XD1
*I *884:A1 I *C 78.7 141.6 *L 0.000556 *D CKAN2D0
*I *883:A1 I *C 79.5 145.2 *L 0.000556 *D CKAN2D0
*I *877:A1 I *C 82.7 145.2 *L 0.000556 *D CKAN2D0
*I *875:A1 I *C 80.9 143.2 *L 0.000556 *D CKAN2D0
*I *881:A1 I *C 78.3 143.2 *L 0.000556 *D CKAN2D0
*I *887:A1 I *C 75.9 143.2 *L 0.000556 *D CKAN2D0
*I *874:A1 I *C 77.1 145.2 *L 0.000556 *D CKAN2D0
*I *886:A1 I *C 74.7 145.2 *L 0.000556 *D CKAN2D0
*I *861:A1 I *C 72.3 145.2 *L 0.000556 *D CKAN2D0
*I *869:A1 I *C 69.9 145.2 *L 0.000556 *D CKAN2D0
*I *855:A1 I *C 67.9 145.2 *L 0.000556 *D CKAN2D0
*I *858:A1 I *C 65.7 145.2 *L 0.000556 *D CKAN2D0
*I *853:A1 I *C 63.5 145.2 *L 0.000556 *D CKAN2D0
*I *851:A1 I *C 61.3 145.2 *L 0.000556 *D CKAN2D0
*I *848:A1 I *C 58.9 145.2 *L 0.000556 *D CKAN2D0
*I *844:A1 I *C 54.5 145.2 *L 0.000556 *D CKAN2D0
*I *840:A1 I *C 49.7 145.2 *L 0.000556 *D CKAN2D0
*I *837:A1 I *C 45.9 143.2 *L 0.000556 *D CKAN2D0
*I *834:A1 I *C 41.7 141.6 *L 0.000556 *D CKAN2D0
*I *847:A1 I *C 36.7 141.6 *L 0.000556 *D CKAN2D0
*I *893:A1 I *C 33.5 141.6 *L 0.000556 *D CKAN2D0
*I *890:A1 I *C 29.3 141.6 *L 0.000556 *D CKAN2D0
*I *888:A1 I *C 26.5 141.6 *L 0.000556 *D CKAN2D0
*I *885:A1 I *C 21.5 141.6 *L 0.000556 *D CKAN2D0
*I *882:A1 I *C 17.5 141.6 *L 0.000556 *D CKAN2D0
*I *863:A1 I *C 13.9 143.2 *L 0.000556 *D CKAN2D0

*CAP
1 *882:A1 0.000318516
2 *885:A1 9.65535e-05
3 *847:A1 5.29863e-05
4 *834:A1 4.61537e-05
5 *840:A1 9.37277e-05
6 *844:A1 6.30483e-05
7 *848:A1 7.4441e-05
8 *851:A1 7.09424e-05
9 *853:A1 6.0387e-05
10 *858:A1 1.38147e-05
11 *855:A1 8.33667e-05
12 *869:A1 5.56775e-05
13 *861:A1 0.000136712
14 *886:A1 4.31485e-05
15 *874:A1 0.000276279
16 *887:A1 0.000209389
17 *881:A1 2.65829e-05
18 *875:A1 0.000242565
19 *877:A1 0.000323569
20 *883:A1 0.000309919
21 *884:A1 0.000450877
22 *859:A1 0.000175719
23 *860:A1 0.000109501
24 *862:A1 0.000134469
25 *879:A1 0.000243881
26 *878:A1 1.40838e-05
27 *865:A1 0.000130552
28 *856:A1 8.91527e-05
29 *854:A1 0.000253718
30 *842:A1 0.00020595
31 *845:A1 3.47012e-05
32 *868:A1 0.000381549
33 *839:A1 4.3313e-05
34 *846:A1 8.77623e-06
35 *895:A1 9.68824e-06
36 *832:A1 2.22919e-05
37 *826:B2 0.000269581
38 *828:B2 8.09297e-05
39 *827:B2 0.000118098
40 *823:B2 9.96483e-05
41 *824:B2 5.2164e-05
42 *873:A1 4.18628e-07
43 *872:A1 7.67883e-05
44 *880:A1 0.000204425
45 *864:A1 9.59853e-06
46 *870:A1 0.000538639
47 *871:A1 0.000360663
48 *867:A1 1.09142e-05
49 *857:A1 0.0004925
50 *722:Z 0.000228391
51 *197:75 0.000104732
52 *197:76 0.000107333
53 *197:77 4.424e-05
54 *197:78 0.000213934
55 *197:79 0.000278941
56 *197:80 0.000110249
57 *197:81 5.56027e-05
58 *197:82 0.000255258
59 *197:83 0.00030349
60 *197:84 0.000247663
61 *197:85 0.000203229
62 *197:86 0.00014039
63 *197:87 0.000137549
64 *197:88 0.000399864
65 *197:89 0.000288808
66 *197:90 0.000426118
67 *197:91 0.00045137
68 *197:92 7.47101e-05
69 *197:93 0.00057361
70 *197:94 0.000436763
71 *197:95 0.000447498
72 *197:96 0.000223338
73 *197:97 0.000465828
74 *197:98 0.000160843
75 *197:99 9.64488e-05
76 *197:100 0.000457022
77 *197:101 1.23944e-05
78 *197:102 0.000727276
79 *197:103 0.000261807
80 *197:104 0.000441622
81 *197:105 0.000100187
82 *197:106 0.000257456
83 *197:107 0.000149091
84 *197:108 0.000656169
85 *197:109 0.00014954
86 *197:110 0.000582879
87 *197:111 0.000375913
88 *197:112 0.000272452
89 *197:113 0.00030207
90 *197:114 0.000153801
91 *197:115 0.000618507
92 *197:116 0.000525542
93 *197:117 0.000220512
94 *197:118 0.000293727
95 *197:119 0.000407474
96 *197:120 8.45927e-05
97 *197:121 0.000134963
98 *197:122 0.000312087
99 *197:123 0.000947564
100 *197:124 6.68309e-05
101 *197:125 0.000343095
102 *197:126 0.000368407
103 *197:127 0.000585286
104 *197:128 0.000244299
105 *197:129 0.000358764
106 *197:130 5.07287e-05
107 *197:131 0.000414651
108 *197:132 0.000232981
109 *197:133 0.000284697
110 *197:134 0.000280137
111 *197:135 0.000220318
112 *197:136 0.000292097
113 *197:137 0.000331553
114 *197:138 0.00034933
115 *197:139 0.000755473
116 *197:140 0.000354832
117 *197:141 0.000552125
118 *197:142 0.000323779
119 *197:143 0.000710949
120 *197:144 0.00016331
121 *197:145 0.000349883
122 *197:146 0.000224579
123 *197:147 8.58037e-05
124 *197:148 0.000299977
125 *197:149 0.000101741
126 *197:150 0.000128728
127 *197:151 0.000319547
128 *197:152 0.000979812969
129 *197:153 0.00016923
130 *197:154 0.000211721
131 *197:155 6.18821e-05
132 *197:156 0.000298945
133 *197:157 0.000923926
134 *197:158 0.000555145
135 *197:159 0.000377064
136 *197:160 0.000190251
137 *197:161 0.000202317
138 *197:162 0.000883005
139 *197:163 0.000492799
140 *197:164 0.000589084
141 *197:165 0.000208955
142 *862:A1 *313:3 0.000594903008
143 *868:A1 *208:5 0.000758717031
144 *875:A1 *376:5 0.000779788984
145 *823:B2 *471:33 0.000274076992
146 *874:A1 *887:A2 6.711e-06
147 *887:A1 *887:A2 3.63e-07
148 *197:75 *887:A2 4.4599e-05
149 *874:A1 *203:4 7.856e-06
150 *197:76 *203:4 7.374e-06
151 *197:77 *203:4 5.0357e-05
152 *197:78 *203:4 1.7142e-05
153 *197:75 *203:4 1.5938e-05
154 *861:A1 *203:5 2.275e-06
155 *869:A1 *203:5 1.849e-06
156 *855:A1 *203:5 1.663e-06
157 *853:A1 *203:5 5.535e-06
158 *851:A1 *203:5 4.288e-06
159 *197:76 *203:5 9.85e-07
160 *197:78 *203:5 0.000115109
161 *197:79 *203:5 6.384e-05
162 *197:80 *203:5 8.7607e-05
163 *197:81 *203:5 5.8233e-05
164 *197:82 *203:5 0.000143864
165 *197:83 *203:5 9.4203e-05
166 *197:84 *203:5 1.1157e-05
167 *848:A1 *203:6 3.216e-06
168 *197:85 *203:6 6.978e-06
169 *197:86 *203:6 7.248e-06
170 *197:87 *203:6 7.779e-06
171 *197:88 *203:6 0.000111662
172 *197:89 *203:6 0.000182674
173 *197:78 *203:6 2.0357e-05
174 *197:90 *203:6 0.000296807
175 *197:79 *203:6 8.1387e-05
176 *197:80 *203:6 9.5442e-05
177 *197:81 *203:6 5.2224e-05
178 *197:82 *203:6 0.000144868
179 *197:83 *203:6 0.000102152
180 *197:84 *203:6 0.000267905
181 *197:91 *203:7 6.739e-06
182 *197:91 *203:2 1.29095415e-06
183 *197:92 *33:8 0.000286500996
184 *865:A1 *408:5 0.000405568008

*RES
1 *197:135 *197:136 1.94218
2 *197:130 *197:163 3.52698
3 *830:B2 *197:93 5.665
4 *197:77 *197:78 3.41639
5 *870:A1 *197:106 5.20989
6 *197:89 *197:90 4.34696
7 *197:119 *197:151 1.64535
8 *197:108 *197:152 3.49283
9 *885:A1 *197:164 4.88836
10 *842:A1 *197:148 5.45025
11 *197:150 *197:162 0.762583
12 *197:128 *197:149 4.06391
13 *854:A1 *197:153 4.9669
14 *197:114 *197:91 2.47465
15 *846:A1 *197:136 3.64322
16 *834:A1 *197:143 4.08257
17 *878:A1 *197:113 4.6748
18 *863:A1 *197:102 4.48435
19 *835:A1 *197:157 5.15171
20 *197:124 *197:125 3.88437
21 *197:121 *197:158 3.71204
22 *197:76 *197:162 6.15977
23 *890:A1 *197:163 5.16839
24 *197:164 *197:165 3.36228
25 *197:127 *197:142 2.3617
26 *892:A1 *197:132 4.6941
27 *197:141 *197:160 4.65864
28 *197:112 *197:124 2.24585
29 *197:103 *197:152 5.38918
30 *197:82 *197:83 2.79618
31 *197:133 *197:134 1.74793
32 *197:130 *197:145 0.745771
33 *197:115 *197:163 5.62862
34 *197:93 *197:94 2.5796
35 *882:A1 *197:165 6.20049
36 *875:A1 *197:98 3.92797
37 *197:148 *197:153 2.71908
38 *722:Z *197:102 2.79224
39 *843:A1 *197:159 4.75413
40 *197:118 *197:131 2.75047
41 *197:88 *197:91 5.55874
42 *197:122 *197:159 1.86758
43 *874:A1 *197:99 4.23834
44 *197:102 *197:165 6.19077
45 *197:97 *197:112 1.69381
46 *844:A1 *197:90 4.07193
47 *197:97 *197:141 4.42485
48 *884:A1 *197:105 5.65896
49 *197:129 *197:144 1.13429
50 *197:85 *197:106 1.66229
51 *893:A1 *197:145 4.6941
52 *886:A1 *197:76 2.72539
53 *197:101 *197:115 0.50817
54 *861:A1 *197:85 3.91484
55 *197:127 *197:154 5.84297
56 *856:A1 *197:154 3.50531
57 *832:A1 *197:134 3.85166
58 *197:79 *197:80 2.79618
59 *197:132 *197:133 1.35941
60 *840:A1 *197:88 2.82009
61 *855:A1 *197:86 3.22647
62 *197:121 *197:157 1.59951
63 *836:A1 *197:138 4.6941
64 *847:A1 *197:144 3.80241
65 *864:A1 *197:106 1.91079
66 *828:B2 *197:131 3.93769
67 *197:129 *197:143 3.95529
68 *197:120 *197:157 5.62717
69 *197:100 *197:143 6.08858
70 *197:118 *197:151 3.60277
71 *197:100 *197:114 2.28565
72 *197:94 *197:95 4.17726
73 *197:90 *197:84 4.91726
74 *839:A1 *197:158 4.09242
75 *197:81 *197:82 4.06707
76 *197:80 *197:81 1.52517
77 *197:77 *197:75 1.45503
78 *197:98 *197:161 3.83065
79 *894:A1 *197:133 4.75807
80 *197:134 *197:135 1.5538
81 *197:120 *197:137 0.746428
82 *197:95 *197:96 0.644636
83 *197:138 *197:139 4.29285
84 *197:126 *197:154 1.39067
85 *197:88 *197:89 3.30947
86 *872:A1 *197:108 5.49543
87 *825:B2 *197:95 3.61472
88 *858:A1 *197:87 3.65438
89 *197:125 *197:147 0.613771
90 *197:126 *197:153 3.72321
91 *197:142 *197:149 1.86994
92 *197:83 *197:84 3.05033
93 *197:117 *197:152 7.15273
94 *197:144 *197:145 2.87092
95 *197:101 *197:164 7.35842
96 *197:104 *197:127 2.36734
97 *197:139 *197:140 1.52517
98 *197:128 *197:155 1.4373
99 *824:B2 *197:146 6.88098
100 *197:103 *197:135 1.7252
101 *860:A1 *197:150 3.50505
102 *197:96 *197:131 2.27685
103 *197:136 *197:137 1.5538
104 *838:A1 *197:139 4.75413
105 *826:B2 *197:151 4.76726
106 *833:A1 *197:137 4.6941
107 *197:146 *197:156 1.86929
108 *869:A1 *197:79 4.48119
109 *829:B2 *197:156 4.49998
110 *867:A1 *197:107 1.94954
111 *868:A1 *197:141 5.64543
112 *853:A1 *197:82 4.723
113 *857:A1 *197:107 5.31129
114 *197:147 *197:148 3.23185
115 *883:A1 *197:92 4.29258
116 *197:161 *197:75 2.25793
117 *197:111 *197:160 3.91839
118 *841:A1 *197:140 4.6941
119 *851:A1 *197:83 4.72523
120 *877:A1 *197:98 5.40441
121 *197:87 *197:107 1.35915
122 *197:93 *197:116 6.28468
123 *197:78 *197:79 2.34804
124 *197:119 *197:132 4.49761
125 *895:A1 *197:103 1.91342
126 *197:138 *197:158 2.0843
127 *871:A1 *197:86 4.33501
128 *880:A1 *197:97 4.39241
129 *887:A1 *197:99 3.07883
130 *197:116 *197:156 3.6909
131 *859:A1 *197:155 4.71919
132 *865:A1 *197:104 3.95477
133 *197:110 *197:123 3.62168
134 *845:A1 *197:147 4.49998
135 *852:A1 *197:162 5.48519
136 *879:A1 *197:142 5.20687
137 *827:B2 *197:94 4.51692
138 *848:A1 *197:84 4.80535
139 *873:A1 *197:96 2.14577
140 *862:A1 *197:149 3.74987
141 *197:109 *197:110 2.1547
142 *197:92 *197:105 1.16489
143 *881:A1 *197:105 2.1547
144 *197:150 *197:155 1.65152
145 *823:B2 *197:146 3.48666
146 *197:122 *197:123 8.60776043
147 *197:109 *197:160 3.13045
148 *197:140 *197:159 1.52517
149 *197:104 *197:113 2.26188
150 *896:I *197:117 1.49995
151 *822:B2 *197:116 1.49995
152 *888:A1 *197:115 3.00003
153 *837:A1 *197:114 3.00003
154 *850:A1 *197:113 3.00003
155 *849:A1 *197:112 3.00003
156 *866:A1 *197:111 3.00003
157 *831:A1 *197:110 3.00003
158 *891:A1 *197:109 3.00003
159 *889:A1 *197:108 3.00003
160 *197:92 *197:161 1.49995
161 *197:99 *197:75 1.49995
162 *197:76 *197:77 1.49995
163 *197:85 *197:78 1.49995
164 *197:86 *197:80 1.49995
165 *197:87 *197:81 1.49995
*END

*D_NET *198 0.00190063

*CONN
*I *723:Z O *C 129.5 145.6 *L 0 *D DEL2
*I *843:A2 I *C 124.3 139.6 *L 0.000585 *D CKAN2D0

*CAP
1 *198:2 0.000872613
2 *198:4 0.00102802

*RES
1 *198:2 *198:4 6.82311
2 *198:3 *198:4 7.33746004
3 *843:A2 *198:2 4.15296
4 *723:Z *198:3 1.50005
*END

*D_NET *199 0.00245889

*CONN
*I *724:Z O *C 179.7 145.6 *L 0 *D DEL1
*I *817:B1 I *C 176.7 143.2 *L 0.000658 *D IND2D0
*I *819:A2 I *C 178.7 143.2 *L 0.000606 *D CKND2D0
*I *816:A1 I *C 188.5 143.2 *L 0.000647 *D NR2D0
*I *818:A1 I *C 186.7 143.2 *L 0.000681 *D IND2D0

*CAP
1 *818:A1 0.000115354
2 *819:A2 9.32713e-05
3 *817:B1 0.00032907
4 *199:5 0.000356133
5 *199:6 0.000408945
6 *199:7 0.000518890977
7 *199:8 0.000188229
8 *199:9 0.000449001

*RES
1 *199:7 *199:8 1.27078
2 *816:A1 *199:9 5.52012014
3 *818:A1 *199:9 3.00003
4 *817:B1 *199:8 5.09594
5 *199:6 *199:7 1.95103
6 *199:5 *199:9 3.05478
7 *199:5 *199:6 2.71744
8 *724:Z *199:7 4.52469
9 *819:A2 *199:8 3.25407
*END

*D_NET *200 0.00326213

*CONN
*I *725:Z O *C 192.9 139.2 *L 0 *D DEL1
*I *817:A1 I *C 177.3 143.2 *L 0.000681 *D IND2D0
*I *819:A1 I *C 178.3 143 *L 0.000617 *D CKND2D0
*I *816:A2 I *C 188.1 143.2 *L 0.000664 *D NR2D0
*I *818:B1 I *C 187.3 143.2 *L 0.000658 *D IND2D0

*CAP
1 *816:A2 0.000108809
2 *817:A1 0.000211512
3 *725:Z 0.000564973
4 *200:5 0.000224623
5 *200:6 0.000952547031
6 *200:7 0.000158373
7 *200:8 0.000303039
8 *200:9 0.000337138
9 *200:10 0.000401135

*RES
1 *200:7 *200:9 3.40229
2 *200:6 *200:10 7.7431798
3 *725:Z *200:5 4.38827
4 *817:A1 *200:6 2.92461
5 *200:9 *200:10 3.81133
6 *200:8 *200:9 2.70461
7 *200:5 *200:8 5.19063
8 *816:A2 *200:7 2.68074
9 *818:B1 *200:7 1.50005
10 *819:A1 *200:6 1.50005
*END

*D_NET *201 0.013814

*CONN
*I *726:Z O *C 192.1 142.8 *L 0 *D DEL1
*I *809:B1 I *C 242.7 141.6 *L 0.000651 *D INR2D0
*I *810:A2 I *C 242.3 143.2 *L 0.000585 *D CKAN2D0
*I *815:A2 I *C 189.9 145.2 *L 0.000996 *D NR2D1
*I *811:A2 I *C 157.5 143.2 *L 0.00155 *D NR2XD1
*I *813:A2 I *C 157.9 143.2 *L 0.000996 *D NR2D1

*CAP
1 *813:A2 0.000190223
2 *811:A2 3.86289e-05
3 *201:6 0.000631614
4 *201:7 0.000210446
5 *201:8 0.000123111
6 *201:9 0.000476845
7 *201:10 0.000443715
8 *201:11 0.000472175
9 *201:12 0.000913635
10 *201:13 0.00129378
11 *201:14 1.87738e-05
12 *201:15 0.000588591
13 *201:16 1.50236e-05
14 *201:17 0.00150777
15 *201:18 0.000328518
16 *201:19 0.000508135
17 *201:20 0.000213161
18 *201:21 0.000221052
19 *201:22 0.00122239
20 *201:17 *54:2 0.000890070938
21 *201:18 *139:3 0.000299755996
22 *201:9 *140:2 0.00043565
23 *201:7 *235:3 0.00124978992
24 *201:6 *331:2 0.000425035
25 *201:7 *237:4 0.00109612

*RES
1 *201:16 *201:17 17.291
2 *201:8 *201:10 0.676219
3 *201:17 *201:18 4.06812
4 *201:13 *201:14 0.132101
5 *201:19 *201:20 2.25455
6 *201:18 *201:19 5.42841
7 *201:6 *201:11 3.18073
8 *201:7 *201:22 32.1834984
9 *201:8 *201:13 15.392
10 *201:11 *201:12 7.03327
11 *813:A2 *201:9 2.38125
12 *201:7 *201:12 3.39386
13 *811:A2 *813:A2 0.518091
14 *201:6 *201:21 5.75203
15 *810:A2 *201:10 5.19662
16 *201:20 *201:21 2.87184
17 *201:14 *201:15 6.78478
18 *201:9 *201:22 5.69802
19 *201:15 *201:16 0.132101
20 *815:A2 *201:12 1.49976
21 *726:Z *201:11 1.49976
22 *809:B1 *201:10 1.49976
*END

*D_NET *202 0.000635386

*CONN
*I *727:Z O *C 127.1 142 *L 0 *D DEL1
*I *841:A2 I *C 125.5 139.6 *L 0.000585 *D CKAN2D0

*CAP
1 *727:Z 3.92163e-06
2 *202:2 0.00063146

*RES
1 *727:Z *202:2 1.6942
2 *841:A2 *202:2 8.69466019
*END

*D_NET *203 0.0101971

*CONN
*I *728:Z O *C 8.9 145.6 *L 0 *D DEL1
*I *887:A2 I *C 76.1 143.2 *L 0.000585 *D CKAN2D0

*CAP
1 *887:A2 0.000316825
2 *203:2 0.00252041
3 *203:3 0.000587115
4 *203:4 3.41516e-05
5 *203:5 0.000248022
6 *203:6 0.00191537
7 *203:7 0.000351515
8 *203:8 2.46907e-05
9 *887:A2 *874:A1 6.711e-06
10 *887:A2 *887:A1 3.63e-07
11 *887:A2 *197:75 4.4599e-05
12 *203:4 *874:A1 7.856e-06
13 *203:4 *197:76 7.374e-06
14 *203:4 *197:77 5.0357e-05
15 *203:4 *197:78 1.7142e-05
16 *203:4 *197:75 1.5938e-05
17 *203:5 *861:A1 2.275e-06
18 *203:5 *869:A1 1.849e-06
19 *203:5 *855:A1 1.663e-06
20 *203:5 *853:A1 5.535e-06
21 *203:5 *851:A1 4.288e-06
22 *203:5 *197:76 9.85e-07
23 *203:5 *197:78 0.000115109
24 *203:5 *197:79 6.384e-05
25 *203:5 *197:80 8.7607e-05
26 *203:5 *197:81 5.8233e-05
27 *203:5 *197:82 0.000143864
28 *203:5 *197:83 9.4203e-05
29 *203:5 *197:84 1.1157e-05
30 *203:6 *848:A1 3.216e-06
31 *203:6 *197:85 6.978e-06
32 *203:6 *197:86 7.248e-06
33 *203:6 *197:87 7.779e-06
34 *203:6 *197:88 0.000111662
35 *203:6 *197:89 0.000182674
36 *203:6 *197:78 2.0357e-05
37 *203:6 *197:90 0.000296807
38 *203:6 *197:79 8.1387e-05
39 *203:6 *197:80 9.5442e-05
40 *203:6 *197:81 5.2224e-05
41 *203:6 *197:82 0.000144868
42 *203:6 *197:83 0.000102152
43 *203:6 *197:84 0.000267905
44 *203:7 *197:91 6.739e-06
45 *203:2 *197:91 1.29095415e-06
46 *887:A2 *364:2 0.000404703008
47 *203:2 *17:5 0.00166468

*RES
1 *887:A2 *203:4 7.36469
2 *203:2 *203:8 0.132321
3 *203:7 *203:2 39.0621986
4 *203:6 *203:7 2.49324
5 *203:4 *203:5 2.30668
6 *203:3 *203:8 7.35754
7 *203:5 *203:6 29.9749
8 *728:Z *203:3 1.50024
*END

*D_NET *204 0.00121929

*CONN
*I *729:Z O *C 129.9 142.8 *L 0 *D DEL1
*I *838:A2 I *C 126.7 139.6 *L 0.000585 *D CKAN2D0

*CAP
1 *729:Z 0.00021272
2 *204:2 0.000558920039
3 *204:3 0.000447648

*RES
1 *204:2 *204:3 5.12395
2 *729:Z *204:3 6.39028978
3 *838:A2 *204:2 3.00003
*END

*D_NET *205 0.000830833

*CONN
*I *730:Z O *C 145.1 142.8 *L 0 *D DEL1
*I *846:A2 I *C 144.7 139.6 *L 0.000585 *D CKAN2D0

*CAP
1 *846:A2 0.000178824
2 *730:Z 0.000652010039

*RES
1 *730:Z *846:A2 6.8221
*END

*D_NET *206 0.00108645

*CONN
*I *731:Z O *C 136.1 142.8 *L 0 *D DEL1
*I *839:A2 I *C 132.9 139.6 *L 0.000585 *D CKAN2D0

*CAP
1 *839:A2 0.000355028
2 *206:2 0.000731428047

*RES
1 *839:A2 *206:2 6.85301018
2 *731:Z *206:2 5.83064
*END

*D_NET *207 0.00062582

*CONN
*I *732:Z O *C 132.7 142 *L 0 *D DEL1
*I *836:A2 I *C 130.3 139.6 *L 0.000585 *D CKAN2D0

*CAP
1 *732:Z 6.78416e-05
2 *207:2 0.000557982031

*RES
1 *732:Z *207:2 2.18564
2 *836:A2 *207:2 9.10719967
*END

*D_NET *208 0.0132055

*CONN
*I *733:Z O *C 8.9 142 *L 0 *D DEL1
*I *891:A2 I *C 113.1 141.6 *L 0.000585 *D CKAN2D0

*CAP
1 *733:Z 3.93952e-05
2 *208:2 0.000239035
3 *208:3 0.00109344
4 *208:4 0.000215879
5 *208:5 0.000571983
6 *208:6 0.000329683
7 *208:7 0.000315205
8 *208:8 0.000239551
9 *208:9 0.000175668
10 *208:10 0.00281545
11 *208:11 0.000291018
12 *208:12 0.000107918
13 *208:13 0.00019964
14 *208:14 0.000178718
15 *208:15 0.000408216
16 *208:16 0.00032036
17 *208:3 *257:2 0.000437606016
18 *208:2 *238:17 0.000734222031
19 *208:3 *543:I 0.00297162
20 *208:4 *374:6 0.000356584023
21 *208:5 *868:A1 0.000758717031
22 *208:3 *369:7 0.000405503984

*RES
1 *208:14 *208:15 6.47489
2 *208:15 *208:16 0.327115
3 *208:10 *208:16 58.8950005
4 *208:13 *208:14 2.46414
5 *208:4 *208:9 2.93415
6 *208:7 *208:8 3.62792
7 *208:6 *208:10 5.22125
8 *208:3 *208:9 17.9392
9 *208:12 *208:13 3.94784
10 *208:6 *208:7 3.88404
11 *208:11 *208:12 0.132104
12 *208:2 *208:5 5.76045
13 *208:5 *208:11 7.94151
14 *733:Z *208:3 2.47313
15 *891:A2 *208:2 6.17294
16 *208:8 *208:4 2.52525
*END

*D_NET *209 0.000888995

*CONN
*I *734:Z O *C 140.7 139.2 *L 0 *D DEL1
*I *835:A2 I *C 136.7 139.6 *L 0.000585 *D CKAN2D0

*CAP
1 *209:2 0.000105779
2 *209:3 0.000783212031

*RES
1 *835:A2 *209:3 4.72199
2 *209:2 *209:3 5.73500013
3 *734:Z *209:2 1.49999
*END

*D_NET *210 0.000723993

*CONN
*I *735:Z O *C 145.5 142 *L 0 *D DEL1
*I *833:A2 I *C 142.7 139.6 *L 0.000585 *D CKAN2D0

*CAP
1 *210:2 9.90425e-05
2 *210:3 0.000624952031

*RES
1 *833:A2 *210:3 5.66494989
2 *210:2 *210:3 4.33048
3 *735:Z *210:2 1.5
*END

*D_NET *211 0.00171304

*CONN
*I *736:Z O *C 153.3 145.6 *L 0 *D DEL1
*I *832:A2 I *C 148.5 139.6 *L 0.000585 *D CKAN2D0

*CAP
1 *832:A2 0.000612345
2 *211:2 0.000315749
3 *211:3 0.00078494

*RES
1 *211:2 *211:3 6.33375
2 *736:Z *211:2 2.66493
3 *832:A2 *211:3 7.9920001
*END

*D_NET *212 0.00142889

*CONN
*I *737:Z O *C 152.3 142.8 *L 0 *D DEL1
*I *895:A2 I *C 146.7 139.6 *L 0.000585 *D CKAN2D0

*CAP
1 *895:A2 0.000444517
2 *212:2 0.000637143008
3 *212:3 0.000347228

*RES
1 *212:2 *212:3 4.07267
2 *737:Z *212:2 3.05327
3 *895:A2 *212:3 7.91561985
*END

*D_NET *213 0.000903621

*CONN
*I *620:I I *C 190.7 145.2 *L 0.00103 *D DEL015
*I *738:Z O *C 187.9 145.6 *L 0 *D DEL1

*CAP
1 *213:2 0.000277397
2 *213:3 0.000626221016

*RES
1 *213:2 *213:3 6.30640984
2 *620:I *213:2 5.66495
3 *738:Z *213:3 1.5
*END

*D_NET *214 0.000908326

*CONN
*I *739:Z O *C 183.1 142.8 *L 0 *D DEL1
*I *820:D I *C 179.9 141.6 *L 0.000971 *D DFCNQD1

*CAP
1 *214:2 0.000908326016

*RES
1 *739:Z *214:2 2.19192
2 *820:D *214:2 8.65513992
*END

*D_NET *215 0.00227571

*CONN
*I *617:I I *C 197.5 145.2 *L 0.00103 *D DEL015
*I *740:Z O *C 186.5 142 *L 0 *D DEL1

*CAP
1 *740:Z 0.00038202
2 *215:2 0.00107523
3 *215:3 0.000382873
4 *215:4 0.000435572

*RES
1 *215:2 *215:4 9.34918976
2 *740:Z *215:2 3.47242
3 *215:3 *215:4 3.88399
4 *617:I *215:3 7.1875
*END

*D_NET *216 0.00119265

*CONN
*I *741:Z O *C 156.3 139.2 *L 0 *D DEL1
*I *894:A2 I *C 149.7 139.6 *L 0.000585 *D CKAN2D0

*CAP
1 *216:2 0.000473819
2 *216:3 0.000718823047

*RES
1 *216:2 *216:3 10.6597996
2 *741:Z *216:3 1.50001
3 *894:A2 *216:2 3.00002
*END

*D_NET *217 0.000839014

*CONN
*I *742:Z O *C 109.5 142 *L 0 *D DEL1
*I *849:A2 I *C 106.3 139.6 *L 0.00104 *D AN2XD1

*CAP
1 *217:2 0.000839013984

*RES
1 *742:Z *217:2 2.08251
2 *849:A2 *217:2 10.3167
*END

*D_NET *218 0.00114997

*CONN
*I *743:Z O *C 148.9 142 *L 0 *D DEL1
*I *889:A2 I *C 145.7 143.2 *L 0.000585 *D CKAN2D0

*CAP
1 *743:Z 0.000261397
2 *218:2 0.000888566953

*RES
1 *889:A2 *218:2 6.0712
2 *743:Z *218:2 7.32113981
*END

*D_NET *219 0.000751551

*CONN
*I *744:Z O *C 117.1 139.2 *L 0 *D DEL1
*I *831:A2 I *C 113.1 139.6 *L 0.00104 *D AN2XD1

*CAP
1 *744:Z 0.00010072
2 *219:2 0.000607851016
3 *219:3 4.29813e-05

*RES
1 *219:2 *219:3 5.92025995
2 *831:A2 *219:2 3.25408
3 *744:Z *219:3 2.99997
*END

*D_NET *220 0.000776612

*CONN
*I *745:Z O *C 154.3 142 *L 0 *D DEL1
*I *892:A2 I *C 151.1 139.6 *L 0.000585 *D CKAN2D0

*CAP
1 *892:A2 0.000264329
2 *745:Z 0.000131409
3 *220:2 0.000380871992

*RES
1 *745:Z *220:2 7.80135012
2 *892:A2 *220:2 3.97079
*END

*D_NET *221 0.00112188

*CONN
*I *746:Z O *C 149.9 145.6 *L 0 *D DEL1
*I *872:A2 I *C 145.9 145.2 *L 0.000585 *D CKAN2D0

*CAP
1 *746:Z 0.000254333
2 *221:2 4.477e-05
3 *221:3 0.000822771016

*RES
1 *221:2 *221:3 5.1596
2 *746:Z *221:2 3.77659
3 *872:A2 *221:3 5.93831015
*END

*D_NET *222 0.000488605

*CONN
*I *747:I I *C 11.3 145.4 *L 0.0054 *D CKND6
*I *748:ZN O *C 9.1 145.4 *L 0 *D CKND1

*CAP
1 *747:I 0.000118838
2 *222:2 0.000369769023

*RES
1 *747:I *222:2 6.98527002
2 *748:ZN *222:2 1.5
*END

*D_NET *223 0.0216619

*CONN
*I *897:CP I *C 179.9 145.2 *L 0.000688 *D DFCND1
*I *747:ZN O *C 12.3 145.6 *L 0 *D CKND6
*I *821:CP I *C 180.7 139.6 *L 0.000642 *D DFCNQD1
*I *820:CP I *C 178.9 141.6 *L 0.000642 *D DFCNQD1
*I *767:CLK I *C 142.535 134.195 *L 0.031 *D sram00

*CAP
1 *897:CP 0.000153672
2 *223:5 0.000496948
3 *223:6 0.0114312
4 *223:7 0.00371202
5 *223:8 2.56411e-05
6 *223:9 1.97105e-05
7 *223:10 6.66319e-05
8 *223:13 1.36055e-05
9 *223:14 0.00025048
10 *223:15 1.55242e-05
11 *223:16 1.84895e-05
12 *223:17 0.000440608
13 *223:18 2.63388e-05
14 *223:19 2.96529e-06
15 *223:20 4.88401e-06
16 *223:21 3.12228e-05
17 *223:22 0.00147497
18 *223:23 0.000451073
19 *223:5 *110:2 0.000207248008
20 *223:6 *85:4 0.000274118984
21 *223:5 *17:5 0.000638071016
22 *223:6 *33:3 0.000542646992
23 *223:6 *364:4 0.000698783984
24 *223:7 *288:4 0.000665276016

*RES
1 *223:5 *223:6 90.0783
2 *223:13 *223:14 3.2478
3 *223:17 *223:23 5.38317
4 *897:CP *223:9 1.88832
5 *223:9 *223:17 2.471
6 *223:10 *223:12 0.521188
7 *223:11 *223:5 0.417441
8 *223:16 *223:21 0.252459
9 *223:14 *223:23 3.24743
10 *223:7 *223:22 12.1954
11 *223:18 *223:20 0.276762
12 *223:19 *223:20 0.124099
13 *223:17 *223:7 36.4734
14 *223:15 *223:21 0.252459
15 *223:8 *223:13 0.453442
16 *223:6 *223:7 42.0662
17 *821:CP *223:13 1.5
18 *820:CP *223:12 3
19 *747:ZN *223:5 1.5
20 *223:12 *223:21 1.5
21 *223:18 *223:22 1.5
22 *223:21 *223:23 1.5
23 *747:ZN *767:CLK 0.0001
*END

*D_NET *224 0.00208167

*CONN
*I *749:ZN O *C 152.3 139.2 *L 0 *D TIEL
*I *767:EMA[2] I *C 143.545 134.195 *L 0.00755 *D sram00
*I *767:EMA[0] I *C 152.68 134.195 *L 0.00755 *D sram00

*CAP
1 *749:ZN 2.58507e-05
2 *224:3 8.19766e-06
3 *224:4 8.1e-05
4 *224:5 0.000969736016
5 *224:6 3.04971e-05
6 *224:7 0.000638811
7 *224:8 2.84551e-05
8 *224:9 0.000299126

*RES
1 *224:3 *224:4 0.370946
2 *749:ZN *224:9 2.63387
3 *224:8 *224:9 0.431054
4 *224:7 *224:8 4.49718
5 *224:5 *224:6 0.370976
6 *224:4 *224:5 11.2744
7 *749:ZN *224:6 1e-06
8 *749:ZN *767:EMA[2] 0.0001
9 *767:EMA[2] *767:EMA[0] 0.0001
*END

*D_NET *225 0.00244917

*CONN
*I *750:Z O *C 152.9 139.8 *L 0 *D TIEH
*I *767:RETN I *C 144.905 134.195 *L 0.00453 *D sram00
*I *767:EMA[1] I *C 153.84 134.195 *L 0.00755 *D sram00

*CAP
1 *225:4 4.46884e-05
2 *225:5 1.78609e-05
3 *225:6 0.00116058
4 *225:7 4.13078e-05
5 *225:8 0.00118473008

*RES
1 *225:4 *225:5 0.294218
2 *225:3 *225:8 8.73001
3 *225:6 *225:8 10.1769
4 *225:6 *225:7 0.294255
5 *225:5 *225:8 1.21065
6 *750:Z *225:3 1.5
7 *750:Z *767:EMA[1] 0.0001
8 *767:EMA[1] *767:RETN 0.0001
*END

*D_NET *226 0.0014591

*CONN
*I *714:I I *C 220.1 145.2 *L 0.00105 *D DEL1
*I *773:ZN O *C 214.9 141.2 *L 0 *D ND4D1

*CAP
1 *714:I 4.93901e-05
2 *773:ZN 0.000375451
3 *226:2 0.000603201992
4 *226:3 0.000431064

*RES
1 *773:ZN *226:2 3.95736
2 *714:I *226:3 6.36815023
3 *226:2 *226:3 6.17517
*END

*D_NET *227 0.00155065

*CONN
*I *716:I I *C 225.1 143.2 *L 0.00105 *D DEL1
*I *771:ZN O *C 218.7 141.2 *L 0 *D ND4D1

*CAP
1 *771:ZN 0.000384776
2 *227:2 0.000598863008
3 *227:3 0.000566999

*RES
1 *716:I *227:2 7.78817987
2 *771:ZN *227:3 4.73487
3 *227:2 *227:3 4.11394
*END

*D_NET *228 0.0109927

*CONN
*I *712:I I *C 316.3 141.6 *L 0.00105 *D DEL1
*I *768:ZN O *C 212.7 141.2 *L 0 *D ND4D1

*CAP
1 *712:I 0.000535078
2 *768:ZN 0.000291387
3 *228:2 6.24756e-05
4 *228:3 0.00297122
5 *228:4 1.52789e-05
6 *228:5 0.000554709
7 *228:6 0.000282501
8 *228:7 3.64517e-05
9 *228:8 0.000996618
10 *228:9 9.24893e-06
11 *228:10 0.000878921
12 *228:11 0.0002261
13 *228:12 1.81352e-07
14 *228:13 0.000854348
15 *228:14 0.000368189
16 *768:ZN *54:2 0.000183904004
17 *228:10 *60:2 0.000313345996
18 *228:5 *135:2 0.000492685
19 *228:5 *483:9 0.000284287012
20 *228:3 *504:2 0.00163577

*RES
1 *228:6 *228:7 3.68925
2 *228:10 *228:11 0.13174
3 *228:4 *228:5 8.63194
4 *228:3 *228:4 0.13174
5 *228:5 *228:6 0.13174
6 *228:8 *228:9 0.13174
7 *228:7 *228:8 18.5069
8 *712:I *228:2 9.56669
9 *228:13 *228:14 0.13174
10 *228:12 *228:13 11.03
11 *228:11 *228:12 2.83978
12 *228:9 *228:10 15.9804
13 *228:2 *228:3 35.8244019
14 *768:ZN *228:14 8.83967
*END

*D_NET *229 0.00223175

*CONN
*I *713:I I *C 221.3 139.6 *L 0.00105 *D DEL1
*I *775:ZN O *C 210.1 141.2 *L 0 *D ND4D1

*CAP
1 *713:I 0.000237178
2 *229:2 0.00150411
3 *229:3 0.00021145
4 *229:4 0.000278995

*RES
1 *713:I *229:3 7.24933
2 *775:ZN *229:2 1.69414
3 *229:3 *229:4 2.06561
4 *229:2 *229:4 11.6871004
*END

*D_NET *230 0.000902953

*CONN
*I *709:I I *C 205.9 145.2 *L 0.00105 *D DEL1
*I *774:ZN O *C 205.9 141.2 *L 0 *D ND4D1

*CAP
1 *709:I 1.92458e-05
2 *774:ZN 0.000382014
3 *230:2 0.000501698984

*RES
1 *709:I *230:2 0.525975
2 *774:ZN *230:2 8.20135021
*END

*D_NET *231 0.000431355

*CONN
*I *708:I I *C 201.1 143.2 *L 0.00105 *D DEL1
*I *772:ZN O *C 200.1 143.6 *L 0 *D ND4D1

*CAP
1 *708:I 0.000194418
2 *231:2 0.000236939004

*RES
1 *708:I *231:2 7.74742985
2 *772:ZN *231:2 1.50005
*END

*D_NET *232 0.000534142

*CONN
*I *715:I I *C 196.3 143.2 *L 0.00105 *D DEL1
*I *769:ZN O *C 195.3 143.6 *L 0 *D ND4D1

*CAP
1 *769:ZN 0.000534142031

*RES
1 *769:ZN *715:I 7.13693
*END

*D_NET *233 0.00120659

*CONN
*I *719:I I *C 193.1 139.6 *L 0.00105 *D DEL1
*I *770:ZN O *C 187.1 141.2 *L 0 *D ND4D1

*CAP
1 *719:I 0.000361007
2 *233:2 0.000845583047

*RES
1 *719:I *233:2 14.0702
2 *770:ZN *233:2 1.50007
*END

*D_NET *234 0.0173622

*CONN
*I *768:A1 I *C 212.5 141.8 *L 0.000996 *D ND4D1
*I *759:Z O *C 64.5 142.8 *L 0 *D CKBD1

*CAP
1 *234:2 0.000652182
2 *234:3 0.000311339
3 *234:4 7.96566e-05
4 *234:5 0.00331658
5 *234:6 0.000238565
6 *234:7 0.000503902
7 *234:8 0.000375611
8 *234:9 0.000390085
9 *234:10 3.58809e-05
10 *234:11 0.000591605
11 *234:12 0.0030142
12 *234:12 *132:4 0.00163391
13 *234:2 *16:2 0.000267221992
14 *234:3 *376:9 0.000790973984
15 *234:2 *481:13 0.00170472
16 *234:4 *86:3 0.000566102969
17 *234:5 *320:2 0.00288967

*RES
1 *234:10 *234:4 4.33455
2 *234:9 *234:5 65.6807022
3 *234:3 *234:7 4.77051
4 *234:4 *234:11 0.132291
5 *234:5 *234:10 0.132291
6 *234:6 *234:7 8.3524
7 *768:A1 *234:8 4.94189
8 *234:11 *234:12 58.3786
9 *234:2 *234:12 17.716
10 *234:6 *234:2 4.18823
11 *759:Z *234:3 1.50031
12 *234:8 *234:9 1.50031
*END

*D_NET *235 0.0172487

*CONN
*I *771:A2 I *C 218.9 141.8 *L 0.00103 *D ND4D1
*I *760:Z O *C 74.9 142 *L 0 *D CKBD1

*CAP
1 *760:Z 0.000474966
2 *771:A2 0.00061819
3 *235:2 0.00282715
4 *235:3 0.000147278
5 *235:4 0.000260779
6 *235:5 0.000115614
7 *235:6 0.000752914
8 *235:7 7.15254e-05
9 *235:8 4.01198e-06
10 *235:9 0.00208899
11 *235:10 1.47106e-05
12 *235:11 0.00090222
13 *235:12 4.31395e-05
14 *235:3 *512:4 0.000741388047
15 *235:2 *243:4 0.00287363
16 *235:3 *237:4 0.000647598047
17 *235:3 *201:7 0.00124978992
18 *235:3 *411:6 0.00105142
19 *235:4 *746:I 0.00236333984

*RES
1 *235:8 *235:4 0.132471
2 *771:A2 *235:5 5.5525
3 *235:2 *235:7 0.132471
4 *760:Z *235:6 8.18407
5 *235:5 *235:3 2.17309
6 *235:3 *235:2 61.571701
7 *235:4 *235:9 54.096
8 *235:11 *235:12 0.132471
9 *235:10 *235:11 11.9891
10 *235:6 *235:12 6.58126
11 *235:7 *235:8 9.96632
12 *235:9 *235:10 0.132471
*END

*D_NET *236 0.0146365

*CONN
*I *770:A1 I *C 186.9 141.8 *L 0.000996 *D ND4D1
*I *761:Z O *C 61.9 142.8 *L 0 *D CKBD0

*CAP
1 *761:Z 0.00082831
2 *236:2 0.00723874
3 *236:3 0.000113659
4 *236:4 0.000531846
5 *236:5 0.000362959
6 *236:6 0.000211413
7 *236:7 0.000382951
8 *236:8 2.69513e-05
9 *236:9 5.88731e-05
10 *236:10 0.000566529
11 *236:11 0.000394218
12 *236:12 0.00100106
13 *236:5 *484:9 0.00167674
14 *236:2 *243:15 0.000494898008
15 *236:3 *586:I 0.000747311016

*RES
1 *236:10 *236:11 3.62756
2 *236:2 *236:8 24.9881
3 *236:3 *236:12 8.04288
4 *236:7 *236:11 5.41581
5 *236:5 *236:2 79.6701965
6 *236:9 *236:10 5.64558
7 *236:6 *236:7 1.77853
8 *236:4 *236:5 5.40609
9 *236:8 *236:9 0.909322
10 *236:4 *236:12 4.44814
11 *761:Z *236:6 6.58772
12 *770:A1 *236:3 1.50014
*END

*D_NET *237 0.0154476

*CONN
*I *773:A2 I *C 215.1 141.8 *L 0.00103 *D ND4D1
*I *762:Z O *C 104.5 142 *L 0 *D CKBD1

*CAP
1 *762:Z 0.000913641
2 *773:A2 0.00073893
3 *237:2 0.000338736
4 *237:3 3.26689e-06
5 *237:4 0.00446033
6 *237:5 0.00014279
7 *237:6 5.59455e-05
8 *237:7 5.95527e-05
9 *237:4 *287:2 0.00153918
10 *237:3 *31:2 0.00201779016
11 *762:Z *140:2 0.000432500977
12 *237:4 *201:7 0.00109612
13 *237:4 *235:3 0.000647598047
14 *237:4 *241:2 0.00250713984
15 *237:2 *510:2 0.000494116016

*RES
1 *237:7 *237:8 0.131741
2 *237:6 *237:7 9.77256
3 *237:2 *237:3 3.14334
4 *773:A2 *237:2 5.79266
5 *237:5 *237:6 0.131741
6 *237:4 *237:8 86.3378983
7 *762:Z *237:4 7.90711
8 *237:3 *237:5 20.3198
*END

*D_NET *238 0.0160864

*CONN
*I *774:A2 I *C 205.7 141.8 *L 0.00103 *D ND4D1
*I *763:Z O *C 58.9 142.8 *L 0 *D CKBD1

*CAP
1 *774:A2 0.000182333
2 *238:2 0.000408617
3 *238:3 0.000138688
4 *238:4 0.000277117
5 *238:5 0.000162513
6 *238:6 0.000971617
7 *238:7 8.64178e-05
8 *238:8 0.00121409
9 *238:9 1.09112e-05
10 *238:10 5.39905e-05
11 *238:11 4.619e-06
12 *238:12 0.00026597
13 *238:13 5.41319e-05
14 *238:14 0.000457611
15 *238:15 0.000304241
16 *238:16 0.00154442
17 *238:17 0.000305938
18 *238:18 0.000155821
19 *238:19 0.000104682
20 *238:20 0.000615576
21 *238:21 0.000295687
22 *238:22 3.82953e-05
23 *238:23 0.000373668
24 *238:24 8.62528e-06
25 *238:25 0.000962779
26 *774:A2 *48:3 0.000849497031
27 *238:17 *208:2 0.000734222031
28 *238:10 *86:3 0.00114851
29 *238:5 *392:2 0.00141705
30 *238:10 *479:9 0.000255666992
31 *238:10 *481:9 0.00226651
32 *238:2 *16:4 0.000416531992

*RES
1 *238:24 *238:25 18.9968
2 *238:18 *238:19 0.132138
3 *238:13 *238:14 3.94758
4 *238:20 *238:21 3.43559
5 *238:19 *238:20 9.00035
6 *238:14 *238:15 3.16404
7 *238:2 *238:25 6.52165
8 *774:A2 *238:4 8.07175
9 *238:10 *238:11 0.132138
10 *238:22 *238:23 6.2804
11 *238:16 *238:17 3.16404
12 *238:21 *238:22 0.779898
13 *238:17 *238:18 7.63856
14 *238:23 *238:24 0.132138
15 *238:15 *238:16 26.4825993
16 *238:9 *238:10 4.3347
17 *238:3 *238:2 2.99998
18 *238:11 *238:12 5.88924
19 *238:7 *238:8 24.4549
20 *238:4 *238:5 2.33
21 *238:8 *238:9 0.132138
22 *238:5 *238:6 18.6287
23 *238:12 *238:13 0.132138
24 *238:6 *238:7 1.87984
25 *763:Z *238:3 1.49999
*END

*D_NET *239 0.0197512

*CONN
*I *769:A1 I *C 195.1 143 *L 0.000996 *D ND4D1
*I *764:Z O *C 53.3 142.8 *L 0 *D CKBD1

*CAP
1 *764:Z 8.67384e-05
2 *239:2 0.00647426
3 *239:3 0.000241741
4 *239:4 0.000474987
5 *239:5 3.17119e-05
6 *239:6 4.3468e-06
7 *239:7 0.000659133
8 *239:8 2.94397e-05
9 *239:9 0.000563009
10 *239:11 0.00157492
11 *239:12 0.000494942
12 *239:13 0.000602822
13 *239:14 0.00038321
14 *239:9 *373:3 0.00118045
15 *239:2 *243:4 0.000656507031
16 *239:2 *379:2 0.00133389
17 *239:2 *624:I 0.00131924
18 *239:3 *44:3 0.000747600938
19 *239:4 *411:6 0.000944852031
20 *239:5 *502:6 0.00194723

*RES
1 *239:5 *239:4 6.80371
2 *239:12 *239:14 4.25764
3 *239:8 *239:9 12.4621
4 *239:6 *239:7 9.07593
5 *239:5 *239:13 5.47701
6 *239:3 *239:2 121.264
7 *239:7 *239:3 3.66553
8 *764:Z *239:14 2.9994
9 *239:9 *239:10 0.170231
10 *239:11 *239:12 4.79979
11 *239:2 *239:8 0.170231
12 *239:4 *239:6 0.0481089
13 *239:10 *239:11 30.9747
14 *769:A1 *239:13 1.50063
*END

*D_NET *240 0.0185558

*CONN
*I *775:A1 I *C 209.9 141.8 *L 0.000996 *D ND4D1
*I *765:Z O *C 60.1 142 *L 0 *D CKBD1

*CAP
1 *765:Z 0.000245255
2 *775:A1 0.000174999
3 *240:2 0.00933922
4 *240:3 5.01626e-05
5 *240:4 7.7809e-05
6 *240:5 0.0010584
7 *240:6 7.33913e-05
8 *240:7 0.0011573
9 *240:2 *20:2 0.000982901953
10 *240:2 *24:2 0.00216042
11 *240:3 *494:2 0.00153098
12 *240:3 *142:2 0.00170469

*RES
1 *240:4 *240:7 9.27203
2 *240:3 *240:2 121.408997
3 *775:A1 *240:5 2.31384
4 *765:Z *240:7 2.89369
5 *240:5 *240:6 7.84001
6 *240:2 *240:4 56.6715
7 *240:3 *240:6 14.5185
*END

*D_NET *241 0.0183025

*CONN
*I *772:A1 I *C 199.9 143 *L 0.000996 *D ND4D1
*I *766:Z O *C 57.5 142.8 *L 0 *D BUFFD2

*CAP
1 *766:Z 0.000860817
2 *772:A1 0.000876179
3 *241:2 0.000393836
4 *241:3 0.000253187
5 *241:4 4.09061e-05
6 *241:5 7.98403e-05
7 *241:7 4.5492e-05
8 *241:8 0.00300536
9 *241:9 7.75015e-06
10 *241:10 0.000403466
11 *241:11 5.23708e-05
12 *241:12 0.000673758
13 *241:13 0.00071792
14 *241:8 *287:3 0.00069865
15 *241:4 *31:2 0.00101898
16 *772:A1 *141:2 0.000368497031
17 *766:Z *364:3 0.000861002969
18 *241:8 *370:3 0.000307496992
19 *241:2 *398:4 0.000842631016
20 *241:2 *484:12 0.00318053
21 *241:2 *237:4 0.00250713984
22 *241:2 *9:3 0.000617627031
23 *241:3 *491:3 0.000489035977

*RES
1 *241:7 *241:8 64.0811005
2 *766:Z *241:5 6.98736
3 *241:6 *241:2 32.9303
4 *241:3 *241:6 0.132003
5 *241:2 *241:7 0.132003
6 *772:A1 *241:4 7.95245
7 *241:10 *241:11 0.132003
8 *241:8 *241:9 0.132003
9 *241:4 *241:3 13.2071
10 *241:9 *241:10 11.5214
11 *241:11 *241:12 7.11838
12 *241:12 *241:13 3.53768
13 *241:5 *241:13 15.634
*END

*D_NET *242 0.00130312

*CONN
*I *748:I I *C 9.5 145.4 *L 0.000942 *D CKND1
*P *242 I *C 10 153 *L 0.5

*CAP
1 *748:I 6.14804e-05
2 *242 0.000107196
3 *242:2 0.00103523008
4 *242:3 9.92026e-05

*RES
1 *242:2 *242:3 8.26727009
2 *748:I *242:2 3.54048
3 *242 *242:3 0.353342
*END

*D_NET *243 0.021967

*CONN
*I *654:I I *C 166.3 145.2 *L 0.00105 *D DEL1
*I *711:I I *C 175.5 141.6 *L 0.00105 *D DEL1
*P *243 I *C 15 153 *L 0.5

*CAP
1 *711:I 0.000602864
2 *243 0.000328961
3 *243:3 6.61487e-05
4 *243:4 0.000187949
5 *243:5 6.97136e-05
6 *243:6 0.000600289
7 *243:7 0.000249741
8 *243:8 0.000155865
9 *243:9 3.75635e-05
10 *243:10 0.000204784
11 *243:11 3.69033e-05
12 *243:12 5.41336e-05
13 *243:13 0.000144444
14 *243:14 0.000834648
15 *243:15 0.000214554
16 *243:16 0.000927138
17 *243:17 0.000418809
18 *243:18 0.000103712
19 *243:19 0.00432639969
20 *243:17 *275:2 0.00490443
21 *243 *276:2 0.00113355992
22 *243:4 *239:2 0.000656507031
23 *243:4 *235:2 0.00287363
24 *243:15 *236:2 0.000494898008
25 *243:4 *411:2 0.00233944016

*RES
1 *243:8 *243:9 1.8957
2 *243:18 *243:19 5.16151
3 *243:13 *243:14 11.9094
4 *243:6 *243:7 9.50315
5 *243:7 *243:8 6.66575
6 *243:15 *243:17 4.02409
7 *243:4 *243:6 19.9808
8 *243:11 *243:12 11.8122
9 *243:9 *243:10 8.04955
10 *243:10 *243:11 1.8957
11 *243:17 *243:19 89.7015991
12 *711:I *243:3 6.79852
13 *243:3 *243:16 11.5809
14 *243:14 *243:15 3.07692
15 *243:12 *243:13 0.132768
16 *243 *243:18 2.30222
17 *243:4 *243:5 2.13523
18 *654:I *243:5 3.00027
19 *243:5 *243:16 1.50014
*END

*D_NET *244 0.0158288

*CONN
*I *567:I I *C 9.1 139.6 *L 0.000643 *D CKBD0
*I *652:I I *C 11.3 141.6 *L 0.00072 *D BUFFD1
*P *244 I *C 0 5 *L 0.5

*CAP
1 *244 7.35043e-05
2 *244:3 0.000495274
3 *244:4 0.000772298
4 *244:5 0.000151966
5 *244:6 0.000366012
6 *244:7 0.000402298
7 *244:8 0.000195401
8 *244:10 0.000310759
9 *244:11 0.00037503
10 *244:13 0.000176432
11 *244:14 0.000368491
12 *244:16 2.72677e-05
13 *244:17 0.00087562
14 *244:18 2.19148e-05
15 *244:19 1.47296e-06
16 *244:20 0.000269336
17 *244:21 0.000396837
18 *244:23 0.000140686
19 *244:24 0.00235439984
20 *244:25 0.000327392
21 *244:26 9.69998e-07
22 *244:27 1.61666e-06
23 *244:28 0.000632906
24 *244:29 0.00039716
25 *244:30 1.65977e-05
26 *244:31 0.000134255
27 *244:32 0.00016454
28 *244:33 0.000243865
29 *244:34 1.04185e-06
30 *244:35 0.000119885
31 *244:36 0.000768849
32 *244:37 0.000217567
33 *244:23 *252:3 0.00106595
34 *244:4 *295:2 0.000680504063
35 *244:6 *303:3 0.000511964023
36 *244:4 *310:2 0.00101651
37 *244:4 *312:3 0.000515033008
38 *244:3 *307 0.000390191992
39 *244:4 *311:5 0.000847061953

*RES
1 *244:4 *244:8 5.27152
2 *244:9 *244:11 4.4178
3 *244:21 *244:23 0.450678
4 *244:31 *244:32 2.52401
5 *244:22 *244:25 3.83522
6 *244:31 *244:33 4.60885
7 *244:27 *244:28 9.146
8 *244:12 *244:13 0.256484
9 *244:30 *244:36 9.84007
10 *244:26 *244:29 4.98573
11 *244:12 *244:14 4.41571
12 *244 *244:36 0.399905
13 *244:29 *244:30 0.450678
14 *244:11 *244:13 2.7203
15 *244:6 *244:7 1.55356
16 *244:5 *244:37 4.03831
17 *244:15 *244:17 0.256484
18 *244:15 *244:3 11.3931
19 *244:10 *244:34 3.9755
20 *244:25 *244:27 0.256484
21 *244:33 *244:35 2.33034
22 *244:16 *244:17 12.955
23 *244:3 *244:19 0.256484
24 *244:4 *244:7 8.11483
25 *244:26 *244:28 0.450678
26 *244:6 *244:37 5.18882
27 *244:18 *244:21 5.17992
28 *567:I *244:7 4.94176
29 *244:8 *244:32 3.75827
30 *244:34 *244:35 0.256484
31 *244:18 *244:20 0.450678
32 *244:23 *244:24 34.3039017
33 *244:14 *244:16 0.256484
34 *244:22 *244:24 0.256484
35 *244:9 *244:10 0.256484
36 *244:19 *244:20 5.65573
37 *652:I *244:5 1.50017
*END

*D_NET *245 0.0221153

*CONN
*P *245 I *C 0 37.4 *L 0.5
*I *824:B1 I *C 176.1 139.4 *L 0.000863 *D AO22D0

*CAP
1 *245 0.000121984
2 *245:2 0.0109811
3 *245:3 0.000154491
4 *245:4 0.000207943
5 *245:5 0.000379525
6 *245:7 0.000415048
7 *245:8 0.00191304
8 *245:9 0.00111947
9 *245:10 0.000434485
10 *245:11 0.000455933
11 *245:12 0.00234049
12 *245:13 7.60726e-05
13 *245:14 0.000116622
14 *245:12 *248:2 0.00117195
15 *245:2 *247:8 0.00200421
16 *245:3 *85:16 0.00022307

*RES
1 *245:3 *245:14 3.89783
2 *824:B1 *245:4 3.00047
3 *245:7 *245:8 25.5982
4 *245:7 *245:2 95.7810974
5 *245:9 *245:13 5.04073
6 *245:2 *245:12 65.9167
7 *245:6 *245:9 9.47347
8 *245:10 *245:11 3.94606
9 *245:11 *245:3 4.85804
10 *245:6 *245:8 0.255763
11 *245:5 *245:10 4.96473
12 *245:12 *245:14 57.4488
13 *245 *245:13 2.24487
14 *245:4 *245:5 3.44184
*END

*D_NET *246 0.0220338

*CONN
*P *246 I *C 0 33.8 *L 0.5
*I *823:B1 I *C 174.5 139.4 *L 0.000863 *D AO22D0

*CAP
1 *246 0.000478018
2 *246:2 0.00899682063
3 *246:4 0.000429146
4 *246:5 0.000605142
5 *246:6 0.00417765
6 *246:7 0.00118393
7 *246:8 0.000245873
8 *246:9 0.00288266
9 *246:8 *326:2 0.00166363
10 *246:2 *325:9 0.00137069

*RES
1 *246:8 *246:9 56.2896
2 *246:2 *246:9 64.8925
3 *246:3 *246:4 4.29483
4 *246 *246:6 6.26913
5 *246:5 *246:6 44.9816
6 *246:4 *246:7 11.1371
7 *246:5 *246:2 96.5578995
8 *823:B1 *246:3 1.49988
9 *246:7 *246:8 1.49988
*END

*D_NET *247 0.0208362

*CONN
*P *247 I *C 0 30.2 *L 0.5
*I *829:B1 I *C 172.3 139.4 *L 0.000863 *D AO22D0

*CAP
1 *247 8.02937e-05
2 *247:2 0.000365252
3 *247:3 5.67142e-05
4 *247:4 0.0100999
5 *247:5 0.000396845
6 *247:6 0.000257988
7 *247:7 6.16458e-06
8 *247:8 0.00479235
9 *247:9 0.000100329
10 *247:10 4.74673e-05
11 *247:8 *245:2 0.00200421
12 *247:5 *323:2 0.00240089984
13 *247:5 *85:2 0.000227947988

*RES
1 *247:9 *247:10 3.89893
2 *247:6 *247:8 69.5885
3 *247:5 *247:10 3.13096
4 *247:3 *247:5 7.60144
5 *247:8 *247:9 31.7556
6 *829:B1 *247:2 4.74813
7 *247:4 *247:7 96.788002
8 *247:4 *247:6 65.3337
9 *247 *247:7 1.5005
10 *247:2 *247:3 1.5005
*END

*D_NET *248 0.0200605

*CONN
*P *248 I *C 0 26.6 *L 0.5
*I *822:B1 I *C 170.7 139.4 *L 0.000863 *D AO22D0

*CAP
1 *248 0.00048431
2 *248:2 6.66526e-05
3 *248:3 0.000239278
4 *248:4 6.39353e-05
5 *248:5 0.000248069
6 *248:6 5.97795e-05
7 *248:7 0.0104750006
8 *248:8 0.000285631
9 *248:9 0.00497992
10 *248:2 *324:6 0.00198607
11 *248:2 *245:12 0.00117195

*RES
1 *248:2 *248:9 39.8987
2 *248:8 *248:9 66.6622
3 *248:6 *248:2 4.18571
4 *248:4 *248:7 97.8996964
5 *822:B1 *248:3 3.1968
6 *248:7 *248:8 66.8878
7 *248:4 *248:5 2.5171
8 *248 *248:5 4.74739
9 *248:3 *248:6 1.49981
*END

*D_NET *249 0.0183943

*CONN
*P *249 I *C 0 23 *L 0.5
*I *827:B1 I *C 166.3 139.4 *L 0.000863 *D AO22D0

*CAP
1 *249 6.78975e-05
2 *249:2 0.000397417
3 *249:3 8.27772e-05
4 *249:4 0.000176822
5 *249:5 0.00946737
6 *249:7 0.0062876
7 *249:2 *251:15 0.000650592031
8 *249:3 *87:19 0.000597872031
9 *249:4 *471:20 0.000221402012
10 *249:3 *393:7 0.000444586016

*RES
1 *249:2 *249:7 40.8743
2 *249:3 *249:2 17.8126
3 *249 *249:5 98.288002
4 *249:6 *249:7 76.6105
5 *827:B1 *249:4 3.76289
6 *249:5 *249:6 48.6371
7 *249:4 *249:3 1.49976
*END

*D_NET *250 0.0211707

*CONN
*P *250 I *C 0 19.4 *L 0.5
*I *830:B1 I *C 167.9 139.4 *L 0.000863 *D AO22D0

*CAP
1 *250 0.000299088
2 *250:2 0.000400055
3 *250:3 0.000202958
4 *250:4 7.57613e-05
5 *250:5 0.00960351
6 *250:6 9.17341e-05
7 *250:7 0.000587626
8 *250:8 1.52402e-05
9 *250:9 5.07029e-05
10 *250:11 0.000738416
11 *250:12 0.00470731
12 *250:2 *327:2 0.00112252
13 *250 *252:6 0.000669845
14 *250:2 *253:3 0.00260619

*RES
1 *830:B1 *250:3 3.64585
2 *250:5 *250:10 55.2384
3 *250:9 *250:12 39.3147
4 *250:4 *250:11 18.0625
5 *250:8 *250:2 5.11158
6 *250:6 *250:7 5.23261
7 *250:7 *250:8 0.131369
8 *250:2 *250:9 0.745407
9 *250:10 *250:12 63.736
10 *250 *250:11 3.22813
11 *250:4 *250:5 96.7347031
12 *250:3 *250:6 3.74623
*END

*D_NET *251 0.0212971

*CONN
*P *251 I *C 0 15.8 *L 0.5
*I *825:B1 I *C 164.3 139.4 *L 0.000863 *D AO22D0

*CAP
1 *825:B1 0.000232032
2 *251 0.000164197
3 *251:2 0.000143996
4 *251:3 0.000588542
5 *251:4 0.00020801
6 *251:5 0.000346819
7 *251:6 5.88269e-05
8 *251:7 1.06462e-05
9 *251:8 0.000742639
10 *251:9 0.000269703
11 *251:10 0.0014547
12 *251:11 0.000437039
13 *251:12 0.000506648
14 *251:13 0.00894483
15 *251:14 0.000157918
16 *251:15 0.00411747
17 *251:15 *249:2 0.000650592031
18 *251 *252 0.00129681
19 *251:7 *315:2 0.000965642969

*RES
1 *251:13 *251:15 47.4188
2 *251:10 *251:11 6.50541
3 *251:7 *251:8 10.2687
4 *251:7 *251:13 96.1521988
5 *251:2 *251:3 5.69407
6 *825:B1 *251:2 5.10427
7 *251:4 *251:5 3.94668
8 *251:5 *251:6 0.132045
9 *251:6 *251:12 5.80411
10 *251:3 *251:4 2.4619
11 *251 *251:11 2.47804
12 *251:14 *251:15 89.8786
13 *251:9 *251:10 15.3069
14 *251:8 *251:9 2.97395
15 *251:12 *251:14 1.49944
*END

*D_NET *252 0.0225734

*CONN
*P *252 I *C 0 12.2 *L 0.5
*I *828:B1 I *C 161.7 139.4 *L 0.000863 *D AO22D0

*CAP
1 *252 0.000215185
2 *252:2 0.00025965
3 *252:3 0.00167769
4 *252:4 0.000210469
5 *252:5 0.00053264
6 *252:6 0.000267061
7 *252:7 0.00883040063
8 *252:8 0.000281209
9 *252:9 0.000934579
10 *252:10 0.000135282
11 *252:11 6.73716e-07
12 *252:12 0.0057274
13 *252:6 *250 0.000669845
14 *252 *251 0.00129681
15 *252:2 *315:2 0.000468679023
16 *252:3 *244:23 0.00106595

*RES
1 *252:9 *252:10 0.745569
2 *828:B1 *252:4 3.00006
3 *252:7 *252:12 45.8651
4 *252:2 *252:3 29.3173
5 *252:3 *252:11 2.27673
6 *252:5 *252:8 2.2456
7 *252:2 *252:7 97.1404037
8 *252:10 *252:12 82.856
9 *252:6 *252:11 7.06438
10 *252:8 *252:9 13.8516
11 *252 *252:6 3.73526
12 *252:4 *252:5 6.35438
*END

*D_NET *253 0.0199177

*CONN
*P *253 I *C 0 8.6 *L 0.5
*I *826:B1 I *C 158.3 139.4 *L 0.000863 *D AO22D0

*CAP
1 *253 6.78203e-05
2 *253:2 0.000213619
3 *253:3 6.8866e-05
4 *253:4 0.00978988
5 *253:5 0.000423952
6 *253:6 6.96129e-05
7 *253:7 0.00667791
8 *253:3 *250:2 0.00260619

*RES
1 *253:5 *253:7 40.0945
2 *253:3 *253:5 5.05868
3 *253 *253:4 98.288002
4 *253:6 *253:7 90.6572
5 *826:B1 *253:2 2.99951
6 *253:4 *253:6 54.4621
7 *253:2 *253:3 1.49976
*END

*D_NET *254 0.0197334

*CONN
*P *254 I *C 0 267.8 *L 0.5
*I *876:A2 I *C 10.7 141.6 *L 0.000585 *D CKAN2D0

*CAP
1 *876:A2 0.00106643
2 *254 0.000137623
3 *254:2 0.00559154
4 *254:3 3.72001e-05
5 *254:4 0.000285144
6 *254:5 8.45535e-05
7 *254:6 0.000141634
8 *254:7 0.0001459
9 *876:A2 *256:3 2.0446e-05
10 *876:A2 *256:4 2.0446e-05
11 *254:4 *256:3 1.1468e-05
12 *254:4 *256:5 2.1287e-05
13 *254:5 *256:6 0.000903887
14 *254:2 *256 1.1607e-05
15 *254:2 *256:5 0.00107917
16 *254:2 *256:6 0.00465413
17 *254:2 *256:7 0.00158468
18 *254:7 *256:6 0.000939511958
19 *254:3 *263:3 0.000706402031
20 *254:6 *279:3 0.000845616016
21 *254:2 *274 0.000706145
22 *254:3 *266:2 0.000738522031

*RES
1 *254:2 *254:7 83.9674988
2 *254:4 *254:5 4.48563
3 *254:3 *254:6 16.0296
4 *876:A2 *254:3 11.7375
5 *254 *254:7 1.75915
6 *254:5 *254:2 62.9705
7 *254:4 *254:6 1.50033
*END

*D_NET *255 0.0221385

*CONN
*P *255 I *C 0 264.2 *L 0.5
*I *863:A2 I *C 13.7 143.2 *L 0.000585 *D CKAN2D0

*CAP
1 *255 0.000104683
2 *255:2 0.0020309
3 *255:3 0.00163287
4 *255:4 0.000610494
5 *255:5 9.42082e-05
6 *255:6 0.000204035
7 *255:7 3.33757e-05
8 *255:8 7.57385e-05
9 *255:3 *256:3 0.000697792969
10 *255:2 *257 4.21e-07
11 *255:2 *257:3 0.000925675
12 *255:2 *257:4 0.00119302
13 *255:2 *257:5 0.00425507
14 *255:4 *257:6 5.893e-06
15 *255:4 *257:7 2.7299e-05
16 *255:4 *257:5 0.000971307
17 *255:5 *257:5 0.00116499031
18 *255:2 *259 1.6409e-05
19 *255:3 *259:5 3.7351e-05
20 *255:2 *259:5 0.000838319
21 *255:2 *259:6 0.00451422
22 *255:4 *259:6 0.000982228
23 *255:5 *259:6 0.000815925
24 *255:2 *259:7 0.000906323146

*RES
1 *255:2 *255:5 102.289001
2 *255:6 *255:3 11.3408
3 *255:2 *255:4 82.2639
4 *255:7 *255:3 9.85181
5 *255 *255:5 1.17685
6 *255:8 *255:4 10.9256
7 *863:A2 *255:7 2.99987
8 *255:6 *255:8 1.49993
*END

*D_NET *256 0.0238992

*CONN
*P *256 I *C 0 260.6 *L 0.5
*I *882:A2 I *C 17.3 141.6 *L 0.000585 *D CKAN2D0

*CAP
1 *256 0.000170532
2 *256:2 0.000842778
3 *256:3 0.0012448
4 *256:4 7.7084e-06
5 *256:5 0.000136189
6 *256:6 0.00141109
7 *256:8 8.79361e-05
8 *256:9 0.00014941
9 *256:3 *257:7 4.3463e-05
10 *256:8 *257:7 7.949e-06
11 *256:5 *257:6 2.657e-06
12 *256:5 *257:3 2.4009e-05
13 *256:5 *257:7 1.585e-06
14 *256:5 *257:5 0.00091299
15 *256:6 *257:3 0.00100738
16 *256:6 *257:4 0.00112607
17 *256:6 *257:5 0.00425439
18 *256:7 *257:5 0.00114035965
19 *256:2 *260:3 0.000494898008
20 *256:3 *876:A2 2.0446e-05
21 *256:4 *876:A2 2.0446e-05
22 *256:3 *254:4 1.1468e-05
23 *256:5 *254:4 2.1287e-05
24 *256:6 *254:5 0.000903887
25 *256 *254:2 1.1607e-05
26 *256:5 *254:2 0.00107917
27 *256:6 *254:2 0.00465413
28 *256:7 *254:2 0.00158468
29 *256:6 *254:7 0.000939511958
30 *256:2 *262:3 0.000470070977
31 *256:3 *255:3 0.000697792969
32 *256:3 *279:3 0.000418478008

*RES
1 *256:6 *256:7 103.216003
2 *256 *256:7 7.9409
3 *256:5 *256:6 83.9197
4 *256:2 *256:4 7.90783
5 *256:2 *256:8 1.7545
6 *882:A2 *256:9 4.69493
7 *256:8 *256:9 4.16417
8 *256:3 *256:4 16.4551
9 *256:3 *256:5 5.5643
*END

*D_NET *257 0.0225907

*CONN
*P *257 I *C 0 257 *L 0.5
*I *885:A2 I *C 21.3 141.6 *L 0.000585 *D CKAN2D0

*CAP
1 *257 0.000181353
2 *257:2 1.29389e-05
3 *257:3 6.62598e-05
4 *257:4 0.00022304
5 *257:5 0.00341916
6 *257:6 0.000132624
7 *257:7 0.00105316
8 *257:2 *208:3 0.000437606016
9 *257 *255:2 4.21e-07
10 *257:3 *255:2 0.000925675
11 *257:4 *255:2 0.00119302
12 *257:5 *255:2 0.00425507
13 *257:6 *255:4 5.893e-06
14 *257:7 *255:4 2.7299e-05
15 *257:5 *255:4 0.000971307
16 *257:5 *255:5 0.00116499031
17 *257:7 *256:3 4.3463e-05
18 *257:7 *256:8 7.949e-06
19 *257:6 *256:5 2.657e-06
20 *257:3 *256:5 2.4009e-05
21 *257:7 *256:5 1.585e-06
22 *257:5 *256:5 0.00091299
23 *257:3 *256:6 0.00100738
24 *257:4 *256:6 0.00112607
25 *257:5 *256:6 0.00425439
26 *257:5 *256:7 0.00114035965

*RES
1 *257:6 *257:7 13.3863
2 *257:6 *257:3 2.42766
3 *257:2 *257:7 19.9701
4 *885:A2 *257:2 3.19348
5 *257:4 *257:5 101.596001
6 *257:3 *257:5 84.9899
7 *257 *257:4 4.55303
*END

*D_NET *258 0.0161425

*CONN
*P *258 I *C 0 253.4 *L 0.5
*I *888:A2 I *C 26.3 141.6 *L 0.000585 *D CKAN2D0

*CAP
1 *258 0.000365451
2 *258:2 5.20503e-05
3 *258:3 0.00112283
4 *258:4 0.00139187
5 *258:5 0.00654725
6 *258:6 1.53853e-05
7 *258:4 *260:2 0.0016789
8 *258:4 *261:2 0.00174011
9 *258:3 *271:2 0.000960291953
10 *258:2 *281:2 0.0018882
11 *258:2 *19:2 0.000380266016

*RES
1 *258:5 *258:7 51.8092003
2 *258:2 *258:4 14.4243
3 *258:2 *258:3 33.8828
4 *258 *258:7 7.8849
5 *258:5 *258:6 45.9845
6 *258:3 *258:6 1.73129
7 *888:A2 *258:4 3.00012
*END

*D_NET *259 0.0217581

*CONN
*P *259 I *C 0 249.8 *L 0.5
*I *890:A2 I *C 29.5 141.6 *L 0.000585 *D CKAN2D0

*CAP
1 *890:A2 0.000730891
2 *259 9.68055e-05
3 *259:2 0.000275867
4 *259:3 3.94233e-05
5 *259:4 6.24242e-07
6 *259:5 0.000588756
7 *259:6 0.0031469
8 *259:7 0.00012456
9 *259 *255:2 1.6409e-05
10 *259:5 *255:3 3.7351e-05
11 *259:5 *255:2 0.000838319
12 *259:6 *255:2 0.00451422
13 *259:6 *255:4 0.000982228
14 *259:6 *255:5 0.000815925
15 *259:7 *255:2 0.000906323146
16 *259:5 *263:3 0.000925756
17 *259:6 *263 1.6423e-05
18 *259:6 *263:3 0.00377426
19 *259:6 *263:4 0.00177596
20 *259:7 *263:3 0.000454905104
21 *259:2 *267:2 0.000782867031
22 *259:2 *283:2 0.000511812969
23 *890:A2 *377:3 0.000401521992

*RES
1 *259:3 *259:2 6.80098
2 *259 *259:7 0.982703
3 *259:6 *259:7 79.5322
4 *259:4 *259:5 23.1436
5 *259:2 *259:4 0.328496
6 *890:A2 *259:3 8.53254
7 *259:5 *259:6 91.2216034
*END

*D_NET *260 0.015333

*CONN
*P *260 I *C 0 246.2 *L 0.5
*I *893:A2 I *C 33.7 141.6 *L 0.000585 *D CKAN2D0

*CAP
1 *893:A2 0.000933653
2 *260 2.08362e-05
3 *260:2 0.000128409
4 *260:3 0.00635115
5 *260:5 0.000375438
6 *260:3 *256:2 0.000494898008
7 *893:A2 *264:2 0.000646053008
8 *260:2 *258:4 0.0016789
9 *893:A2 *267:5 0.00171215
10 *893:A2 *261:2 0.00299157

*RES
1 *260:2 *260:3 29.0069
2 *260:4 *260:5 8.2418
3 *260:3 *260:4 95.6668015
4 *893:A2 *260:2 10.3774
5 *260 *260:5 2.99981
*END

*D_NET *261 0.0169169

*CONN
*P *261 I *C 0 242.6 *L 0.5
*I *847:A2 I *C 36.9 141.6 *L 0.000585 *D CKAN2D0

*CAP
1 *847:A2 0.00120562
2 *261 2.22521e-05
3 *261:2 0.005046
4 *261:3 1.23195e-05
5 *261:5 0.000353108
6 *261:2 *893:A2 0.00299157
7 *261:2 *262:3 0.00076056
8 *261:3 *264:2 0.00118272992
9 *261:2 *271:2 0.00119341
10 *261:2 *258:4 0.00174011
11 *847:A2 *267:5 0.00240919

*RES
1 *261:3 *261:2 32.4924
2 *261:4 *261:5 7.85405
3 *261:2 *261:4 93.4160995
4 *847:A2 *261:3 10.0364
5 *261 *261:5 3.0005
*END

*D_NET *262 0.0152154

*CONN
*P *262 I *C 0 239 *L 0.5
*I *834:A2 I *C 41.9 141.6 *L 0.000585 *D CKAN2D0

*CAP
1 *834:A2 0.000611982
2 *262 2.22187e-05
3 *262:2 0.000664256
4 *262:3 0.00604192
5 *262:4 5.55929e-05
6 *262:5 8.15915e-05
7 *262:6 0.000308849
8 *262:3 *256:2 0.000470070977
9 *262:4 *263:3 0.00135736
10 *262:3 *271:2 0.000855223984
11 *262:3 *272:3 0.00092313
12 *262:4 *364:3 0.000728605
13 *262:2 *267:5 0.00101967
14 *262:3 *261:2 0.00076056
15 *262:3 *269 0.00088608
16 *262:2 *285:2 0.000428273008

*RES
1 *262:5 *262:6 7.07734
2 *262:4 *262:3 39.7329
3 *262:2 *262:4 4.94719
4 *834:A2 *262:2 5.17751
5 *262:3 *262:5 89.3164978
6 *262 *262:6 2.99966
*END

*D_NET *263 0.0222209

*CONN
*P *263 I *C 0 235.4 *L 0.5
*I *837:A2 I *C 46.1 143.2 *L 0.000585 *D CKAN2D0

*CAP
1 *837:A2 0.00101988
2 *263 6.70248e-05
3 *263:2 1.90725e-05
4 *263:3 0.00296188
5 *263:4 0.000122931
6 *837:A2 *264:2 1.7124e-05
7 *837:A2 *264:5 1.7124e-05
8 *263:3 *264 1.7794e-05
9 *263:3 *264:2 5.257e-06
10 *263:3 *264:6 1.049e-06
11 *263:3 *264:3 0.00330135
12 *263:3 *264:4 0.00161428
13 *263:4 *264:3 0.00164235002
14 *837:A2 *280:3 0.000681113984
15 *263:2 *266:3 0.00172164
16 *263:3 *259:5 0.000925756
17 *263 *259:6 1.6423e-05
18 *263:3 *259:6 0.00377426
19 *263:4 *259:6 0.00177596
20 *263:3 *259:7 0.000454905104
21 *263:3 *254:3 0.000706402031
22 *263:3 *262:4 0.00135736

*RES
1 *263:2 *263:3 47.8662
2 *263:3 *263:4 146.326996
3 *837:A2 *263:2 9.98943
4 *263 *263:4 0.788169
*END

*D_NET *264 0.0212901

*CONN
*P *264 I *C 0 231.8 *L 0.5
*I *840:A2 I *C 49.9 145.2 *L 0.000585 *D CKAN2D0

*CAP
1 *264 7.34429e-05
2 *264:2 0.00283456
3 *264:3 0.000673962
4 *264:4 0.00011955
5 *264:5 0.000181704
6 *264:6 9.76644e-05
7 *264:7 0.000511246
8 *264:2 *280:4 0.00135898
9 *264:2 *261:3 0.00118272992
10 *264:2 *893:A2 0.000646053008
11 *264:3 *266 1.7507e-05
12 *264:2 *266:2 9.766e-06
13 *264:3 *266:2 0.00318772
14 *264:4 *266:2 0.00153183
15 *264:3 *266:4 0.00157269998
16 *264:2 *278:2 0.00067432
17 *264:2 *837:A2 1.7124e-05
18 *264:5 *837:A2 1.7124e-05
19 *264 *263:3 1.7794e-05
20 *264:2 *263:3 5.257e-06
21 *264:6 *263:3 1.049e-06
22 *264:3 *263:3 0.00330135
23 *264:4 *263:3 0.00161428
24 *264:3 *263:4 0.00164235002

*RES
1 *264:7 *264:5 4.80105
2 *264:2 *264:6 6.19731
3 *264 *264:4 0.593667
4 *264:6 *264:3 1.92373
5 *264:2 *264:5 48.507
6 *264:3 *264:4 135.563004
7 *840:A2 *264:7 1.49968
*END

*D_NET *265 0.0117558

*CONN
*P *265 I *C 0 228.2 *L 0.5
*I *844:A2 I *C 54.7 145.2 *L 0.000585 *D CKAN2D0

*CAP
1 *844:A2 0.00108362
2 *265 2.22156e-05
3 *265:2 0.000837599
4 *265:3 0.000119648
5 *265:4 3.5334e-05
6 *265:5 0.00432017
7 *265:7 0.000959357
8 *265:3 *273:4 0.00240551
9 *265:3 *281:2 0.000480961992
10 *265:2 *268:3 0.000847915
11 *265:2 *277:8 0.000643368008

*RES
1 *265:3 *265:2 39.1619
2 *265:6 *265:7 18.1448
3 *265:4 *265:5 10.6884
4 *265:2 *265:4 0.326531
5 *844:A2 *265:3 8.87819
6 *265:5 *265:6 75.0859985
7 *265 *265:7 2.9995
*END

*D_NET *266 0.0203437

*CONN
*P *266 I *C 0 224.6 *L 0.5
*I *848:A2 I *C 59.1 145.2 *L 0.000585 *D CKAN2D0

*CAP
1 *848:A2 0.00095105
2 *266 4.32116e-05
3 *266:2 0.00430376
4 *266:3 0.000514008
5 *266:4 2.24595e-05
6 *266:2 *254:3 0.000738522031
7 *266:3 *263:2 0.00172164
8 *266 *264:3 1.7507e-05
9 *266:2 *264:2 9.766e-06
10 *266:2 *264:3 0.00318772
11 *266:2 *264:4 0.00153183
12 *266:4 *264:3 0.00157269998
13 *266:3 *270:2 0.00109541
14 *266:2 *278 0.00248504
15 *266:2 *281 0.00055619
16 *848:A2 *274:4 0.000947341953
17 *266:2 *276 0.000645601992

*RES
1 *266:3 *266:2 63.7217
2 *266:2 *266:4 108.697998
3 *848:A2 *266:3 7.38077
4 *266 *266:4 0.399723
*END

*D_NET *267 0.014791

*CONN
*P *267 I *C 0 221 *L 0.5
*I *851:A2 I *C 61.5 145.2 *L 0.000585 *D CKAN2D0

*CAP
1 *267 0.00032852
2 *267:2 0.00417968
3 *267:3 0.000149878
4 *267:4 0.000309896
5 *267:5 0.000810425
6 *267:6 0.0011575
7 *267:7 1.2054e-05
8 *267:2 *259:2 0.000782867031
9 *267:5 *893:A2 0.00171215
10 *267:5 *847:A2 0.00240919
11 *267:5 *262:2 0.00101967
12 *267:6 *269 0.000679123984
13 *267:2 *283:2 0.000549366992
14 *267:2 *542:Z 0.000690742031

*RES
1 *267:4 *267:5 4.02391
2 *267:2 *267:3 7.06994
3 *267 *267:7 7.30277
4 *267:6 *267:7 66.3423996
5 *267:2 *267:5 56.1981
6 *267:3 *267:6 5.89364
7 *851:A2 *267:4 1.50024
*END

*D_NET *268 0.0194889

*CONN
*P *268 I *C 0 217.4 *L 0.5
*I *853:A2 I *C 63.7 145.2 *L 0.000585 *D CKAN2D0

*CAP
1 *853:A2 0.00101554
2 *268 2.62367e-05
3 *268:2 0.000260558
4 *268:3 0.00370565
5 *268:4 0.000280292
6 *268:5 0.000312579
7 *268:3 *265:2 0.000847915
8 *268:2 *269:3 0.00247301
9 *268:3 *270:3 0.00491818
10 *268:2 *273:3 0.00136625
11 *268:3 *276 0.00177419
12 *268:2 *15:2 0.000365314023
13 *853:A2 *274:3 0.00214326

*RES
1 *268:2 *268:3 64.0306
2 *268:4 *268:5 6.10655
3 *268:3 *268:4 82.5151978
4 *853:A2 *268:2 8.29609
5 *268 *268:5 3.00039
*END

*D_NET *269 0.0157507

*CONN
*P *269 I *C 0 213.8 *L 0.5
*I *855:A2 I *C 68.1 145.2 *L 0.000585 *D CKAN2D0

*CAP
1 *269 0.000296908
2 *269:2 0.000452382
3 *269:3 0.000139864
4 *269:4 0.00205837984
5 *269:5 0.00139876
6 *269:6 7.51928e-05
7 *269:7 0.000283842
8 *269:8 0.00147483
9 *269 *262:3 0.00088608
10 *269:3 *270:2 0.0030892
11 *269:3 *273:4 0.000583878984
12 *269 *267:6 0.000679123984
13 *269:2 *274:3 0.00145183
14 *269:3 *282:3 0.000407420977
15 *269:3 *268:2 0.00247301

*RES
1 *269:2 *269:3 7.90757
2 *269:7 *269:8 11.0223
3 *269:3 *269:4 54.6265
4 *269 *269:6 6.33166
5 *269:5 *269:8 4.17924
6 *269:5 *269:6 59.2196007
7 *269:4 *269:7 3.05333
8 *855:A2 *269:2 1.50001
*END

*D_NET *270 0.0187573

*CONN
*P *270 I *C 0 210.2 *L 0.5
*I *858:A2 I *C 65.9 145.2 *L 0.000585 *D CKAN2D0

*CAP
1 *858:A2 0.000969128
2 *270 0.000363899
3 *270:2 0.000341738
4 *270:3 0.00168681
5 *270:4 0.000144267
6 *270:5 0.00139117
7 *270:3 *272:4 0.00160472
8 *858:A2 *274:3 0.00114854
9 *270:2 *282:3 0.000519203008
10 *270:3 *268:3 0.00491818
11 *270:2 *266:3 0.00109541
12 *270:4 *275:3 0.00148496
13 *270:2 *269:3 0.0030892

*RES
1 *270:2 *270:3 60.14
2 *270:3 *270:5 5.10197
3 *858:A2 *270:2 9.29202
4 *270:4 *270:5 77.6143036
5 *270 *270:4 6.10625
*END

*D_NET *271 0.0159232

*CONN
*P *271 I *C 0 206.6 *L 0.5
*I *861:A2 I *C 72.5 145.2 *L 0.000585 *D CKAN2D0

*CAP
1 *271 0.000452098
2 *271:2 0.00202939
3 *271:3 0.000281766
4 *271:4 0.00331042
5 *271:6 0.000268329
6 *271:7 0.000156946
7 *271:2 *272 0.003039
8 *271:2 *258:3 0.000960291953
9 *271:3 *110:2 0.000477015
10 *271:3 *17:3 0.000505208008
11 *271:2 *261:2 0.00119341
12 *271:4 *276:2 0.00239406984
13 *271:2 *262:3 0.000855223984

*RES
1 *271:6 *271:7 5.96563
2 *271:4 *271:7 62.0774002
3 *271:2 *271:5 52.3608
4 *861:A2 *271:3 4.39702
5 *271:3 *271:6 10.7226
6 *271:2 *271:4 5.56685
7 *271 *271:5 7.30217
*END

*D_NET *272 0.0143937

*CONN
*P *272 I *C 0 203 *L 0.5
*I *864:A2 I *C 71.3 143.2 *L 0.000585 *D CKAN2D0

*CAP
1 *272 0.000380503
2 *272:2 0.00119879
3 *272:3 0.000204127
4 *272:4 0.000415129
5 *272:5 0.000222077
6 *272:6 0.00417134
7 *272:6 *273:6 0.000916306953
8 *272:2 *275:4 0.00131859
9 *272:3 *262:3 0.00092313
10 *272:4 *270:3 0.00160472
11 *272 *271:2 0.003039

*RES
1 *272:4 *272:6 66.8747025
2 *272:2 *272:5 9.2665
3 *272 *272:3 6.52563
4 *272:3 *272:6 53.8826
5 *864:A2 *272:2 1.50003
6 *272:5 *272:4 1.50003
*END

*D_NET *273 0.0137076

*CONN
*P *273 I *C 0 199.4 *L 0.5
*I *867:A2 I *C 66.3 143.2 *L 0.000585 *D CKAN2D0

*CAP
1 *273 0.000147334
2 *273:2 0.000817753
3 *273:3 9.72403e-05
4 *273:4 0.00170983
5 *273:6 5.40563e-05
6 *273:7 0.00332949
7 *273:2 *274:3 0.00131706
8 *273:3 *268:2 0.00136625
9 *273:4 *269:3 0.000583878984
10 *273:4 *277:8 0.000362235
11 *273:5 *279 0.000600664023
12 *273:6 *272:6 0.000916306953
13 *273:4 *265:3 0.00240551

*RES
1 *273:4 *273:6 2.2765
2 *273:2 *273:3 10.7955
3 *273 *273:5 3.97054
4 *273:6 *273:7 28.9196
5 *273:3 *273:4 46.141
6 *273:5 *273:7 49.2547989
7 *867:A2 *273:2 1.50013
*END

*D_NET *274 0.0135817

*CONN
*P *274 I *C 0 195.8 *L 0.5
*I *869:A2 I *C 70.1 145.2 *L 0.000585 *D CKAN2D0

*CAP
1 *274 0.000167009
2 *274:2 0.000630376
3 *274:3 0.0004345
4 *274:4 0.00119475
5 *274:5 0.000497294
6 *274:7 4.99638e-06
7 *274:8 0.00202122
8 *274 *254:2 0.000706145
9 *274:4 *848:A2 0.000947341953
10 *274:3 *853:A2 0.00214326
11 *274:3 *269:2 0.00145183
12 *274:3 *858:A2 0.00114854
13 *274:3 *273:2 0.00131706
14 *274:3 *277:2 0.000917388984

*RES
1 *274:2 *274:3 6.86377
2 *274:7 *274:8 46.667099
3 *274:3 *274:4 24.8795
4 *274 *274:6 6.13745
5 *274:5 *274:8 3.72064
6 *274:5 *274:6 41.7452
7 *274:4 *274:7 3.05341
8 *869:A2 *274:2 1.49965
*END

*D_NET *275 0.0198893

*CONN
*P *275 I *C 0 192.2 *L 0.5
*I *870:A2 I *C 72.3 141.6 *L 0.000585 *D CKAN2D0

*CAP
1 *870:A2 0.000182635
2 *275 0.000333603
3 *275:2 0.000139453
4 *275:3 8.42208e-05
5 *275:4 0.000931383
6 *275:6 0.000266454
7 *275:7 0.00438745031
8 *275:3 *270:4 0.00148496
9 *275:4 *272:2 0.00131859
10 *275:2 *243:17 0.00490443
11 *275:3 *276 0.00334797
12 *275:2 *284:4 0.00250811

*RES
1 *275:6 *275:7 8.0552
2 *275:3 *275:5 49.1407
3 *275:4 *275:2 9.06613
4 *870:A2 *275:4 4.31745
5 *275:2 *275:7 84.6138
6 *275:3 *275:6 1.72492
7 *275 *275:5 6.13791
*END

*D_NET *276 0.0153963

*CONN
*P *276 I *C 0 188.6 *L 0.5
*I *871:A2 I *C 68.3 143.2 *L 0.000585 *D CKAN2D0

*CAP
1 *276 0.000258132
2 *276:2 0.00379383
3 *276:3 0.000496755
4 *276:5 0.000160066
5 *276:6 0.000393306
6 *276:7 0.000355445
7 *276 *266:2 0.000645601992
8 *276:2 *271:4 0.00239406984
9 *276 *275:3 0.00334797
10 *276:3 *277 0.000643351016
11 *276:2 *243 0.00113355992
12 *276 *268:3 0.00177419

*RES
1 *276:2 *276:7 65.0689011
2 *276:6 *276:7 8.49005
3 *276:3 *276:4 45.4587
4 *871:A2 *276:5 3.00046
5 *276:3 *276:2 4.2068
6 *276 *276:4 5.94334
7 *276:5 *276:6 1.50023
*END

*D_NET *277 0.0108808

*CONN
*P *277 I *C 0 185 *L 0.5
*I *874:A2 I *C 77.3 145.2 *L 0.000585 *D CKAN2D0

*CAP
1 *277 0.00027106
2 *277:2 0.000713831
3 *277:3 0.000753973
4 *277:4 0.00233419
5 *277:5 0.000155019
6 *277:7 8.72654e-05
7 *277:8 0.00293279
8 *277:9 0.000991783
9 *277:10 7.46008e-05
10 *277:8 *265:2 0.000643368008
11 *277:8 *273:4 0.000362235
12 *277:2 *274:3 0.000917388984
13 *277 *276:3 0.000643351016

*RES
1 *277:2 *277:10 3.6361
2 *277:8 *277:10 64.2132034
3 *277:7 *277:2 7.07231
4 *277:5 *277:9 7.5681
5 *277:4 *277:9 4.9902
6 *277:4 *277:6 31.261
7 *277:3 *277:7 6.74211
8 *277:5 *277:8 3.05311
9 *277 *277:6 5.36057
10 *874:A2 *277:3 1.5001
*END

*D_NET *278 0.0155174

*CONN
*P *278 I *C 0 181.4 *L 0.5
*I *875:A2 I *C 81.1 143.2 *L 0.000585 *D CKAN2D0

*CAP
1 *278 3.09227e-05
2 *278:2 0.00510459
3 *278:3 8.77832e-05
4 *278:4 0.000172996
5 *278:5 0.000367879
6 *278:6 5.68605e-06
7 *278:2 *264:2 0.00067432
8 *278 *280 0.0029323
9 *278:2 *287 0.00205228
10 *278:2 *282 0.00059371
11 *278:2 *284 0.000387984023
12 *278 *266:2 0.00248504
13 *278:2 *283 0.00062188

*RES
1 *278:5 *278:6 6.5559
2 *278:2 *278:4 42.3718
3 *278:3 *278:5 2.27727
4 *875:A2 *278:3 3.00022
5 *278 *278:4 0.206039
6 *278:2 *278:6 78.964798
*END

*D_NET *279 0.0138393

*CONN
*P *279 I *C 0 177.8 *L 0.5
*I *877:A2 I *C 82.9 145.2 *L 0.000585 *D CKAN2D0

*CAP
1 *279 0.000186993
2 *279:2 0.000160171
3 *279:3 0.000394318
4 *279:4 0.000302015
5 *279:5 4.14268e-05
6 *279:6 0.000813168
7 *279:8 0.000103758
8 *279:9 0.00625554
9 *279:3 *256:3 0.000418478008
10 *279 *273:5 0.000600664023
11 *279:2 *17:6 0.000877428984
12 *279:3 *283:2 0.00283976
13 *279:3 *254:6 0.000845616016

*RES
1 *279:6 *279:8 7.26039
2 *279:4 *279:5 4.14065
3 *279:6 *279:7 24.2705
4 *279:2 *279:9 77.7986984
5 *279:3 *279:8 7.97741
6 *279 *279:7 4.97282
7 *877:A2 *279:4 1.50051
8 *279:5 *279:2 1.50051
9 *279:3 *279:9 1.50051
*END

*D_NET *280 0.0158783

*CONN
*P *280 I *C 0 174.2 *L 0.5
*I *878:A2 I *C 85.9 143.2 *L 0.000585 *D CKAN2D0

*CAP
1 *280 5.46208e-05
2 *280:2 0.00036505
3 *280:3 0.00484381
4 *280:4 8.35203e-06
5 *280:5 0.000599277
6 *280:7 0.000469414
7 *280:8 4.92253e-05
8 *280:4 *281:4 0.00163406
9 *280:2 *283:3 0.00288207
10 *280 *278 0.0029323
11 *280:3 *837:A2 0.000681113984
12 *280:4 *264:2 0.00135898

*RES
1 *280:8 *280:3 87.0169983
2 *280:2 *280:6 26.0908
3 *280:4 *280:2 3.24508
4 *280 *280:6 3.80806
5 *280:4 *280:7 7.5152
6 *280:5 *280:8 5.96569
7 *878:A2 *280:5 2.99944
8 *280:7 *280:3 1.50038
*END

*D_NET *281 0.0165136

*CONN
*P *281 I *C 0 170.6 *L 0.5
*I *880:A2 I *C 105.3 141.6 *L 0.00104 *D AN2D2

*CAP
1 *880:A2 0.000535382
2 *281 6.15798e-05
3 *281:2 0.00791301
4 *281:3 0.000391575
5 *281:4 3.00655e-05
6 *281:6 0.000517754
7 *281:2 *258:2 0.0018882
8 *281 *266:2 0.00055619
9 *281 *283:3 0.000972401953
10 *281:3 *377:4 0.000392455977
11 *281:2 *15:3 0.00114001
12 *281:4 *280:4 0.00163406
13 *281:2 *265:3 0.000480961992

*RES
1 *281:6 *281:7 27.7712
2 *281:2 *281:4 127.345001
3 *281:2 *281:5 6.19081
4 *281:4 *281:6 4.77039
5 *281:3 *281:5 0.279811
6 *880:A2 *281:3 16.9849
7 *281 *281:7 3.61422
*END

*D_NET *282 0.0123578

*CONN
*P *282 I *C 0 167 *L 0.5
*I *881:A2 I *C 78.5 143.2 *L 0.000585 *D CKAN2D0

*CAP
1 *282 2.64183e-05
2 *282:2 0.00014092
3 *282:3 0.00452042
4 *282:4 0.00111281
5 *282:5 0.000342265
6 *282:6 0.00148501
7 *282:8 0.000155268
8 *282:3 *269:3 0.000407420977
9 *282:3 *270:2 0.000519203008
10 *282 *278:2 0.00059371
11 *282:2 *15:2 0.00117534992
12 *282:2 *20:2 0.00187903

*RES
1 *282:6 *282:7 13.7232
2 *282:2 *282:4 9.46072
3 *282:2 *282:3 94.5005035
4 *282 *282:7 3.41889
5 *282:6 *282:8 3.62365
6 *282:5 *282:8 3.7318
7 *282:3 *282:5 2.99928
8 *881:A2 *282:4 1.49964
*END

*D_NET *283 0.0134747

*CONN
*P *283 I *C 0 163.4 *L 0.5
*I *883:A2 I *C 79.7 145.2 *L 0.000585 *D CKAN2D0

*CAP
1 *283 1.00621e-05
2 *283:2 0.00392513
3 *283:3 0.000569469
4 *283:4 5.19877e-05
5 *283:6 0.000198068
6 *283:7 0.000341394
7 *283:8 1.31766e-06
8 *283:2 *259:2 0.000511812969
9 *283 *278:2 0.00062188
10 *283:2 *279:3 0.00283976
11 *283:3 *280:2 0.00288207
12 *283:3 *281 0.000972401953
13 *283:2 *267:2 0.000549366992

*RES
1 *283:7 *283:8 4.46848
2 *283:3 *283:5 13.6956
3 *883:A2 *283:6 3.00022
4 *283 *283:5 3.41888
5 *283:2 *283:8 77.2885971
6 *283:4 *283:2 8.54543
7 *283:3 *283:4 2.11808
8 *283:6 *283:7 1.50011
*END

*D_NET *284 0.0117466

*CONN
*P *284 I *C 0 159.8 *L 0.5
*I *884:A2 I *C 78.9 141.6 *L 0.000585 *D CKAN2D0

*CAP
1 *284 3.59384e-05
2 *284:2 0.000690063
3 *284:3 6.29111e-05
4 *284:4 0.00493758
5 *284:5 0.000116781
6 *284:6 0.000336782
7 *284:7 0.000562885
8 *284:8 0.00017811
9 *284:4 *275:2 0.00250811
10 *284 *278:2 0.000387984023
11 *284:4 *287 0.00192949

*RES
1 *284:6 *284:8 5.57781
2 *284:2 *284:3 5.62643
3 *284:4 *284:5 3.93074
4 *284:5 *284:7 6.27345
5 *284:4 *284:8 75.8554993
6 *284 *284:7 9.99006
7 *884:A2 *284:2 3.00014
8 *284:3 *284:6 1.50007
*END

*D_NET *285 0.0117087

*CONN
*P *285 I *C 0 156.2 *L 0.5
*I *886:A2 I *C 74.9 145.2 *L 0.000585 *D CKAN2D0

*CAP
1 *886:A2 0.00083017
2 *285 7.05772e-05
3 *285:2 0.00506048
4 *285:3 9.68313e-05
5 *285:4 0.000294509
6 *285:2 *262:2 0.000428273008
7 *285:2 *869:Z 0.000352833008
8 *886:A2 *28:2 0.00302669
9 *285:2 *24:3 0.00154837

*RES
1 *285:2 *285:3 108.684998
2 *886:A2 *285:2 6.81271
3 *285 *285:4 6.36329
4 *285:3 *285:4 1.49919
*END

*D_NET *286 0.00228478

*CONN
*I *728:I I *C 5.7 145.2 *L 0.00105 *D DEL1
*P *286 I *C 0 152.6 *L 0.5

*CAP
1 *728:I 0.000400651
2 *286 9.43406e-05
3 *286:2 0.000240216
4 *286:3 0.000405486
5 *286:4 0.00114408008

*RES
1 *286:2 *286:3 4.18596
2 *286:2 *286:4 8.87946987
3 *728:I *286:3 4.44339
4 *286 *286:4 2.63392
*END

*D_NET *287 0.0177472

*CONN
*I *746:I I *C 146.7 145.2 *L 0.00105 *D DEL1
*P *287 I *C 0 149 *L 0.5

*CAP
1 *746:I 0.000576166
2 *287 0.0034134
3 *287:2 5.78145e-05
4 *287:3 0.00133921
5 *287:4 4.98455e-05
6 *287:5 0.000718775
7 *287:6 3.50012e-05
8 *287:7 0.000668513
9 *287:8 6.00021e-05
10 *287:9 0.000649241
11 *287:10 4.0366e-05
12 *287:11 0.000599292
13 *287:12 0.000438661
14 *746:I *140:2 0.000517961992
15 *746:I *235:4 0.00236333984
16 *287:2 *237:4 0.00153918
17 *287 *284:4 0.00192949
18 *287:3 *241:8 0.00069865
19 *287 *278:2 0.00205228

*RES
1 *287:7 *287:8 0.132108
2 *287 *287:12 53.7752991
3 *287:2 *287:3 43.2461
4 *287:5 *287:6 0.132108
5 *287:4 *287:5 11.7158
6 *287:6 *287:7 19.9516
7 *287:10 *287:11 9.30007
8 *287:8 *287:9 9.38458
9 *287:9 *287:10 0.132108
10 *746:I *287:2 7.0329
11 *287:11 *287:12 2.27701
12 *287:3 *287:4 0.132108
*END

*D_NET *288 0.0136274

*CONN
*I *743:I I *C 145.7 141.6 *L 0.00105 *D DEL1
*P *288 I *C 0 145.4 *L 0.5

*CAP
1 *743:I 0.00019622
2 *288 0.000996194
3 *288:2 0.000199353
4 *288:3 0.00933183938
5 *288:4 0.000494252
6 *288:5 8.50097e-05
7 *288:6 1.76569e-05
8 *288:4 *223:7 0.000665276016
9 *288:2 *85:6 0.000218545
10 *288:3 *300:5 0.000990915
11 *288:3 *33:5 0.000432083008

*RES
1 *288:5 *288:6 0.131635
2 *288:2 *288:3 45.7385
3 *288:4 *288:2 4.41974
4 *743:I *288:4 6.51526
5 *288:3 *288:5 87.1396027
6 *288 *288:6 11.6357
*END

*D_NET *289 0.000716573

*CONN
*I *733:I I *C 5.7 141.6 *L 0.00105 *D DEL1
*P *289 I *C 0 141.8 *L 0.5

*CAP
1 *733:I 0.000266699
2 *289 0.000449876016

*RES
1 *289 *733:I 10.782
*END

*D_NET *290 0.01557

*CONN
*I *745:I I *C 151.1 141.6 *L 0.00105 *D DEL1
*P *290 I *C 0 138.2 *L 0.5

*CAP
1 *745:I 0.000234841
2 *290 0.000138647
3 *290:2 0.00552019
4 *290:3 0.000316631
5 *290:4 0.00173039
6 *290:5 3.59674e-05
7 *290:6 0.000772835
8 *290:7 0.000315704
9 *290:8 0.000262048
10 *290:9 0.000148671
11 *290:10 0.000455194
12 *290:4 *294:3 0.00127875992
13 *290 *295:2 0.000809375
14 *290:3 *325:2 0.00110511008
15 *290:3 *408:2 0.00105903992
16 *290:2 *412:2 0.000532051016
17 *290:2 *315:3 0.000854567969

*RES
1 *290:8 *290:9 3.62924
2 *290:7 *290:8 8.61056
3 *290:3 *290:4 27.9191
4 *745:I *290:3 7.35756
5 *290 *290:2 0.947426
6 *290:9 *290:10 6.37804
7 *290:6 *290:7 3.5525
8 *290:5 *290:6 14.6328
9 *290:4 *290:5 0.132556
10 *290:2 *290:10 91.4440994
*END

*D_NET *291 0.0173253

*CONN
*I *741:I I *C 153.1 139.6 *L 0.00105 *D DEL1
*P *291 I *C 0 134.6 *L 0.5

*CAP
1 *291 0.000110304
2 *291:2 0.000579314
3 *291:3 0.000288278
4 *291:4 0.00101617
5 *291:5 0.00228831
6 *291:6 0.000651768
7 *291:7 0.000157687
8 *291:8 0.000399769
9 *291:9 0.000204232
10 *291:10 2.18932e-05
11 *291:11 0.000234819
12 *291:12 1.49796e-05
13 *291:13 0.000581339
14 *291:14 6.92761e-05
15 *291:15 0.000166591
16 *291:16 0.000189217
17 *291:17 0.00133098
18 *291:18 3.58601e-05
19 *291:14 *313:2 0.00056973
20 *291:9 *432:4 0.001315
21 *291:2 *56:4 0.000500244961
22 *291:3 *130:6 0.000816510938
23 *291:9 *429:3 0.000188743984
24 *291:9 *430:2 0.00125832
25 *291:2 *82:15 0.000868365
26 *291:3 *435:3 0.000426345
27 *291 *292 0.00113485
28 *291:4 *428:8 0.00039238
29 *291:5 *306:3 0.000466838984
30 *291:5 *317:3 0.00104721

*RES
1 *291:16 *291:17 14.637
2 *291:2 *291:6 13.7666
3 *291:7 *291:8 6.73393
4 *291:17 *291:18 0.132244
5 *291:4 *291:10 0.132244
6 *291:10 *291:11 8.0294
7 *291:13 *291:14 2.26986
8 *291:14 *291:15 15.3555
9 *291:5 *291:18 43.1181984
10 *741:I *291:2 7.32015
11 *291:12 *291:13 9.97293
12 *291:8 *291:9 2.4633
13 *291:3 *291:7 3.47322
14 *291:9 *291:4 32.836
15 *291:15 *291:16 0.132244
16 *291:11 *291:12 0.132244
17 *291 *291:5 1.13362
18 *291:6 *291:3 5.59308
*END

*D_NET *292 0.0177971

*CONN
*I *737:I I *C 149.1 143.2 *L 0.00105 *D DEL1
*P *292 I *C 0 131 *L 0.5

*CAP
1 *737:I 0.000277416
2 *292 0.000597011
3 *292:2 8.80241e-05
4 *292:3 0.000197418
5 *292:4 0.000504165
6 *292:5 0.00202588
7 *292:6 0.000303146
8 *292:7 0.00123032
9 *292:8 0.000143811
10 *292:9 7.39204e-05
11 *292:10 0.00120321
12 *292:11 0.00216459984
13 *292:12 0.000293436
14 *292 *291 0.00113485
15 *292 *295:2 0.00101033
16 *292 *303:4 0.000556591992
17 *292:10 *304:2 0.000919762031
18 *292:10 *310:4 0.000694901016
19 *292:8 *314:3 0.00127877
20 *292:4 *396:2 0.000963347969
21 *292:4 *403:3 0.00131464
22 *292:2 *308:2 0.000821583984

*RES
1 *737:I *292:3 6.31777
2 *292:10 *292:12 4.16918
3 *292:9 *292:10 33.0965
4 *292:5 *292:6 0.1323
5 *292:4 *292:5 36.8362
6 *292:6 *292:7 15.2111
7 *292:2 *292:8 5.1116
8 *292 *292:11 6.04629
9 *292:11 *292:12 56.3014984
10 *292:8 *292:9 0.1323
11 *292:3 *292:4 2.93724
12 *292:7 *292:2 1.49138
*END

*D_NET *293 0.0150242

*CONN
*I *736:I I *C 150.1 145.2 *L 0.00105 *D DEL1
*P *293 I *C 0 127.4 *L 0.5

*CAP
1 *293 7.21183e-05
2 *293:2 0.000165372
3 *293:3 0.0121498
4 *293:4 0.00174048
5 *293:5 0.00089638

*RES
1 *293:4 *293:6 18.6596
2 *293:2 *293:5 7.82948
3 *293 *293:3 98.3729019
4 *736:I *293:2 4.50015
5 *293:3 *293:4 45.1681
6 *293:5 *293:6 1.49955
*END

*D_NET *294 0.0132281

*CONN
*I *735:I I *C 142.3 141.6 *L 0.00105 *D DEL1
*P *294 I *C 0 123.8 *L 0.5

*CAP
1 *735:I 0.000120249
2 *294 7.19034e-05
3 *294:2 0.00167062
4 *294:3 0.000111261
5 *294:4 0.000331323
6 *294:5 0.000107666
7 *294:6 0.000332175
8 *294:7 6.34831e-05
9 *294:8 0.000511271
10 *294:9 0.000221198
11 *294:10 0.00022063
12 *294:11 4.74941e-05
13 *294:12 0.00620025
14 *294:13 0.00133173
15 *294:2 *87:8 0.000607933984
16 *294:3 *290:4 0.00127875992

*RES
1 *294:6 *294:7 0.132092
2 *735:I *294:4 6.10995
3 *294:8 *294:9 2.85262
4 *294:12 *294:13 92.0932999
5 *294:2 *294:5 0.132092
6 *294:3 *294:2 30.0425
7 *294:5 *294:6 3.9473
8 *294:10 *294:11 0.746178
9 *294:7 *294:8 8.60986
10 *294:11 *294:13 16.5185
11 *294 *294:12 1.85772
12 *294:9 *294:10 3.9487
13 *294:4 *294:3 1.49938
*END

*D_NET *295 0.0159575

*CONN
*I *734:I I *C 137.5 139.6 *L 0.00105 *D DEL1
*P *295 I *C 0 120.2 *L 0.5

*CAP
1 *295 5.15396e-05
2 *295:2 0.000623354
3 *295:3 0.000697536
4 *295:4 0.00015662
5 *295:5 0.000330504
6 *295:6 8.36894e-05
7 *295:7 0.00819818
8 *295:4 *77:3 0.00151141
9 *295:2 *290 0.000809375
10 *295:2 *244:4 0.000680504063
11 *295:2 *292 0.00101033
12 *295:2 *310:2 0.000617920977
13 *295:3 *408:15 0.000619635
14 *295:4 *301:3 0.000567124023

*RES
1 *295:4 *295:7 31.0398
2 *295:5 *295:3 9.07489
3 *295:6 *295:7 97.4011993
4 *295:3 *295:4 2.2769
5 *734:I *295:5 4.26992
6 *295:2 *295:6 18.7933
7 *295 *295:2 2.6648
*END

*D_NET *296 0.0107788

*CONN
*I *732:I I *C 129.5 141.6 *L 0.00105 *D DEL1
*P *296 I *C 0 116.6 *L 0.5

*CAP
1 *732:I 0.000151438
2 *296 0.000500371
3 *296:2 7.62196e-05
4 *296:3 8.16012e-05
5 *296:4 0.00820205
6 *296:5 0.00171726
7 *296:6 4.98118e-05

*RES
1 *296:4 *296:5 28.2667
2 *732:I *296:3 5.21498
3 *296 *296:2 3.99347
4 *296:5 *296:6 22.1696
5 *296:3 *296:6 3.00071
6 *296:2 *296:4 97.9841995
*END

*D_NET *297 0.0228647

*CONN
*I *729:I I *C 126.7 143.2 *L 0.00105 *D DEL1
*P *297 I *C 0 113 *L 0.5

*CAP
1 *729:I 8.15763e-05
2 *297 5.00765e-05
3 *297:2 0.000277929
4 *297:3 3.73236e-05
5 *297:4 0.00255947
6 *297:5 0.000109335
7 *297:6 0.000534688
8 *297:7 0.000418977
9 *297:8 0.000931262
10 *297:10 0.00278588
11 *297:11 0.000419062
12 *297:12 0.000396149
13 *297:13 0.00108795
14 *297:14 0.000360441
15 *297:4 *305:4 0.00132492
16 *297:2 *375:2 1.3389e-05
17 *297:2 *375:3 1.9768e-05
18 *297:3 *375:3 1.5279e-05
19 *297:4 *375:3 0.00122623
20 *297:3 *375:6 0.00125997
21 *297:4 *375:6 0.00231257
22 *297:5 *375:6 1.78520115e-05
23 *297:4 *311:2 0.00270389
24 *297:6 *407:9 0.00147907
25 *297:4 *308:2 0.00150074
26 *297:2 *303:6 0.000940798984

*RES
1 *297:8 *297:9 0.169972
2 *297:11 *297:12 2.47728
3 *297:7 *297:8 11.0228
4 *297:3 *297:4 83.129097
5 *297:9 *297:2 7.12995
6 *297:2 *297:3 0.199147
7 *297:10 *297:13 25.8662
8 *297:6 *297:12 5.29704
9 *297:4 *297:5 3.27767
10 *729:I *297:11 5.75242
11 *297:6 *297:7 5.06619
12 *297:13 *297:14 4.21886
13 *297:5 *297:10 58.4273
14 *297 *297:14 1.50058
*END

*D_NET *298 0.0116682

*CONN
*I *731:I I *C 132.9 143.2 *L 0.00105 *D DEL1
*P *298 I *C 0 109.4 *L 0.5

*CAP
1 *731:I 0.000137278
2 *298 0.000722716
3 *298:2 8.52729e-05
4 *298:3 0.0083533
5 *298:4 0.000400234
6 *298:5 0.00196943

*RES
1 *298:4 *298:5 28.2146
2 *298:3 *298:5 32.9063
3 *298 *298:2 6.46812
4 *731:I *298:4 6.99042
5 *298:2 *298:3 98.0783997
*END

*D_NET *299 0.0189109

*CONN
*I *575:I I *C 117.5 141.6 *L 0.00103 *D DEL01
*P *299 I *C 0 105.8 *L 0.5

*CAP
1 *575:I 4.16997e-06
2 *299 4.59246e-05
3 *299:2 0.000818632
4 *299:3 0.000511563
5 *299:4 0.00045557
6 *299:5 0.00018197
7 *299:6 0.00142759
8 *299:7 0.000227483
9 *299:8 0.000187868
10 *299:9 0.00031401
11 *299:10 0.000258346
12 *299:11 0.000343666
13 *299:12 0.000166744
14 *299:13 0.000289649
15 *299:14 0.00027124
16 *299:15 0.000335601
17 *299:16 0.000194233
18 *299:17 0.000543139
19 *299:18 0.000347891
20 *299:19 0.000129187
21 *299:20 0.00179789
22 *299:21 0.000106444
23 *299:22 0.000309566
24 *299:23 7.89826e-05
25 *299:24 0.000361745
26 *299:25 0.000579819
27 *299:26 0.000346547
28 *299:27 0.000303722
29 *299:28 0.000551699
30 *299:29 0.00124745
31 *299:30 0.000321609
32 *299:5 *305:2 0.00396839
33 *299:26 *309:4 0.00110292992
34 *299:2 *316:3 0.00077961

*RES
1 *299:16 *299:17 7.22873
2 *299:9 *299:10 3.89285
3 *299:25 *299:26 3.85615
4 *299:18 *299:19 1.87325
5 *299:27 *299:28 3.82082
6 *299:14 *299:15 3.50976
7 *299:13 *299:14 3.21246
8 *299:10 *299:11 5.52019
9 *299:29 *299:30 3.63639
10 *299:24 *299:25 9.31807
11 *299:11 *299:12 2.36003
12 *299:4 *299:2 10.3279
13 *299:3 *299:28 5.43898
14 *299:5 *299:6 25.8635
15 *299:20 *299:21 1.38647
16 *575:I *299:27 3.45883
17 *299:22 *299:23 1.21626
18 *299:17 *299:18 4.86595
19 *299:15 *299:16 3.40607
20 *299:23 *299:24 4.62233
21 *299:21 *299:22 4.13601
22 *299:12 *299:13 4.95633
23 *299:6 *299:7 3.8199
24 *299:26 *299:29 30.0674
25 *299:7 *299:8 3.16291
26 *299:19 *299:20 24.4022
27 *299:3 *299:4 4.19474
28 *299:8 *299:9 4.86595
29 *299:2 *299:5 4.06306
30 *299 *299:30 1.49979
*END

*D_NET *300 0.0143446

*CONN
*I *723:I I *C 124.3 145.2 *L 0.00103 *D DEL2
*P *300 I *C 0 102.2 *L 0.5

*CAP
1 *300 0.000707852
2 *300:2 0.00503081
3 *300:3 0.000254477
4 *300:4 0.00302923
5 *300:5 0.000582495
6 *300:6 0.00157254
7 *300:7 0.000607597
8 *300:9 0.000371621
9 *300:10 0.000297235
10 *300:5 *288:3 0.000990915
11 *300:2 *110:2 0.000266714004
12 *300:2 *17:3 0.000633173008

*RES
1 *300:5 *300:2 76.540802
2 *300:9 *300:10 5.39929
3 *300:8 *300:10 0.256942
4 *300:2 *300:7 9.473
5 *300:4 *300:6 45.2569
6 *300:3 *300:5 3.55164
7 *723:I *300:3 5.47054
8 *300:7 *300:9 0.256942
9 *300:6 *300:8 25.2796
10 *300 *300:4 6.27407
*END

*D_NET *301 0.0170111

*CONN
*I *730:I I *C 141.9 143.2 *L 0.00105 *D DEL1
*P *301 I *C 0 98.6 *L 0.5

*CAP
1 *730:I 0.000140884
2 *301 9.73709e-05
3 *301:2 0.000594571
4 *301:3 0.000832826
5 *301:4 6.52689e-05
6 *301:5 0.00997063
7 *301:6 0.00114533
8 *301:7 0.00273186
9 *301:3 *295:4 0.000567124023
10 *301:3 *77:5 0.000865411016

*RES
1 *301:5 *301:7 18.1008
2 *301 *301:4 0.552009
3 *301:6 *301:7 38.7456
4 *301:2 *301:3 6.93611
5 *730:I *301:2 9.40665
6 *301:4 *301:5 98.305603
7 *301:3 *301:6 23.0209
*END

*D_NET *302 0.0203204

*CONN
*I *744:I I *C 113.9 139.6 *L 0.00105 *D DEL1
*P *302 I *C 0 95 *L 0.5

*CAP
1 *302 0.000297434
2 *302:2 0.000659494
3 *302:3 0.000443506
4 *302:4 0.000525018
5 *302:5 0.000192321
6 *302:6 0.000144851
7 *302:7 0.00444421
8 *302:8 0.00245454
9 *302 *305:3 0.00353573
10 *302:2 *143:8 0.000363900977
11 *302 *311:5 0.00158837
12 *302 *309:10 0.00466677
13 *302:2 *137:5 0.000770268984
14 *302:3 *429:2 0.000233896992

*RES
1 *302:7 *302:8 40.1373
2 *302:6 *302:7 109.959
3 *302:3 *302:6 3.82044
4 *302:2 *302:4 11.1677
5 *302 *302:8 5.10399
6 *302:5 *302:3 9.92443
7 *302:4 *302:5 4.06373
8 *302:2 *302:9 5.88754
9 *744:I *302:9 2.99998
*END

*D_NET *303 0.0193343

*CONN
*I *742:I I *C 106.3 141.6 *L 0.00105 *D DEL1
*P *303 I *C 0 91.4 *L 0.5

*CAP
1 *303 9.97519e-05
2 *303:2 0.00249139
3 *303:3 0.00276533
4 *303:4 0.00244785
5 *303:5 0.000127475
6 *303:6 0.000150219
7 *303:6 *297:2 0.000940798984
8 *303:2 *406:4 0.00115131
9 *303:3 *413:2 0.0003848
10 *303:2 *375:2 0.00210588
11 *303 *311:6 0.00175855
12 *303:3 *244:6 0.000511964023
13 *303:4 *292 0.000556591992
14 *303 *312:6 0.00384245

*RES
1 *303:3 *303:4 46.3505
2 *303:2 *303:5 3.30012
3 *303 *303:4 1.88797
4 *742:I *303:6 7.76889
5 *303:5 *303:3 62.6025
6 *303:2 *303:6 66.7726974
*END

*D_NET *304 0.0155022

*CONN
*P *304 I *C 0 87.8 *L 0.5
*I *850:A2 I *C 85.9 141.6 *L 0.00104 *D AN2XD1

*CAP
1 *304 0.000262347
2 *304:2 0.000645249
3 *304:3 0.00089113
4 *304:4 0.00117115
5 *304:5 0.000221078
6 *304:6 0.00020886
7 *304:7 0.000142212
8 *304:8 0.000391554
9 *304:9 3.61822e-06
10 *304:10 0.00287947
11 *304:11 0.000220659
12 *304:12 0.000485942
13 *304:13 8.88299e-05
14 *304:14 0.000345409
15 *304:15 0.000662815
16 *304:16 0.000135709
17 *304:17 0.00343652
18 *304:2 *292:10 0.000919762031
19 *304:3 *306:2 0.000995413984
20 *304 *312:7 0.000698741016
21 *304:4 *413:2 0.000695707031

*RES
1 *304:12 *304:13 1.29755
2 *304:5 *304:6 2.91354
3 *850:A2 *304:2 8.95652
4 *304:13 *304:14 7.44235
5 *304:11 *304:12 7.83082
6 *304:8 *304:4 13.2738
7 *304:2 *304:5 2.65721
8 *304:10 *304:11 3.04568
9 *304:6 *304:3 11.5213
10 *304:15 *304:17 47.3213997
11 *304 *304:16 4.3815
12 *304:4 *304:9 0.132138
13 *304:16 *304:17 4.21832
14 *304:14 *304:15 0.745896
15 *304:3 *304:7 1.32138
16 *304:7 *304:8 4.16272
17 *304:9 *304:10 31.085
*END

*D_NET *305 0.019509

*CONN
*P *305 I *C 0 84.2 *L 0.5
*I *845:A2 I *C 101.3 139.6 *L 0.00104 *D AN2XD1

*CAP
1 *305 5.03396e-05
2 *305:2 0.0057474
3 *305:3 0.00210883
4 *305:4 0.000312211
5 *305:5 4.72701e-05
6 *305:6 0.000375618
7 *305:8 0.000324752
8 *305:2 *308:3 0.000674265
9 *305:2 *306:2 0.000813206953
10 *305:2 *299:5 0.00396839
11 *305:2 *429:2 0.000226043008
12 *305:3 *302 0.00353573
13 *305:4 *297:4 0.00132492

*RES
1 *305:3 *305:6 27.6022
2 *305:4 *305:2 120.275002
3 *305:2 *305:5 3.04101
4 *305:4 *305:7 5.89299
5 *305:5 *305:6 22.2396
6 *305:3 *305:8 4.02471
7 *305 *305:8 1.4994
8 *845:A2 *305:7 3.00064
*END

*D_NET *306 0.0146735

*CONN
*P *306 I *C 0 80.6 *L 0.5
*I *852:A2 I *C 73.5 139.6 *L 0.00104 *D AN2XD1

*CAP
1 *306 5.73747e-05
2 *306:2 0.000417488
3 *306:3 0.0022861
4 *306:4 0.000291585
5 *306:5 0.00390858
6 *306:3 *291:5 0.000466838984
7 *306:2 *304:3 0.000995413984
8 *306:2 *305:2 0.000813206953
9 *306:3 *310:2 0.00115232
10 *306:2 *317:3 0.000738315
11 *306:2 *369:3 0.00112336
12 *306:2 *316:4 0.00242284016

*RES
1 *306:2 *306:3 71.219902
2 *306:4 *306:5 3.6362
3 *306:3 *306:5 54.9526
4 *852:A2 *306:2 7.39302
5 *306 *306:4 1.49969
*END

*D_NET *307 0.0116073

*CONN
*P *307 I *C 0 77 *L 0.5
*I *842:A2 I *C 100.1 139.6 *L 0.00104 *D AN2XD1

*CAP
1 *307 0.000273779
2 *307:2 0.000196725
3 *307:3 0.000236196
4 *307:4 0.000316666
5 *307:5 0.00033312
6 *307:6 0.000551423
7 *307:7 0.00589231
8 *307:8 0.00341688
9 *307 *244:3 0.000390191992

*RES
1 *307:6 *307:8 49.8825
2 *307:4 *307:5 3.78335
3 *307:3 *307:7 4.72808
4 *307:7 *307:8 97.0432968
5 *842:A2 *307:2 3.00003
6 *307 *307:5 3.23843
7 *307:3 *307:4 4.0025
8 *307:2 *307:6 3.97141
*END

*D_NET *308 0.0179488

*CONN
*P *308 I *C 0 73.4 *L 0.5
*I *854:A2 I *C 96.9 139.6 *L 0.00104 *D AN2XD1

*CAP
1 *308 0.000404597
2 *308:2 0.000440505
3 *308:3 0.0025164
4 *308:4 0.00346062
5 *308:5 0.000511159
6 *308:6 4.51489e-05
7 *308:7 0.000693497
8 *308:8 0.000107935
9 *308:2 *292:2 0.000821583984
10 *308:2 *297:4 0.00150074
11 *308:3 *305:2 0.000674265
12 *308 *310:3 0.00230104
13 *308:3 *314:2 0.00258576984
14 *308 *317:2 0.00188555

*RES
1 *308:2 *308:5 19.2055
2 *308:7 *308:8 0.131976
3 *308:6 *308:7 11.6731
4 *308:3 *308:4 60.9653
5 *854:A2 *308:2 4.41248
6 *308:5 *308:6 0.131976
7 *308:3 *308:8 63.5970993
8 *308 *308:4 6.46393
*END

*D_NET *309 0.021005

*CONN
*P *309 I *C 0 69.8 *L 0.5
*I *856:A2 I *C 90.9 139.6 *L 0.00104 *D AN2XD1

*CAP
1 *309 0.000180247
2 *309:2 0.000169174
3 *309:3 0.000570616
4 *309:4 0.00101426
5 *309:5 0.000546955
6 *309:6 0.000185992
7 *309:7 0.000198788
8 *309:8 0.00342291
9 *309:9 5.74533e-05
10 *309:10 0.000749086
11 *309:11 1.77583e-06
12 *309:13 0.00183908
13 *309:10 *302 0.00466677
14 *309 *311:8 0.00180574
15 *309:2 *112:2 0.00331582
16 *309 *310 0.000495125
17 *309:3 *317:6 0.000682208984
18 *309:4 *299:26 0.00110292992

*RES
1 *309:3 *309:5 9.03882
2 *309:6 *309:7 3.28455
3 *309:7 *309:2 3.81254
4 *309:9 *309:10 9.2579
5 *309:9 *309:4 0.256901
6 *309 *309:13 3.05287
7 *309:5 *309:6 2.79124
8 *309:11 *309:13 26.5223
9 *309:2 *309:8 103.290001
10 *309:8 *309:4 31.5642
11 *309:3 *309:12 4.9946
12 *309:10 *309:11 0.256901
13 *856:A2 *309:12 1.50043
*END

*D_NET *310 0.016312

*CONN
*P *310 I *C 0 66.2 *L 0.5
*I *857:A2 I *C 66.3 139.6 *L 0.00104 *D AN2XD1

*CAP
1 *310 0.00025935
2 *310:2 0.0010686
3 *310:3 0.000163218
4 *310:4 0.000448229
5 *310:5 0.00426834
6 *310:6 0.000206595
7 *310:7 0.000299471
8 *310:2 *295:2 0.000617920977
9 *310 *309 0.000495125
10 *310:4 *317:3 0.0019169
11 *310:4 *369:4 0.000696397031
12 *310 *311:8 0.000707038984
13 *310:2 *244:4 0.00101651
14 *310:3 *308 0.00230104
15 *310:4 *292:10 0.000694901016
16 *310:2 *306:3 0.00115232

*RES
1 *310:4 *310:2 66.6783981
2 *310:3 *310:7 7.26141
3 *310:3 *310:6 3.47249
4 *310:2 *310:5 56.8042
5 *857:A2 *310:4 4.80024
6 *310 *310:7 3.49691
7 *310:5 *310:6 3.70447
*END

*D_NET *311 0.020295

*CONN
*P *311 I *C 0 62.6 *L 0.5
*I *859:A2 I *C 77.9 139.6 *L 0.00104 *D AN2XD1

*CAP
1 *311 0.000120681
2 *311:2 0.00296655
3 *311:3 0.0003768
4 *311:5 0.00213831
5 *311:6 0.000177717
6 *311:7 1.53907e-06
7 *311:8 0.00172774
8 *311:5 *244:4 0.000847061953
9 *311:2 *297:4 0.00270389
10 *311:5 *302 0.00158837
11 *311:6 *303 0.00175855
12 *311:8 *309 0.00180574
13 *311:8 *310 0.000707038984
14 *311:2 *112:2 0.00337508

*RES
1 *311:7 *311:8 26.5678
2 *311:6 *311:7 0.256362
3 *311:4 *311:6 4.22243
4 *311:2 *311:3 109.809998
5 *311 *311:8 4.71672
6 *311:4 *311:5 0.256362
7 *311:2 *311:5 41.4653
8 *859:A2 *311:3 4.00796
*END

*D_NET *312 0.0170751

*CONN
*P *312 I *C 0 59 *L 0.5
*I *860:A2 I *C 75.5 139.6 *L 0.00104 *D AN2XD1

*CAP
1 *312 2.51188e-05
2 *312:2 0.000298456
3 *312:3 0.0052593
4 *312:5 1.01117e-05
5 *312:6 0.00275601
6 *312:7 0.00246381
7 *312:6 *303 0.00384245
8 *312:7 *304 0.000698741016
9 *312:2 *375:4 0.0012061
10 *312:3 *244:4 0.000515033008

*RES
1 *312:2 *312:3 96.9228973
2 *312:5 *312:6 44.9874
3 *312:4 *312:7 32.5349
4 *312:3 *312:5 2.31156
5 *860:A2 *312:2 5.28716
6 *312:4 *312:6 0.255854
7 *312 *312:7 1.49963
*END

*D_NET *313 0.0125327

*CONN
*P *313 I *C 0 55.4 *L 0.5
*I *862:A2 I *C 81.9 139.6 *L 0.00104 *D AN2XD1

*CAP
1 *313 0.000213564
2 *313:2 0.000515311
3 *313:3 8.32638e-05
4 *313:4 0.000367344
5 *313:5 0.00022631
6 *313:6 7.34242e-05
7 *313:7 0.000465964
8 *313:8 0.000115764
9 *313:9 0.00399435
10 *313:10 0.00488513
11 *313:2 *291:14 0.00056973
12 *313:3 *862:A1 0.000594903008
13 *313:2 *77:32 0.000427639023

*RES
1 *313:6 *313:7 13.2762
2 *313:2 *313:6 3.02299
3 *313:4 *313:5 3.80968
4 *313:3 *313:4 6.36851
5 *313 *313:9 3.60497
6 *313:9 *313:10 58.0105
7 *313:8 *313:10 77.9979019
8 *313:5 *313:2 5.18907
9 *313:7 *313:8 1.86854
10 *862:A2 *313:3 1.49959
*END

*D_NET *314 0.0177246

*CONN
*P *314 I *C 0 51.8 *L 0.5
*I *879:A2 I *C 84.7 139.6 *L 0.00104 *D AN2XD1

*CAP
1 *314 0.000496582
2 *314:2 0.00181618
3 *314:3 0.000461269
4 *314:4 0.00191021
5 *314:5 0.00553649
6 *314:2 *413:2 0.00141408
7 *314:2 *308:3 0.00258576984
8 *314 *316:9 0.00222525
9 *314:3 *292:8 0.00127877

*RES
1 *314:3 *314:4 32.3888
2 *314 *314:5 6.16016
3 *314:2 *314:4 49.0597
4 *879:A2 *314:3 4.31842
5 *314:2 *314:5 84.4056015
*END

*D_NET *315 0.0134842

*CONN
*P *315 I *C 0 48.2 *L 0.5
*I *865:A2 I *C 87.9 139.6 *L 0.00104 *D AN2XD1

*CAP
1 *315 0.000112716
2 *315:2 0.00185755
3 *315:3 0.000156308
4 *315:4 4.91502e-05
5 *315:5 0.00019608
6 *315:6 0.000527193
7 *315:7 0.0023138
8 *315:8 0.00569092
9 *315:2 *252:2 0.000468679023
10 *315:3 *290:2 0.000854567969
11 *315:3 *154:2 0.000291559004
12 *315:2 *251:7 0.000965642969

*RES
1 *315:7 *315:8 90.2910995
2 *315:2 *315:8 42.0787
3 *315:6 *315:7 37.1478
4 *315:4 *315:5 8.91531
5 *865:A2 *315:3 2.99932
6 *315:5 *315:6 0.132262
7 *315 *315:2 2.2457
8 *315:3 *315:4 1.50035
*END

*D_NET *316 0.0214474

*CONN
*P *316 I *C 0 44.6 *L 0.5
*I *866:A2 I *C 111.9 139.6 *L 0.00104 *D AN2XD1

*CAP
1 *866:A2 0.000204634
2 *316 0.000460475
3 *316:2 9.23817e-05
4 *316:3 0.000435063
5 *316:4 0.00626084
6 *316:5 0.000349847
7 *316:6 0.000148269
8 *316:7 0.000195941
9 *316:8 0.000842517
10 *316:9 0.00299739
11 *316:3 *299:2 0.00077961
12 *316:4 *306:2 0.00242284016
13 *316:9 *314 0.00222525
14 *316 *317:2 0.00266388
15 *316:4 *130:4 0.000681185
16 *316:3 *429:2 0.000687346016

*RES
1 *316:6 *316:7 4.52987
2 *316:4 *316:8 97.4942017
3 *316:7 *316:8 0.1324
4 *316:3 *316:6 3.17314
5 *316:2 *316:5 2.11394
6 *316:2 *316:3 5.05352
7 *866:A2 *316:5 8.51973
8 *316 *316:9 5.57718
9 *316:4 *316:9 89.2601
*END

*D_NET *317 0.0232108

*CONN
*P *317 I *C 0 41 *L 0.5
*I *868:A2 I *C 108.1 139.6 *L 0.00104 *D AN2XD1

*CAP
1 *317 0.000420998
2 *317:2 0.00439543
3 *317:3 0.00322493
4 *317:4 0.000382768
5 *317:5 0.000476867
6 *317:6 0.000375659
7 *317:7 3.01815e-06
8 *317:3 *291:5 0.00104721
9 *317:6 *309:3 0.000682208984
10 *317:3 *369:3 0.00414667
11 *317:4 *429:2 0.000660061016
12 *317:2 *308 0.00188555
13 *317:2 *316 0.00266388
14 *317:3 *428:6 0.000190265
15 *317:3 *306:2 0.000738315
16 *317:3 *310:4 0.0019169

*RES
1 *317:3 *317:7 89.871
2 *317:4 *317:5 5.50458
3 *317 *317:2 4.99545
4 *317:6 *317:7 0.131572
5 *868:A2 *317:4 5.98082
6 *317:5 *317:6 24.3394
7 *317:3 *317:2 93.7251968
*END

*D_NET *318 0.0227679

*CONN
*P *318 I *C 324 5 *L 0.5
*I *873:A2 I *C 163.7 139.6 *L 0.000664 *D NR2D0

*CAP
1 *318 5.89755e-05
2 *318:2 0.000220998
3 *318:3 0.0019175
4 *318:4 0.0105026
5 *318:5 2.21158e-05
6 *318:6 9.53543e-05
7 *318:7 0.00719052
8 *318:2 *325:7 0.00275972

*RES
1 *318:5 *318:7 94.1684
2 *318 *318:3 24.5098
3 *318:6 *318:7 40.0946
4 *318:4 *318:5 35.2404
5 *873:A2 *318:2 4.72242
6 *318:3 *318:4 97.0792007
7 *318:2 *318:6 2.99965
*END

*D_NET *319 0.0193801

*CONN
*I *571:I I *C 206.7 141.6 *L 0.00103 *D DEL01
*P *319 I *C 324 48.2 *L 0.5

*CAP
1 *319 5.90631e-05
2 *319:2 0.000959886
3 *319:3 0.00242878
4 *319:4 0.00029746
5 *319:5 0.000391773
6 *319:6 0.00174638
7 *319:7 3.41333e-05
8 *319:8 0.00153153
9 *319:9 4.23985e-05
10 *319:10 0.000501276
11 *319:11 6.35754e-05
12 *319:12 0.000467054
13 *319:13 0.000133674
14 *319:14 0.00292791
15 *319:2 *331:5 0.00356424
16 *319:3 *338:17 0.000657222969
17 *319:3 *332 0.00203762
18 *319:2 *334:3 0.000858625
19 *319:2 *130:8 0.000677512969

*RES
1 *319:5 *319:6 28.3781
2 *319:10 *319:11 0.131982
3 *319:3 *319:14 28.2851
4 *319:5 *319:14 60.9127007
5 *319:2 *319:13 5.99684
6 *319:4 *319:2 7.51928
7 *571:I *319:4 3.19453
8 *319:8 *319:9 0.131982
9 *319:6 *319:7 0.131982
10 *319:7 *319:8 24.3322
11 *319:11 *319:12 6.27567
12 *319:9 *319:10 5.25513
13 *319:12 *319:13 0.131982
14 *319 *319:3 47.3241
*END

*D_NET *320 0.0232608

*CONN
*I *570:I I *C 209.5 145.2 *L 0.00103 *D DEL01
*P *320 I *C 324 44.6 *L 0.5

*CAP
1 *320 5.89831e-05
2 *320:2 0.000102549
3 *320:3 0.000380632
4 *320:4 0.00187699
5 *320:5 0.00926968
6 *320:6 0.0053287
7 *320:7 0.00231929
8 *320:2 *234:5 0.00288967
9 *320:2 *48:3 0.00103421

*RES
1 *320:6 *320:7 98.0348969
2 *320 *320:4 24.5102
3 *320:2 *320:7 42.6719
4 *320:5 *320:6 22.2305
5 *570:I *320:3 4.77938
6 *320:4 *320:5 97.079
7 *320:3 *320:2 2.99927
*END

*D_NET *321 0.0190188

*CONN
*P *321 I *C 324 41 *L 0.5
*I *829:A2 I *C 172.5 139.6 *L 0.000745 *D AO22D0

*CAP
1 *321 5.90543e-05
2 *321:2 0.000217454
3 *321:3 0.000981086
4 *321:4 0.00201454
5 *321:5 0.00953232
6 *321:6 6.35633e-05
7 *321:7 0.00615081

*RES
1 *321:5 *321:7 19.4591
2 *321 *321:4 24.5105
3 *321:6 *321:7 97.4531021
4 *829:A2 *321:2 3.19411
5 *321:4 *321:5 97.0799
6 *321:3 *321:6 10.2396
7 *321:2 *321:3 1.5004
*END

*D_NET *322 0.0189712

*CONN
*P *322 I *C 324 37.4 *L 0.5
*I *822:A2 I *C 170.9 139.6 *L 0.000745 *D AO22D0

*CAP
1 *822:A2 0.000170688
2 *322 5.90922e-05
3 *322:2 0.000152175
4 *322:3 0.000667166
5 *322:4 0.00685417
6 *322:5 0.000138579
7 *322:6 0.000225701
8 *322:7 0.000220367
9 *322:8 0.000578894
10 *322:10 0.000590399
11 *322:11 0.000170583
12 *322:12 0.00117149
13 *322:13 0.00582168
14 *322:3 *55:2 0.000417501016
15 *322:8 *86:2 0.00050947
16 *322:3 *130:3 0.00122341

*RES
1 *322:10 *322:11 0.132015
2 *322:5 *322:6 1.32748
3 *322:6 *322:7 3.10675
4 *822:A2 *322:2 5.54756
5 *322:11 *322:12 2.52442
6 *322:7 *322:8 4.27141
7 *322:4 *322:13 84.6964
8 *322:5 *322:13 96.1303024
9 *322:8 *322:9 7.76688
10 *322:3 *322:12 17.9188
11 *322:9 *322:10 11.2623
12 *322:2 *322:3 5.77932
13 *322 *322:4 24.5108
*END

*D_NET *323 0.0196074

*CONN
*P *323 I *C 324 33.8 *L 0.5
*I *827:A2 I *C 166.5 139.6 *L 0.000745 *D AO22D0

*CAP
1 *323 5.90303e-05
2 *323:2 0.00466748
3 *323:3 0.000208195
4 *323:4 0.00156385
5 *323:5 0.00743952
6 *323:6 4.25699e-05
7 *323:7 0.000101033
8 *323:6 *326:3 0.00312483
9 *323:2 *247:5 0.00240089984

*RES
1 *323:6 *323:2 66.0768
2 *323 *323:4 24.5098
3 *323:7 *323:2 40.0946
4 *323:5 *323:6 32.5222
5 *827:A2 *323:3 2.99965
6 *323:4 *323:5 97.0792007
7 *323:3 *323:7 2.99965
*END

*D_NET *324 0.0191291

*CONN
*P *324 I *C 324 30.2 *L 0.5
*I *830:A2 I *C 168.1 139.6 *L 0.000745 *D AO22D0

*CAP
1 *324 5.90187e-05
2 *324:2 0.00019505
3 *324:3 0.00156388
4 *324:4 0.00786136
5 *324:5 1.28354e-05
6 *324:6 0.000125115
7 *324:7 0.00732575
8 *324:6 *248:2 0.00198607

*RES
1 *324:5 *324:7 69.5875
2 *324 *324:3 24.5098
3 *324:6 *324:7 40.0946
4 *324:4 *324:5 29.2203
5 *830:A2 *324:2 2.99965
6 *324:3 *324:4 97.0792007
7 *324:2 *324:6 5.0883
*END

*D_NET *325 0.023485

*CONN
*I *569:I I *C 137.9 141.6 *L 0.00103 *D DEL01
*P *325 I *C 324 26.6 *L 0.5

*CAP
1 *325 5.23503e-05
2 *325:2 0.00258502
3 *325:3 0.000175441
4 *325:4 0.00156385
5 *325:5 0.00739391
6 *325:7 9.45464e-05
7 *325:8 0.00048063
8 *325:9 0.00432431
9 *325:9 *246:2 0.00137069
10 *325:7 *318:2 0.00275972
11 *325:2 *326:2 0.00108253
12 *325:2 *87:19 0.000496878008
13 *325:2 *290:3 0.00110511008

*RES
1 *325:7 *325:8 1.88423
2 *325:2 *325:8 33.1295
3 *325 *325:4 24.5098
4 *325:7 *325:9 39.7051
5 *325:6 *325:9 73.0997
6 *325:5 *325:6 34.4627
7 *325:3 *325:2 3.44109
8 *569:I *325:3 2.99965
9 *325:4 *325:5 97.0792007
*END

*D_NET *326 0.0208762

*CONN
*P *326 I *C 324 23 *L 0.5
*I *828:A2 I *C 161.5 139.6 *L 0.000745 *D AO22D0

*CAP
1 *326 5.90745e-05
2 *326:2 0.000280352
3 *326:3 0.00544707
4 *326:4 0.000239325
5 *326:5 0.00156396
6 *326:6 0.0073462
7 *326:7 5.06673e-05
8 *326:8 1.86079e-05
9 *326:2 *325:2 0.00108253
10 *326:2 *246:8 0.00166363
11 *326:3 *323:6 0.00312483

*RES
1 *326 *326:5 24.5098
2 *326:8 *326:3 39.8991
3 *326:8 *326:2 3.15075
4 *326:7 *326:3 76.6104
5 *326:6 *326:7 33.1043
6 *326:4 *326:2 5.38901
7 *828:A2 *326:4 2.99965
8 *326:5 *326:6 97.0792007
*END

*D_NET *327 0.0179939

*CONN
*P *327 I *C 324 19.4 *L 0.5
*I *826:A2 I *C 158.5 139.6 *L 0.000745 *D AO22D0

*CAP
1 *327 5.23249e-05
2 *327:2 0.000542838
3 *327:4 0.00156383
4 *327:5 0.00861586
5 *327:6 6.90215e-05
6 *327:7 2.98436e-05
7 *327:8 0.00599751
8 *327:2 *250:2 0.00112252

*RES
1 *327:6 *327:8 80.1226
2 *327:3 *327:2 5.6438
3 *327 *327:4 24.5098
4 *327:7 *327:8 37.9497
5 *327:5 *327:6 39.8991
6 *327:4 *327:5 97.0792007
7 *826:A2 *327:3 1.50057
8 *327:2 *327:7 1.50057
*END

*D_NET *328 0.0110752

*CONN
*I *572:I I *C 288.7 143.2 *L 0.00103 *D DEL015
*P *328 I *C 324 15.8 *L 0.5

*CAP
1 *328 5.90577e-05
2 *328:2 0.000349767
3 *328:3 0.00293234
4 *328:4 3.945e-05
5 *328:5 0.00769452

*RES
1 *572:I *328:2 7.49721
2 *328 *328:3 36.2574
3 *328:4 *328:5 43.4442
4 *328:3 *328:5 83.7031021
5 *328:2 *328:4 1.49944
*END

*D_NET *329 0.0127552

*CONN
*I *573:I I *C 279.7 139.6 *L 0.000968 *D CKBD1
*P *329 I *C 324 12.2 *L 0.5

*CAP
1 *573:I 2.53882e-05
2 *329 5.22953e-05
3 *329:2 5.63097e-05
4 *329:3 7.49711e-05
5 *329:4 0.0036776
6 *329:5 0.00711032
7 *329:2 *335:3 0.00175844

*RES
1 *329:4 *329:5 87.217598
2 *573:I *329:3 2.9997
3 *329:2 *329:5 40.1287
4 *329 *329:4 44.217
5 *329:3 *329:2 2.9997
*END

*D_NET *330 0.0218833

*CONN
*I *568:I I *C 216.1 141.6 *L 0.00103 *D DEL01
*P *330 I *C 324 8.6 *L 0.5

*CAP
1 *568:I 0.000464111
2 *330 5.90543e-05
3 *330:2 4.25402e-05
4 *330:3 0.000384447
5 *330:4 2.12701e-05
6 *330:5 0.000456052
7 *330:6 2.39124e-05
8 *330:7 0.000447069
9 *330:8 0.00156395
10 *330:9 0.0070811
11 *330:10 0.00083931
12 *330:11 2.08738e-05
13 *330:12 0.00865799063
14 *330:3 *192:4 0.000606096992
15 *568:I *128:3 0.00121566

*RES
1 *330:2 *330:3 10.3114
2 *330:5 *330:6 0.522903
3 *330:4 *330:5 11.5216
4 *330:6 *330:7 5.80378
5 *330:8 *330:9 97.0792007
6 *330 *330:8 24.5098
7 *568:I *330:2 6.10596
8 *330:11 *330:12 90.6562
9 *330:9 *330:11 13.6888
10 *330:10 *330:12 45.9414
11 *330:3 *330:4 0.162944
12 *330:7 *330:10 11.5513
*END

*D_NET *331 0.0195444

*CONN
*I *758:Z O *C 192.9 142 *L 0 *D BUFFD16
*P *331 O *C 324 77 *L 0.5

*CAP
1 *331 5.90682e-05
2 *331:2 0.000424913
3 *331:3 0.00014337
4 *331:4 0.00015112
5 *331:5 0.000667329
6 *331:6 0.000413478
7 *331:7 0.000443532
8 *331:8 0.00143975
9 *331:9 0.000102353
10 *331:10 0.000552973
11 *331:12 0.00619366
12 *331:5 *319:2 0.00356424
13 *331:6 *337:2 0.000723853984
14 *331:6 *338:2 0.00278915
15 *331:6 *60:3 0.000359356992
16 *331:6 *61:2 0.000193903008
17 *331:5 *80:2 0.000897377031
18 *331:2 *201:6 0.000425035

*RES
1 *331:7 *331:8 0.326184
2 *331:6 *331:7 31.8735
3 *331:2 *331:4 7.91729
4 *331:11 *331:12 46.9357
5 *331:9 *331:10 6.16176
6 *331:8 *331:9 22.3464
7 *331:6 *331:12 60.0471992
8 *331:5 *331:10 16.6757
9 *331:3 *331:4 1.55945
10 *331:3 *331:5 5.5772
11 *331 *331:11 1.4999
12 *758:Z *331:2 1.4999
*END

*D_NET *332 0.0166297

*CONN
*I *757:Z O *C 195.5 145.6 *L 0 *D BUFFD12
*P *332 O *C 324 73.4 *L 0.5

*CAP
1 *332 0.00398759
2 *332:2 0.000146751
3 *332:3 0.00487694969
4 *332:4 6.51153e-05
5 *332:5 0.000127254
6 *332:6 0.0026634
7 *332:7 0.000139905
8 *332 *319:3 0.00203762
9 *332 *333:2 0.00079208
10 *332:3 *132:3 0.00109693
11 *332:3 *192:2 0.000696103984

*RES
1 *332:6 *332:7 60.0511
2 *332:5 *332:7 0.256826
3 *332:3 *332:4 79.7695007
4 *332 *332:6 50.8053
5 *332:4 *332:5 10.2487
6 *757:Z *332:2 3.00036
7 *332:2 *332:3 1.49957
*END

*D_NET *333 0.0187208

*CONN
*I *756:Z O *C 202.5 145.6 *L 0 *D BUFFD12
*P *333 O *C 324 69.8 *L 0.5

*CAP
1 *333 5.90197e-05
2 *333:2 0.00792594
3 *333:3 0.000286149
4 *333:4 0.000283488
5 *333:5 0.00266181
6 *333:6 0.000263654
7 *333:6 *334:2 0.00285163
8 *333:6 *335:3 0.00192856
9 *333:2 *332 0.00079208
10 *333:3 *193:3 0.000906623984
11 *333:3 *192:2 0.000761823984

*RES
1 *333:5 *333:6 60.1709
2 *333:4 *333:5 8.34754
3 *333:7 *333:2 45.577
4 *333:3 *333:4 11.2479
5 *333:6 *333:2 76.245903
6 *333 *333:7 1.49965
7 *756:Z *333:3 1.49965
*END

*D_NET *334 0.0189251

*CONN
*I *755:Z O *C 207.9 142.8 *L 0 *D BUFFD12
*P *334 O *C 324 66.2 *L 0.5

*CAP
1 *334 5.23428e-05
2 *334:2 6.68121e-05
3 *334:3 0.000957906
4 *334:4 0.00372447
5 *334:5 0.000419676
6 *334:6 0.000212505
7 *334:8 0.00436979
8 *334:3 *319:2 0.000858625
9 *334:4 *335:2 0.00117378
10 *334:4 *337:4 0.00110689
11 *334:3 *56:2 0.000465604023
12 *334:2 *338:17 0.00203331
13 *334:3 *477:9 0.000247755996
14 *334:3 *506:3 0.000384075
15 *334:2 *333:6 0.00285163

*RES
1 *334:2 *334:8 69.6158981
2 *334:3 *334:5 5.95287
3 *334:7 *334:8 45.9648
4 *334:4 *334:6 65.7355
5 *334:4 *334:5 0.13172
6 *755:Z *334:3 9.26498
7 *334 *334:7 1.4999
8 *334:6 *334:2 1.4999
*END

*D_NET *335 0.0154565

*CONN
*I *754:Z O *C 227.9 139.2 *L 0 *D BUFFD16
*P *335 O *C 324 62.6 *L 0.5

*CAP
1 *335 5.91382e-05
2 *335:2 0.00285063
3 *335:3 0.00476705969
4 *335:5 0.000551883
5 *335:6 0.000894565
6 *335:8 7.41955e-06
7 *335:3 *329:2 0.00175844
8 *335:2 *59:2 0.00113739
9 *335:2 *67:14 0.000327648008
10 *335:3 *333:6 0.00192856
11 *335:2 *334:4 0.00117378

*RES
1 *335:7 *335:3 35.3591
2 *335:4 *335:2 5.18894
3 *335 *335:6 11.6288
4 *335:8 *335:3 72.7406006
5 *335:2 *335:5 51.0891
6 *335:6 *335:7 0.132082
7 *754:Z *335:4 1.49952
8 *335:5 *335:8 1.49952
*END

*D_NET *336 0.00629706

*CONN
*I *753:Z O *C 318.3 139.2 *L 0 *D BUFFD12
*P *336 O *C 324 59 *L 0.5

*CAP
1 *336 5.23722e-05
2 *336:2 0.000106876
3 *336:3 6.31247e-05
4 *336:5 0.00607471

*RES
1 *336:4 *336:5 7.13173
2 *336:2 *336:3 3.38876
3 *753:Z *336:2 3.00046
4 *336:3 *336:5 79.7721024
5 *336 *336:4 1.49962
*END

*D_NET *337 0.0150967

*CONN
*I *752:Z O *C 226.1 142 *L 0 *D BUFFD16
*P *337 O *C 324 55.4 *L 0.5

*CAP
1 *337 5.90549e-05
2 *337:2 0.00345745
3 *337:3 0.000807998
4 *337:4 0.000877605
5 *337:5 1.44086e-05
6 *337:6 0.000837829
7 *337:7 8.09722e-05
8 *337:9 3.20642e-05
9 *337:10 0.00664977
10 *337:2 *331:6 0.000723853984
11 *337:3 *68:4 0.000448841992
12 *337:4 *334:4 0.00110689

*RES
1 *337:9 *337:10 80.7453995
2 *337:8 *337:10 27.1316
3 *337:5 *337:6 9.96381
4 *337:3 *337:7 9.99831
5 *337:3 *337:5 0.131832
6 *337:4 *337:2 52.553
7 *752:Z *337:4 5.57761
8 *337:6 *337:2 0.131832
9 *337 *337:8 1.49944
10 *337:7 *337:9 1.49944
*END

*D_NET *338 0.0179179

*CONN
*I *751:Z O *C 222.5 142.8 *L 0 *D BUFFD16
*P *338 O *C 324 51.8 *L 0.5

*CAP
1 *338 3.81459e-05
2 *338:2 0.000591443
3 *338:3 0.00121195
4 *338:4 7.52019e-05
5 *338:5 2.66113e-05
6 *338:6 0.000794161
7 *338:8 0.000173655
8 *338:9 6.53929e-05
9 *338:10 0.000604521
10 *338:11 3.33322e-05
11 *338:12 0.00052278
12 *338:13 0.000228058
13 *338:14 1.83464e-05
14 *338:15 0.000155399
15 *338:17 0.00595212
16 *338:17 *319:3 0.000657222969
17 *338:17 *334:2 0.00203331
18 *338:8 *60:4 0.000221192012
19 *338:2 *61:3 0.0010107
20 *338:3 *131:2 0.000230626992
21 *338:3 *495:2 0.000484504023
22 *338:2 *331:6 0.00278915

*RES
1 *338:6 *338:7 0.132563
2 *338:15 *338:17 86.0161972
3 *338:11 *338:12 13.8469
4 *338:2 *338:5 0.132563
5 *338:4 *338:2 5.36026
6 *338:5 *338:6 10.588
7 *338:9 *338:10 8.02202
8 *338:7 *338:8 4.72239
9 *338:8 *338:9 0.132563
10 *338:12 *338:13 0.132563
11 *338 *338:16 1.85719
12 *338:16 *338:17 46.5597
13 *338:13 *338:14 3.03451
14 *751:Z *338:3 5.96533
15 *338:3 *338:14 8.71502
16 *338:10 *338:11 0.132563
17 *338:4 *338:15 4.36014
*END

*D_NET *339 0.00131173

*CONN
*I *649:I I *C 185.1 139.6 *L 0.00103 *D DEL015
*I *824:Z O *C 177.1 140.2 *L 0 *D AO22D0

*CAP
1 *649:I 0.000114471
2 *339:2 0.00101171008
3 *339:3 0.000185546

*RES
1 *339:2 *339:3 9.04870987
2 *649:I *339:3 6.28409
3 *824:Z *339:2 1.50002
*END

*D_NET *340 0.00148927

*CONN
*I *648:I I *C 183.3 143.2 *L 0.00103 *D DEL015
*I *823:Z O *C 175.5 140.2 *L 0 *D AO22D0

*CAP
1 *823:Z 0.000419626
2 *340:2 0.000631115
3 *340:3 0.00043853

*RES
1 *823:Z *340:3 6.39021
2 *340:2 *340:3 4.14036
3 *648:I *340:2 8.48025036
*END

*D_NET *341 0.00316752

*CONN
*I *639:I I *C 192.3 143.2 *L 0.00104 *D DEL0
*I *829:Z O *C 173.3 140.2 *L 0 *D AO22D0

*CAP
1 *341:2 0.000737981
2 *341:3 0.00125855008
3 *341:4 0.000744414
4 *341:5 0.000426565

*RES
1 *341:2 *341:4 8.53103
2 *639:I *341:2 7.15641
3 *341:4 *341:5 3.88406
4 *341:3 *341:5 11.5628996
5 *829:Z *341:3 1.50006
*END

*D_NET *342 0.00343864

*CONN
*I *644:I I *C 153.9 143.2 *L 0.00104 *D DEL0
*I *822:Z O *C 171.7 140.2 *L 0 *D AO22D0

*CAP
1 *342:2 0.0011177
2 *342:3 0.00012561
3 *342:4 0.00104324
4 *342:5 0.000280657
5 *342:6 0.00087146

*RES
1 *644:I *342:2 7.01297
2 *342:5 *342:6 6.93326
3 *342:4 *342:5 1.87454
4 *342:3 *342:4 9.34434986
5 *342:2 *342:6 4.89532
6 *822:Z *342:3 1.49998
*END

*D_NET *343 0.00490945

*CONN
*I *615:I I *C 139.3 143.2 *L 0.00104 *D DEL0
*I *827:Z O *C 167.3 140.2 *L 0 *D AO22D0

*CAP
1 *827:Z 0.000462114
2 *343:2 0.000195347
3 *343:3 0.00181977
4 *343:4 0.00034907
5 *343:5 0.00107201
6 *343:6 0.00100167
7 *343:7 9.46886e-06

*RES
1 *343:2 *343:4 5.39252
2 *827:Z *343:2 4.41236
3 *343:6 *343:7 3.68979
4 *343:5 *343:6 7.72763
5 *343:4 *343:5 4.48207
6 *343:3 *343:7 16.3742008
7 *615:I *343:3 2.99995
*END

*D_NET *344 0.00352594

*CONN
*I *647:I I *C 154.7 141.6 *L 0.00104 *D DEL0
*I *830:Z O *C 168.9 140.2 *L 0 *D AO22D0

*CAP
1 *830:Z 0.000218187
2 *344:2 0.000188438
3 *344:3 0.0031193

*RES
1 *344:2 *344:3 22.6252003
2 *830:Z *344:2 4.75352
3 *344:3 *344:4 5.38322
4 *647:I *344:4 3.00008
*END

*D_NET *345 0.00218924

*CONN
*I *646:I I *C 157.7 145.2 *L 0.00103 *D DEL015
*I *825:Z O *C 165.3 140.2 *L 0 *D AO22D0

*CAP
1 *646:I 7.10695e-05
2 *825:Z 0.000684959
3 *345:2 5.33863e-05
4 *345:3 0.00116235008
5 *345:4 0.000217483

*RES
1 *345:2 *345:4 3.17313
2 *646:I *345:3 2.27665
3 *345:3 *345:4 10.0791998
4 *825:Z *345:2 5.57727
*END

*D_NET *346 0.00189152

*CONN
*I *632:I I *C 153.9 145.2 *L 0.00104 *D DEL0
*I *828:Z O *C 160.7 140.2 *L 0 *D AO22D0

*CAP
1 *828:Z 0.000386768
2 *346:2 8.20631e-05
3 *346:3 5.70358e-05
4 *346:4 0.00136567

*RES
1 *346:2 *346:4 9.13654995
2 *346:3 *346:4 4.49982
3 *828:Z *346:2 3.63574
4 *632:I *346:3 1.49994
*END

*D_NET *347 0.00342891

*CONN
*I *625:I I *C 142.9 145.2 *L 0.00104 *D DEL0
*I *826:Z O *C 159.3 140.2 *L 0 *D AO22D0

*CAP
1 *625:I 0.000559872
2 *826:Z 0.000207695
3 *347:2 0.000300144
4 *347:3 0.000525645
5 *347:4 0.0004406
6 *347:5 0.000468835
7 *347:6 0.000926125

*RES
1 *347:5 *347:6 8.29456997
2 *347:4 *347:5 2.65369
3 *347:2 *347:3 4.10653
4 *826:Z *347:3 2.89024
5 *347:2 *347:4 6.58025
6 *625:I *347:6 8.11105
*END

*D_NET *348 0.000275912

*CONN
*I *631:I I *C 10.1 143.2 *L 0.00104 *D DEL0
*I *876:Z O *C 10.1 141.8 *L 0 *D CKAN2D0

*CAP
1 *631:I 0.000275911992

*RES
1 *876:Z *631:I 4.3651
*END

*D_NET *349 0.000363528

*CONN
*I *561:I I *C 14.1 145.2 *L 0.00103 *D DEL01
*I *863:Z O *C 13.1 143 *L 0 *D CKAN2D0

*CAP
1 *561:I 7.0485e-05
2 *863:Z 0.000293042988

*RES
1 *863:Z *561:I 5.85075
*END

*D_NET *350 0.000701112

*CONN
*I *630:I I *C 17.9 141.6 *L 0.00104 *D DEL0
*I *882:Z O *C 16.7 141.8 *L 0 *D CKAN2D0

*CAP
1 *882:Z 0.000135354
2 *350:2 0.000565753984

*RES
1 *882:Z *350:2 2.27663
2 *630:I *350:2 8.73136044
*END

*D_NET *351 0.000818094

*CONN
*I *565:I I *C 23.9 139.6 *L 0.00103 *D DEL01
*I *885:Z O *C 20.7 141.8 *L 0 *D CKAN2D0

*CAP
1 *565:I 0.000194728
2 *351:2 0.000623363008

*RES
1 *565:I *351:2 6.54127979
2 *885:Z *351:2 4.16496
*END

*D_NET *352 0.000472997

*CONN
*I *628:I I *C 25.9 143.2 *L 0.00104 *D DEL0
*I *888:Z O *C 25.7 141.8 *L 0 *D CKAN2D0

*CAP
1 *628:I 0.000228709
2 *888:Z 0.000244286992

*RES
1 *888:Z *628:I 9.55563
*END

*D_NET *353 1.0498e-05

*CONN
*I *626:I I *C 30.3 141.6 *L 0.00104 *D DEL0
*I *890:Z O *C 30.1 141.8 *L 0 *D CKAN2D0

*CAP
1 *890:Z 1.04980005e-05

*RES
1 *890:Z *626:I 0.246089
*END

*D_NET *354 0.000347826

*CONN
*I *629:I I *C 34.3 143.2 *L 0.00104 *D DEL0
*I *893:Z O *C 34.3 141.8 *L 0 *D CKAN2D0

*CAP
1 *629:I 0.000347826016

*RES
1 *893:Z *629:I 6.25986
*END

*D_NET *355 0.000294341

*CONN
*I *627:I I *C 37.5 143.2 *L 0.00104 *D DEL0
*I *847:Z O *C 37.5 141.8 *L 0 *D CKAN2D0

*CAP
1 *627:I 0.000294340996

*RES
1 *847:Z *627:I 4.35911
*END

*D_NET *356 1.113e-05

*CONN
*I *564:Z O *C 42.3 139.2 *L 0 *D DEL01
*I *645:I I *C 42.5 139.6 *L 0.00103 *D DEL015

*CAP
1 *564:Z 1.113e-05

*RES
1 *564:Z *645:I 0.258282
*END

*D_NET *357 0.000948602

*CONN
*I *562:I I *C 49.9 141.6 *L 0.00103 *D DEL01
*I *837:Z O *C 46.7 143 *L 0 *D CKAN2D0

*CAP
1 *562:I 0.000248977
2 *357:2 0.000699627969

*RES
1 *562:I *357:2 7.44679022
2 *837:Z *357:2 3.97838
*END

*D_NET *358 0.00188598

*CONN
*I *559:Z O *C 41.1 145.6 *L 0 *D DEL01
*I *641:I I *C 50.3 143.2 *L 0.00103 *D DEL015

*CAP
1 *559:Z 0.000204692
2 *358:2 3.74769e-05
3 *358:3 0.00109694008
4 *358:4 0.000546872

*RES
1 *358:2 *358:4 4.76671
2 *358:2 *358:3 11.8657999
3 *559:Z *358:3 3.77668
4 *641:I *358:4 2.99995
*END

*D_NET *359 0.00150381

*CONN
*I *563:I I *C 59.3 143.2 *L 0.00103 *D DEL01
*I *844:Z O *C 55.3 145.4 *L 0 *D CKAN2D0

*CAP
1 *844:Z 0.000270454
2 *359:2 5.28854e-05
3 *359:3 0.000587404
4 *359:4 0.00059306

*RES
1 *359:2 *359:4 4.84391
2 *359:2 *359:3 5.32161999
3 *844:Z *359:3 4.27055
4 *563:I *359:4 1.50003
*END

*D_NET *360 0.00195832

*CONN
*I *560:Z O *C 69.1 139.2 *L 0 *D DEL01
*I *636:I I *C 60.5 141.6 *L 0.00103 *D DEL015

*CAP
1 *360:2 0.00110078
2 *360:3 0.000103368
3 *360:4 0.000754161

*RES
1 *360:2 *360:5 7.04026985
2 *360:4 *360:5 0.387056
3 *360:3 *360:4 7.02297
4 *636:I *360:2 5.21231
5 *560:Z *360:3 1.49999
*END

*D_NET *361 0.00245245

*CONN
*I *634:I I *C 51.9 139.6 *L 0.00103 *D DEL015
*I *851:Z O *C 62.1 145.4 *L 0 *D CKAN2D0

*CAP
1 *361:2 0.00074274
2 *361:3 0.00170971

*RES
1 *361:2 *361:3 12.7104998
2 *634:I *361:3 6.06879
3 *851:Z *361:2 5.82015
*END

*D_NET *362 0.00326222

*CONN
*I *619:I I *C 46.1 141.6 *L 0.00103 *D DEL015
*I *853:Z O *C 64.3 145.4 *L 0 *D CKAN2D0

*CAP
1 *619:I 0.000255013
2 *362:2 0.000773524
3 *362:3 0.00223366

*RES
1 *362:2 *362:3 15.1117001
2 *619:I *362:3 9.68301
3 *853:Z *362:2 4.54117
*END

*D_NET *363 0.00134569

*CONN
*I *635:I I *C 70.7 139.6 *L 0.00103 *D DEL015
*I *855:Z O *C 68.7 145.4 *L 0 *D CKAN2D0

*CAP
1 *363:2 0.000799736016
2 *363:3 0.000490959
3 *363:4 5.49998e-05

*RES
1 *363:2 *363:4 4.23835
2 *855:Z *363:2 4.02404
3 *363:3 *363:4 4.54391003
4 *635:I *363:3 2.99997
*END

*D_NET *364 0.0104131

*CONN
*I *544:Z O *C 27.9 145.6 *L 0 *D DEL01
*I *623:I I *C 96.9 143.2 *L 0.00103 *D DEL015

*CAP
1 *544:Z 0.000603396
2 *623:I 0.000331221
3 *364:2 9.18987e-05
4 *364:3 0.00316146
5 *364:4 0.00113327
6 *364:5 0.000366051
7 *364:6 1.89586e-05
8 *364:7 9.78806e-05
9 *364:8 7.90184e-05
10 *364:9 0.000123159
11 *364:10 0.000475461
12 *364:11 0.000212501
13 *364:12 0.000137824
14 *364:4 *223:6 0.000698783984
15 *623:I *373:4 0.000887934063
16 *364:2 *887:A2 0.000404703008
17 *364:3 *262:4 0.000728605
18 *364:3 *766:Z 0.000861002969

*RES
1 *364:7 *364:8 1.42182
2 *364:11 *364:12 4.05096
3 *364:6 *364:7 6.64585
4 *364:4 *364:3 36.8012009
5 *364:10 *364:2 3.24515
6 *364:8 *364:9 4.85004
7 *364:9 *364:10 6.8918
8 *364:5 *364:13 9.39628
9 *364:4 *364:12 6.52231
10 *364:3 *364:13 0.326256
11 *623:I *364:6 7.9402
12 *364:2 *364:11 1.45776
13 *544:Z *364:5 5.57723
*END

*D_NET *365 0.00192892

*CONN
*I *637:I I *C 78.7 139.6 *L 0.00103 *D DEL015
*I *861:Z O *C 73.1 145.4 *L 0 *D CKAN2D0

*CAP
1 *637:I 0.000285705
2 *861:Z 0.000487173
3 *365:2 0.000211884
4 *365:3 0.000944163047

*RES
1 *861:Z *365:3 6.89921
2 *637:I *365:2 5.35521
3 *365:2 *365:3 7.52049017
*END

*D_NET *366 0.0101651

*CONN
*I *552:Z O *C 36.7 145.6 *L 0 *D DEL01
*I *633:I I *C 83.1 141.6 *L 0.00103 *D DEL015

*CAP
1 *633:I 0.000145558
2 *366:2 0.000113958
3 *366:3 0.000591004
4 *366:4 0.00293331
5 *366:5 0.000640373
6 *366:6 0.00026699
7 *366:7 0.000874331
8 *366:2 *19:3 0.00204215
9 *633:I *369:2 0.000480765
10 *633:I *378:2 0.0020767

*RES
1 *366:2 *366:4 8.66746
2 *366:2 *366:3 45.2361984
3 *633:I *366:6 9.46401
4 *366:6 *366:7 8.75996
5 *366:4 *366:7 17.3991
6 *366:3 *366:5 5.805
7 *552:Z *366:5 1.49991
*END

*D_NET *367 0.00418082

*CONN
*I *614:I I *C 46.5 139.6 *L 0.00104 *D DEL0
*I *867:Z O *C 66.9 143 *L 0 *D CKAN2D0

*CAP
1 *614:I 0.000687875
2 *867:Z 0.00021147
3 *367:2 0.000332169
4 *367:3 0.00294929

*RES
1 *367:2 *367:3 26.3166008
2 *614:I *367:3 9.02666
3 *867:Z *367:2 5.12992
*END

*D_NET *368 0.0109675

*CONN
*I *548:Z O *C 32.3 145.6 *L 0 *D DEL01
*I *624:I I *C 95.3 145.2 *L 0.00103 *D DEL015

*CAP
1 *548:Z 0.000241518
2 *624:I 0.000285301
3 *368:2 5.91246e-05
4 *368:3 0.00206873016
5 *368:4 4.18891e-05
6 *368:5 0.000755551
7 *368:6 0.000136463
8 *368:7 0.000498156
9 *368:8 2.86627e-05
10 *368:9 0.000386125
11 *368:10 3.10302e-05
12 *624:I *239:2 0.00131924
13 *624:I *33:2 0.000921897031
14 *548:Z *377:3 0.000975566016
15 *548:Z *379:4 0.00321824

*RES
1 *368:8 *368:9 7.11999
2 *368:7 *368:8 0.132093
3 *368:6 *368:7 8.60804
4 *368:2 *368:3 65.5820007
5 *548:Z *368:3 4.80937
6 *368:9 *368:10 0.132093
7 *368:4 *368:6 5.37677
8 *368:2 *368:5 2.00841
9 *368:5 *368:10 11.8703
10 *624:I *368:4 4.55319
*END

*D_NET *369 0.0145838

*CONN
*I *543:Z O *C 24.3 142.8 *L 0 *D BUFFD2
*I *622:I I *C 99.3 143.2 *L 0.00103 *D DEL015

*CAP
1 *369:2 0.000120946
2 *369:3 0.000750036
3 *369:4 0.00088458
4 *369:5 0.00102189
5 *369:6 0.000325529
6 *369:7 0.000600255
7 *369:8 0.000266252
8 *369:9 0.000182683
9 *369:10 1.12746e-06
10 *369:11 0.00223903984
11 *369:12 0.00039902
12 *369:13 0.000251834
13 *369:7 *208:3 0.000405503984
14 *369:2 *633:I 0.000480765
15 *369:3 *306:2 0.00112336
16 *369:4 *310:4 0.000696397031
17 *369:5 *378:7 0.000687927031
18 *369:3 *317:3 0.00414667

*RES
1 *369:8 *369:9 2.5248
2 *369:11 *369:13 42.9333992
3 *369:9 *369:2 7.09355
4 *369:5 *369:8 3.53498
5 *369:3 *369:4 24.1972
6 *543:Z *369:7 8.20789
7 *622:I *369:6 4.35911
8 *369:6 *369:5 12.1844
9 *369:4 *369:13 1.88803
10 *369:3 *369:12 7.13089
11 *369:2 *369:10 0.132333
12 *369:7 *369:11 8.11028
13 *369:10 *369:12 5.9982
*END

*D_NET *370 0.00726357

*CONN
*I *551:Z O *C 69.7 142.8 *L 0 *D CKBD0
*I *616:I I *C 109.7 141.6 *L 0.00103 *D DEL015

*CAP
1 *551:Z 5.79683e-05
2 *616:I 0.000519949
3 *370:2 0.000337161
4 *370:3 0.00186589
5 *370:4 0.000430776
6 *370:5 0.000769076
7 *370:6 0.000429495
8 *370:7 0.000769731
9 *370:5 *869:Z 0.000317822012
10 *370:3 *140:2 0.000413356992
11 *370:3 *398:5 0.000814195
12 *370:2 *378:3 0.000230664004
13 *370:3 *241:8 0.000307496992

*RES
1 *370:5 *370:7 7.60972
2 *370:2 *370:5 9.2283
3 *616:I *370:6 9.37871
4 *370:4 *370:2 4.79282
5 *370:3 *370:6 32.2122993
6 *370:3 *370:4 5.9125
7 *551:Z *370:7 2.53182
*END

*D_NET *371 0.00387124

*CONN
*I *621:I I *C 101.7 145.2 *L 0.00104 *D DEL0
*I *874:Z O *C 77.9 145.4 *L 0 *D CKAN2D0

*CAP
1 *371:2 0.000179725
2 *371:3 0.000286288
3 *371:4 0.00249593
4 *371:5 0.000408352
5 *371:6 0.000500938

*RES
1 *371:2 *371:3 3.51327
2 *371:4 *371:6 5.64144
3 *371:3 *371:4 25.3770008
4 *371:2 *371:5 4.4124
5 *874:Z *371:6 1.5001
6 *621:I *371:5 2.99981
*END

*D_NET *372 0.00445908

*CONN
*I *618:I I *C 110.5 143.2 *L 0.00104 *D DEL0
*I *875:Z O *C 81.7 143 *L 0 *D CKAN2D0

*CAP
1 *372:2 8.2919e-05
2 *372:3 0.00311946
3 *372:4 0.000435825
4 *372:5 0.00082086

*RES
1 *372:2 *372:4 5.44098
2 *372:4 *372:5 3.27347
3 *372:3 *372:5 28.2686005
4 *875:Z *372:3 1.49979
5 *618:I *372:2 3
*END

*D_NET *373 0.01117

*CONN
*I *549:Z O *C 34.5 145.6 *L 0 *D DEL01
*I *676:I I *C 98.3 145.2 *L 0.00105 *D DEL1

*CAP
1 *676:I 4.24165e-05
2 *373:2 7.69766e-05
3 *373:3 2.44711e-06
4 *373:4 0.000129868
5 *373:5 0.00129151
6 *373:6 0.00077569
7 *373:7 0.00281353
8 *373:8 0.000341092
9 *373:9 0.000684718
10 *373:10 0.000162024
11 *373:11 3.30574e-06
12 *373:2 *379:4 0.00207537
13 *373:2 *30:2 0.000702667031
14 *373:3 *239:9 0.00118045
15 *373:4 *623:I 0.000887934063

*RES
1 *373:9 *373:10 0.132021
2 *373:3 *373:6 4.00559
3 *373:5 *373:8 3.6357
4 *373:2 *373:5 35.2536
5 *676:I *373:4 2.65294
6 *373:10 *373:11 2.33086
7 *373:6 *373:11 6.60561
8 *373:4 *373:9 10.7244
9 *373:2 *373:7 2.47084
10 *373:3 *373:7 37.2937012
11 *549:Z *373:8 1.50003
*END

*D_NET *374 0.0114497

*CONN
*I *545:Z O *C 28.9 142 *L 0 *D DEL01
*I *673:I I *C 102.5 143.2 *L 0.00105 *D DEL1

*CAP
1 *673:I 0.000239093
2 *374:2 0.000582668
3 *374:3 0.000779826
4 *374:5 0.0014455
5 *374:6 0.00333524
6 *374:6 *208:4 0.000356584023
7 *374:6 *154:2 0.00280417
8 *374:2 *18:2 0.00190667

*RES
1 *374:5 *374:2 9.95921
2 *545:Z *374:6 5.27712
3 *673:I *374:3 5.57203
4 *374:4 *374:5 6.59432
5 *374:6 *374:2 68.2940979
6 *374:3 *374:4 4.16417
*END

*D_NET *375 0.0139336

*CONN
*I *558:I I *C 40.3 143.2 *L 0.00103 *D DEL01
*I *880:Z O *C 105.9 141.8 *L 0 *D AN2D2

*CAP
1 *880:Z 0.00025184
2 *375:2 0.000373738
3 *375:3 3.4448e-05
4 *375:4 2.53008e-06
5 *375:5 0.000842452
6 *375:6 0.00425151
7 *375:2 *297:2 1.3389e-05
8 *375:3 *297:2 1.9768e-05
9 *375:3 *297:3 1.5279e-05
10 *375:3 *297:4 0.00122623
11 *375:6 *297:3 0.00125997
12 *375:6 *297:4 0.00231257
13 *375:6 *297:5 1.78520115e-05
14 *375:2 *303:2 0.00210588
15 *375:4 *312:2 0.0012061

*RES
1 *375:2 *375:3 1.22115
2 *375:4 *375:6 2.47046
3 *375:3 *375:6 83.8880005
4 *880:Z *375:2 11.9811
5 *375:5 *375:7 8.0245
6 *375:4 *375:5 20.2782
7 *558:I *375:7 1.50019
*END

*D_NET *376 0.00982241

*CONN
*I *541:Z O *C 23.5 142.8 *L 0 *D DEL01
*I *671:I I *C 90.1 143.2 *L 0.00105 *D DEL1

*CAP
1 *541:Z 0.000107093
2 *671:I 5.08395e-05
3 *376:2 4.61587e-05
4 *376:3 0.000757037
5 *376:4 3.73894e-05
6 *376:5 0.000414724
7 *376:6 2.94378e-05
8 *376:7 0.000515754
9 *376:8 0.000170142
10 *376:9 0.000929463
11 *376:10 0.000818056
12 *376:11 0.000261444
13 *376:12 0.000127423
14 *376:13 0.0018479
15 *376:5 *875:A1 0.000779788984
16 *376:9 *234:3 0.000790973984
17 *376:9 *417:3 0.00213876016

*RES
1 *541:Z *376:10 3.00021
2 *376:6 *376:7 6.64178
3 *376:9 *376:11 2.66481
4 *376:4 *376:5 4.33492
5 *376:3 *376:4 0.132044
6 *376:5 *376:6 0.3262
7 *376:2 *376:3 7.51088
8 *376:11 *376:13 30.1520996
9 *671:I *376:2 3.19437
10 *376:12 *376:13 1.69403
11 *376:7 *376:8 1.314
12 *376:10 *376:12 15.1745
13 *376:8 *376:9 17.3783
*END

*D_NET *377 0.0108744

*CONN
*I *542:Z O *C 25.7 145.6 *L 0 *D DEL01
*I *672:I I *C 105.7 145.2 *L 0.00105 *D DEL1

*CAP
1 *542:Z 0.000269118
2 *672:I 1.79929e-05
3 *377:2 0.00195304
4 *377:3 0.00220195
5 *377:4 0.000503449
6 *377:5 0.00231208984
7 *377:6 9.21872e-05
8 *377:7 7.9063e-05
9 *377:3 *890:A2 0.000401521992
10 *377:4 *281:3 0.000392455977
11 *377:4 *398:2 0.000373313008
12 *542:Z *267:2 0.000690742031
13 *377:2 *110:2 0.000611933008
14 *377:3 *548:Z 0.000975566016

*RES
1 *377:2 *377:7 19.0303
2 *672:I *377:4 0.522835
3 *377:3 *377:7 40.9863014
4 *377:5 *377:6 33.0149
5 *377:5 *377:2 4.71928
6 *377:4 *377:6 7.34471
7 *542:Z *377:3 3.05321
*END

*D_NET *378 0.011896

*CONN
*I *540:Z O *C 23.5 145.6 *L 0 *D DEL01
*I *669:I I *C 90.1 141.6 *L 0.00105 *D DEL1

*CAP
1 *378:2 0.00108609
2 *378:3 0.000143628
3 *378:4 0.00370869
4 *378:5 0.000501736
5 *378:6 0.000699295
6 *378:7 8.33019e-05
7 *378:8 0.00049619
8 *378:3 *19:3 0.00067334
9 *378:4 *869:Z 0.00150844
10 *378:7 *369:5 0.000687927031
11 *378:3 *370:2 0.000230664004
12 *378:2 *633:I 0.0020767

*RES
1 *378:3 *378:5 4.95005
2 *378:3 *378:4 77.2397003
3 *378:7 *378:2 14.0051
4 *378:6 *378:2 2.93114
5 *378:5 *378:6 4.55405
6 *378:4 *378:8 5.25059
7 *540:Z *378:8 1.50034
8 *669:I *378:7 2.9995
*END

*D_NET *379 0.0128248

*CONN
*I *547:Z O *C 30.1 145.6 *L 0 *D DEL01
*I *670:I I *C 109.1 145.2 *L 0.00105 *D DEL1

*CAP
1 *547:Z 0.00032299
2 *379:2 6.27683e-05
3 *379:3 0.00028347
4 *379:4 0.0049146
5 *379:5 0.000332215
6 *379:3 *30:2 0.000281212988
7 *379:2 *239:2 0.00133389
8 *379:4 *548:Z 0.00321824
9 *379:4 *373:2 0.00207537

*RES
1 *379:2 *379:3 2.4332
2 *379:3 *379:4 118.383003
3 *379:2 *379:5 4.76704
4 *547:Z *379:4 5.00368
5 *670:I *379:5 3.0004
*END

*D_NET *380 0.00450001

*CONN
*I *602:I I *C 42.3 143.2 *L 0.00105 *D DEL1
*I *887:Z O *C 76.7 143 *L 0 *D CKAN2D0

*CAP
1 *602:I 0.00041564
2 *380:2 9.75954e-05
3 *380:3 0.000705502
4 *380:4 0.000469625
5 *380:5 4.43455e-05
6 *380:6 0.000403679
7 *380:7 3.89089e-05
8 *380:8 0.000691573
9 *380:9 0.00042453
10 *380:10 0.00096295
11 *380:11 0.000245664

*RES
1 *380:10 *380:11 10.4046001
2 *380:7 *380:8 6.16217
3 *380:6 *380:7 0.13209
4 *380:5 *380:6 3.9465
5 *380:8 *380:9 0.13209
6 *380:4 *380:5 3.78885
7 *380:3 *380:4 0.13209
8 *380:2 *380:3 6.70228
9 *380:9 *380:10 3.49593
10 *602:I *380:11 8.15892
11 *887:Z *380:2 1.49998
*END

*D_NET *381 0.00212582

*CONN
*I *651:I I *C 162.9 145.2 *L 0.00105 *D DEL1
*I *872:Z O *C 146.5 145.4 *L 0 *D CKAN2D0

*CAP
1 *651:I 0.000380899
2 *872:Z 0.000187546
3 *381:2 0.000704668984
4 *381:3 4.17844e-05
5 *381:4 0.000700766
6 *381:5 0.000110149

*RES
1 *872:Z *381:2 2.26235
2 *381:4 *381:5 0.132114
3 *381:3 *381:4 8.02431965
4 *651:I *381:3 6.73954
5 *381:2 *381:5 7.16319
*END

*D_NET *382 0.00214857

*CONN
*I *610:I I *C 136.1 145.2 *L 0.00105 *D DEL1
*I *889:Z O *C 146.3 143 *L 0 *D CKAN2D0

*CAP
1 *610:I 0.000592858
2 *889:Z 8.58502e-05
3 *382:2 0.00112614
4 *382:3 0.000223132
5 *382:4 0.000120596

*RES
1 *382:3 *382:4 2.33069
2 *889:Z *382:2 1.69419
3 *382:2 *382:3 11.1892004
4 *610:I *382:4 9.25718
*END

*D_NET *383 0.000809429

*CONN
*I *604:I I *C 113.7 145.2 *L 0.00105 *D DEL1
*I *891:Z O *C 113.7 141.8 *L 0 *D CKAN2D0

*CAP
1 *604:I 5.13271e-05
2 *891:Z 0.000131109
3 *383:2 0.000159157
4 *383:3 0.000467833008

*RES
1 *891:Z *383:3 3.58847
2 *383:2 *383:3 6.51687002
3 *604:I *383:2 3.77691
*END

*D_NET *384 0.00277844

*CONN
*I *611:I I *C 139.5 145.2 *L 0.00105 *D DEL1
*I *892:Z O *C 151.7 139.4 *L 0 *D CKAN2D0

*CAP
1 *611:I 0.000287502
2 *892:Z 0.00104518
3 *384:2 0.000102708
4 *384:3 0.000353608
5 *384:4 0.000651031
6 *384:5 0.000338426

*RES
1 *384:2 *384:4 7.32211
2 *892:Z *384:2 8.10138988
3 *384:4 *384:5 0.132147
4 *384:3 *384:5 7.99669
5 *611:I *384:3 4.7788
*END

*D_NET *385 0.00333939

*CONN
*I *609:I I *C 132.7 145.2 *L 0.00105 *D DEL1
*I *894:Z O *C 150.3 139.4 *L 0 *D CKAN2D0

*CAP
1 *609:I 0.000150277
2 *894:Z 0.000171349
3 *385:2 0.000601435
4 *385:3 0.000248736
5 *385:4 0.000476555
6 *385:5 0.00101614
7 *385:6 6.94482e-05
8 *385:7 0.000605436

*RES
1 *385:5 *385:6 0.908938
2 *385:4 *385:5 8.86431026
3 *385:6 *385:7 3.49589
4 *385:3 *385:4 3.34508
5 *894:Z *385:2 4.07778
6 *609:I *385:7 5.90052
7 *385:2 *385:3 5.53411
*END

*D_NET *386 0.00414333

*CONN
*I *608:I I *C 120.5 139.6 *L 0.00105 *D DEL1
*I *895:Z O *C 147.3 139.4 *L 0 *D CKAN2D0

*CAP
1 *386:2 0.000607717
2 *386:3 9.65195e-05
3 *386:4 0.000959703047
4 *386:5 0.000460851
5 *386:6 3.0079e-05
6 *386:7 0.000826954
7 *386:8 0.000380498
8 *386:9 3.7035e-05
9 *386:10 0.000743966

*RES
1 *386:9 *386:10 5.50672
2 *386:8 *386:9 3.30168
3 *386:7 *386:8 0.132156
4 *386:6 *386:7 6.41707
5 *386:4 *386:5 0.132156
6 *386:3 *386:4 8.54983044
7 *386:5 *386:6 3.88432
8 *386:2 *386:10 5.88571
9 *895:Z *386:3 1.50003
10 *608:I *386:2 3.00006
*END

*D_NET *387 0.00421283

*CONN
*I *607:I I *C 123.3 143.2 *L 0.00105 *D DEL1
*I *832:Z O *C 149.1 139.4 *L 0 *D CKAN2D0

*CAP
1 *607:I 0.000451785
2 *832:Z 0.000611395
3 *387:2 0.000105931
4 *387:3 0.00246177
5 *387:4 0.000581945

*RES
1 *387:2 *387:3 22.7313004
2 *832:Z *387:2 5.31447
3 *387:3 *387:4 4.10222
4 *607:I *387:4 7.63838
*END

*D_NET *388 0.00477245

*CONN
*I *606:I I *C 120.9 145.2 *L 0.00105 *D DEL1
*I *833:Z O *C 143.3 139.4 *L 0 *D CKAN2D0

*CAP
1 *388:2 0.000423803
2 *388:3 0.00213350016
3 *388:4 0.00134964
4 *388:5 0.000756776
5 *388:6 0.000108734

*RES
1 *388:2 *388:6 5.11086
2 *388:2 *388:3 19.2952003
3 *606:I *388:5 7.82395
4 *388:4 *388:5 12.3463
5 *388:3 *388:4 0.170176
6 *833:Z *388:6 1.50008
*END

*D_NET *389 0.00330007

*CONN
*I *605:I I *C 117.5 145.2 *L 0.00105 *D DEL1
*I *835:Z O *C 137.3 139.4 *L 0 *D CKAN2D0

*CAP
1 *605:I 7.27404e-05
2 *835:Z 0.000288159
3 *389:2 0.000553116
4 *389:3 4.34352e-05
5 *389:4 0.000557771
6 *389:5 0.000228528
7 *389:6 0.00155633

*RES
1 *605:I *389:4 2.27654
2 *389:5 *389:6 14.0459003
3 *389:2 *389:3 3.94162
4 *835:Z *389:2 3.03053
5 *389:4 *389:6 5.39624
6 *389:3 *389:5 3.25986
*END

*D_NET *390 0.000789459

*CONN
*I *581:I I *C 133.7 139.6 *L 0.00104 *D DEL0
*I *836:Z O *C 130.9 139.4 *L 0 *D CKAN2D0

*CAP
1 *836:Z 0.000114694
2 *390:2 9.34951e-05
3 *390:3 0.000581273008

*RES
1 *390:2 *390:3 5.86268997
2 *836:Z *390:3 2.99996
3 *581:I *390:2 2.99996
*END

*D_NET *391 0.00196765

*CONN
*I *580:I I *C 136.3 143.2 *L 0.00104 *D DEL0
*I *838:Z O *C 127.3 139.4 *L 0 *D CKAN2D0

*CAP
1 *838:Z 0.000214511
2 *391:2 0.000579585
3 *391:3 0.00117355

*RES
1 *391:2 *391:3 10.8027
2 *580:I *391:2 6.40685
3 *838:Z *391:3 3.58255
*END

*D_NET *392 0.00867624

*CONN
*I *579:I I *C 201.9 141.6 *L 0.00104 *D DEL0
*I *839:Z O *C 133.5 139.4 *L 0 *D CKAN2D0

*CAP
1 *839:Z 0.00042016
2 *392:2 0.000176271
3 *392:3 0.00113311
4 *392:4 0.000217466
5 *392:5 0.000564516
6 *392:6 9.82773e-06
7 *392:7 0.000673602
8 *392:8 0.000361429
9 *392:9 0.000309583
10 *392:10 0.000299658
11 *392:11 0.00128555
12 *392:2 *238:5 0.00141705
13 *392:3 *5:3 0.00047332
14 *392:4 *135:3 0.0013347

*RES
1 *392:4 *392:11 7.25251
2 *579:I *392:9 4.49995
3 *839:Z *392:8 4.73531
4 *392:10 *392:11 22.0075
5 *392:3 *392:10 3.16283
6 *392:2 *392:3 26.5946999
7 *392:6 *392:7 4.91752
8 *392:5 *392:6 0.520645
9 *392:9 *392:2 5.84762
10 *392:7 *392:8 3.22167
11 *392:4 *392:5 3.85756
*END

*D_NET *393 0.0110678

*CONN
*I *526:I I *C 227.9 145.2 *L 0.00103 *D DEL015
*I *841:Z O *C 126.1 139.4 *L 0 *D CKAN2D0

*CAP
1 *393:2 4.89768e-05
2 *393:4 0.000387798
3 *393:5 0.000468379
4 *393:6 0.000350084
5 *393:7 0.00572138
6 *393:7 *249:3 0.000444586016
7 *393:2 *135:3 0.0024667
8 *393:2 *87:11 0.00117990008

*RES
1 *393:2 *393:7 28.704
2 *393:4 *393:6 4.35454
3 *393:3 *393:5 5.57718
4 *393:6 *393:7 73.6462021
5 *841:Z *393:4 1.50021
6 *526:I *393:3 3.00042
7 *393:5 *393:2 1.50021
*END

*D_NET *394 0.0150564

*CONN
*I *843:Z O *C 124.9 139.4 *L 0 *D CKAN2D0
*I *767:D[17] I *C 243.055 134.265 *L 0.00183 *D sram00

*CAP
1 *394:2 0.000262579
2 *394:3 0.00076865
3 *394:4 7.45404e-05
4 *394:5 0.000510438
5 *394:6 4.28033e-06
6 *394:7 0.000873048
7 *394:8 5.77496e-05
8 *394:9 6.75109e-06
9 *394:10 0.000635698
10 *394:11 1.4668e-05
11 *394:13 0.000747144
12 *394:14 6.87637e-05
13 *394:15 0.00114029
14 *394:16 1.58859e-05
15 *394:17 0.000110836
16 *394:18 1.22668e-05
17 *394:19 0.000346724
18 *394:20 0.000613357
19 *394:21 0.000145305
20 *394:22 2.70566e-05
21 *394:23 0.000195521
22 *394:24 1.75389e-05
23 *394:25 1.93311e-05
24 *394:26 6.33349e-06
25 *394:27 0.00112527
26 *394:28 4.14461e-05
27 *394:17 *77:2 0.000669311016
28 *394:13 *32:2 0.00034213
29 *394:13 *45:2 0.000192022988
30 *394:13 *46:2 0.000285635
31 *394:6 *60:5 0.000429284023
32 *394:7 *403:2 0.000608232969
33 *394:7 *408:3 0.00157596
34 *394:2 *12:3 0.00311234

*RES
1 *394:21 *394:22 0.132067
2 *394:8 *394:9 0.132011
3 *394:3 *394:4 6.58379
4 *394:27 *394:28 0.132171
5 *394:22 *394:23 4.91711
6 *394:18 *394:19 4.06761
7 *394:12 *394:13 34.5918
8 *394:7 *394:28 12.4026
9 *394:24 *394:25 1.42153
10 *394:23 *394:24 0.132067
11 *394:4 *394:7 2.66495
12 *394:5 *394:6 3.62591
13 *394:11 *394:2 2.90296
14 *394:9 *394:10 9.38191
15 *394:10 *394:11 0.132011
16 *394:13 *394:14 0.132011
17 *394:26 *394:27 18.1262
18 *394:25 *394:26 0.132067
19 *394:19 *394:20 6.62368
20 *394:17 *394:18 0.132067
21 *394:6 *394:8 2.11356
22 *843:Z *394:3 1.69416
23 *394:16 *394:17 5.88811
24 *394:15 *394:16 0.132067
25 *394:2 *394:12 0.132011
26 *394:20 *394:21 2.19832
27 *394:14 *394:15 19.0931
28 *394:28 *767:D[17] 0.0001
*END

*D_NET *395 0.0107508

*CONN
*I *603:I I *C 214.9 143.2 *L 0.00105 *D DEL1
*I *846:Z O *C 145.3 139.4 *L 0 *D CKAN2D0

*CAP
1 *395:2 0.000246481
2 *395:3 0.000595663
3 *395:4 0.000177183
4 *395:5 0.000248235
5 *395:6 0.00100463
6 *395:7 0.000412556
7 *395:8 0.000206804
8 *395:9 0.00255426
9 *395:10 0.000633508
10 *395:3 *396:3 0.000415866992
11 *395:2 *407:3 0.00144181
12 *395:3 *506:3 0.0003902
13 *395:4 *410:4 0.00242362

*RES
1 *395:9 *395:11 3.82982
2 *395:2 *395:7 5.40588
3 *395:6 *395:2 4.65829
4 *395:5 *395:4 3.89185
5 *395:3 *395:10 4.91822
6 *395:3 *395:5 2.38097
7 *603:I *395:10 7.32275
8 *395:8 *395:9 51.4641991
9 *395:7 *395:8 3.73087
10 *395:4 *395:6 15.8839
11 *846:Z *395:11 1.49989
*END

*D_NET *396 0.0127273

*CONN
*I *613:I I *C 217.9 139.6 *L 0.00105 *D DEL1
*I *831:Z O *C 113.7 139.2 *L 0 *D AN2XD1

*CAP
1 *831:Z 0.000568745
2 *396:2 0.000210298
3 *396:3 0.00214137
4 *396:4 0.000463694
5 *396:5 3.08454e-05
6 *396:6 0.000598871
7 *396:7 0.00172316
8 *396:8 9.42026e-05
9 *396:9 0.00112945
10 *396:3 *77:2 0.000797496953
11 *396:4 *32:3 0.000182804004
12 *396:4 *46:2 0.00112533
13 *396:7 *56:3 0.00185089
14 *831:Z *435:7 0.000430893008
15 *396:2 *292:4 0.000963347969
16 *396:3 *395:3 0.000415866992

*RES
1 *396:8 *396:9 17.7358
2 *396:7 *396:8 0.132225
3 *396:2 *396:7 31.7977
4 *831:Z *396:9 6.57223
5 *396:6 *396:2 0.132225
6 *396:5 *396:6 10.3545
7 *396:3 *396:5 0.132225
8 *396:4 *396:3 41.2644005
9 *613:I *396:4 7.70685
*END

*D_NET *397 0.00155866

*CONN
*I *612:I I *C 113.9 141.6 *L 0.00105 *D DEL1
*I *849:Z O *C 106.9 139.2 *L 0 *D AN2XD1

*CAP
1 *849:Z 0.000338168
2 *397:2 9.0139e-05
3 *397:3 0.00113036

*RES
1 *397:2 *397:3 10.4897003
2 *849:Z *397:3 4.77876
3 *612:I *397:2 3.00001
*END

*D_NET *398 0.0116733

*CONN
*I *666:I I *C 169.7 145.2 *L 0.00105 *D DEL1
*I *850:Z O *C 86.5 142 *L 0 *D AN2XD1

*CAP
1 *850:Z 0.000184839
2 *398:2 0.00131339
3 *398:4 0.00140397
4 *398:5 0.000158489
5 *398:6 2.03306e-05
6 *398:7 0.00100987
7 *398:9 0.000635177
8 *398:11 7.4767e-06
9 *398:12 0.000967836
10 *398:13 0.000639269
11 *398:2 *377:4 0.000373313008
12 *398:3 *491:2 0.00157535
13 *398:4 *241:2 0.000842631016
14 *398:5 *370:3 0.000814195
15 *398:3 *510:7 0.00122663
16 *398:4 *140:2 0.000500545977

*RES
1 *850:Z *398:12 2.50703
2 *398:9 *398:10 0.170204
3 *398:3 *398:4 39.6958008
4 *398:3 *398:13 5.80815
5 *398:7 *398:8 0.170204
6 *398:6 *398:7 22.9449
7 *398:8 *398:9 10.0493
8 *398:11 *398:2 23.8807
9 *398:10 *398:5 5.18306
10 *398:5 *398:11 0.170204
11 *398:2 *398:12 7.83365
12 *398:4 *398:6 0.170204
13 *666:I *398:13 3.00008
*END

*D_NET *399 1.0537e-05

*CONN
*I *668:I I *C 102.1 139.6 *L 0.00105 *D DEL1
*I *845:Z O *C 101.9 139.2 *L 0 *D AN2XD1

*CAP
1 *845:Z 1.05370007e-05

*RES
1 *845:Z *668:I 0.243317
*END

*D_NET *400 0.00312491

*CONN
*I *662:I I *C 91.7 139.6 *L 0.00105 *D DEL1
*I *852:Z O *C 74.1 139.2 *L 0 *D AN2XD1

*CAP
1 *400:2 0.000364774
2 *400:3 0.00276013

*RES
1 *400:2 *400:3 23.0216999
2 *852:Z *400:3 3.77665
3 *662:I *400:2 5.99184
*END

*D_NET *401 0.000331111

*CONN
*I *667:I I *C 100.5 141.6 *L 0.00105 *D DEL1
*I *842:Z O *C 100.7 139.2 *L 0 *D AN2XD1

*CAP
1 *667:I 0.000331111016

*RES
1 *842:Z *667:I 5.85911
*END

*D_NET *402 0.000381536

*CONN
*I *665:I I *C 97.1 141.6 *L 0.00105 *D DEL1
*I *854:Z O *C 97.5 139.2 *L 0 *D AN2XD1

*CAP
1 *854:Z 0.000381536016

*RES
1 *854:Z *665:I 6.06772
*END

*D_NET *403 0.0128044

*CONN
*I *664:I I *C 196.5 139.6 *L 0.00105 *D DEL1
*I *856:Z O *C 91.5 139.2 *L 0 *D AN2XD1

*CAP
1 *403:2 0.000892249
2 *403:3 0.000315621
3 *403:4 0.000622451
4 *403:5 0.000246226
5 *403:6 4.7417e-05
6 *403:7 0.000271549
7 *403:8 0.0025492
8 *403:9 0.000163723
9 *403:10 1.24475e-06
10 *403:11 0.000974753
11 *403:12 0.00010946
12 *403:13 0.00114781
13 *403:5 *32:2 0.000427231992
14 *403:5 *45:2 0.00117507008
15 *403:6 *46:2 0.000418636992
16 *403:4 *406:3 0.000878658984
17 *403:2 *394:7 0.000608232969
18 *403:3 *292:4 0.00131464
19 *403:4 *408:5 0.000640227031

*RES
1 *403:7 *403:8 38.1301003
2 *403:11 *403:12 0.132073
3 *403:5 *403:6 9.6902
4 *403:6 *403:7 0.132073
5 *664:I *403:5 6.96379
6 *403:4 *403:13 8.07274
7 *403:8 *403:3 3.4339
8 *856:Z *403:4 3.00335
9 *403:12 *403:13 14.6287
10 *403:10 *403:11 15.5997
11 *403:9 *403:2 13.6576
12 *403:3 *403:9 3.88422
13 *403:2 *403:10 0.132073
*END

*D_NET *404 0.00316534

*CONN
*I *655:I I *C 48.5 141.6 *L 0.00103 *D BUFFD2
*I *857:Z O *C 66.9 139.2 *L 0 *D AN2XD1

*CAP
1 *857:Z 0.000413561
2 *404:2 0.000615384
3 *404:3 0.000275615
4 *404:4 0.00151454
5 *404:5 0.00034624

*RES
1 *404:2 *404:5 5.20176
2 *404:4 *404:5 2.84862
3 *404:3 *404:4 13.5466995
4 *857:Z *404:3 6.57305
5 *655:I *404:2 1.50007
*END

*D_NET *405 0.00219865

*CONN
*I *660:I I *C 93.5 141.6 *L 0.00105 *D DEL1
*I *859:Z O *C 78.5 139.2 *L 0 *D AN2XD1

*CAP
1 *405:2 0.00115392992
2 *405:3 0.000471626
3 *405:4 0.00052202
4 *405:5 5.10803e-05

*RES
1 *405:2 *405:5 10.3889999
2 *405:4 *405:5 0.13205
3 *405:3 *405:4 5.11191
4 *660:I *405:3 7.59106
5 *859:Z *405:2 1.49995
*END

*D_NET *406 0.0177734

*CONN
*I *656:I I *C 203.3 139.6 *L 0.00105 *D DEL1
*I *860:Z O *C 76.1 139.2 *L 0 *D AN2XD1

*CAP
1 *406:2 0.000254425
2 *406:3 0.00327676
3 *406:4 0.000144971
4 *406:5 0.004048
5 *406:7 0.000929493
6 *406:8 2.25455e-05
7 *406:9 0.000676551
8 *406:10 0.000193027
9 *406:11 0.000254116
10 *406:12 0.000221811
11 *406:13 0.00116162
12 *406:2 *489:2 0.00397754
13 *406:2 *410:6 0.000582544023
14 *406:3 *403:4 0.000878658984
15 *406:4 *303:2 0.00115131

*RES
1 *406:2 *406:5 69.7388992
2 *406:11 *406:12 3.40628
3 *406:4 *406:3 42.08
4 *406:7 *406:8 0.170261
5 *406:6 *406:7 13.6986
6 *406:8 *406:9 10.5317
7 *406:13 *406:4 2.60286
8 *860:Z *406:3 4.16501
9 *656:I *406:2 6.49971
10 *406:10 *406:11 4.75986
11 *406:5 *406:6 0.170261
12 *406:12 *406:13 16.5185
13 *406:9 *406:10 3.82023
*END

*D_NET *407 0.0156922

*CONN
*I *659:I I *C 196.9 141.6 *L 0.00105 *D DEL1
*I *862:Z O *C 82.5 139.2 *L 0 *D AN2XD1

*CAP
1 *862:Z 7.64202e-05
2 *407:2 0.00383476
3 *407:3 0.000744716
4 *407:4 0.000366009
5 *407:5 0.000370749
6 *407:6 0.000338098
7 *407:7 0.000106614
8 *407:8 1.50383e-05
9 *407:9 4.34179e-05
10 *407:10 0.00339818
11 *407:9 *297:6 0.00147907
12 *407:2 *56:3 0.000475023008
13 *407:3 *124:2 0.000270944004
14 *407:8 *137:2 0.00202749984
15 *407:3 *395:2 0.00144181
16 *407:2 *435:3 0.00034771
17 *407:2 *82:6 0.000356185

*RES
1 *407:2 *407:9 4.06306
2 *407:7 *407:8 0.170332
3 *862:Z *407:10 6.6031
4 *407:9 *407:10 49.8674
5 *407:8 *407:2 65.2798996
6 *407:6 *407:7 9.31844
7 *407:4 *407:5 6.15585
8 *407:3 *407:4 4.67167
9 *407:5 *407:6 3.23531
10 *407:3 *407:11 6.35407
11 *659:I *407:11 3.00023
*END

*D_NET *408 0.0134729

*CONN
*I *658:I I *C 199.9 139.6 *L 0.00105 *D DEL1
*I *879:Z O *C 85.3 139.2 *L 0 *D AN2XD1

*CAP
1 *658:I 0.000224903
2 *408:2 0.00367008
3 *408:3 0.000136476
4 *408:4 6.64742e-05
5 *408:5 0.000396605
6 *408:6 0.000582475
7 *408:7 0.000263993
8 *408:8 0.000585947
9 *408:9 0.000337187
10 *408:10 0.000316354
11 *408:11 3.65692e-05
12 *408:12 0.00148366
13 *408:13 0.000675158
14 *408:14 3.31531e-05
15 *408:15 0.000358412
16 *408:16 5.09617e-06
17 *408:15 *295:3 0.000619635
18 *408:5 *865:A1 0.000405568008
19 *408:5 *403:4 0.000640227031
20 *408:2 *290:3 0.00105903992
21 *408:3 *394:7 0.00157596

*RES
1 *408:7 *408:8 4.97141
2 *408:2 *408:14 0.132155
3 *408:10 *408:13 3.44134
4 *408:6 *408:7 2.32101
5 *408:3 *408:16 19.3278
6 *408:4 *408:6 6.30359
7 *408:5 *408:12 4.96477
8 *408:11 *408:12 21.2802
9 *879:Z *408:5 1.69942
10 *408:14 *408:15 11.3295
11 *658:I *408:4 3.89757
12 *408:11 *408:3 1.89267
13 *408:8 *408:9 2.91272
14 *408:9 *408:10 4.10942
15 *408:15 *408:16 0.132155
16 *408:13 *408:2 43.5220985
*END

*D_NET *409 0.00143883

*CONN
*I *657:I I *C 93.5 143.2 *L 0.00105 *D DEL1
*I *865:Z O *C 88.5 139.2 *L 0 *D AN2XD1

*CAP
1 *865:Z 0.000334359
2 *409:2 0.000664751016
3 *409:3 0.000439719

*RES
1 *409:2 *409:3 5.47554
2 *657:I *409:2 6.78654003
3 *865:Z *409:3 4.92753
*END

*D_NET *410 0.0152532

*CONN
*I *663:I I *C 211.5 143.2 *L 0.00105 *D DEL1
*I *866:Z O *C 112.5 139.2 *L 0 *D AN2XD1

*CAP
1 *663:I 0.00026682
2 *866:Z 7.10772e-05
3 *410:2 0.000995742
4 *410:3 0.000167264
5 *410:4 0.000439591
6 *410:5 1.38762e-06
7 *410:6 0.000479061
8 *410:8 0.000234861
9 *410:9 0.000231667
10 *410:10 0.000188188
11 *410:11 1.6233e-05
12 *410:12 1.42947e-05
13 *410:13 0.00144346
14 *410:14 0.000809227
15 *410:15 9.36096e-06
16 *410:16 0.00140399
17 *410:18 0.000598375
18 *410:19 0.00121303
19 *410:20 0.000379416
20 *663:I *570:Z 0.00026969
21 *410:9 *46:2 0.000177667012
22 *410:4 *395:4 0.00242362
23 *410:6 *406:2 0.000582544023
24 *663:I *500:2 0.0002836
25 *410:2 *489:2 0.00255305

*RES
1 *410:4 *410:5 0.169875
2 *410:18 *410:19 0.0485356
3 *410:9 *410:10 4.37946
4 *410:12 *410:13 19.7055
5 *410:15 *410:16 18.9992
6 *410:3 *410:4 7.61341
7 *410:14 *410:15 16.0315
8 *410:7 *410:8 5.42579
9 *866:Z *410:19 15.4786
10 *410:5 *410:6 7.37073
11 *410:6 *410:7 0.170226
12 *663:I *410:20 4.13502
13 *410:17 *410:18 7.74178
14 *410:3 *410:20 8.32351
15 *410:16 *410:17 0.0485356
16 *410:13 *410:14 0.0485356
17 *410:2 *410:12 0.0485356
18 *410:10 *410:11 3.64967
19 *410:11 *410:2 23.0494995
20 *410:8 *410:9 0.170226
*END

*D_NET *411 0.0141555

*CONN
*I *661:I I *C 211.5 145.2 *L 0.00105 *D DEL1
*I *868:Z O *C 108.7 139.2 *L 0 *D AN2XD1

*CAP
1 *661:I 0.000321143
2 *868:Z 0.000296907
3 *411:2 0.000501145
4 *411:3 0.000217544
5 *411:4 5.14341e-05
6 *411:5 0.00239569
7 *411:6 0.000174189
8 *411:7 6.26202e-05
9 *411:8 0.000242366
10 *411:9 4.0906e-05
11 *411:10 8.24701e-05
12 *411:11 0.000404162
13 *411:12 9.32175e-06
14 *411:13 0.000233556
15 *411:14 8.55408e-06
16 *411:15 0.000265908
17 *411:16 3.61538e-05
18 *411:17 0.000623351
19 *411:6 *239:4 0.000944852031
20 *411:6 *235:3 0.00105142
21 *411:2 *243:4 0.00233944016
22 *411:3 *81:3 0.000373728984
23 *411:4 *605:Z 0.00101618
24 *411:5 *121:4 0.00246252984

*RES
1 *411:4 *411:17 9.96724
2 *411:16 *411:3 9.08888
3 *411:11 *411:12 0.132243
4 *411:7 *411:8 3.6269
5 *411:7 *411:17 5.53463
6 *411:2 *411:10 0.132243
7 *411:5 *411:9 0.326527
8 *411:9 *411:2 14.0447
9 *411:12 *411:13 8.67909
10 *661:I *411:6 4.94199
11 *411:3 *411:4 1.19019
12 *411:14 *411:15 7.44237
13 *411:10 *411:11 5.30607
14 *411:15 *411:16 1.19019
15 *411:13 *411:14 0.132243
16 *868:Z *411:8 3.45874
17 *411:6 *411:5 53.4981995
*END

*D_NET *412 0.00500596

*CONN
*I *789:B1 I *C 50.3 139.6 *L 0.000663 *D AOI22D0
*I *767:Q[63] O *C 9.945 134.195 *L 0 *D sram00

*CAP
1 *789:B1 0.000128735
2 *412:2 0.000553181
3 *412:3 0.000140796
4 *412:4 9.80312e-05
5 *412:5 0.000272141
6 *412:6 0.00240978
7 *412:7 0.000321929
8 *412:8 3.7874e-06
9 *412:9 4.4456e-05
10 *412:10 0.00050115
11 *412:2 *290:2 0.000532051016

*RES
1 *412:9 *412:10 7.15633
2 *412:7 *412:10 6.58368
3 *412:4 *412:6 30.2831
4 *412:3 *412:2 6.52113
5 *412:7 *412:8 0.520932
6 *412:2 *412:4 0.71851
7 *789:B1 *412:3 1.88832
8 *412:5 *412:8 4.44602
9 *412:6 *412:9 1.5
10 *412:10 *767:Q[63] 0.0001
*END

*D_NET *413 0.00588612

*CONN
*I *799:B1 I *C 51.7 139.6 *L 0.000663 *D AOI22D0
*I *767:Q[62] O *C 12.535 134.195 *L 0 *D sram00

*CAP
1 *413:2 0.000430322
2 *413:3 0.000238867
3 *413:4 0.00204149
4 *413:5 6.38598e-06
5 *413:6 9.09613e-06
6 *413:7 6.48567e-05
7 *413:8 0.000404747
8 *413:9 0.000195785
9 *413:2 *304:4 0.000695707031
10 *413:2 *314:2 0.00141408
11 *413:2 *303:3 0.0003848

*RES
1 *413:7 *413:9 2.88447
2 *413:6 *413:8 4.54343
3 *413:4 *413:5 0.133024
4 *413:2 *413:9 4.61486
5 *413:2 *413:4 37.6261
6 *413:3 *413:7 2.75814
7 *413:5 *413:6 0.524452
8 *799:B1 *413:3 1.5
9 *413:9 *767:Q[62] 0.0001
*END

*D_NET *414 0.00471872

*CONN
*I *806:B1 I *C 56.9 139.6 *L 0.000663 *D AOI22D0
*I *767:Q[61] O *C 18.345 134.195 *L 0 *D sram00

*CAP
1 *414:2 0.000440935
2 *414:3 0.000243418
3 *414:4 0.000250111
4 *414:5 0.00051703
5 *414:6 1.75565e-05
6 *414:7 0.000178911
7 *414:8 0.00163665
8 *414:9 3.4164e-05
9 *414:10 0.000729381
10 *414:11 5.99368e-07
11 *414:12 0.000656133
12 *414:13 1.38354e-05

*RES
1 *414:7 *414:8 18.3291
2 *414:2 *414:3 3.248
3 *414:12 *414:13 0.132267
4 *414:5 *414:6 1.91969
5 *414:6 *414:7 0.326825
6 *414:3 *414:5 4.41238
7 *414:10 *414:11 0.132267
8 *414:8 *414:9 0.326599
9 *414:9 *414:10 9.39002
10 *806:B1 *414:2 3.44158
11 *414:4 *414:13 3.66869
12 *414:11 *414:12 5.69771
13 *414:13 *767:Q[61] 0.0001
*END

*D_NET *415 0.00450965

*CONN
*I *796:B1 I *C 54.3 139.6 *L 0.000663 *D AOI22D0
*I *767:Q[60] O *C 20.935 134.195 *L 0 *D sram00

*CAP
1 *415:3 3.17944e-05
2 *415:4 0.000370826
3 *415:5 0.000598961
4 *415:6 0.000571267
5 *415:7 7.459e-05
6 *415:8 0.00193288
7 *415:9 2.12356e-05
8 *415:10 0.000793532
9 *415:11 2.34476e-05
10 *415:12 6.9635e-05
11 *415:13 2.1501e-05

*RES
1 *415:11 *415:12 0.768285
2 *415:10 *415:11 0.132267
3 *415:9 *415:10 8.80703
4 *415:2 *415:4 3.80597
5 *415:12 *415:13 0.133117
6 *415:8 *415:9 0.132267
7 *415:6 *415:7 0.325215
8 *415:4 *415:5 4.21822
9 *415:3 *415:4 0.417577
10 *415:6 *415:13 6.77801
11 *415:5 *415:8 19.9575
12 *796:B1 *415:2 1.5
13 *415:13 *767:Q[60] 0.0001
*END

*D_NET *416 0.00456136

*CONN
*I *800:B1 I *C 59.1 139.6 *L 0.000663 *D AOI22D0
*I *767:Q[59] O *C 26.745 134.195 *L 0 *D sram00

*CAP
1 *416:3 0.00045033
2 *416:4 0.000486662
3 *416:5 0.000616121
4 *416:6 7.78722e-05
5 *416:7 0.00174176
6 *416:8 7.41514e-05
7 *416:9 4.10357e-05
8 *416:10 0.000241112
9 *416:11 2.76407e-06
10 *416:12 0.000829565

*RES
1 *416:10 *416:11 0.256755
2 *416:7 *416:10 3.80969
3 *416:2 *416:3 5.38317
4 *416:8 *416:12 9.66196
5 *416:8 *416:11 2.06726
6 *416:5 *416:9 9.2733
7 *416:3 *416:4 1.69416
8 *416:9 *416:12 3.45046
9 *416:5 *416:6 0.131057
10 *416:4 *416:7 16.9735
11 *800:B1 *416:2 1.5
12 *416:12 *767:Q[59] 0.0001
*END

*D_NET *417 0.00636842

*CONN
*I *778:B1 I *C 63.1 141.6 *L 0.000663 *D AOI22D0
*I *767:Q[58] O *C 29.335 134.195 *L 0 *D sram00

*CAP
1 *417:2 8.65293e-05
2 *417:3 4.75616e-05
3 *417:4 0.000275245
4 *417:5 4.644e-05
5 *417:6 1.61721e-05
6 *417:7 0.000992745
7 *417:8 9.51838e-06
8 *417:9 0.00013979
9 *417:10 7.73747e-05
10 *417:11 0.000993291016
11 *417:12 1.0549e-05
12 *417:2 *16:4 0.00153444
13 *417:3 *376:9 0.00213876016

*RES
1 *417:11 *417:12 0.132267
2 *417:10 *417:11 34.8231
3 *417:9 *417:10 0.132256
4 *417:4 *417:5 2.85911
5 *417:8 *417:9 4.35565
6 *417:2 *417:8 0.132256
7 *417:3 *417:2 2.69699
8 *417:6 *417:12 1.9197
9 *417:6 *417:7 8.28571
10 *778:B1 *417:4 1.5
11 *417:5 *417:3 1.5
12 *417:12 *767:Q[58] 0.0001
*END

*D_NET *418 0.00437388

*CONN
*I *785:B1 I *C 69.3 139.6 *L 0.000663 *D AOI22D0
*I *767:Q[57] O *C 35.145 134.195 *L 0 *D sram00

*CAP
1 *418:2 5.91462e-05
2 *418:3 3.14367e-05
3 *418:4 0.000598641
4 *418:5 4.55816e-05
5 *418:6 2.13244e-05
6 *418:7 0.00200214
7 *418:8 0.000500359
8 *418:9 3.58971e-05
9 *418:10 3.86466e-05
10 *418:11 0.000127549
11 *418:12 0.000913191

*RES
1 *418:10 *418:11 0.256755
2 *418:7 *418:10 2.0597
3 *418:8 *418:12 11.7996
4 *418:8 *418:11 6.15024
5 *418:5 *418:9 1.88866
6 *418:3 *418:4 2.66495
7 *418:9 *418:12 2.86532
8 *418:5 *418:6 0.131057
9 *418:4 *418:7 23.959
10 *785:B1 *418:2 1.5
11 *418:2 *418:3 1.5
12 *418:12 *767:Q[57] 0.0001
*END

*D_NET *419 0.00490585

*CONN
*I *795:B1 I *C 69.3 141.6 *L 0.000663 *D AOI22D0
*I *767:Q[56] O *C 37.735 134.195 *L 0 *D sram00

*CAP
1 *419:2 2.18196e-05
2 *419:3 0.000265899
3 *419:4 0.00073006
4 *419:5 0.000717481
5 *419:6 0.00317061

*RES
1 *419:4 *419:6 32.3218
2 *419:3 *419:4 3.63574
3 *419:5 *419:6 10.7565
4 *795:B1 *419:2 1.5
5 *419:2 *419:3 1.5
6 *419:6 *767:Q[56] 0.0001
*END

*D_NET *420 0.001586

*CONN
*I *789:A1 I *C 49.3 139.6 *L 0.000665 *D AOI22D0
*I *767:Q[55] O *C 43.545 134.195 *L 0 *D sram00

*CAP
1 *420:2 0.000833298047
2 *420:3 6.37164e-05
3 *420:4 0.000600977
4 *420:5 4.88522e-05
5 *420:6 3.91759e-05

*RES
1 *420:2 *420:3 2.11376
2 *420:4 *420:5 0.601095
3 *420:3 *420:4 4.65388
4 *789:A1 *420:2 6.53614998
5 *420:5 *420:6 0.294215
6 *420:6 *767:Q[55] 9.97337e-05
*END

*D_NET *421 0.00152055

*CONN
*I *799:A1 I *C 50.7 139.6 *L 0.000665 *D AOI22D0
*I *767:Q[54] O *C 46.135 134.195 *L 0 *D sram00

*CAP
1 *421:2 0.000112837
2 *421:3 0.000151646
3 *421:4 4.74201e-05
4 *421:5 0.000395725
5 *421:6 0.000685717969
6 *421:7 6.59612e-05
7 *421:8 6.12422e-05

*RES
1 *421:2 *421:3 2.5215
2 *421:7 *421:8 0.294111
3 *421:6 *421:7 0.610666
4 *421:4 *421:5 3.16087
5 *421:3 *421:4 0.13214
6 *421:5 *421:6 6.12872982
7 *799:A1 *421:2 1.50001
8 *421:8 *767:Q[54] 9.3517e-05
*END

*D_NET *422 0.00141878

*CONN
*I *806:A1 I *C 55.9 139.6 *L 0.000665 *D AOI22D0
*I *767:Q[53] O *C 51.945 134.195 *L 0 *D sram00

*CAP
1 *422:2 0.000893692969
2 *422:3 0.000476718
3 *422:4 6.61389e-06
4 *422:5 4.17561e-05

*RES
1 *422:2 *422:5 6.3565402
2 *422:2 *422:3 5.42541
3 *422:3 *422:4 0.370999
4 *806:A1 *422:5 1.5
5 *422:5 *767:Q[53] 9.69931e-05
*END

*D_NET *423 0.00100483

*CONN
*I *796:A1 I *C 55.3 139.6 *L 0.000665 *D AOI22D0
*I *767:Q[52] O *C 54.535 134.195 *L 0 *D sram00

*CAP
1 *423:2 0.000333644
2 *423:3 0.000222696
3 *423:4 0.000448491992

*RES
1 *423:2 *423:3 0.804829
2 *423:3 *423:4 2.8182
3 *796:A1 *423:2 3.95718002
4 *423:4 *767:Q[52] 0.000120764
*END

*D_NET *424 0.000886967

*CONN
*I *800:A1 I *C 60.1 139.6 *L 0.000665 *D AOI22D0
*I *767:Q[51] O *C 60.345 134.195 *L 0 *D sram00

*CAP
1 *800:A1 5.27995e-05
2 *424:2 0.00025076
3 *424:4 0.000583411992

*RES
1 *424:2 *424:3 1.84783
2 *800:A1 *424:4 4.77219009
3 *424:3 *424:4 0.256319
4 *424:4 *767:Q[51] 7.28178e-05
*END

*D_NET *425 0.00134489

*CONN
*I *778:A1 I *C 64.1 141.6 *L 0.000665 *D AOI22D0
*I *767:Q[50] O *C 62.935 134.195 *L 0 *D sram00

*CAP
1 *425:2 0.00118743
2 *425:3 0.000108424
3 *425:4 3.33934e-05
4 *425:5 1.56367e-05

*RES
1 *425:2 *425:5 8.22285
2 *425:2 *425:3 1.49845
3 *425:3 *425:4 0.378056
4 *778:A1 *425:5 1.5
5 *425:5 *767:Q[50] 0.0001
*END

*D_NET *426 0.0010055

*CONN
*I *785:A1 I *C 70.3 139.6 *L 0.000665 *D AOI22D0
*I *767:Q[49] O *C 68.745 134.195 *L 0 *D sram00

*CAP
1 *785:A1 4.17581e-05
2 *426:2 0.000105627
3 *426:3 4.6772e-05
4 *426:4 0.00081133

*RES
1 *426:2 *426:4 3.53015
2 *426:2 *426:3 0.370955
3 *785:A1 *426:4 8.20175
4 *426:4 *767:Q[49] 0.0001
*END

*D_NET *427 0.00131401

*CONN
*I *795:A1 I *C 70.3 141.6 *L 0.000665 *D AOI22D0
*I *767:Q[48] O *C 71.335 134.195 *L 0 *D sram00

*CAP
1 *427:2 0.000985865
2 *427:3 0.000277956
3 *427:4 5.01846e-05

*RES
1 *427:2 *427:4 8.4266
2 *427:3 *427:4 2.59261
3 *795:A1 *427:3 1.5
4 *427:4 *767:Q[48] 0.0001
*END

*D_NET *428 0.00549266

*CONN
*I *803:B1 I *C 119.1 139.6 *L 0.00099 *D AOI22D1
*I *767:Q[47] O *C 77.145 134.195 *L 0 *D sram00

*CAP
1 *428:2 0.000333984
2 *428:3 4.91247e-05
3 *428:5 3.05141e-05
4 *428:6 4.69271e-06
5 *428:7 0.000136661
6 *428:8 0.00150018
7 *428:9 3.37646e-05
8 *428:10 0.000369923
9 *428:11 8.03484e-06
10 *428:8 *291:4 0.00039238
11 *428:6 *317:3 0.000190265
12 *428:2 *77:3 0.00110343
13 *428:2 *432:3 0.000965780938
14 *428:3 *431:2 0.000194273984
15 *428:2 *435:7 0.000179633008

*RES
1 *428:10 *428:11 0.132256
2 *428:9 *428:10 6.66912
3 *428:3 *428:4 0.292227
4 *428:8 *428:9 0.132256
5 *428:6 *428:7 2.2668
6 *428:5 *428:2 4.79544
7 *428:6 *428:11 2.11401
8 *428:2 *428:8 35.1439
9 *803:B1 *428:4 1.5
10 *428:4 *428:5 1.5
11 *428:11 *767:Q[47] 0.0001
*END

*D_NET *429 0.00528447

*CONN
*I *801:B1 I *C 116.1 143.2 *L 0.00099 *D AOI22D1
*I *767:Q[46] O *C 79.735 134.195 *L 0 *D sram00

*CAP
1 *801:B1 1.67906e-06
2 *429:2 0.000312724
3 *429:3 0.00152829
4 *429:5 0.000412278
5 *429:6 0.000617286
6 *429:7 2.09882e-06
7 *429:8 7.45314e-05
8 *429:9 0.000125299
9 *429:2 *302:3 0.000233896992
10 *429:2 *305:2 0.000226043008
11 *429:3 *430:2 0.000214176992
12 *429:2 *316:3 0.000687346016
13 *429:2 *317:4 0.000660061016
14 *429:3 *291:9 0.000188743984

*RES
1 *429:4 *429:6 4.02878
2 *429:4 *429:5 0.256311
3 *429:8 *429:9 2.40769
4 *429:3 *429:8 0.357384
5 *429:2 *429:3 36.8792
6 *429:6 *429:7 0.256311
7 *801:B1 *429:5 4.00831
8 *429:7 *429:2 1.76268
9 *429:9 *767:Q[46] 0.0001
*END

*D_NET *430 0.00559613

*CONN
*I *777:B1 I *C 119.5 143.2 *L 0.00099 *D AOI22D1
*I *767:Q[45] O *C 85.545 134.195 *L 0 *D sram00

*CAP
1 *430:2 0.000224518
2 *430:4 0.000245216
3 *430:6 0.000126998
4 *430:7 3.06567e-05
5 *430:8 0.00023729
6 *430:9 0.000259147
7 *430:10 9.19702e-05
8 *430:11 7.21279e-05
9 *430:12 0.00124556008
10 *430:6 *431:4 0.00022859
11 *430:2 *291:9 0.00125832
12 *430:2 *130:49 0.00136158
13 *430:2 *429:3 0.000214176992

*RES
1 *430:11 *430:12 2.60185
2 *430:10 *430:2 1.76268
3 *430:4 *430:8 2.82803
4 *430:3 *430:4 2.27663
5 *430:2 *430:12 34.5298
6 *430:9 *430:10 0.644628
7 *430:7 *430:8 0.45047
8 *430:5 *430:6 0.256311
9 *430:6 *430:7 1.30937
10 *430:5 *430:9 2.65607
11 *777:B1 *430:3 1.5
12 *430:12 *767:Q[45] 0.0001
*END

*D_NET *431 0.00500704

*CONN
*I *798:B1 I *C 119.5 141.6 *L 0.00099 *D AOI22D1
*I *767:Q[44] O *C 88.135 134.195 *L 0 *D sram00

*CAP
1 *431:2 0.000140072
2 *431:3 0.000254774
3 *431:4 0.000194881
4 *431:5 0.000158087
5 *431:6 7.20973e-06
6 *431:8 0.000241499
7 *431:9 2.8512e-06
8 *431:10 0.000148898
9 *431:11 7.11348e-05
10 *431:12 2.07756e-05
11 *431:13 1.20041e-05
12 *431:14 0.00020042
13 *431:15 0.000218053
14 *431:16 0.00119015
15 *431:17 1.12777e-05
16 *431:2 *428:3 0.000194273984
17 *431:3 *433:12 0.000611069961
18 *431:3 *130:49 0.00110103
19 *431:4 *430:6 0.00022859

*RES
1 *431:8 *431:9 0.256311
2 *431:5 *431:6 0.261497
3 *431:12 *431:13 0.132171
4 *431:7 *431:2 0.256311
5 *431:3 *431:12 2.11386
6 *431:10 *431:17 3.7083
7 *431:10 *431:11 0.131057
8 *431:9 *431:3 3.46434
9 *431:13 *431:14 7.83285
10 *431:7 *431:8 1.68911
11 *798:B1 *431:5 1.73802
12 *431:16 *431:17 0.132256
13 *431:15 *431:16 20.2753
14 *431:4 *431:2 2.87391
15 *431:14 *431:15 0.132171
16 *431:6 *431:4 2.43962
17 *431:17 *767:Q[44] 0.0001
*END

*D_NET *432 0.00524633

*CONN
*I *802:B1 I *C 127.3 141.6 *L 0.00099 *D AOI22D1
*I *767:Q[43] O *C 93.945 134.195 *L 0 *D sram00

*CAP
1 *432:2 0.000627296
2 *432:3 7.20001e-05
3 *432:4 6.04168e-05
4 *432:5 0.000118601
5 *432:7 4.94331e-05
6 *432:8 5.46379e-05
7 *432:9 0.000298538
8 *432:11 2.49143e-05
9 *432:12 0.000836025
10 *432:13 2.45826e-05
11 *432:14 2.37279e-05
12 *432:15 2.80652e-06
13 *432:16 8.95281e-05
14 *432:17 6.03402e-06
15 *432:2 *77:5 0.000213304004
16 *432:7 *79:2 0.000176425
17 *432:2 *435:7 0.000287270996
18 *432:3 *428:2 0.000965780938
19 *432:4 *291:9 0.001315

*RES
1 *432:5 *432:6 0.266298
2 *432:12 *432:13 0.132256
3 *432:7 *432:2 6.54812
4 *432:8 *432:9 1.68432
5 *432:8 *432:17 3.04201
6 *432:11 *432:3 0.132171
7 *432:4 *432:10 0.132171
8 *432:10 *432:11 6.2787
9 *432:2 *432:4 2.95988
10 *432:13 *432:14 0.795054
11 *432:16 *432:17 0.132256
12 *432:15 *432:16 2.97695
13 *432:3 *432:12 20.4607
14 *432:14 *432:15 0.132256
15 *802:B1 *432:6 1.5
16 *432:6 *432:7 1.5
17 *432:17 *767:Q[43] 0.0001
*END

*D_NET *433 0.00503563

*CONN
*I *780:B1 I *C 132.9 141.6 *L 0.00099 *D AOI22D1
*I *767:Q[42] O *C 96.535 134.195 *L 0 *D sram00

*CAP
1 *433:2 2.97922e-05
2 *433:3 0.000104984
3 *433:4 0.00043596
4 *433:5 6.75048e-05
5 *433:6 0.000331286
6 *433:8 4.32517e-05
7 *433:9 0.00024983
8 *433:10 3.45548e-05
9 *433:11 0.000342079
10 *433:12 0.00169629
11 *433:13 0.000296835
12 *433:14 0.000599027
13 *433:16 0.000193144
14 *433:12 *431:3 0.000611069961

*RES
1 *433:2 *433:3 0.417441
2 *433:6 *433:8 0.256311
3 *433:7 *433:9 0.256311
4 *433:7 *433:13 3.21635
5 *433:10 *433:13 0.417678
6 *433:12 *433:16 3.44995
7 *433:8 *433:9 1.68833
8 *433:14 *433:16 13.9342
9 *433:11 *433:15 4.61993
10 *433:4 *433:6 3.8089
11 *433:11 *433:12 20.0291
12 *433:3 *433:4 4.729
13 *780:B1 *433:3 1.5
14 *433:5 *433:14 1.5
15 *433:13 *433:15 1.5
16 *433:16 *767:Q[42] 0.0001
*END

*D_NET *434 0.0049761

*CONN
*I *782:B1 I *C 136.3 141.6 *L 0.00099 *D AOI22D1
*I *767:Q[41] O *C 102.345 134.195 *L 0 *D sram00

*CAP
1 *434:3 0.000670872
2 *434:4 0.000383737
3 *434:5 3.03067e-06
4 *434:6 0.000235698
5 *434:7 0.000126257
6 *434:8 1.05232e-05
7 *434:9 0.000750259
8 *434:10 3.01594e-05
9 *434:11 0.000575048
10 *434:12 1.5448e-05
11 *434:13 0.00137927
12 *434:14 2.51503e-05
13 *434:15 0.000322619
14 *434:16 2.02676e-05
15 *434:17 5.08058e-05
16 *434:18 0.000297995
17 *434:19 3.78413e-05
18 *434:20 4.11455e-05

*RES
1 *434:7 *434:8 0.132096
2 *434:2 *434:3 0.256311
3 *782:B1 *434:3 5.72315
4 *434:18 *434:19 0.60108
5 *434:12 *434:13 13.8517
6 *434:5 *434:6 1.32848
7 *434:4 *434:5 0.256311
8 *434:6 *434:7 2.78276
9 *434:10 *434:11 6.08291
10 *434:8 *434:9 5.81792
11 *434:2 *434:4 2.07359
12 *434:9 *434:10 0.132975
13 *434:13 *434:14 0.132096
14 *434:19 *434:20 0.294255
15 *434:17 *434:18 2.78119
16 *434:16 *434:17 0.644779
17 *434:15 *434:16 0.132096
18 *434:11 *434:12 0.132096
19 *434:14 *434:15 3.07297
20 *434:20 *767:Q[41] 0.0001
*END

*D_NET *435 0.00517917

*CONN
*I *790:B1 I *C 139.9 141.6 *L 0.00099 *D AOI22D1
*I *767:Q[40] O *C 104.935 134.195 *L 0 *D sram00

*CAP
1 *435:2 5.3182e-05
2 *435:3 0.000731784
3 *435:4 0.000201131
4 *435:5 1.95763e-05
5 *435:6 5.76098e-05
6 *435:7 0.00106290992
7 *435:8 9.0437e-05
8 *435:9 0.000219848
9 *435:10 2.95834e-05
10 *435:11 7.61318e-05
11 *435:12 0.000312264
12 *435:3 *291:3 0.000426345
13 *435:7 *428:2 0.000179633008
14 *435:7 *432:2 0.000287270996
15 *435:4 *56:3 0.000233145996
16 *435:3 *137:3 0.00022714
17 *435:7 *831:Z 0.000430893008
18 *435:2 *82:8 0.000192601992
19 *435:3 *407:2 0.00034771

*RES
1 *435:11 *435:12 3.57264
2 *435:10 *435:11 0.613718
3 *435:9 *435:10 0.132096
4 *435:3 *435:4 6.4326
5 *435:8 *435:9 2.97541
6 *435:7 *435:8 0.132096
7 *435:2 *435:7 24.0726
8 *435:5 *435:6 2.39275
9 *435:4 *435:5 0.132096
10 *790:B1 *435:3 6.35396
11 *435:6 *435:2 0.132096
12 *435:12 *767:Q[40] 0.0001
*END

*D_NET *436 0.00227597

*CONN
*I *803:A1 I *C 120.1 139.6 *L 0.000982 *D AOI22D1
*I *767:Q[39] O *C 110.745 134.195 *L 0 *D sram00

*CAP
1 *436:2 0.000362774
2 *436:3 0.00136721
3 *436:4 0.000545987

*RES
1 *436:2 *436:5 2.99172
2 *436:2 *436:3 12.125
3 *436:3 *436:4 5.51423
4 *803:A1 *436:5 1.5
5 *436:5 *767:Q[39] 0.0001
*END

*D_NET *437 0.00199279

*CONN
*I *801:A1 I *C 117.1 143.2 *L 0.000982 *D AOI22D1
*I *767:Q[38] O *C 113.335 134.195 *L 0 *D sram00

*CAP
1 *801:A1 3.47344e-06
2 *437:2 0.00117944
3 *437:3 0.000439741
4 *437:4 4.82682e-05
5 *437:6 0.000321878

*RES
1 *437:2 *437:5 9.60916
2 *437:2 *437:3 5.23251
3 *437:3 *437:4 0.378077
4 *801:A1 *437:6 3.02219
5 *437:5 *437:6 0.256311
6 *437:6 *767:Q[38] 0.0001
*END

*D_NET *438 0.00182474

*CONN
*I *777:A1 I *C 120.5 143.2 *L 0.000982 *D AOI22D1
*I *767:Q[37] O *C 119.145 134.195 *L 0 *D sram00

*CAP
1 *777:A1 0.000149396
2 *438:2 3.98422e-05
3 *438:3 0.000640121992
4 *438:5 0.000189346
5 *438:6 0.000214536
6 *438:7 4.29776e-07
7 *438:8 8.25365e-06
8 *438:9 0.000318562
9 *438:10 0.000264244

*RES
1 *438:7 *438:9 0.256306
2 *438:6 *438:8 0.256306
3 *438:8 *438:9 2.09497
4 *438:4 *438:5 0.256306
5 *438:3 *438:4 4.75977993
6 *438:2 *438:10 3.53352
7 *777:A1 *438:2 1.69413
8 *438:6 *438:10 2.65123
9 *438:5 *438:7 1.07134
10 *438:10 *767:Q[37] 7.26285e-05
*END

*D_NET *439 0.00145127

*CONN
*I *798:A1 I *C 120.5 141.6 *L 0.000982 *D AOI22D1
*I *767:Q[36] O *C 121.735 134.195 *L 0 *D sram00

*CAP
1 *798:A1 4.66447e-06
2 *439:2 0.000219502
3 *439:3 4.38473e-05
4 *439:4 0.000171978
5 *439:5 0.000185206
6 *439:6 3.77841e-05
7 *439:7 0.000355658
8 *439:8 1.37909e-05
9 *439:9 4.07588e-06
10 *439:10 0.000414770977

*RES
1 *439:9 *439:10 0.868242
2 *439:4 *439:6 0.520311
3 *439:2 *439:3 1.84739
4 *439:7 *439:8 2.07509
5 *439:6 *439:7 0.2563
6 *439:5 *439:9 1.11288
7 *439:3 *439:4 0.450487
8 *439:5 *439:8 0.2563
9 *798:A1 *439:10 3.00856996
10 *439:10 *767:Q[36] 9.18143e-05
*END

*D_NET *440 0.00118077

*CONN
*I *802:A1 I *C 128.3 141.6 *L 0.000982 *D AOI22D1
*I *767:Q[35] O *C 127.545 134.195 *L 0 *D sram00

*CAP
1 *440:2 0.000318823
2 *440:3 0.000162799
3 *440:4 0.000699148984

*RES
1 *440:2 *440:3 0.797751
2 *440:3 *440:4 4.75977993
3 *802:A1 *440:2 3.6047
4 *440:4 *767:Q[35] 7.26285e-05
*END

*D_NET *441 0.00162315

*CONN
*I *780:A1 I *C 133.9 141.6 *L 0.000982 *D AOI22D1
*I *767:Q[34] O *C 130.135 134.195 *L 0 *D sram00

*CAP
1 *780:A1 1.13484e-06
2 *441:2 0.000864787969
3 *441:3 0.000410839
4 *441:4 5.52113e-05
5 *441:6 0.000291179

*RES
1 *441:2 *441:5 6.83266
2 *441:2 *441:3 4.89187
3 *441:3 *441:4 0.378077
4 *780:A1 *441:6 2.842
5 *441:5 *441:6 0.256311
6 *441:6 *767:Q[34] 0.0001
*END

*D_NET *442 0.00145131

*CONN
*I *782:A1 I *C 137.3 141.6 *L 0.000982 *D AOI22D1
*I *767:Q[33] O *C 135.945 134.195 *L 0 *D sram00

*CAP
1 *782:A1 4.42546e-06
2 *442:2 0.00106626
3 *442:3 0.000157836
4 *442:4 2.19321e-05
5 *442:5 7.27273e-06
6 *442:6 0.000193581

*RES
1 *442:2 *442:5 8.54628
2 *442:2 *442:3 2.01715
3 *442:3 *442:4 0.370976
4 *782:A1 *442:6 1.99213
5 *442:5 *442:6 0.260148
6 *442:6 *767:Q[33] 0.0001
*END

*D_NET *443 0.00174681

*CONN
*I *790:A1 I *C 140.9 141.6 *L 0.000982 *D AOI22D1
*I *767:Q[32] O *C 138.535 134.195 *L 0 *D sram00

*CAP
1 *443:2 0.000223645
2 *443:3 0.000248987
3 *443:5 4.25259e-05
4 *443:6 0.000632676016
5 *443:7 0.000126641
6 *443:8 0.000472342

*RES
1 *443:4 *443:6 0.256342
2 *443:2 *443:4 1.48452
3 *443:7 *443:8 4.55028009
4 *443:3 *443:5 0.256342
5 *443:5 *443:6 4.2093
6 *443:3 *443:8 2.86795
7 *790:A1 *443:7 1.5
8 *443:8 *767:Q[32] 6.94318e-05
*END

*D_NET *444 0.00134537

*CONN
*I *776:B1 I *C 188.3 139.6 *L 0.000663 *D AOI22D0
*I *767:Q[31] O *C 184.925 134.265 *L 0 *D sram00

*CAP
1 *444:2 0.000918848984
2 *444:3 0.000379976
3 *444:4 4.65348e-05

*RES
1 *444:2 *444:5 6.65762
2 *444:2 *444:3 4.55404
3 *444:3 *444:4 0.370946
4 *776:B1 *444:5 1.5
5 *444:5 *767:Q[31] 0.0001
*END

*D_NET *445 0.00267852

*CONN
*I *794:B1 I *C 195.5 141.6 *L 0.000663 *D AOI22D0
*I *767:Q[30] O *C 187.515 134.265 *L 0 *D sram00

*CAP
1 *445:2 0.000360293
2 *445:3 0.000131176
3 *445:4 1.77074e-05
4 *445:5 0.000680221016
5 *445:7 0.000398127
6 *445:8 0.000321547
7 *445:10 3.32144e-06
8 *445:11 0.000362338
9 *445:12 0.000403784

*RES
1 *445:10 *445:11 2.07976
2 *445:8 *445:10 0.256348
3 *445:2 *445:3 1.85465
4 *794:B1 *445:8 3.03113
5 *445:9 *445:11 0.256348
6 *445:6 *445:7 2.80944
7 *445:4 *445:5 6.41710997
8 *445:3 *445:4 0.0484691
9 *445:7 *445:12 4.39952
10 *445:5 *445:6 0.0484691
11 *445:2 *445:9 3.00861
12 *445:12 *767:Q[30] 9.79173e-05
*END

*D_NET *446 0.00218274

*CONN
*I *779:B1 I *C 200.5 141.6 *L 0.000663 *D AOI22D0
*I *767:Q[29] O *C 193.325 134.265 *L 0 *D sram00

*CAP
1 *446:2 0.000381043
2 *446:3 0.00082089
3 *446:4 0.00098082

*RES
1 *446:2 *446:4 9.22817
2 *446:3 *446:4 6.96623
3 *779:B1 *446:2 3.05327
4 *446:4 *767:Q[29] 0.0001
*END

*D_NET *447 0.00237206

*CONN
*I *787:B1 I *C 207.1 139.6 *L 0.000663 *D AOI22D0
*I *767:Q[28] O *C 195.915 134.265 *L 0 *D sram00

*CAP
1 *447:2 0.000106708
2 *447:3 9.98448e-05
3 *447:4 0.00013229
4 *447:5 7.13251e-05
5 *447:6 0.000398537
6 *447:7 5.02703e-05
7 *447:8 0.000436876
8 *447:9 1.87096e-05
9 *447:10 0.000161506
10 *447:11 0.000333028
11 *447:12 0.000562964023

*RES
1 *447:11 *447:12 4.29575
2 *447:9 *447:10 1.58469
3 *447:4 *447:6 5.22015
4 *447:10 *447:12 6.37298012
5 *447:8 *447:9 0.132057
6 *447:7 *447:8 3.55709
7 *447:6 *447:7 0.132057
8 *447:3 *447:4 1.69418
9 *787:B1 *447:2 1.49999
10 *447:2 *447:3 1.49999
11 *447:5 *447:11 1.49999
12 *447:12 *767:Q[28] 9.7244e-05
*END

*D_NET *448 0.00181018

*CONN
*I *804:B1 I *C 209.5 139.6 *L 0.000663 *D AOI22D0
*I *767:Q[27] O *C 201.725 134.265 *L 0 *D sram00

*CAP
1 *448:2 0.000841529
2 *448:3 0.000923717031
3 *448:4 1.74355e-05
4 *448:5 2.74994e-05

*RES
1 *448:2 *448:5 6.35396
2 *448:2 *448:3 10.2379
3 *448:3 *448:4 0.37081
4 *804:B1 *448:5 1.5
5 *448:5 *767:Q[27] 0.0001
*END

*D_NET *449 0.00197734

*CONN
*I *791:B1 I *C 212.7 139.6 *L 0.000663 *D AOI22D0
*I *767:Q[26] O *C 204.315 134.265 *L 0 *D sram00

*CAP
1 *791:B1 4.35669e-05
2 *449:2 4.36714e-05
3 *449:3 0.000701789
4 *449:4 0.00114115
5 *449:5 4.7154e-05

*RES
1 *449:2 *449:3 6.35396
2 *449:4 *449:5 0.294139
3 *449:3 *449:4 11.1532
4 *791:B1 *449:2 0.984744
5 *449:5 *767:Q[26] 0.0001
*END

*D_NET *450 0.00148611

*CONN
*I *784:B1 I *C 215.1 139.6 *L 0.000663 *D AOI22D0
*I *767:Q[25] O *C 210.125 134.265 *L 0 *D sram00

*CAP
1 *784:B1 1.85298e-05
2 *450:2 3.89836e-05
3 *450:3 0.000533581
4 *450:4 4.87715e-05
5 *450:5 0.000846237031

*RES
1 *450:2 *450:5 6.87371
2 *450:3 *450:5 7.34667
3 *450:3 *450:4 0.37081
4 *784:B1 *450:2 0.496146
5 *450:5 *767:Q[25] 0.0001
*END

*D_NET *451 0.00139465

*CONN
*I *793:B1 I *C 216.5 139.6 *L 0.000663 *D AOI22D0
*I *767:Q[24] O *C 212.715 134.265 *L 0 *D sram00

*CAP
1 *793:B1 6.93249e-06
2 *451:2 0.000753433984
3 *451:4 7.47973e-05
4 *451:5 0.000514188
5 *451:6 4.52969e-05

*RES
1 *451:2 *451:5 5.96613979
2 *451:2 *451:3 4.96757
3 *793:B1 *451:4 3.257
4 *451:3 *451:4 0.256267
5 *451:5 *451:6 0.294138
6 *451:6 *767:Q[24] 9.10361e-05
*END

*D_NET *452 0.00409452

*CONN
*I *776:A1 I *C 189.3 139.6 *L 0.000665 *D AOI22D0
*I *767:Q[23] O *C 218.525 134.265 *L 0 *D sram00

*CAP
1 *452:2 0.000125224
2 *452:4 5.26955e-05
3 *452:5 0.000293408
4 *452:6 8.97561e-05
5 *452:7 0.00237184
6 *452:8 0.000659381
7 *452:9 0.0005022

*RES
1 *452:7 *452:9 23.085
2 *452:6 *452:8 8.6899
3 *452:2 *452:3 0.735942
4 *452:8 *452:9 0.132011
5 *452:5 *452:6 1.68432
6 *452:4 *452:7 4.99485
7 *776:A1 *452:3 3
8 *452:3 *452:4 1.5
9 *452:9 *767:Q[23] 0.0001
*END

*D_NET *453 0.0036789

*CONN
*I *794:A1 I *C 196.5 141.6 *L 0.000665 *D AOI22D0
*I *767:Q[22] O *C 221.115 134.265 *L 0 *D sram00

*CAP
1 *453:3 0.000268896
2 *453:4 0.000518612
3 *453:5 0.00011534
4 *453:6 0.000331378
5 *453:7 0.00116164008
6 *453:8 3.65322e-05
7 *453:9 0.000568829
8 *453:10 1.26206e-05
9 *453:11 0.000361901
10 *453:12 3.48129e-05
11 *453:13 0.000263915
12 *453:14 4.41365e-06

*RES
1 *453:7 *453:8 0.326172
2 *453:2 *453:3 2.27663
3 *453:6 *453:14 2.69626
4 *453:12 *453:13 2.39251
5 *453:3 *453:6 2.85911
6 *453:4 *453:5 4.79086
7 *453:10 *453:11 2.89834
8 *453:8 *453:9 4.52787
9 *453:9 *453:10 0.326172
10 *453:13 *453:14 0.132067
11 *453:5 *453:7 14.7341
12 *453:11 *453:12 0.132011
13 *794:A1 *453:2 1.5
14 *453:14 *767:Q[22] 0.0001
*END

*D_NET *454 0.00495695

*CONN
*I *779:A1 I *C 201.5 141.6 *L 0.000665 *D AOI22D0
*I *767:Q[21] O *C 226.925 134.265 *L 0 *D sram00

*CAP
1 *454:2 0.00104101
2 *454:3 7.83279e-05
3 *454:4 0.000730335
4 *454:5 0.000664683
5 *454:6 1.63772e-05
6 *454:7 6.81934e-05
7 *454:8 5.94091e-06
8 *454:9 0.000346622
9 *454:10 2.59716e-05
10 *454:11 6.62714e-05
11 *454:12 7.02743e-05
12 *454:13 0.000182453
13 *454:14 1.04204e-05
14 *454:15 0.000968083
15 *454:16 7.31812e-05
16 *454:17 6.19666e-05
17 *454:18 4.964e-05
18 *454:19 0.000100884
19 *454:20 0.00039631

*RES
1 *454:7 *454:8 0.132006
2 *454:2 *454:3 7.50908
3 *454:18 *454:19 0.794508
4 *454:12 *454:13 0.794508
5 *454:5 *454:6 0.132277
6 *454:6 *454:7 0.647746
7 *454:3 *454:5 7.2725
8 *454:10 *454:11 0.745198
9 *454:8 *454:9 3.16869
10 *454:9 *454:10 0.132006
11 *454:13 *454:14 0.326164
12 *454:4 *454:20 6.9019
13 *454:19 *454:20 2.88439
14 *454:17 *454:18 0.326164
15 *454:16 *454:17 0.644628
16 *454:15 *454:16 0.326164
17 *454:11 *454:12 0.328379
18 *454:14 *454:15 8.21681
19 *779:A1 *454:4 1.5
20 *454:20 *767:Q[21] 0.0001
*END

*D_NET *455 0.00372697

*CONN
*I *787:A1 I *C 208.1 139.6 *L 0.000665 *D AOI22D0
*I *767:Q[20] O *C 229.515 134.265 *L 0 *D sram00

*CAP
1 *455:2 0.00031899
2 *455:3 8.3593e-05
3 *455:4 6.44637e-05
4 *455:5 3.60881e-05
5 *455:6 3.39031e-05
6 *455:7 0.000129361
7 *455:8 0.000948288984
8 *455:9 0.000102028
9 *455:10 7.12067e-05
10 *455:11 1.21114e-05
11 *455:12 9.02202e-05
12 *455:13 4.29034e-05
13 *455:14 0.000662348
14 *455:15 9.52268e-05
15 *455:16 3.84612e-05
16 *455:17 0.000829143
17 *455:18 5.91098e-05
18 *455:19 0.000109509

*RES
1 *455:7 *455:8 8.92634
2 *455:18 *455:19 1.07254
3 *455:12 *455:13 0.131057
4 *455:5 *455:6 0.644628
5 *455:4 *455:5 0.132006
6 *455:6 *455:7 0.132006
7 *455:10 *455:11 0.132006
8 *455:8 *455:9 0.132006
9 *455:9 *455:10 0.644628
10 *455:3 *455:14 5.77149
11 *455:17 *455:18 0.132011
12 *455:14 *455:19 1.69416
13 *787:A1 *455:2 2.26233
14 *455:16 *455:17 8.21694
15 *455:15 *455:16 0.132011
16 *455:13 *455:15 2.71513
17 *455:2 *455:11 2.11355
18 *455:3 *455:4 0.613552
19 *455:19 *767:Q[20] 0.0001
*END

*D_NET *456 0.00356229

*CONN
*I *804:A1 I *C 210.5 139.6 *L 0.000665 *D AOI22D0
*I *767:Q[19] O *C 235.325 134.265 *L 0 *D sram00

*CAP
1 *456:2 0.00022244
2 *456:3 2.8527e-08
3 *456:4 1.67882e-05
4 *456:5 0.00027376
5 *456:6 0.000256786
6 *456:7 0.000130468
7 *456:8 0.000629977
8 *456:9 7.21592e-05
9 *456:10 3.62579e-05
10 *456:11 6.95632e-05
11 *456:12 3.33481e-05
12 *456:13 0.00038851
13 *456:14 1.86852e-06
14 *456:15 9.00314e-05
15 *456:16 9.77051e-06
16 *456:17 0.00093476
17 *456:18 4.15211e-05
18 *456:19 0.000341255
19 *456:20 1.29941e-05

*RES
1 *456:6 *456:8 1.88832
2 *456:7 *456:9 2.11356
3 *456:18 *456:19 3.75122
4 *456:12 *456:13 3.16874
5 *456:3 *456:6 3.02219
6 *456:4 *456:5 1.88093
7 *456:3 *456:5 0.256311
8 *456:10 *456:11 0.644636
9 *456:2 *456:4 0.256311
10 *456:9 *456:10 0.132011
11 *456:13 *456:14 0.132011
12 *456:8 *456:20 5.7603
13 *456:19 *456:20 0.523657
14 *456:17 *456:18 0.326172
15 *804:A1 *456:2 4.10264
16 *456:16 *456:17 11.1294
17 *456:15 *456:16 0.132011
18 *456:11 *456:12 0.132011
19 *456:14 *456:15 1.03296
20 *456:20 *767:Q[19] 0.0001
*END

*D_NET *457 0.00403155

*CONN
*I *791:A1 I *C 213.7 139.6 *L 0.000665 *D AOI22D0
*I *767:Q[18] O *C 237.915 134.265 *L 0 *D sram00

*CAP
1 *457:2 3.77264e-05
2 *457:3 0.00267576
3 *457:4 2.53143e-06
4 *457:5 0.00031798
5 *457:6 3.56033e-05
6 *457:7 0.000473336
7 *457:8 0.000399516
8 *457:9 8.90899e-05

*RES
1 *457:7 *457:10 3.50489
2 *457:2 *457:3 25.0893
3 *457:8 *457:9 3.07451
4 *457:6 *457:7 0.796451
5 *457:4 *457:5 3.72165
6 *457:3 *457:4 0.17003
7 *457:5 *457:6 0.17003
8 *457:2 *457:9 1.72523
9 *791:A1 *457:10 1.5
10 *457:10 *767:Q[18] 0.0001
*END

*D_NET *458 0.00401042

*CONN
*I *784:A1 I *C 216.1 139.6 *L 0.000665 *D AOI22D0
*I *767:Q[17] O *C 243.725 134.265 *L 0 *D sram00

*CAP
1 *458:2 0.00011258
2 *458:4 5.72666e-05
3 *458:5 0.000376859
4 *458:6 9.47932e-05
5 *458:8 0.00336891

*RES
1 *458:6 *458:8 28.7183
2 *458:2 *458:3 0.395089
3 *458:7 *458:8 4.02406
4 *458:5 *458:6 2.84927
5 *784:A1 *458:3 3
6 *458:3 *458:4 1.5
7 *458:4 *458:7 1.5
8 *458:8 *767:Q[17] 0.0001
*END

*D_NET *459 0.00414666

*CONN
*I *793:A1 I *C 217.5 139.6 *L 0.000665 *D AOI22D0
*I *767:Q[16] O *C 246.315 134.265 *L 0 *D sram00

*CAP
1 *459:2 0.000331547
2 *459:4 3.18978e-05
3 *459:5 8.21427e-05
4 *459:6 0.00147767
5 *459:7 0.0018935
6 *459:8 1.76825e-05
7 *459:9 0.000256194
8 *459:10 5.60234e-05

*RES
1 *459:9 *459:10 0.132006
2 *459:2 *459:3 2.23572
3 *459:8 *459:9 2.58621
4 *459:7 *459:8 0.132006
5 *459:4 *459:5 0.35796
6 *459:3 *459:4 0.256311
7 *793:A1 *459:6 4.33968
8 *459:6 *459:10 9.92599
9 *459:5 *459:7 18.617
10 *459:10 *767:Q[16] 0.0001
*END

*D_NET *460 0.000891703

*CONN
*I *805:B1 I *C 252.3 139.6 *L 0.000663 *D AOI22D0
*I *767:Q[15] O *C 252.125 134.265 *L 0 *D sram00

*CAP
1 *805:B1 2.52548e-06
2 *460:3 0.000235785
3 *460:4 0.000289855
4 *460:5 4.2106e-06
5 *460:6 0.000131603
6 *460:7 3.5078e-05
7 *460:8 0.00019264

*RES
1 *460:2 *460:4 1.68599
2 *460:2 *460:3 0.256317
3 *460:7 *460:8 1.26772
4 *460:6 *460:7 0.232052
5 *460:4 *460:5 0.256317
6 *805:B1 *460:3 2.64160991
7 *460:5 *460:6 0.908658
8 *460:8 *767:Q[15] 8.06155e-05
*END

*D_NET *461 0.000943532

*CONN
*I *786:B1 I *C 255.3 139.6 *L 0.00099 *D AOI22D1
*I *767:Q[14] O *C 254.715 134.265 *L 0 *D sram00

*CAP
1 *786:B1 4.37504e-05
2 *461:2 3.41257e-05
3 *461:3 0.000254327
4 *461:4 0.000253541
5 *461:6 3.79326e-05
6 *461:7 0.000319855

*RES
1 *461:4 *461:6 0.256326
2 *461:2 *461:4 2.98747993
3 *461:6 *461:7 2.26773
4 *461:3 *461:5 1.65447
5 *786:B1 *461:2 0.731462
6 *461:5 *461:7 0.256326
7 *461:7 *767:Q[14] 9.11707e-05
*END

*D_NET *462 0.000848754

*CONN
*I *783:B1 I *C 260.3 139.6 *L 0.000663 *D AOI22D0
*I *767:Q[13] O *C 260.525 134.265 *L 0 *D sram00

*CAP
1 *783:B1 2.26028e-05
2 *462:2 0.000310928
3 *462:4 0.000515225

*RES
1 *462:2 *462:3 2.23573
2 *783:B1 *462:4 4.51041985
3 *462:3 *462:4 0.256299
4 *462:4 *767:Q[13] 6.88235e-05
*END

*D_NET *463 0.000872283

*CONN
*I *807:B1 I *C 262.7 139.6 *L 0.000663 *D AOI22D0
*I *767:Q[12] O *C 263.115 134.265 *L 0 *D sram00

*CAP
1 *807:B1 2.35532e-05
2 *463:2 0.000131362
3 *463:3 0.000102895
4 *463:4 0.000614475

*RES
1 *463:2 *463:3 1.65327
2 *807:B1 *463:4 4.97467995
3 *463:3 *463:4 0.450436
4 *463:4 *767:Q[12] 7.59076e-05
*END

*D_NET *464 0.000809452

*CONN
*I *792:B1 I *C 269.1 139.6 *L 0.00099 *D AOI22D1
*I *767:Q[11] O *C 268.925 134.265 *L 0 *D sram00

*CAP
1 *464:2 0.000428448008
2 *464:3 4.48551e-05
3 *464:4 0.000336149

*RES
1 *464:2 *464:3 0.232043
2 *464:3 *464:4 2.62402
3 *792:B1 *464:2 4.1167202
4 *464:4 *767:Q[11] 0.000125632
*END

*D_NET *465 0.000882695

*CONN
*I *781:B1 I *C 271.9 139.6 *L 0.00099 *D AOI22D1
*I *767:Q[10] O *C 271.515 134.265 *L 0 *D sram00

*CAP
1 *465:2 0.000435505977
2 *465:3 8.7274e-05
3 *465:4 0.000359915

*RES
1 *465:2 *465:3 0.4359
2 *465:3 *465:4 2.81822
3 *781:B1 *465:2 4.1050601
4 *465:4 *767:Q[10] 0.000125276
*END

*D_NET *466 0.0011188

*CONN
*I *788:B1 I *C 274.5 139.6 *L 0.000663 *D AOI22D0
*I *767:Q[9] O *C 277.325 134.265 *L 0 *D sram00

*CAP
1 *466:2 6.30997e-05
2 *466:3 3.06366e-07
3 *466:4 7.08413e-05
4 *466:5 1.35508e-06
5 *466:6 0.000184998
6 *466:7 2.59822e-05
7 *466:8 0.00077222

*RES
1 *466:2 *466:3 0.370945
2 *466:8 *466:9 6.35396004
3 *466:7 *466:8 0.766419
4 *466:6 *466:7 0.170057
5 *466:4 *466:5 0.170057
6 *466:3 *466:4 0.559714
7 *466:5 *466:6 2.26271
8 *788:B1 *466:9 1.49997
9 *466:9 *767:Q[9] 9.69537e-05
*END

*D_NET *467 0.00113786

*CONN
*I *797:B1 I *C 276.7 139.6 *L 0.000663 *D AOI22D0
*I *767:Q[8] O *C 279.915 134.265 *L 0 *D sram00

*CAP
1 *797:B1 2.13686e-05
2 *467:2 0.00106251
3 *467:3 5.39888e-05

*RES
1 *467:2 *467:4 4.98711
2 *467:3 *467:4 0.294158
3 *797:B1 *467:2 6.35396004
4 *467:4 *767:Q[8] 9.69537e-05
*END

*D_NET *468 0.00146402

*CONN
*I *724:I I *C 176.5 145.2 *L 0.00105 *D DEL1
*I *820:Q O *C 183.1 142 *L 0 *D DFCNQD1

*CAP
1 *820:Q 0.00047267
2 *468:2 6.34993e-05
3 *468:3 0.000927855

*RES
1 *820:Q *468:2 3.94012
2 *468:2 *468:3 7.64167976
3 *724:I *468:3 5.66491
*END

*D_NET *469 0.00135091

*CONN
*I *725:I I *C 189.7 139.6 *L 0.00105 *D DEL1
*I *821:Q O *C 184.9 139.2 *L 0 *D DFCNQD1

*CAP
1 *469:2 0.000325072
2 *469:3 0.00102584008

*RES
1 *469:2 *469:3 6.44903994
2 *821:Q *469:3 3.7808
3 *725:I *469:2 5.66495
*END

*D_NET *470 0.00181191

*CONN
*I *726:I I *C 188.9 143.2 *L 0.00105 *D DEL1
*I *897:Q O *C 184.1 145.6 *L 0 *D DFCND1

*CAP
1 *897:Q 0.000229056
2 *470:2 7.20243e-05
3 *470:3 0.000800426016
4 *470:4 0.000710399

*RES
1 *470:2 *470:4 6.6032
2 *470:2 *470:3 7.70643997
3 *897:Q *470:3 4.16495
4 *726:I *470:4 2.99998
*END

*D_NET *471 0.00605004

*CONN
*I *896:ZN O *C 148.5 143 *L 0 *D CKND0
*I *830:A1 I *C 167.7 139.8 *L 0.00073 *D AO22D0
*I *829:A1 I *C 172.1 139.8 *L 0.00073 *D AO22D0
*I *828:A1 I *C 161.9 139.8 *L 0.00073 *D AO22D0
*I *827:A1 I *C 166.1 139.8 *L 0.00073 *D AO22D0
*I *826:A1 I *C 158.1 139.8 *L 0.00073 *D AO22D0
*I *825:A1 I *C 164.1 139.8 *L 0.00073 *D AO22D0
*I *824:A1 I *C 175.9 139.8 *L 0.00073 *D AO22D0
*I *823:A1 I *C 174.3 139.8 *L 0.00073 *D AO22D0
*I *822:A1 I *C 170.5 139.8 *L 0.00073 *D AO22D0
*I *767:WEN I *C 148.34 134.195 *L 0.00612 *D sram00

*CAP
1 *471:11 6.34254e-05
2 *471:12 7.25997e-05
3 *471:13 4.80576e-05
4 *471:14 0.00108527008
5 *471:15 0.000797521
6 *471:16 7.77831e-05
7 *471:17 8.24696e-05
8 *471:18 0.000134369
9 *471:19 0.000127679
10 *471:20 0.000132034
11 *471:21 0.00015343
12 *471:22 0.000155914
13 *471:23 0.000125957
14 *471:24 0.000125824
15 *471:25 5.20155e-05
16 *471:26 5.41517e-06
17 *471:27 0.000274551
18 *471:28 1.15093e-05
19 *471:29 0.000139138
20 *471:30 8.77688e-07
21 *471:31 0.000223562
22 *471:32 0.000138029
23 *471:33 0.000172193
24 *471:34 0.000244362
25 *471:35 0.000144554
26 *471:36 0.000129053
27 *471:37 0.000307671
28 *471:38 0.00022487
29 *471:39 0.000244809
30 *471:40 5.96e-05
31 *471:20 *249:4 0.000221402012
32 *471:33 *823:B2 0.000274076992

*RES
1 *471:30 *471:31 3.36354
2 *471:36 *471:37 2.91295
3 *471:33 *471:36 1.35937
4 *471:24 *471:40 1.88831
5 *471:19 *471:36 1.88831
6 *471:31 *471:32 0.132039
7 *471:27 *471:28 0.132039
8 *896:ZN *471:12 1.73805
9 *471:16 *471:35 3.49003
10 *471:20 *471:37 1.88831
11 *471:22 *471:34 1.88831
12 *471:14 *471:15 5.97441
13 *471:13 *471:14 3.48077
14 *471:29 *471:40 1.39504
15 *471:28 *471:40 0.613617
16 *471:34 *471:39 2.16973
17 *471:25 *471:39 0.613617
18 *471:14 *471:32 6.38621998
19 *471:26 *471:27 2.5867
20 *471:23 *471:39 1.88831
21 *471:21 *471:38 2.00826
22 *471:37 *471:38 1.77576
23 *471:34 *471:38 2.02132
24 *471:25 *471:26 0.132039
25 *471:18 *471:33 1.88831
26 *471:29 *471:30 0.132039
27 *471:11 *471:17 0.388322
28 *471:11 *471:33 3.70587
29 *471:12 *471:13 0.256283
30 *826:A1 *471:24 2.99997
31 *828:A1 *471:23 2.99997
32 *825:A1 *471:22 2.99997
33 *827:A1 *471:21 2.99997
34 *830:A1 *471:20 2.99997
35 *822:A1 *471:19 2.99997
36 *829:A1 *471:18 2.99997
37 *823:A1 *471:17 2.99997
38 *824:A1 *471:16 2.99997
39 *471:17 *471:35 1.49999
40 *471:40 *767:WEN 9.7446e-05
*END

*D_NET *472 0.00444114

*CONN
*I *897:QN O *C 184.5 145.6 *L 0 *D DFCND1
*I *814:A2 I *C 160.7 145.2 *L 0.000996 *D NR2D1
*I *812:A2 I *C 188.1 145.2 *L 0.000996 *D NR2D1
*I *808:A2 I *C 159.7 143.2 *L 0.00217 *D NR2D2

*CAP
1 *897:QN 0.000102325
2 *812:A2 0.000238918
3 *808:A2 0.000458656
4 *472:4 0.000113485
5 *472:5 0.000255639
6 *472:6 0.000306352
7 *472:7 5.60724e-05
8 *472:8 0.000474661
9 *472:9 0.000841729
10 *472:10 0.00120285
11 *472:11 0.000390451

*RES
1 *472:9 *472:10 5.06834
2 *472:7 *472:8 4.33447
3 *808:A2 *472:5 4.33868
4 *812:A2 *472:11 6.93076
5 *897:QN *472:11 3
6 *472:8 *472:9 3.13658
7 *472:6 *472:11 0.939935
8 *472:4 *472:5 4.52504
9 *472:6 *472:7 3.30143
10 *472:4 *472:10 9.85750961
11 *814:A2 *472:4 1.49993
*END

*D_NET *473 0.00378708

*CONN
*I *819:ZN O *C 178.1 142.8 *L 0 *D CKND2D0
*I *811:A1 I *C 156.7 143.2 *L 0.00132 *D NR2XD1
*I *808:A1 I *C 159.3 143.2 *L 0.00172 *D NR2D2

*CAP
1 *819:ZN 0.00029384
2 *811:A1 0.000726396
3 *473:3 4.33e-05
4 *473:4 0.000616931
5 *473:5 0.000498349
6 *473:6 0.000274008
7 *473:7 0.000171763
8 *473:8 0.0011625

*RES
1 *473:7 *473:8 7.80109
2 *808:A1 *473:8 5.98207
3 *811:A1 *473:8 9.77145958
4 *473:5 *473:6 4.88051
5 *473:4 *473:5 0.132103
6 *473:3 *473:4 6.60173
7 *473:6 *473:7 2.33044
8 *819:ZN *473:3 3.63507
*END

*D_NET *474 0.000803932

*CONN
*I *818:ZN O *C 187.3 142.8 *L 0 *D IND2D0
*I *815:A1 I *C 190.3 145.2 *L 0.00093 *D NR2D1
*I *812:A1 I *C 188.5 145.2 *L 0.00093 *D NR2D1

*CAP
1 *818:ZN 0.000352418008
2 *815:A1 8.59279e-05
3 *474:3 6.74937e-05
4 *474:4 0.000298094

*RES
1 *815:A1 *474:4 4.74779987
2 *818:ZN *474:3 3.94887
3 *812:A1 *474:3 1.49999
4 *474:3 *474:4 1.49999
*END

*D_NET *475 0.00301166

*CONN
*I *817:ZN O *C 176.7 142.8 *L 0 *D IND2D0
*I *814:A1 I *C 160.3 145.2 *L 0.00093 *D NR2D1
*I *813:A1 I *C 158.3 143.2 *L 0.00093 *D NR2D1

*CAP
1 *817:ZN 3.86416e-05
2 *475:3 0.000510629
3 *475:4 0.000241931
4 *475:5 0.000209675
5 *475:6 0.000577656
6 *475:7 0.00143315

*RES
1 *475:6 *475:7 4.05945
2 *813:A1 *475:7 5.2508
3 *814:A1 *475:7 4.94177
4 *475:5 *475:6 3.96059
5 *475:4 *475:5 4.72288
6 *475:3 *475:4 5.54713011
7 *817:ZN *475:3 2.22991
*END

*D_NET *476 0.00716015

*CONN
*I *816:ZN O *C 188.5 143 *L 0 *D NR2D0
*I *810:A1 I *C 242.1 143.2 *L 0.000556 *D CKAN2D0
*I *809:A1 I *C 242.1 141.6 *L 0.00069 *D INR2D0

*CAP
1 *809:A1 0.000359093
2 *476:3 0.000465201
3 *476:4 0.00230716984
4 *476:6 0.00114709
5 *476:7 0.000276149
6 *476:8 0.00015184
7 *476:9 0.000182398
8 *476:10 9.60397e-05
9 *476:11 0.000363247
10 *476:12 6.06233e-05
11 *476:3 *659:Z 0.00129934
12 *476:4 *48:2 0.000451986992

*RES
1 *476:10 *476:11 3.49573
2 *476:9 *476:3 5.26196
3 *476:7 *476:8 2.52416
4 *476:6 *476:11 8.71006
5 *809:A1 *476:5 3.44493
6 *476:8 *476:9 1.94177
7 *476:3 *476:10 0.908971
8 *476:4 *476:12 29.7257004
9 *476:4 *476:7 3.16598
10 *816:ZN *476:6 2.19169
11 *810:A1 *476:5 2.99997
12 *476:5 *476:12 1.49998
*END

*D_NET *477 0.0062359

*CONN
*I *815:ZN O *C 190.3 145.4 *L 0 *D NR2D1
*I *804:A2 I *C 210.1 139.6 *L 0.000728 *D AOI22D0
*I *794:A2 I *C 196.1 141.6 *L 0.000728 *D AOI22D0
*I *793:A2 I *C 217.1 139.6 *L 0.000728 *D AOI22D0
*I *791:A2 I *C 213.3 139.6 *L 0.000728 *D AOI22D0
*I *787:A2 I *C 207.7 139.6 *L 0.000728 *D AOI22D0
*I *784:A2 I *C 215.7 139.6 *L 0.000728 *D AOI22D0
*I *779:A2 I *C 201.1 141.6 *L 0.000728 *D AOI22D0
*I *776:A2 I *C 188.9 139.6 *L 0.000728 *D AOI22D0

*CAP
1 *794:A2 0.000110584
2 *793:A2 5.93885e-05
3 *791:A2 5.28159e-05
4 *784:A2 4.24427e-05
5 *779:A2 0.000112529
6 *776:A2 0.000454429
7 *477:9 4.06319e-05
8 *477:10 0.000234212
9 *477:11 0.000428004
10 *477:13 8.76464e-05
11 *477:14 0.000356342
12 *477:15 0.000330845
13 *477:16 0.000216931
14 *477:17 0.000136774
15 *477:18 0.000732547969
16 *477:19 0.000527779
17 *477:20 0.00042246
18 *477:9 *334:3 0.000247755996
19 *477:10 *585:Z 0.000547932969
20 *791:A2 *131:3 0.000429811016
21 *791:A2 *139:4 0.000236693984
22 *776:A2 *776:B2 0.000427345

*RES
1 *477:9 *477:11 3.55709
2 *779:A2 *477:18 4.88833
3 *477:16 *477:17 2.32987
4 *804:A2 *477:15 4.50002
5 *477:13 *477:19 0.74647
6 *776:A2 *477:10 6.699
7 *477:9 *477:18 8.62950039
8 *791:A2 *477:17 4.50002
9 *477:15 *477:17 3.10649
10 *794:A2 *477:19 5.17802
11 *793:A2 *477:16 6.23471
12 *477:18 *477:19 5.28744
13 *477:14 *477:20 0.756477
14 *477:13 *477:14 5.83481
15 *477:12 *477:20 3.70917
16 *784:A2 *477:16 4.50002
17 *477:11 *477:15 5.89644
18 *477:10 *477:20 3.24238
19 *815:ZN *477:12 1.50005
20 *787:A2 *477:11 2.99997
*END

*D_NET *478 0.00875909

*CONN
*I *814:ZN O *C 160.3 145.4 *L 0 *D NR2D1
*I *803:B2 I *C 119.5 139.6 *L 0.00105 *D AOI22D1
*I *802:B2 I *C 127.7 141.6 *L 0.00105 *D AOI22D1
*I *801:B2 I *C 116.5 143.2 *L 0.00105 *D AOI22D1
*I *798:B2 I *C 119.9 141.6 *L 0.00105 *D AOI22D1
*I *790:B2 I *C 140.3 141.6 *L 0.00105 *D AOI22D1
*I *782:B2 I *C 136.7 141.6 *L 0.00105 *D AOI22D1
*I *780:B2 I *C 133.3 141.6 *L 0.00105 *D AOI22D1
*I *777:B2 I *C 119.9 143.2 *L 0.00105 *D AOI22D1

*CAP
1 *814:ZN 0.000167743
2 *803:B2 0.000371464
3 *802:B2 0.000295834
4 *801:B2 0.000643939
5 *798:B2 4.84805e-05
6 *790:B2 4.64091e-05
7 *777:B2 1.08714e-06
8 *478:9 5.73686e-05
9 *478:10 0.00010341
10 *478:11 0.000620874
11 *478:12 0.000314932
12 *478:13 5.46655e-05
13 *478:14 0.000690407
14 *478:15 0.000594988
15 *478:16 0.000242035
16 *478:17 0.000401051
17 *478:18 0.000454512
18 *478:19 0.000454174
19 *478:20 0.000586614
20 *478:21 0.000226595
21 *478:22 0.000112475
22 *478:23 0.000153316
23 *478:24 0.000962778984
24 *801:B2 *479:10 0.00115392992

*RES
1 *478:15 *478:21 6.21674
2 *478:13 *478:14 7.25403
3 *801:B2 *478:23 8.75345039
4 *782:B2 *478:20 4.50001
5 *478:9 *478:10 1.50851
6 *478:14 *478:15 0.132098
7 *478:18 *478:19 3.86797
8 *798:B2 *478:10 4.01783
9 *803:B2 *478:10 6.6268
10 *478:19 *478:23 1.03287
11 *802:B2 *478:22 6.54732
12 *478:16 *478:17 3.43388
13 *478:17 *478:22 0.628967
14 *777:B2 *478:9 3.23593
15 *478:12 *478:24 5.48827
16 *478:11 *478:20 4.80174
17 *814:ZN *478:24 8.05703
18 *478:11 *478:16 5.82286
19 *478:20 *478:21 4.22473
20 *478:18 *478:22 3.94731
21 *478:12 *478:13 3.49558
22 *790:B2 *478:21 4.50001
23 *780:B2 *478:11 3.00005
24 *478:9 *478:23 1.49996
*END

*D_NET *479 0.00758991

*CONN
*I *813:ZN O *C 158.3 143 *L 0 *D NR2D1
*I *803:A2 I *C 119.7 139.6 *L 0.00105 *D AOI22D1
*I *802:A2 I *C 127.9 141.6 *L 0.00105 *D AOI22D1
*I *801:A2 I *C 116.7 143.2 *L 0.00105 *D AOI22D1
*I *798:A2 I *C 120.1 141.6 *L 0.00105 *D AOI22D1
*I *790:A2 I *C 140.5 141.6 *L 0.00105 *D AOI22D1
*I *782:A2 I *C 136.9 141.6 *L 0.00105 *D AOI22D1
*I *780:A2 I *C 133.5 141.6 *L 0.00105 *D AOI22D1
*I *777:A2 I *C 120.1 143.2 *L 0.00105 *D AOI22D1

*CAP
1 *803:A2 0.00036788
2 *802:A2 6.6014e-05
3 *790:A2 8.60604e-05
4 *782:A2 0.000186125
5 *780:A2 9.68493e-05
6 *777:A2 2.00464e-06
7 *479:9 0.000457017
8 *479:10 0.000551973
9 *479:11 0.000912320938
10 *479:12 0.00040143
11 *479:13 0.000188436
12 *479:14 5.37355e-05
13 *479:15 0.000295866
14 *479:16 1.61067e-05
15 *479:17 0.000302242
16 *479:18 0.000290562
17 *479:19 0.000180696
18 *479:20 8.91787e-05
19 *479:21 0.000318808
20 *479:22 0.000234181
21 *479:23 0.000185276
22 *479:24 0.000132529
23 *479:9 *238:10 0.000255666992
24 *802:A2 *494:5 0.000375331992
25 *479:10 *801:B2 0.00115392992
26 *479:11 *790:ZN 0.000389713984

*RES
1 *479:21 *479:22 3.30165
2 *782:A2 *479:21 5.75574
3 *479:10 *479:24 4.95354
4 *801:A2 *479:10 4.05046
5 *479:11 *479:20 0.224609
6 *813:ZN *479:12 3.30932
7 *479:13 *479:14 1.03788
8 *479:18 *479:23 3.78068
9 *802:A2 *479:23 5.27028
10 *790:A2 *479:20 5.60594
11 *803:A2 *479:14 6.08944
12 *479:9 *479:15 0.132123
13 *479:20 *479:21 3.30165
14 *479:19 *479:24 1.54245
15 *479:17 *479:22 3.39217
16 *479:12 *479:9 6.70167
17 *479:18 *479:19 2.91331
18 *479:15 *479:16 3.6898
19 *479:16 *479:11 11.7011003
20 *479:17 *479:23 2.55587
21 *777:A2 *479:13 4.38363
22 *780:A2 *479:22 5.51649
23 *798:A2 *479:14 3.00009
24 *479:13 *479:24 1.49995
*END

*D_NET *480 0.00721174

*CONN
*I *812:ZN O *C 188.5 145.4 *L 0 *D NR2D1
*I *804:B2 I *C 209.9 139.6 *L 0.000718 *D AOI22D0
*I *794:B2 I *C 195.9 141.6 *L 0.000718 *D AOI22D0
*I *793:B2 I *C 216.9 139.6 *L 0.000718 *D AOI22D0
*I *791:B2 I *C 213.1 139.6 *L 0.000718 *D AOI22D0
*I *787:B2 I *C 207.5 139.6 *L 0.000718 *D AOI22D0
*I *784:B2 I *C 215.5 139.6 *L 0.000718 *D AOI22D0
*I *779:B2 I *C 200.9 141.6 *L 0.000718 *D AOI22D0
*I *776:B2 I *C 188.7 139.6 *L 0.000718 *D AOI22D0

*CAP
1 *812:ZN 3.15869e-05
2 *804:B2 6.95931e-05
3 *793:B2 0.000135247
4 *791:B2 0.00018194
5 *784:B2 0.00011358
6 *776:B2 0.00043455
7 *480:9 0.000332023
8 *480:10 0.000928687969
9 *480:11 0.000666003
10 *480:12 0.000195119
11 *480:13 0.000503009
12 *480:14 0.000257867
13 *480:15 0.000758439
14 *480:16 0.00039558
15 *480:17 0.000248755
16 *480:18 6.87854e-05
17 *480:10 *585:Z 0.00030597498
18 *776:B2 *776:A2 0.000427345
19 *804:B2 *139:3 0.000899586016
20 *812:ZN *140:3 0.000258089004

*RES
1 *812:ZN *480:10 6.52824
2 *804:B2 *480:16 5.11106
3 *791:B2 *480:14 5.26239
4 *480:14 *480:17 2.85836
5 *779:B2 *480:15 6.2474
6 *480:10 *480:18 8.03007984
7 *480:13 *480:15 4.19222
8 *480:9 *480:12 3.04694
9 *793:B2 *480:17 7.82938
10 *776:B2 *480:10 6.79376
11 *480:11 *480:13 6.03187
12 *784:B2 *480:17 5.26239
13 *480:14 *480:16 3.59146
14 *480:9 *480:16 5.27648
15 *480:12 *480:15 5.78253
16 *794:B2 *480:11 3.00001
17 *787:B2 *480:9 3.00001
18 *480:11 *480:18 1.5
*END

*D_NET *481 0.0152142

*CONN
*I *811:ZN O *C 157.1 142.8 *L 0 *D NR2XD1
*I *806:A2 I *C 56.3 139.6 *L 0.000728 *D AOI22D0
*I *800:A2 I *C 59.7 139.6 *L 0.000728 *D AOI22D0
*I *799:A2 I *C 51.1 139.6 *L 0.000728 *D AOI22D0
*I *796:A2 I *C 54.9 139.6 *L 0.000728 *D AOI22D0
*I *795:A2 I *C 69.9 141.6 *L 0.000728 *D AOI22D0
*I *789:A2 I *C 49.7 139.6 *L 0.000728 *D AOI22D0
*I *785:A2 I *C 69.9 139.6 *L 0.000728 *D AOI22D0
*I *778:A2 I *C 63.7 141.6 *L 0.000728 *D AOI22D0

*CAP
1 *811:ZN 7.1904e-05
2 *806:A2 6.38212e-05
3 *800:A2 7.23063e-05
4 *796:A2 5.56287e-05
5 *789:A2 0.000378904
6 *481:9 0.000792224
7 *481:10 0.000306232
8 *481:11 0.000198559
9 *481:12 0.000732353
10 *481:13 0.00048943
11 *481:14 0.000767536
12 *481:15 0.000174932
13 *481:16 0.000685209
14 *481:17 0.000551605
15 *481:18 0.000523846
16 *481:19 0.000684843
17 *481:20 0.000236266
18 *481:21 0.000660339
19 *481:22 0.000435996
20 *481:23 0.00239685984
21 *481:24 0.000266001
22 *481:13 *234:2 0.00170472
23 *811:ZN *484:10 0.000698116016
24 *481:9 *238:10 0.00226651

*RES
1 *481:21 *481:24 9.49808
2 *481:15 *481:16 4.86188
3 *811:ZN *481:9 3.00005
4 *481:17 *481:19 6.65743
5 *481:18 *481:20 1.77943
6 *481:12 *481:20 6.32966
7 *481:16 *481:17 2.40183
8 *481:13 *481:21 2.96692
9 *481:10 *481:11 2.11884
10 *778:A2 *481:17 6.3225
11 *481:11 *481:15 3.14423
12 *796:A2 *481:20 4.50008
13 *481:23 *481:24 2.85318
14 *481:22 *481:23 58.6899986
15 *481:18 *481:19 4.32097
16 *800:A2 *481:19 4.50008
17 *481:9 *481:22 8.24164
18 *789:A2 *481:12 6.09951
19 *806:A2 *481:18 4.50008
20 *481:10 *481:14 11.196
21 *481:13 *481:14 3.37528
22 *799:A2 *481:12 3.00005
23 *785:A2 *481:11 3.00005
24 *795:A2 *481:10 3.00005
*END

*D_NET *482 0.0056544

*CONN
*I *810:Z O *C 242.9 143 *L 0 *D CKAN2D0
*I *807:B2 I *C 263.1 139.6 *L 0.000718 *D AOI22D0
*I *805:B2 I *C 252.7 139.6 *L 0.000718 *D AOI22D0
*I *797:B2 I *C 277.1 139.6 *L 0.000718 *D AOI22D0
*I *792:B2 I *C 269.5 139.6 *L 0.00105 *D AOI22D1
*I *788:B2 I *C 274.9 139.6 *L 0.000718 *D AOI22D0
*I *786:B2 I *C 255.7 139.6 *L 0.00105 *D AOI22D1
*I *783:B2 I *C 260.7 139.6 *L 0.000718 *D AOI22D0
*I *781:B2 I *C 272.3 139.6 *L 0.00105 *D AOI22D1

*CAP
1 *810:Z 0.000555212
2 *797:B2 0.000145185
3 *788:B2 0.000112667
4 *781:B2 9.45001e-05
5 *482:9 4.78089e-05
6 *482:10 0.00097667
7 *482:11 0.000387747
8 *482:12 0.000420593
9 *482:13 8.03869e-05
10 *482:14 0.000125588
11 *482:15 0.000466644
12 *482:16 0.000511472
13 *482:17 0.000462679
14 *482:18 0.00054323
15 *482:19 0.000194708
16 *781:B2 *483:10 0.000529303008

*RES
1 *805:B2 *482:15 5.08247
2 *482:11 *482:12 5.50938
3 *482:16 *482:17 3.23661
4 *482:15 *482:18 3.03381
5 *482:12 *482:17 3.26961
6 *783:B2 *482:16 4.98202
7 *810:Z *482:9 6.81049
8 *482:13 *482:16 0.961507
9 *482:9 *482:10 5.38317
10 *786:B2 *482:18 5.08247
11 *482:14 *482:19 2.52407
12 *482:11 *482:19 4.88926
13 *781:B2 *482:19 5.171
14 *482:13 *482:18 4.10837
15 *788:B2 *482:14 5.171
16 *482:10 *482:15 5.57728
17 *797:B2 *482:14 7.30673981
18 *807:B2 *482:17 5.1458
19 *792:B2 *482:11 3.00003
*END

*D_NET *483 0.00514469

*CONN
*I *809:ZN O *C 242.7 141 *L 0 *D INR2D0
*I *807:A2 I *C 263.3 139.6 *L 0.000728 *D AOI22D0
*I *805:A2 I *C 252.9 139.6 *L 0.000728 *D AOI22D0
*I *797:A2 I *C 277.3 139.6 *L 0.000728 *D AOI22D0
*I *792:A2 I *C 269.7 139.6 *L 0.00105 *D AOI22D1
*I *788:A2 I *C 275.1 139.6 *L 0.000728 *D AOI22D0
*I *786:A2 I *C 255.9 139.6 *L 0.00105 *D AOI22D1
*I *783:A2 I *C 260.9 139.6 *L 0.000728 *D AOI22D0
*I *781:A2 I *C 272.5 139.6 *L 0.00105 *D AOI22D1

*CAP
1 *807:A2 3.70663e-06
2 *805:A2 0.000177759
3 *797:A2 0.000100021
4 *786:A2 0.000172366
5 *483:9 0.000212252
6 *483:10 0.000351999
7 *483:11 1.81262e-05
8 *483:12 0.000952605
9 *483:13 0.000606173
10 *483:14 0.000313334
11 *483:15 0.000280919
12 *483:16 0.000337725
13 *483:17 0.000144515
14 *483:18 0.000315558
15 *483:19 0.000344034
16 *483:9 *228:5 0.000284287012
17 *483:10 *781:B2 0.000529303008

*RES
1 *483:15 *483:10 2.52407
2 *483:11 *483:13 0.776597
3 *483:9 *483:14 3.68905
4 *483:10 *483:16 2.72827
5 *483:14 *483:18 1.54071
6 *805:A2 *483:17 5.27662
7 *781:A2 *483:10 4.75416
8 *786:A2 *483:19 5.27662
9 *792:A2 *483:16 4.75416
10 *483:9 *483:16 2.13654
11 *483:13 *483:18 5.4225
12 *483:11 *483:19 6.35404
13 *788:A2 *483:15 4.75416
14 *483:17 *483:19 2.91245
15 *483:12 *483:17 11.2079
16 *797:A2 *483:15 6.88984
17 *807:A2 *483:18 4.72201
18 *809:ZN *483:12 1.91575
19 *783:A2 *483:13 3.00002
*END

*D_NET *484 0.0171045

*CONN
*I *808:ZN O *C 159.015 142.855 *L 0 *D NR2D2
*I *806:B2 I *C 56.5 139.6 *L 0.000718 *D AOI22D0
*I *800:B2 I *C 59.5 139.6 *L 0.000718 *D AOI22D0
*I *799:B2 I *C 51.3 139.6 *L 0.000718 *D AOI22D0
*I *796:B2 I *C 54.7 139.6 *L 0.000718 *D AOI22D0
*I *795:B2 I *C 69.7 141.6 *L 0.000718 *D AOI22D0
*I *789:B2 I *C 49.9 139.6 *L 0.000718 *D AOI22D0
*I *785:B2 I *C 69.7 139.6 *L 0.000718 *D AOI22D0
*I *778:B2 I *C 63.5 141.6 *L 0.000718 *D AOI22D0

*CAP
1 *808:ZN 0.000208577
2 *806:B2 0.000163867
3 *800:B2 0.000175027
4 *796:B2 9.21233e-05
5 *789:B2 0.000385338
6 *785:B2 9.58665e-05
7 *484:9 0.00454274
8 *484:10 0.000981054
9 *484:11 0.000506782
10 *484:12 0.00014328
11 *484:13 0.000304582
12 *484:14 0.000114998
13 *484:15 1.66363e-05
14 *484:16 0.000298066
15 *484:17 0.000258139
16 *484:18 0.00036981
17 *484:19 0.000136279
18 *484:20 0.000525845
19 *484:21 0.00079154
20 *484:22 0.000136833
21 *484:23 0.000458398
22 *484:24 0.000388942
23 *484:9 *236:5 0.00167674
24 *484:10 *811:ZN 0.000698116016
25 *484:11 *491:5 0.00045435
26 *484:12 *241:2 0.00318053

*RES
1 *484:9 *484:19 2.05694
2 *808:ZN *484:10 7.20603
3 *800:B2 *484:22 5.20183
4 *806:B2 *484:23 5.20183
5 *484:12 *484:10 5.13192
6 *484:20 *484:21 4.19605
7 *484:12 *484:11 4.04641
8 *484:23 *484:24 2.31697
9 *484:18 *484:24 7.12998
10 *484:13 *484:19 5.09144
11 *484:11 *484:9 80.3836975
12 *484:15 *484:16 2.60889
13 *484:22 *484:23 3.81337
14 *789:B2 *484:18 5.21655
15 *484:20 *484:22 1.03276
16 *484:14 *484:21 7.52125
17 *484:14 *484:17 1.27071
18 *796:B2 *484:24 5.20183
19 *484:15 *484:17 4.50637
20 *785:B2 *484:14 4.24266
21 *484:13 *484:16 1.59943
22 *778:B2 *484:21 5.7452
23 *799:B2 *484:18 3.00016
24 *795:B2 *484:17 3.00016
*END

*D_NET *485 0.000691567

*CONN
*I *718:I I *C 262.7 141.6 *L 0.00104 *D DEL0
*I *807:ZN O *C 262.7 139.2 *L 0 *D AOI22D0

*CAP
1 *718:I 0.000349243984
2 *807:ZN 0.000108954
3 *485:2 0.000233368

*RES
1 *807:ZN *485:2 3.20293
2 *718:I *485:2 9.89148998
*END

*D_NET *486 0.000844061

*CONN
*I *766:I I *C 56.9 143.2 *L 0.00103 *D BUFFD2
*I *806:ZN O *C 56.9 139.2 *L 0 *D AOI22D0

*CAP
1 *766:I 0.000644909023
2 *806:ZN 0.000199156

*RES
1 *766:I *806:ZN 9.64028
*END

*D_NET *487 1.0385e-05

*CONN
*I *574:I I *C 253.7 139.6 *L 0.000643 *D CKBD0
*I *805:ZN O *C 252.3 139.2 *L 0 *D AOI22D0

*CAP
1 *805:ZN 1.0385e-05

*RES
1 *805:ZN *574:I 0.25489
*END

*D_NET *488 0.00050973

*CONN
*I *804:ZN O *C 209.5 139.2 *L 0 *D AOI22D0
*I *775:A3 I *C 210.5 141.8 *L 0.00103 *D ND4D1

*CAP
1 *804:ZN 0.00050973

*RES
1 *804:ZN *775:A3 6.98094
*END

*D_NET *489 0.0121281

*CONN
*I *803:ZN O *C 119.9 140 *L 0 *D AOI22D1
*I *770:A2 I *C 187.3 141.8 *L 0.00103 *D ND4D1

*CAP
1 *770:A2 0.000105755
2 *489:2 0.000711036
3 *489:3 1.32598e-05
4 *489:4 0.000816444
5 *489:6 0.0016273
6 *489:7 0.000139426
7 *489:9 0.00060908
8 *489:10 1.93682e-06
9 *489:11 0.000497738
10 *489:12 8.04028e-05
11 *489:13 0.000172998
12 *489:15 0.000767601
13 *489:16 5.45041e-05
14 *489:2 *406:2 0.00397754
15 *489:2 *410:2 0.00255305

*RES
1 *489:6 *489:7 0.0483716
2 *489:7 *489:8 3.02322
3 *803:ZN *489:15 5.64287
4 *489:14 *489:15 10.9154
5 *489:10 *489:11 11.484
6 *489:4 *489:5 0.0483716
7 *489:3 *489:4 21.5927
8 *489:5 *489:6 31.0792007
9 *489:8 *489:9 13.352
10 *489:2 *489:3 1.62946
11 *489:11 *489:12 0.0483716
12 *489:12 *489:13 2.55468
13 *770:A2 *489:16 2.57081
14 *489:9 *489:10 0.0483716
15 *489:13 *489:14 4.35391
16 *489:2 *489:16 6.10003
*END

*D_NET *490 0.0109512

*CONN
*I *802:ZN O *C 128.1 141.2 *L 0 *D AOI22D1
*I *775:A2 I *C 210.3 141.8 *L 0.00103 *D ND4D1

*CAP
1 *802:ZN 0.000426453
2 *775:A2 0.00106459
3 *490:2 0.000153376
4 *490:3 0.00429368031
5 *490:4 7.07588e-06
6 *490:5 0.000119111
7 *490:6 0.000888284
8 *490:3 *494:2 0.00177613
9 *490:2 *29:2 0.00222247

*RES
1 *490:5 *490:6 7.12113
2 *490:2 *490:3 98.9380035
3 *802:ZN *490:6 4.25577
4 *490:2 *490:4 4.64074
5 *775:A2 *490:4 9.0505
6 *490:3 *490:5 2.69628
*END

*D_NET *491 0.0106932

*CONN
*I *801:ZN O *C 116.9 143.6 *L 0 *D AOI22D1
*I *769:A4 I *C 196.1 143.2 *L 0.00102 *D ND4D1

*CAP
1 *801:ZN 0.000108945
2 *769:A4 0.00090173
3 *491:2 2.45667e-05
4 *491:3 7.70844e-05
5 *491:4 0.000525003
6 *491:5 0.000427962
7 *491:6 0.00382417
8 *491:7 7.15992e-05
9 *769:A4 *141:3 0.00078825
10 *491:3 *241:3 0.000489035977
11 *491:2 *398:3 0.00157535
12 *491:5 *484:11 0.00045435
13 *491:2 *142:2 0.00142511

*RES
1 *491:2 *491:6 84.2615967
2 *491:5 *491:6 7.39809
3 *491:3 *491:4 9.07597
4 *491:4 *491:2 1.92474
5 *491:3 *491:7 3.21818
6 *769:A4 *491:7 7.55238
7 *801:ZN *491:5 1.70359
*END

*D_NET *492 0.000620049

*CONN
*I *765:I I *C 59.5 141.6 *L 0.000968 *D CKBD1
*I *800:ZN O *C 59.1 139.2 *L 0 *D AOI22D0

*CAP
1 *765:I 0.000136078
2 *800:ZN 6.59227e-06
3 *492:2 0.000477375

*RES
1 *800:ZN *492:2 0.520788
2 *765:I *492:2 6.97249985
*END

*D_NET *493 0.000949742

*CONN
*I *764:I I *C 52.7 143.2 *L 0.000968 *D CKBD1
*I *799:ZN O *C 51.7 139.2 *L 0 *D AOI22D0

*CAP
1 *799:ZN 0.000195869
2 *493:2 0.000753877969

*RES
1 *799:ZN *493:2 4.07826
2 *764:I *493:2 7.58909988
*END

*D_NET *494 0.0111497

*CONN
*I *798:ZN O *C 120.3 141.2 *L 0 *D AOI22D1
*I *774:A4 I *C 205.1 141.6 *L 0.00102 *D ND4D1

*CAP
1 *774:A4 0.000393084
2 *494:2 0.000500802
3 *494:4 0.00440656
4 *494:5 0.000293031
5 *494:6 7.03328e-05
6 *494:7 0.000897113
7 *494:8 0.000522789
8 *494:9 0.000383603
9 *494:2 *240:3 0.00153098
10 *494:5 *802:A2 0.000375331992
11 *494:2 *490:3 0.00177613

*RES
1 *494:8 *494:9 5.09041
2 *494:6 *494:7 6.73713
3 *494:5 *494:9 5.90018
4 *494:4 *494:6 2.50228
5 *494:2 *494:3 0.449238
6 *494:5 *494:7 2.32631
7 *494:3 *494:4 93.7619019
8 *774:A4 *494:2 12.9792
9 *798:ZN *494:8 1.49937
*END

*D_NET *495 0.00816895

*CONN
*I *797:ZN O *C 276.7 139.2 *L 0 *D AOI22D0
*I *773:A4 I *C 215.7 141.6 *L 0.00102 *D ND4D1

*CAP
1 *797:ZN 3.07228e-05
2 *773:A4 6.92859e-06
3 *495:2 0.00597454
4 *495:3 0.000193818
5 *495:4 0.000448261
6 *495:2 *338:3 0.000484504023
7 *495:2 *61:5 0.000209429004
8 *495:3 *69:2 0.000820788047

*RES
1 *797:ZN *495:3 4.69821
2 *495:2 *495:4 5.12503
3 *495:3 *495:2 71.7219009
4 *773:A4 *495:4 3.86867
*END

*D_NET *496 0.00143825

*CONN
*I *763:I I *C 58.3 143.2 *L 0.000968 *D CKBD1
*I *796:ZN O *C 54.3 139.2 *L 0 *D AOI22D0

*CAP
1 *763:I 8.34605e-05
2 *496:2 0.000461507
3 *496:3 0.000893285

*RES
1 *496:2 *496:3 5.0587101
2 *796:ZN *496:3 4.77874
3 *763:I *496:2 4.30642
*END

*D_NET *497 0.00445114

*CONN
*I *762:I I *C 103.9 141.6 *L 0.000968 *D CKBD1
*I *795:ZN O *C 69.3 142 *L 0 *D AOI22D0

*CAP
1 *762:I 0.000160424
2 *497:2 0.00106298
3 *497:3 0.000316885
4 *497:4 0.00110708
5 *497:5 1.89132e-05
6 *497:6 0.000577687
7 *497:7 4.22525e-05
8 *497:8 0.00116492

*RES
1 *497:7 *497:8 9.33667
2 *795:ZN *497:2 2.63892
3 *497:6 *497:7 0.13206
4 *497:5 *497:6 5.30616
5 *497:4 *497:5 0.13206
6 *497:3 *497:4 10.6716003
7 *497:2 *497:8 8.19406
8 *762:I *497:3 7.38216
*END

*D_NET *498 0.000288134

*CONN
*I *794:ZN O *C 195.5 142 *L 0 *D AOI22D0
*I *769:A2 I *C 195.5 143 *L 0.00103 *D ND4D1

*CAP
1 *769:A2 0.000288134004

*RES
1 *794:ZN *769:A2 7.50575
*END

*D_NET *499 0.000757357

*CONN
*I *793:ZN O *C 216.5 139.2 *L 0 *D AOI22D0
*I *773:A3 I *C 215.3 141.8 *L 0.00103 *D ND4D1

*CAP
1 *773:A3 0.000757357031

*RES
1 *773:A3 *793:ZN 10.2771
*END

*D_NET *500 0.00908844

*CONN
*I *792:ZN O *C 269.9 140 *L 0 *D AOI22D1
*I *775:A4 I *C 210.9 141.6 *L 0.00102 *D ND4D1

*CAP
1 *500:2 0.000871877
2 *500:3 0.000390197
3 *500:4 0.00106611
4 *500:5 5.0229e-05
5 *500:6 0.00104327
6 *500:7 2.61616e-05
7 *500:8 0.00217853
8 *500:9 0.000312012
9 *500:3 *69:3 0.00106014
10 *500:3 *511:2 0.00180627
11 *500:2 *663:I 0.0002836

*RES
1 *500:9 *500:2 2.85341
2 *500:8 *500:9 3.24454
3 *500:3 *500:4 25.8707
4 *500:7 *500:8 28.0445995
5 *500:5 *500:6 14.689
6 *500:4 *500:5 0.169887
7 *500:2 *500:11 6.3928
8 *500:6 *500:7 0.169887
9 *500:3 *500:10 4.21593
10 *775:A4 *500:11 1.49988
11 *792:ZN *500:10 1.49988
*END

*D_NET *501 0.000662997

*CONN
*I *791:ZN O *C 212.7 139.2 *L 0 *D AOI22D0
*I *768:A2 I *C 212.9 141.8 *L 0.00103 *D ND4D1

*CAP
1 *791:ZN 0.000662997031

*RES
1 *768:A2 *791:ZN 6.4545
*END

*D_NET *502 0.0121996

*CONN
*I *790:ZN O *C 140.7 141.2 *L 0 *D AOI22D1
*I *773:A1 I *C 214.7 141.8 *L 0.000996 *D ND4D1

*CAP
1 *790:ZN 0.000295513
2 *773:A1 0.000368983
3 *502:2 0.00334828
4 *502:3 0.000679823
5 *502:4 1.30283e-05
6 *502:5 0.000716967
7 *502:6 9.70738e-07
8 *502:7 0.0011962
9 *502:8 0.000214635
10 *502:6 *239:5 0.00194723
11 *790:ZN *479:11 0.000389713984
12 *502:3 *512:3 0.00135898
13 *502:2 *44:2 0.00166922

*RES
1 *502:7 *502:8 6.29017
2 *502:2 *502:7 8.04315
3 *502:3 *502:4 1.42234
4 *502:6 *502:2 66.0628967
5 *502:4 *502:5 21.7222
6 *773:A1 *502:3 9.56831
7 *790:ZN *502:8 5.76599
8 *502:5 *502:6 0.170359
*END

*D_NET *503 0.00234327

*CONN
*I *761:I I *C 61.3 143.2 *L 0.000643 *D CKBD0
*I *789:ZN O *C 50.3 139.2 *L 0 *D AOI22D0

*CAP
1 *503:2 0.00067344
2 *503:3 0.00166984

*RES
1 *503:2 *503:3 13.8022003
2 *761:I *503:2 6.8832
3 *789:ZN *503:3 3.25406
*END

*D_NET *504 0.00675579

*CONN
*I *788:ZN O *C 274.5 139.2 *L 0 *D AOI22D0
*I *771:A4 I *C 219.5 141.6 *L 0.00102 *D ND4D1

*CAP
1 *788:ZN 0.00044617
2 *771:A4 0.00040575
3 *504:2 2.11723e-05
4 *504:3 0.00122465
5 *504:4 0.000583612
6 *504:5 0.000228411
7 *504:6 8.99964e-05
8 *504:7 2.24244e-07
9 *504:8 0.00042255
10 *504:9 1.09506e-05
11 *504:10 0.000495821
12 *504:11 4.54093e-05
13 *504:12 0.000498213
14 *504:2 *228:3 0.00163577
15 *504:3 *134:2 0.000324562012
16 *504:4 *135:2 0.00032256002

*RES
1 *504:5 *504:6 3.49494
2 *504:9 *504:10 5.3769
3 *504:4 *504:5 0.132047
4 *504:2 *504:4 9.3765
5 *504:7 *504:8 10.5468
6 *504:6 *504:3 18.8127003
7 *504:3 *504:7 0.132047
8 *504:10 *504:11 0.132047
9 *788:ZN *504:2 4.92249
10 *504:8 *504:9 0.132047
11 *504:11 *504:12 7.29704
12 *771:A4 *504:12 6.99362
*END

*D_NET *505 0.000716402

*CONN
*I *787:ZN O *C 207.1 139.2 *L 0 *D AOI22D0
*I *774:A1 I *C 206.1 141.8 *L 0.000996 *D ND4D1

*CAP
1 *787:ZN 0.000716402031

*RES
1 *787:ZN *774:A1 6.89536
*END

*D_NET *506 0.00911106

*CONN
*I *786:ZN O *C 256.1 140 *L 0 *D AOI22D1
*I *769:A3 I *C 195.7 143 *L 0.00103 *D ND4D1

*CAP
1 *506:2 0.000352629
2 *506:3 0.00508573
3 *506:4 0.000505352
4 *506:6 0.000371254
5 *506:3 *334:3 0.000384075
6 *506:3 *124:3 0.000517233008
7 *506:3 *395:3 0.0003902
8 *506:2 *511:2 0.00150451

*RES
1 *506:4 *506:6 4.7189
2 *506:3 *506:5 10.2399
3 *506:2 *506:4 5.69233
4 *506:2 *506:3 68.8924026
5 *786:ZN *506:6 4.55281
6 *769:A3 *506:5 1.50008
*END

*D_NET *507 0.000930133

*CONN
*I *760:I I *C 74.3 141.6 *L 0.000968 *D CKBD1
*I *785:ZN O *C 69.3 139.2 *L 0 *D AOI22D0

*CAP
1 *760:I 0.000114282
2 *507:2 0.00081585

*RES
1 *760:I *507:2 4.00589
2 *785:ZN *507:2 8.29689026
*END

*D_NET *508 0.00115365

*CONN
*I *784:ZN O *C 215.1 139.2 *L 0 *D AOI22D0
*I *771:A3 I *C 219.1 141.8 *L 0.00103 *D ND4D1

*CAP
1 *784:ZN 0.000273414
2 *771:A3 0.00023957
3 *508:2 0.000640667969

*RES
1 *771:A3 *508:2 9.53240967
2 *784:ZN *508:2 4.44984
*END

*D_NET *509 0.000432616

*CONN
*I *717:I I *C 260.1 141.6 *L 0.00104 *D DEL0
*I *783:ZN O *C 260.3 139.2 *L 0 *D AOI22D0

*CAP
1 *717:I 5.87692e-05
2 *783:ZN 3.41533e-05
3 *509:2 0.000339693008

*RES
1 *783:ZN *509:2 0.779326
2 *717:I *509:2 5.85710001
*END

*D_NET *510 0.0122255

*CONN
*I *782:ZN O *C 137.1 141.2 *L 0 *D AOI22D1
*I *771:A1 I *C 218.5 141.8 *L 0.000996 *D ND4D1

*CAP
1 *782:ZN 0.00050415
2 *771:A1 0.000669755
3 *510:2 0.00131314
4 *510:3 0.000164528
5 *510:4 4.50368e-05
6 *510:5 0.000151986
7 *510:6 0.00125098
8 *510:7 6.99147e-05
9 *510:8 0.0016808
10 *510:9 0.000369194
11 *510:10 0.000521129
12 *510:11 4.32927e-05
13 *510:6 *140:4 0.00188413
14 *510:2 *591:I 0.00132624
15 *510:7 *398:3 0.00122663
16 *510:4 *512:4 0.000510514023
17 *510:2 *237:2 0.000494116016

*RES
1 *510:10 *510:11 3.89807
2 *510:5 *510:6 27.098
3 *510:8 *510:11 2.11378
4 *510:3 *510:4 2.43234
5 *510:7 *510:8 39.8414993
6 *510:6 *510:7 2.84634
7 *510:2 *510:5 3.60261
8 *510:4 *510:2 24.3976
9 *510:3 *510:9 5.16561
10 *771:A1 *510:9 5.67566
11 *782:ZN *510:10 4.38745
*END

*D_NET *511 0.00852305

*CONN
*I *781:ZN O *C 272.7 140 *L 0 *D AOI22D1
*I *768:A4 I *C 213.5 141.6 *L 0.00102 *D ND4D1

*CAP
1 *781:ZN 0.000142551
2 *768:A4 2.39351e-05
3 *511:2 0.00408486
4 *511:3 2.74256e-06
5 *511:4 0.000253188
6 *511:5 0.000379222
7 *511:2 *68:10 0.000325724004
8 *511:2 *506:2 0.00150451
9 *511:2 *500:3 0.00180627

*RES
1 *511:3 *511:5 5.9658
2 *781:ZN *511:4 5.28309
3 *768:A4 *511:3 0.737151
4 *511:2 *511:4 71.3588028
5 *511:2 *511:5 1.50043
*END

*D_NET *512 0.0121859

*CONN
*I *780:ZN O *C 133.7 141.2 *L 0 *D AOI22D1
*I *768:A3 I *C 213.1 141.8 *L 0.00103 *D ND4D1

*CAP
1 *512:2 0.00208161
2 *512:3 0.000884641
3 *512:4 0.00118585
4 *512:5 1.95662e-05
5 *512:8 9.09384e-05
6 *512:9 5.24095e-06
7 *512:10 0.000667348
8 *512:11 8.11553e-05
9 *512:12 0.000819462
10 *512:2 *44:2 0.00191627
11 *512:3 *502:3 0.00135898
12 *512:4 *510:4 0.000510514023
13 *512:5 *140:4 0.0018229
14 *512:4 *235:3 0.000741388047

*RES
1 *512:6 *512:4 20.7124
2 *512:9 *512:10 14.3311
3 *512:2 *512:9 0.184649
4 *512:5 *512:2 59.3194008
5 *512:7 *512:8 7.85844
6 *512:4 *512:7 0.170167
7 *512:11 *512:12 7.13071
8 *512:10 *512:11 1.45999
9 *512:8 *512:5 0.170167
10 *512:6 *512:3 7.87021
11 *780:ZN *512:12 1.49982
12 *768:A3 *512:3 2.99964
*END

*D_NET *513 0.000777777

*CONN
*I *779:ZN O *C 200.5 142 *L 0 *D AOI22D0
*I *772:A3 I *C 200.5 143 *L 0.00103 *D ND4D1

*CAP
1 *779:ZN 6.02586e-05
2 *772:A3 0.000280969
3 *513:2 0.000436551992

*RES
1 *779:ZN *513:2 5.00698
2 *772:A3 *513:2 9.50986004
*END

*D_NET *514 0.000297386

*CONN
*I *759:I I *C 63.9 143.2 *L 0.000968 *D CKBD1
*I *778:ZN O *C 63.1 142 *L 0 *D AOI22D0

*CAP
1 *759:I 5.44441e-08
2 *778:ZN 0.000297333008

*RES
1 *778:ZN *759:I 6.05758
*END

*D_NET *515 0.0122369

*CONN
*I *777:ZN O *C 120.3 143.6 *L 0 *D AOI22D1
*I *772:A2 I *C 200.3 143 *L 0.00103 *D ND4D1

*CAP
1 *777:ZN 0.000217973
2 *515:2 0.000816521
3 *515:3 0.00133161
4 *515:4 0.000248109
5 *515:5 0.000229599
6 *515:6 0.000379276
7 *515:7 3.68151e-05
8 *515:8 0.00149392
9 *515:9 8.22927e-05
10 *515:10 0.000927286
11 *515:11 2.62607e-05
12 *515:12 0.000471393
13 *515:13 0.000370112
14 *515:14 0.000393706
15 *515:15 3.52422e-05
16 *515:16 0.00059506
17 *515:17 0.00115798
18 *515:19 0.0005432
19 *515:3 *49:3 0.000476258984
20 *515:12 *55:3 0.000724861953
21 *515:2 *143:2 0.00167935

*RES
1 *515:14 *515:15 0.170116
2 *515:3 *515:2 15.4728
3 *515:4 *515:5 4.62292
4 *515:17 *515:18 7.06801
5 *515:16 *515:17 4.53959
6 *515:15 *515:16 8.37582
7 *515:9 *515:10 11.5087
8 *515:2 *515:4 3.81983
9 *515:7 *515:8 28.2961998
10 *515:5 *515:6 5.66908
11 *515:6 *515:7 0.170116
12 *515:18 *515:19 3.68598
13 *515:12 *515:13 4.90054
14 *777:ZN *515:19 2.67824
15 *515:10 *515:11 0.170116
16 *772:A2 *515:3 11.9176
17 *515:8 *515:9 0.170116
18 *515:13 *515:14 5.426
19 *515:11 *515:12 7.23769
*END

*D_NET *516 0.000781077

*CONN
*I *776:ZN O *C 188.3 139.2 *L 0 *D AOI22D0
*I *770:A3 I *C 187.5 141.8 *L 0.00103 *D ND4D1

*CAP
1 *770:A3 0.000501109023
2 *516:2 0.000279967

*RES
1 *770:A3 *516:2 10.0936003
2 *776:ZN *516:2 1.49996
*END

*D_NET *517 0.00413536

*CONN
*I *805:A1 I *C 253.3 139.6 *L 0.000665 *D AOI22D0
*I *767:Q[7] O *C 285.725 134.265 *L 0 *D sram00

*CAP
1 *517:2 0.000117504
2 *517:3 2.67531e-05
3 *517:4 7.87207e-05
4 *517:5 0.000895523
5 *517:6 0.00101756
6 *517:7 3.69671e-06
7 *517:8 0.00140037
8 *517:9 2.72659e-05
9 *517:10 0.000198789
10 *517:11 1.9787e-05
11 *517:12 0.000333773
12 *517:13 1.56416e-05

*RES
1 *517:11 *517:12 3.16869
2 *517:10 *517:11 0.132006
3 *517:9 *517:10 1.85835
4 *517:5 *517:13 3.98244
5 *517:4 *517:6 12.0182
6 *517:12 *517:13 0.329201
7 *517:8 *517:9 0.132006
8 *517:7 *517:8 14.8182
9 *517:6 *517:7 0.132006
10 *517:3 *517:5 6.1598
11 *805:A1 *517:2 1.5
12 *517:2 *517:3 1.5
13 *517:13 *767:Q[7] 0.0001
*END

*D_NET *518 0.00436516

*CONN
*I *786:A1 I *C 256.3 139.6 *L 0.000982 *D AOI22D1
*I *767:Q[6] O *C 288.315 134.265 *L 0 *D sram00

*CAP
1 *518:2 0.00178814
2 *518:3 3.9057e-05
3 *518:4 0.000157812
4 *518:5 3.78409e-05
5 *518:6 0.00185344
6 *518:7 0.000155973
7 *518:8 0.000332875

*RES
1 *518:6 *518:7 0.132006
2 *518:4 *518:5 0.132006
3 *518:3 *518:4 1.54075
4 *518:2 *518:7 14.1514
5 *786:A1 *518:2 3.98173
6 *518:5 *518:6 17.3423
7 *518:3 *518:8 4.34927
8 *518:8 *767:Q[6] 0.0001
*END

*D_NET *519 0.00443942

*CONN
*I *783:A1 I *C 261.3 139.6 *L 0.000665 *D AOI22D0
*I *767:Q[5] O *C 294.125 134.265 *L 0 *D sram00

*CAP
1 *783:A1 4.8199e-06
2 *519:2 0.000858297
3 *519:3 8.05562e-05
4 *519:4 0.00232259016
5 *519:5 0.000300641
6 *519:6 9.56183e-05
7 *519:7 1.22624e-05
8 *519:8 0.000286926
9 *519:9 5.52871e-06
10 *519:10 0.000472138

*RES
1 *519:9 *519:10 1.28452
2 *519:8 *519:9 2.23572
3 *519:6 *519:7 0.132006
4 *519:4 *519:5 2.28033
5 *519:3 *519:4 22.5921
6 *519:2 *519:7 8.51417
7 *783:A1 *519:2 1.69416
8 *519:5 *519:6 1.03294
9 *519:3 *519:10 3.99992
10 *519:10 *767:Q[5] 0.0001
*END

*D_NET *520 0.00419681

*CONN
*I *807:A1 I *C 263.7 139.6 *L 0.000665 *D AOI22D0
*I *767:Q[4] O *C 296.715 134.265 *L 0 *D sram00

*CAP
1 *520:2 0.000482014
2 *520:3 4.38581e-05
3 *520:4 2.09063e-05
4 *520:5 0.000961107
5 *520:6 0.00174091
6 *520:7 1.12634e-05
7 *520:8 0.000892198
8 *520:9 4.45754e-05

*RES
1 *520:4 *520:6 20.0875
2 *520:2 *520:3 3.85114
3 *520:8 *520:9 0.132006
4 *520:7 *520:8 7.56444
5 *520:6 *520:7 0.132006
6 *520:5 *520:9 7.74415
7 *520:3 *520:4 0.225235
8 *807:A1 *520:5 2.72826
9 *520:9 *767:Q[4] 0.0001
*END

*D_NET *521 0.00436033

*CONN
*I *792:A1 I *C 270.1 139.6 *L 0.000982 *D AOI22D1
*I *767:Q[3] O *C 302.525 134.265 *L 0 *D sram00

*CAP
1 *521:2 0.000376195
2 *521:4 4.8466e-06
3 *521:5 0.000318213
4 *521:6 0.000545614
5 *521:7 0.00231840984
6 *521:8 0.000289983
7 *521:9 0.000286799
8 *521:10 0.00022029

*RES
1 *521:9 *521:10 1.68036
2 *521:2 *521:3 3.01236
3 *521:8 *521:9 2.39205
4 *521:7 *521:8 2.10317
5 *521:4 *521:5 0.361077
6 *521:3 *521:4 0.256311
7 *792:A1 *521:6 3.75405
8 *521:6 *521:10 3.31702
9 *521:5 *521:7 25.4126
10 *521:10 *767:Q[3] 0.0001
*END

*D_NET *522 0.00425549

*CONN
*I *781:A1 I *C 272.9 139.6 *L 0.000982 *D AOI22D1
*I *767:Q[2] O *C 305.115 134.265 *L 0 *D sram00

*CAP
1 *522:2 0.00235050984
2 *522:3 2.16275e-05
3 *522:4 0.000102435
4 *522:5 5.90004e-05
5 *522:6 0.000423978
6 *522:7 6.5277e-06
7 *522:8 0.000605032
8 *522:9 3.39656e-05
9 *522:10 0.000363471
10 *522:11 1.0473e-05
11 *522:12 0.00025085
12 *522:13 2.76531e-05

*RES
1 *522:7 *522:8 5.22819
2 *522:12 *522:13 2.88035
3 *522:3 *522:13 1.72523
4 *522:5 *522:6 4.72195
5 *522:4 *522:5 0.132006
6 *522:6 *522:7 0.132006
7 *522:10 *522:11 0.132006
8 *522:8 *522:9 0.132006
9 *522:9 *522:10 3.75116
10 *781:A1 *522:2 3.63574
11 *522:2 *522:11 17.6141
12 *522:3 *522:4 2.36098
13 *522:13 *767:Q[2] 0.0001
*END

*D_NET *523 0.00396893

*CONN
*I *788:A1 I *C 275.5 139.6 *L 0.000665 *D AOI22D0
*I *767:Q[1] O *C 310.925 134.265 *L 0 *D sram00

*CAP
1 *523:2 0.00080771
2 *523:3 4.57756e-05
3 *523:5 2.67162e-05
4 *523:6 1.72599e-06
5 *523:7 5.60581e-05
6 *523:9 0.000191934
7 *523:10 1.7921e-05
8 *523:11 1.0411e-05
9 *523:12 3.89267e-05
10 *523:13 0.00120333008
11 *523:14 1.7921e-05
12 *523:15 0.000300194
13 *523:16 3.5438e-06
14 *523:17 0.000846967
15 *523:18 3.28306e-05
16 *523:19 9.42687e-05
17 *523:20 1.07232e-05
18 *523:21 0.000227409
19 *523:22 3.45382e-05

*RES
1 *523:21 *523:22 0.132006
2 *523:7 *523:8 0.132006
3 *523:18 *523:19 0.794508
4 *523:12 *523:13 13.4591
5 *523:5 *523:6 0.132006
6 *523:4 *523:5 0.45047
7 *523:6 *523:7 0.644628
8 *523:10 *523:11 0.644628
9 *523:8 *523:9 2.58621
10 *523:9 *523:10 0.132006
11 *523:13 *523:14 0.132006
12 *523:19 *523:20 0.132006
13 *523:17 *523:18 0.132006
14 *788:A1 *523:2 6.1598
15 *523:16 *523:17 10.3525
16 *523:15 *523:16 0.132006
17 *523:11 *523:12 0.132006
18 *523:20 *523:21 2.1979
19 *523:14 *523:15 2.89174
20 *523:2 *523:22 2.69603
21 *523:3 *523:4 0.294139
22 *523:22 *767:Q[1] 0.0001
*END

*D_NET *524 0.00399405

*CONN
*I *797:A1 I *C 277.7 139.6 *L 0.000665 *D AOI22D0
*I *767:Q[0] O *C 313.515 134.265 *L 0 *D sram00

*CAP
1 *524:2 0.00370526
2 *524:3 3.78244e-05
3 *524:4 0.000208458
4 *524:5 4.25171e-05

*RES
1 *524:2 *524:4 36.5477
2 *524:3 *524:5 2.60185
3 *524:3 *524:4 0.35724
4 *797:A1 *524:2 5.18901
5 *524:5 *767:Q[0] 0.0001
*END

*D_NET *525 0.00111441

*CONN
*I *650:I I *C 157.3 141.6 *L 0.00104 *D DEL0
*I *873:ZN O *C 163.3 139.4 *L 0 *D NR2D0

*CAP
1 *650:I 0.0003511
2 *873:ZN 0.000334942
3 *525:2 0.000428368008

*RES
1 *873:ZN *525:2 5.33092
2 *650:I *525:2 9.92492962
*END

