*SPEF "IEEE 1481-1998"
*DESIGN "bus_slave_c"
*DATE "Thu Apr  2 21:18:56 2026"
*VENDOR "Cadence Design Systems, Inc."
*PROGRAM "Innovus"
*VERSION "21.16-s078_1"
*DESIGN_FLOW "COUPLING C" "PIN_CAP NONE" "NAME_SCOPE LOCAL"
*DIVIDER /
*DELIMITER :
*BUS_DELIMITER []
*T_UNIT 1 NS
*C_UNIT 1 PF
*R_UNIT 1 OHM
*L_UNIT 1 HENRY

// MMMC spef file for corner 'RC_WORST'

*NAME_MAP

*1 FE_PDN36_n_58
*2 FE_PDN35_n_65
*3 FE_PHN80_BUS_RST_N
*4 FE_PHN79_FE_OFN12_debug_cnt_c_7
*5 FE_PHN78_n_78
*6 FE_PHN77_n_84
*7 FE_PHN76_n_89
*8 FE_PHN75_n_72
*9 FE_PHN74_n_65
*10 FE_PHN73_n_92
*11 FE_PHN72_n_58
*12 FE_PHN71_n_64
*13 FE_PHN70_n_71
*14 FE_PHN69_n_78
*15 FE_PHN68_BUS_RST_N
*16 FE_PHN67_FE_OFN32_debug_cnt_c_0
*17 FE_PHN66_CHC_START
*18 FE_PHN65_n_35
*19 FE_PHN64_FE_OFN6_debug_cnt_c_9
*20 FE_PHN63_CHC_RD
*21 FE_PHN62_FE_OFN12_debug_cnt_c_7
*22 FE_PHN61_n_20
*23 FE_PHN60_BUS_RST_N
*24 FE_PHN59_BUS_RST_N
*25 FE_PHN58_BUS_RST_N
*26 FE_PHN57_BUS_RST_N
*27 FE_PHN56_BUS_RST_N
*28 FE_PHN55_BUS_RST_N
*29 FE_PHN54_n_92
*30 FE_PHN53_n_89
*31 FE_PHN52_n_88
*32 FE_PHN51_n_80
*33 FE_PHN50_n_84
*34 FE_PHN49_n_78
*35 FE_PHN48_n_72
*36 FE_PHN47_n_70
*37 FE_PHN46_n_71
*38 FE_PHN45_n_67
*39 FE_PHN44_n_64
*40 FE_PHN43_BUS_RST_N
*41 FE_PHN42_CHC_RD
*42 FE_PHN41_FE_OFN24_debug_cnt_c_3
*43 FE_PHN40_FE_OFN32_debug_cnt_c_0
*44 FE_PHN39_FE_OFN30_debug_cnt_c_1
*45 FE_PHN38_n_35
*46 FE_PHN37_n_0
*47 FE_PHN36_n_6
*48 FE_PHN35_CHC_START
*49 CTS_2
*50 CTS_1
*51 FE_OFN32_debug_cnt_c_0
*52 FE_OFN30_debug_cnt_c_1
*53 FE_OFN28_debug_cnt_c_2
*54 FE_OFN27_debug_cnt_c_2
*55 FE_OFN25_debug_cnt_c_3
*56 FE_OFN24_debug_cnt_c_3
*57 FE_OFN22_debug_cnt_c_4
*58 FE_OFN21_debug_cnt_c_4
*59 FE_OFN19_debug_cnt_c_5
*60 FE_OFN18_debug_cnt_c_5
*61 FE_OFN16_debug_cnt_c_6
*62 FE_OFN15_debug_cnt_c_6
*63 FE_OFN13_debug_cnt_c_7
*64 FE_OFN12_debug_cnt_c_7
*65 FE_OFN10_debug_cnt_c_8
*66 FE_OFN9_debug_cnt_c_8
*67 FE_OFN7_debug_cnt_c_9
*68 FE_OFN6_debug_cnt_c_9
*69 FE_OFN4_debug_cnt_c_10
*70 FE_OFN3_debug_cnt_c_10
*71 FE_OFN1_debug_cnt_c_11
*72 BUS_CLK
*73 BUS_RST_N
*74 CHC_START
*75 CHC_RD
*76 CHC_RDATA[7]
*77 CHC_RDATA[6]
*78 CHC_RDATA[5]
*79 CHC_RDATA[4]
*80 CHC_RDATA[3]
*81 CHC_RDATA[2]
*82 CHC_RDATA[1]
*83 CHC_RDATA[0]
*84 sram_c_re
*85 sram_c_addr[11]
*86 sram_c_addr[10]
*87 sram_c_addr[9]
*88 sram_c_addr[8]
*89 sram_c_addr[7]
*90 sram_c_addr[6]
*91 sram_c_addr[5]
*92 sram_c_addr[4]
*93 sram_c_addr[3]
*94 sram_c_addr[2]
*95 sram_c_addr[1]
*96 sram_c_addr[0]
*97 debug_cnt_c[11]
*98 debug_cnt_c[10]
*99 debug_cnt_c[9]
*100 debug_cnt_c[8]
*101 debug_cnt_c[7]
*102 debug_cnt_c[6]
*103 debug_cnt_c[5]
*104 debug_cnt_c[4]
*105 debug_cnt_c[3]
*106 debug_cnt_c[2]
*107 debug_cnt_c[1]
*108 debug_cnt_c[0]
*109 UNCONNECTED
*110 UNCONNECTED0
*111 UNCONNECTED1
*112 UNCONNECTED2
*113 UNCONNECTED3
*114 UNCONNECTED4
*115 UNCONNECTED5
*116 UNCONNECTED6
*117 n_0
*118 n_3
*119 n_6
*120 n_18
*121 n_20
*122 n_35
*123 n_47
*124 n_48
*125 n_49
*126 n_50
*127 n_51
*128 n_52
*129 n_53
*130 n_54
*131 n_55
*132 n_57
*133 n_58
*134 n_60
*135 n_61
*136 n_62
*137 n_63
*138 n_64
*139 n_65
*140 n_67
*141 n_68
*142 n_69
*143 n_70
*144 n_71
*145 n_72
*146 n_74
*147 n_75
*148 n_76
*149 n_77
*150 n_78
*151 n_79
*152 n_80
*153 n_81
*154 n_82
*155 n_84
*156 n_85
*157 n_86
*158 n_87
*159 n_88
*160 n_89
*161 n_92
*162 n_106
*163 n_107
*164 n_108
*165 n_109
*166 n_110
*167 n_111
*168 sram_c_dout[7]
*169 sram_c_dout[6]
*170 sram_c_dout[5]
*171 sram_c_dout[4]
*172 sram_c_dout[3]
*173 sram_c_dout[2]
*174 sram_c_dout[1]
*175 sram_c_dout[0]
*176 FE_PDC36_n_58
*177 FE_PDC35_n_65
*178 FE_PHC80_BUS_RST_N
*179 FE_PHC79_FE_OFN12_debug_cnt_c_7
*180 FE_PHC78_n_78
*181 FE_PHC77_n_84
*182 FE_PHC76_n_89
*183 FE_PHC75_n_72
*184 FE_PHC74_n_65
*185 FE_PHC73_n_92
*186 FE_PHC72_n_58
*187 FE_PHC71_n_64
*188 FE_PHC70_n_71
*189 FE_PHC69_n_78
*190 FE_PHC68_BUS_RST_N
*191 FE_PHC67_FE_OFN32_debug_cnt_c_0
*192 FE_PHC66_CHC_START
*193 FE_PHC65_n_35
*194 FE_PHC64_FE_OFN6_debug_cnt_c_9
*195 FE_PHC63_CHC_RD
*196 FE_PHC62_FE_OFN12_debug_cnt_c_7
*197 FE_PHC61_n_20
*198 FE_PHC60_BUS_RST_N
*199 FE_PHC59_BUS_RST_N
*200 FE_PHC58_BUS_RST_N
*201 FE_PHC57_BUS_RST_N
*202 FE_PHC56_BUS_RST_N
*203 FE_PHC55_BUS_RST_N
*204 FE_PHC54_n_92
*205 FE_PHC53_n_89
*206 FE_PHC52_n_88
*207 FE_PHC51_n_80
*208 FE_PHC50_n_84
*209 FE_PHC49_n_78
*210 FE_PHC48_n_72
*211 FE_PHC47_n_70
*212 FE_PHC46_n_71
*213 FE_PHC45_n_67
*214 FE_PHC44_n_64
*215 FE_PHC43_BUS_RST_N
*216 FE_PHC42_CHC_RD
*217 FE_PHC41_FE_OFN24_debug_cnt_c_3
*218 FE_PHC40_FE_OFN32_debug_cnt_c_0
*219 FE_PHC39_FE_OFN30_debug_cnt_c_1
*220 FE_PHC38_n_35
*221 FE_PHC37_n_0
*222 FE_PHC36_n_6
*223 FE_PHC35_CHC_START
*224 CTS_ccl_a_inv_00001
*225 CTS_cmf_inv_00047
*226 FE_OFC34_debug_cnt_c_1
*227 FE_OFC33_debug_cnt_c_0
*228 FE_OFC32_debug_cnt_c_0
*229 FE_OFC30_debug_cnt_c_1
*230 FE_OFC29_debug_cnt_c_2
*231 FE_OFC28_debug_cnt_c_2
*232 FE_OFC27_debug_cnt_c_2
*233 FE_OFC26_debug_cnt_c_3
*234 FE_OFC25_debug_cnt_c_3
*235 FE_OFC24_debug_cnt_c_3
*236 FE_OFC23_debug_cnt_c_4
*237 FE_OFC22_debug_cnt_c_4
*238 FE_OFC21_debug_cnt_c_4
*239 FE_OFC20_debug_cnt_c_5
*240 FE_OFC19_debug_cnt_c_5
*241 FE_OFC18_debug_cnt_c_5
*242 FE_OFC17_debug_cnt_c_6
*243 FE_OFC16_debug_cnt_c_6
*244 FE_OFC15_debug_cnt_c_6
*245 FE_OFC14_debug_cnt_c_7
*246 FE_OFC13_debug_cnt_c_7
*247 FE_OFC12_debug_cnt_c_7
*248 FE_OFC11_debug_cnt_c_8
*249 FE_OFC10_debug_cnt_c_8
*250 FE_OFC9_debug_cnt_c_8
*251 FE_OFC8_debug_cnt_c_9
*252 FE_OFC7_debug_cnt_c_9
*253 FE_OFC6_debug_cnt_c_9
*254 FE_OFC5_debug_cnt_c_10
*255 FE_OFC4_debug_cnt_c_10
*256 FE_OFC3_debug_cnt_c_10
*257 FE_OFC2_debug_cnt_c_11
*258 FE_OFC1_debug_cnt_c_11
*259 cnt_c_reg\[11\]
*260 p95792A__2398
*261 cnt_c_reg\[10\]
*262 p95821A__6260
*263 cnt_c_reg\[9\]
*264 cnt_c_reg\[8\]
*265 p95850A__4319
*266 p95810A__8428
*267 p95771A__5526
*268 p95879A__6783
*269 cnt_c_reg\[7\]
*270 p95856A306__1617
*271 cnt_c_reg\[6\]
*272 p95752A__2802
*273 p95906A__1705
*274 p95856A__5122
*275 p95934A__8246
*276 cnt_c_reg\[5\]
*277 p95858A__7098
*278 p95742A__6131
*279 cnt_c_reg\[4\]
*280 p95912A__1881
*281 p95962A__7482
*282 p95716A__4733
*283 p95991A__6161
*284 p95705A__9315
*285 p95914A__9945
*286 cnt_c_reg\[3\]
*287 p95969A__2883
*288 cnt_c_reg\[2\]
*289 p95679A__1666
*290 p96017A__7410
*291 cnt_c_reg\[0\]
*292 p96050A__6417
*293 cnt_c_reg\[1\]
*294 p95668A__5477
*295 p95971A__2398
*296 p96026A__5107
*297 p96073A__4319
*298 p96118A__8428
*299 p95642A__5526
*300 p96142A317__3680
*301 p96142A316__1617
*302 p96142A315__2802
*303 p96142A318__1705
*304 p96082A__5122
*305 p96028A__8246
*306 p96142A__7098
*307 p95632A__6131
*308 p95604A__1881
*309 p23609A
*310 p95591A__5115
*311 chc_rd_s_reg
*312 g2
*313 g367
*314 g368
*315 g369
*316 g370
*317 g371


*PORTS

*72 I *C 5 648
*73 I *C 8 648
*74 I *C 0 5
*75 I *C 0 6
*76 O *C 21.6 25
*77 O *C 21.6 24
*78 O *C 21.6 23
*79 O *C 21.6 22
*80 O *C 21.6 21
*81 O *C 21.6 20
*82 O *C 21.6 19
*83 O *C 21.6 18
*84 O *C 21.6 5
*85 O *C 21.6 17
*86 O *C 21.6 16
*87 O *C 21.6 15
*88 O *C 21.6 14
*89 O *C 21.6 13
*90 O *C 21.6 12
*91 O *C 21.6 11
*92 O *C 21.6 10
*93 O *C 21.6 9
*94 O *C 21.6 8
*95 O *C 21.6 7
*96 O *C 21.6 6
*168 I *C 0 14
*169 I *C 0 13
*170 I *C 0 12
*171 I *C 0 11
*172 I *C 0 10
*173 I *C 0 9
*174 I *C 0 8
*175 I *C 0 7
*97 O *C 21.6 37
*98 O *C 21.6 36
*99 O *C 21.6 35
*100 O *C 21.6 34
*101 O *C 21.6 33
*102 O *C 21.6 32
*103 O *C 21.6 31
*104 O *C 21.6 30
*105 O *C 21.6 29
*106 O *C 21.6 28
*107 O *C 21.6 27
*108 O *C 21.6 26


*D_NET *1 0.0123947

*CONN
*I *186:I I *C 6.7 78.6 *L 0.00105 *D DEL1
*I *176:Z O *C 9.1 11.4 *L 0 *D CKBD0

*CAP
1 *186:I 2.46697e-05
2 *1:2 0.00142968
3 *1:3 0.00382206
4 *1:4 3.82002e-05
5 *1:5 0.000123815
6 *1:6 0.000128131
7 *1:7 0.00228851
8 *1:8 0.000175196
9 *1:9 9.79791e-06
10 *1:6 *37:2 0.00158155
11 *1:2 *52:3 0.00231754
12 *1:3 *2:2 0.000455655977

*RES
1 *1:7 *1:8 0.452132
2 *1:6 *1:7 39.6665993
3 *1:2 *1:9 17.8747
4 *1:4 *1:3 35.2657
5 *186:I *1:4 0.519922
6 *1:8 *1:9 4.20053
7 *1:5 *1:2 2.17895
8 *176:Z *1:5 1.74619
9 *1:3 *1:6 4.34277
*END

*D_NET *2 0.0118329

*CONN
*I *184:I I *C 6.9 83.8 *L 0.00105 *D DEL1
*I *177:Z O *C 7.9 21.4 *L 0 *D CKBD0

*CAP
1 *184:I 6.97099e-05
2 *2:2 0.00362
3 *2:3 0.000493107
4 *2:4 4.13178e-05
5 *2:5 2.98836e-05
6 *2:6 0.000143949
7 *2:7 5.85519e-06
8 *2:8 0.00116778
9 *2:2 *1:3 0.000455655977
10 *2:3 *48:13 0.000421523984
11 *2:2 *213:I 0.00107253
12 *2:3 *279:D 0.00176629
13 *2:2 *145:4 0.0002615
14 *2:2 *74:2 0.00138108
15 *2:2 *188:I 0.000902611953

*RES
1 *2:5 *2:8 17.7372
2 *2:4 *2:6 23.7059
3 *2:2 *2:5 2.26637
4 *177:Z *2:3 3.25526
5 *2:6 *2:7 0.256869
6 *2:3 *2:7 19.4628
7 *184:I *2:2 34.6381989
8 *2:4 *2:8 2.40167
*END

*D_NET *3 0.00675621

*CONN
*I *178:Z O *C 8.5 213 *L 0 *D BUFFD1
*I *190:I I *C 7.9 132.6 *L 0.00104 *D DEL0

*CAP
1 *190:I 4.87833e-05
2 *3:2 0.00587686
3 *3:4 1.61415e-06
4 *3:2 *50:34 0.000828937969

*RES
1 *190:I *3:2 2.99945
2 *3:3 *3:4 2.08631
3 *178:Z *3:3 2.99945
4 *3:2 *3:4 80.0048981
*END

*D_NET *4 0.00510277

*CONN
*I *179:Z O *C 8.3 36.6 *L 0 *D BUFFD1
*I *196:I I *C 5.9 71.4 *L 0.00105 *D DEL1

*CAP
1 *196:I 0.000238574
2 *179:Z 0.000206713
3 *4:2 2.52459e-07
4 *4:3 0.00165449
5 *4:2 *11:4 0.00148165
6 *4:2 *17:2 0.00152108

*RES
1 *4:2 *4:3 35.4618988
2 *179:Z *4:3 10.0667
3 *196:I *4:2 2.97825
*END

*D_NET *5 0.00492911

*CONN
*I *180:Z O *C 13.9 54.6 *L 0 *D BUFFD1
*I *189:I I *C 12.7 78.6 *L 0.00105 *D DEL1

*CAP
1 *189:I 2.16959e-05
2 *180:Z 0.000543229
3 *5:2 0.000169983
4 *5:3 0.00419422

*RES
1 *5:2 *5:3 33.4278984
2 *189:I *5:2 4.08208
3 *180:Z *5:3 7.7755
*END

*D_NET *6 0.00364109

*CONN
*I *181:Z O *C 12.1 86.2 *L 0 *D DEL2
*I *208:I I *C 6.9 65.8 *L 0.00105 *D DEL1

*CAP
1 *208:I 3.25014e-06
2 *6:2 0.00139893
3 *6:3 0.00160149
4 *6:4 0.000637419

*RES
1 *6:2 *6:4 6.77042
2 *208:I *6:3 1.76915
3 *6:3 *6:4 15.0654001
4 *181:Z *6:2 13.2128
*END

*D_NET *7 0.00247814

*CONN
*I *182:Z O *C 15.9 83.4 *L 0 *D DEL2
*I *205:I I *C 12.7 65.8 *L 0.00105 *D DEL1

*CAP
1 *182:Z 7.04297e-05
2 *7:2 3.15165e-05
3 *7:3 0.00162122
4 *7:4 6.89454e-05
5 *7:5 0.000686016

*RES
1 *7:4 *7:5 5.88193
2 *7:2 *7:3 18.7089005
3 *182:Z *7:2 1.48105
4 *7:3 *7:4 0.256928
5 *205:I *7:5 4.49995
*END

*D_NET *8 0.00323602

*CONN
*I *183:I I *C 12.7 82.2 *L 0.00105 *D DEL1
*I *210:Z O *C 13.5 61.8 *L 0 *D DEL1

*CAP
1 *210:Z 8.81253e-06
2 *183:I 7.87712e-07
3 *8:2 0.00322642

*RES
1 *210:Z *8:2 0.520869
2 *183:I *8:2 29.7868004
*END

*D_NET *9 0.00938495

*CONN
*I *184:Z O *C 10.1 83.4 *L 0 *D DEL1
*I *286:D I *C 6.9 19 *L 0.000792 *D DFNCND1

*CAP
1 *286:D 0.000205148
2 *9:2 0.000609297
3 *9:3 0.00223812016
4 *9:4 0.000620021
5 *9:5 0.00024876
6 *9:6 0.00059311
7 *9:7 0.000211876
8 *9:8 0.00024753
9 *9:9 5.81259e-05
10 *9:2 *11:2 0.00215161984
11 *9:3 *138:2 0.00190637
12 *9:3 *75:4 0.000294995996

*RES
1 *9:3 *9:7 54.7554016
2 *184:Z *9:5 3.29104
3 *286:D *9:8 6.2579
4 *9:5 *9:2 4.6362
5 *9:4 *9:7 7.35575
6 *9:6 *9:9 2.47643
7 *9:2 *9:6 3.276
8 *9:4 *9:9 5.59953
9 *9:3 *9:8 1.49972
*END

*D_NET *10 0.00200961

*CONN
*I *185:Z O *C 15.9 79.8 *L 0 *D DEL1
*I *204:I I *C 12.7 67.8 *L 0.00105 *D DEL1

*CAP
1 *185:Z 1.05488e-06
2 *10:2 3.33944e-05
3 *10:3 0.00197518

*RES
1 *10:2 *10:3 13.5594997
2 *185:Z *10:2 0.333525
3 *204:I *10:3 9.86796
*END

*D_NET *11 0.00834196

*CONN
*I *186:Z O *C 9.9 79 *L 0 *D DEL1
*I *293:D I *C 6.7 10.2 *L 0.000792 *D DFNCND1

*CAP
1 *186:Z 4.13046e-05
2 *11:2 0.000188415
3 *11:3 0.000108292
4 *11:4 0.00387808
5 *11:4 *4:2 0.00148165
6 *11:2 *9:2 0.00215161984
7 *11:4 *17:2 0.000492631992

*RES
1 *11:2 *11:4 7.94164
2 *11:3 *11:4 74.1505966
3 *186:Z *11:2 2.281
4 *293:D *11:3 1.5003
*END

*D_NET *12 0.00435018

*CONN
*I *187:Z O *C 9.1 82.6 *L 0 *D DEL1
*I *214:I I *C 5.9 60.6 *L 0.00105 *D DEL1

*CAP
1 *214:I 8.31509e-05
2 *187:Z 7.80884e-05
3 *12:2 4.45014e-05
4 *12:3 0.00178373
5 *12:4 3.37503e-06
6 *12:5 0.000757912
7 *12:6 0.000793894
8 *12:7 0.00080557

*RES
1 *12:2 *12:3 14.4263
2 *12:6 *12:7 8.15332
3 *12:4 *12:5 4.61168
4 *12:3 *12:4 0.256889
5 *187:Z *12:2 1.04142
6 *214:I *12:6 2.51364
7 *12:5 *12:7 7.01702
*END

*D_NET *13 0.00421087

*CONN
*I *188:Z O *C 10.1 79.8 *L 0 *D DEL1
*I *212:I I *C 6.9 62.2 *L 0.00105 *D DEL1

*CAP
1 *212:I 8.34112e-05
2 *188:Z 0.000123969
3 *13:2 0.0004089
4 *13:3 0.000860819
5 *13:4 0.000701074
6 *13:5 0.00181185
7 *13:6 5.83629e-05
8 *13:7 0.000162454

*RES
1 *13:5 *13:7 17.2339001
2 *13:4 *13:5 4.71923
3 *13:2 *13:6 4.35502
4 *188:Z *13:6 2.99994
5 *13:2 *13:3 5.56231
6 *13:3 *13:7 2.52187
7 *212:I *13:4 2.65546
*END

*D_NET *14 0.00247515

*CONN
*I *189:Z O *C 15.9 79 *L 0 *D DEL1
*I *209:I I *C 12.7 60.6 *L 0.00105 *D DEL1

*CAP
1 *189:Z 5.21875e-05
2 *14:2 3.06097e-05
3 *14:3 0.00170579
4 *14:4 0.000686533

*RES
1 *14:2 *14:3 18.4190998
2 *209:I *14:4 9.96446
3 *189:Z *14:2 0.997458
4 *14:3 *14:4 0.256883
*END

*D_NET *15 0.0097124

*CONN
*I *190:Z O *C 10.3 133 *L 0 *D DEL0
*I *198:I I *C 9.3 73 *L 0.00105 *D DEL1
*I *202:I I *C 9.3 71.4 *L 0.00105 *D DEL1
*I *203:I I *C 9.3 69.4 *L 0.00105 *D DEL1
*I *215:I I *C 9.3 60.6 *L 0.00105 *D DEL1
*I *200:I I *C 5.9 69.4 *L 0.00105 *D DEL1
*I *201:I I *C 12.7 69.4 *L 0.00105 *D DEL1
*I *199:I I *C 12.7 71.4 *L 0.00105 *D DEL1

*CAP
1 *199:I 0.000109106
2 *201:I 5.48236e-05
3 *215:I 0.000420881
4 *190:Z 7.35363e-05
5 *15:8 0.00114898
6 *15:9 0.000243884
7 *15:10 7.02886e-05
8 *15:11 6.71956e-05
9 *15:12 0.000239476
10 *15:13 0.000672498
11 *15:14 0.00506751
12 *15:15 0.000436114
13 *15:16 0.000351907
14 *15:18 5.58288e-05
15 *15:19 9.65019e-05
16 *15:13 *50:16 0.000603775039

*RES
1 *201:I *15:16 4.49974
2 *15:17 *15:19 3.84327
3 *15:14 *15:19 59.0971985
4 *15:9 *15:12 1.6971
5 *15:15 *15:16 3.77654
6 *15:11 *15:12 1.74489
7 *15:8 *15:9 8.61804
8 *199:I *15:18 4.49974
9 *190:Z *15:17 3.00013
10 *15:16 *15:18 4.95242
11 *215:I *15:8 5.98222
12 *15:13 *15:15 5.06784
13 *15:9 *15:10 0.735829
14 *15:11 *15:14 2.98299
15 *200:I *15:13 3.00013
16 *202:I *15:12 3.00013
17 *198:I *15:11 3.00013
18 *203:I *15:10 3.00013
19 *15:10 *15:15 1.49961
*END

*D_NET *16 0.00388022

*CONN
*I *191:Z O *C 9.7 76.2 *L 0 *D DEL1
*I *218:I I *C 6.5 55 *L 0.00105 *D DEL1

*CAP
1 *191:Z 0.000117387
2 *16:2 0.00039903
3 *16:3 0.000611301
4 *16:4 0.00124614
5 *16:6 0.00150636

*RES
1 *16:2 *16:4 10.2545
2 *16:2 *16:5 3.89032
3 *191:Z *16:5 3.00002
4 *16:4 *16:6 12.1935997
5 *16:3 *16:6 8.1068
6 *218:I *16:3 3.00002
*END

*D_NET *17 0.00673913

*CONN
*I *192:Z O *C 10.3 75.4 *L 0 *D DEL1
*I *223:I I *C 8.3 17.4 *L 0.00105 *D DEL1

*CAP
1 *223:I 0.000142267
2 *192:Z 4.71666e-05
3 *17:2 0.00335256
4 *17:3 0.00018662
5 *17:4 8.31809e-05
6 *17:5 0.000363725
7 *17:6 0.000549884
8 *17:2 *4:2 0.00152108
9 *17:2 *11:4 0.000492631992

*RES
1 *17:3 *17:5 8.69832
2 *192:Z *17:3 3.49798
3 *17:2 *17:5 57.1253014
4 *17:4 *17:6 6.57408
5 *223:I *17:4 3.59822
6 *17:2 *17:6 1.50013
*END

*D_NET *18 0.00307608

*CONN
*I *193:Z O *C 15.9 72.6 *L 0 *D DEL1
*I *220:I I *C 9.5 51.4 *L 0.00105 *D DEL1

*CAP
1 *193:Z 0.000164821
2 *18:2 0.000184295
3 *18:3 0.00272697

*RES
1 *18:2 *18:3 21.9964008
2 *193:Z *18:2 1.97221
3 *220:I *18:3 13.8662
*END

*D_NET *19 0.00398323

*CONN
*I *194:I I *C 10.1 76.6 *L 0.00103 *D DEL2
*I *263:Q O *C 10.1 53.8 *L 0 *D DFNCND1

*CAP
1 *263:Q 0.000350407
2 *194:I 9.9369e-05
3 *19:2 0.00353345

*RES
1 *194:I *19:2 4.50018
2 *263:Q *19:2 32.0603981
*END

*D_NET *20 0.00381524

*CONN
*I *195:Z O *C 9.1 72.6 *L 0 *D DEL1
*I *216:I I *C 6.7 57 *L 0.00105 *D DEL1

*CAP
1 *216:I 6.25956e-05
2 *20:2 0.000219986
3 *20:3 0.00310773
4 *20:4 0.000424939

*RES
1 *20:3 *20:4 25.5118999
2 *20:2 *20:4 4.42807
3 *216:I *20:3 2.26561
4 *195:Z *20:2 1.4999
*END

*D_NET *21 0.00754794

*CONN
*I *196:Z O *C 9.1 71.8 *L 0 *D DEL1
*I *301:A1 I *C 8.3 39.2 *L 0.000617 *D CKND2D0
*I *247:I I *C 8.5 37 *L 0.00104 *D INVD1
*I *280:A1 I *C 6.7 37 *L 0.000711 *D OAI211D0
*I *284:A2 I *C 6.9 35.4 *L 0.000606 *D CKND2D0

*CAP
1 *284:A2 0.000387054
2 *21:5 0.000301687
3 *21:6 0.000665541
4 *21:8 0.000414743
5 *21:9 6.25757e-05
6 *21:10 0.000207634
7 *21:11 0.000359745
8 *21:12 0.00191006
9 *284:A2 *38:4 0.00031261
10 *21:12 *216:Z 0.000752412031
11 *21:6 *45:8 0.000434235
12 *21:5 *28:5 0.00173964

*RES
1 *280:A1 *21:11 5.81917
2 *196:Z *21:5 3.58538
3 *21:10 *21:12 2.79314
4 *21:9 *21:11 2.08522
5 *21:8 *21:9 2.34124
6 *21:7 *21:8 4.96473
7 *21:6 *21:10 7.15894
8 *21:6 *21:7 0.257053
9 *284:A2 *21:11 6.86538
10 *21:5 *21:12 33.6925011
11 *247:I *21:9 1.50016
12 *301:A1 *21:8 1.50016
*END

*D_NET *22 0.00499968

*CONN
*I *197:I I *C 10.5 75 *L 0.00105 *D DEL1
*I *264:QN O *C 10.5 46.6 *L 0 *D DFNCND1

*CAP
1 *264:QN 0.000142317
2 *197:I 0.000125576
3 *22:2 0.000569267
4 *22:3 0.00312558
5 *22:4 8.51802e-05
6 *22:5 0.000864489
7 *22:6 8.72787e-05

*RES
1 *22:3 *22:4 0.764092
2 *22:2 *22:3 26.4950008
3 *22:4 *22:5 6.41635
4 *197:I *22:6 4.50006
5 *22:2 *22:6 1.89042
6 *264:QN *22:5 2.02424
*END

*D_NET *23 0.0043595

*CONN
*I *198:Z O *C 12.5 72.6 *L 0 *D DEL1
*I *263:CDN I *C 9.3 53.4 *L 0.00168 *D DFNCND1

*CAP
1 *263:CDN 0.000658518
2 *23:2 0.000519489
3 *23:3 0.000533537
4 *23:4 0.000622063
5 *23:5 0.00190215
6 *23:6 0.000123762

*RES
1 *23:2 *23:3 4.60288
2 *198:Z *23:2 6.62944
3 *263:CDN *23:5 8.01272
4 *23:5 *23:6 12.8533001
5 *23:4 *23:6 0.783915
6 *23:3 *23:4 4.48853
*END

*D_NET *24 0.00458167

*CONN
*I *199:Z O *C 15.9 71.8 *L 0 *D DEL1
*I *261:CDN I *C 12.3 46.2 *L 0.00168 *D DFNCND1

*CAP
1 *261:CDN 0.000586412
2 *24:2 0.000248323
3 *24:3 0.00095115
4 *24:5 0.00107213
5 *24:6 0.000541226
6 *24:7 0.000394448
7 *24:8 0.000626542
8 *24:9 0.000161453

*RES
1 *24:6 *24:8 5.24297
2 *261:CDN *24:2 7.25329
3 *24:6 *24:7 2.92819
4 *24:4 *24:5 7.94955015
5 *24:3 *24:9 6.22805
6 *24:3 *24:4 3.22259
7 *24:2 *24:8 3.79428
8 *24:5 *24:7 0.256793
9 *199:Z *24:9 1.5
*END

*D_NET *25 0.00396091

*CONN
*I *200:Z O *C 9.1 69 *L 0 *D DEL1
*I *264:CDN I *C 9.3 46.2 *L 0.00168 *D DFNCND1

*CAP
1 *264:CDN 0.000797109
2 *25:3 0.000876519
3 *25:4 0.00159099
4 *25:5 0.000696287

*RES
1 *200:Z *25:4 14.1841002
2 *25:3 *25:5 8.34974
3 *25:3 *25:4 0.256905
4 *264:CDN *25:2 6.81978
5 *25:2 *25:5 2.75258
*END

*D_NET *26 0.00324878

*CONN
*I *201:Z O *C 15.9 69 *L 0 *D DEL1
*I *259:CDN I *C 12.3 53.4 *L 0.00168 *D DFNCND1

*CAP
1 *201:Z 0.00039788
2 *26:2 0.000280989
3 *26:3 2.92609e-06
4 *26:4 0.000199467
5 *26:5 0.000492008
6 *26:6 4.54054e-05
7 *26:7 0.00071519
8 *26:8 0.00111489

*RES
1 *26:6 *26:7 5.07834
2 *26:4 *26:7 1.78777
3 *26:2 *26:3 2.34252
4 *259:CDN *26:8 7.20782995
5 *201:Z *26:2 4.06397
6 *26:5 *26:6 0.452029
7 *26:3 *26:5 4.23764
8 *26:4 *26:8 6.29893
*END

*D_NET *27 0.00514033

*CONN
*I *202:Z O *C 12.5 71.8 *L 0 *D DEL1
*I *271:CDN I *C 9.3 35.4 *L 0.00168 *D DFNCND1

*CAP
1 *271:CDN 0.000112753
2 *202:Z 0.000149891
3 *27:2 0.000767145
4 *27:3 0.000455914
5 *27:4 4.6707e-05
6 *27:5 0.000835056
7 *27:6 0.000584308
8 *27:7 0.000204842
9 *27:8 0.00100987992
10 *27:2 *40:8 0.000462689023
11 *27:2 *43:2 0.00051114

*RES
1 *27:2 *27:5 5.33705
2 *27:7 *27:8 14.9762001
3 *27:4 *27:6 7.52124
4 *271:CDN *27:3 1.78199
5 *27:6 *27:7 0.256855
6 *27:5 *27:8 9.55322
7 *27:2 *27:3 8.83293
8 *202:Z *27:4 3.452
*END

*D_NET *28 0.0050969

*CONN
*I *203:Z O *C 12.5 69 *L 0 *D DEL1
*I *269:CDN I *C 9.3 40.6 *L 0.00168 *D DFNCND1

*CAP
1 *269:CDN 0.000100791
2 *28:2 0.000208433
3 *28:3 0.000326884
4 *28:4 0.000853515
5 *28:5 0.000812164
6 *28:7 0.000186045
7 *28:5 *21:5 0.00173964
8 *269:CDN *41:2 0.000272630996
9 *269:CDN *52:2 0.000596791992

*RES
1 *28:5 *28:7 2.23254
2 *28:3 *28:5 16.8147
3 *269:CDN *28:4 3.00013
4 *28:4 *28:6 18.7844009
5 *28:6 *28:7 0.256818
6 *28:2 *28:3 2.37327
7 *203:Z *28:2 3.94514
*END

*D_NET *29 0.00245509

*CONN
*I *204:Z O *C 15.9 68.2 *L 0 *D DEL1
*I *259:D I *C 14.7 53.4 *L 0.000792 *D DFNCND1

*CAP
1 *259:D 0.000523317
2 *29:2 0.00040943
3 *29:3 1.60709e-06
4 *29:4 0.00035838
5 *29:5 0.000573981
6 *29:6 0.000588381992

*RES
1 *29:3 *29:6 4.00242
2 *29:3 *29:5 0.45205
3 *29:4 *29:5 4.24237
4 *204:Z *29:2 4.10213
5 *259:D *29:6 4.5410099
6 *29:2 *29:4 2.34326
*END

*D_NET *30 0.00339588

*CONN
*I *205:Z O *C 15.9 65.4 *L 0 *D DEL1
*I *261:D I *C 14.7 46.2 *L 0.000792 *D DFNCND1

*CAP
1 *261:D 0.00106357
2 *30:2 0.000406099
3 *30:3 0.000521893
4 *30:4 0.000250219
5 *30:5 0.000837013
6 *30:6 0.000317083

*RES
1 *30:4 *30:5 5.54063
2 *205:Z *30:6 2.99997
3 *30:2 *30:5 3.38019
4 *261:D *30:3 9.03147984
5 *30:4 *30:6 4.45896
6 *30:2 *30:3 3.33774
*END

*D_NET *31 0.00318613

*CONN
*I *206:Z O *C 10.1 68.2 *L 0 *D DEL1
*I *263:D I *C 6.9 53.4 *L 0.000792 *D DFNCND1

*CAP
1 *263:D 0.000170113
2 *206:Z 0.000247804
3 *31:2 0.000469582
4 *31:3 0.00229863

*RES
1 *206:Z *31:2 7.74541
2 *31:2 *31:3 16.7947006
3 *263:D *31:3 5.24834
*END

*D_NET *32 0.00500284

*CONN
*I *207:Z O *C 13.1 64.6 *L 0 *D DEL1
*I *269:D I *C 6.9 40.6 *L 0.000792 *D DFNCND1

*CAP
1 *269:D 7.64156e-05
2 *32:2 0.000207506
3 *32:3 0.00141626
4 *32:4 0.000522159
5 *32:5 0.000895657
6 *32:7 0.000985947
7 *32:8 0.000647155
8 *32:2 *161:2 0.000251711016

*RES
1 *269:D *32:5 1.75543
2 *32:6 *32:7 9.35364
3 *32:5 *32:8 7.23892
4 *32:4 *32:8 5.81418
5 *32:2 *32:7 2.10402
6 *32:2 *32:3 10.4747
7 *32:3 *32:4 3.73606
8 *207:Z *32:6 1.50002
*END

*D_NET *33 0.00388488

*CONN
*I *208:Z O *C 10.1 65.4 *L 0 *D DEL1
*I *264:D I *C 6.9 46.2 *L 0.000792 *D DFNCND1

*CAP
1 *264:D 6.96834e-05
2 *33:2 0.00042021
3 *33:3 0.000200249
4 *33:4 0.000947583
5 *33:5 0.00216021984
6 *33:6 8.6956e-05

*RES
1 *33:3 *33:5 3.4515
2 *33:3 *33:4 7.55839
3 *33:2 *33:6 2.8665
4 *33:2 *33:5 15.9081001
5 *208:Z *33:6 3
6 *264:D *33:4 1.7567
*END

*D_NET *34 0.00326005

*CONN
*I *209:Z O *C 15.9 61 *L 0 *D DEL1
*I *271:D I *C 11.7 35.4 *L 0.000792 *D DFNCND1

*CAP
1 *271:D 0.000642665
2 *209:Z 3.83517e-06
3 *34:2 0.000288569
4 *34:3 0.000220495
5 *34:4 0.00179527
6 *34:5 0.000309197

*RES
1 *34:2 *34:3 4.65422
2 *209:Z *34:2 0.506514
3 *34:3 *34:4 2.3479
4 *34:4 *34:5 20.3400002
5 *271:D *34:5 8.98007
*END

*D_NET *35 0.0070467

*CONN
*I *183:Z O *C 15.9 82.6 *L 0 *D DEL1
*I *276:D I *C 6.7 28.2 *L 0.000792 *D DFNCND1

*CAP
1 *35:2 0.000155284
2 *35:3 0.000150256
3 *35:4 0.000788838
4 *35:5 0.00104952
5 *35:6 0.00145817
6 *35:8 0.000313662
7 *35:9 0.000574435
8 *35:11 1.24824e-05
9 *35:12 0.00123204
10 *35:8 *217:Z 0.000364705
11 *35:6 *44:3 0.000485733008
12 *35:2 *160:4 0.000461551992

*RES
1 *35:9 *35:10 0.256933
2 *35:7 *35:9 5.79436
3 *35:4 *35:2 3.0615
4 *35:11 *35:12 0.256933
5 *35:7 *35:8 0.256933
6 *35:6 *35:10 20.6100006
7 *35:3 *35:4 6.21608
8 *183:Z *35:3 2.50675
9 *35:8 *35:11 4.70405
10 *35:2 *35:12 17.9586
11 *35:5 *35:6 8.33036
12 *276:D *35:5 1.50009
*END

*D_NET *36 0.00554843

*CONN
*I *211:Z O *C 9.7 64.6 *L 0 *D DEL1
*I *285:B I *C 8.3 33.4 *L 0.00072 *D AOI21D0
*I *280:A2 I *C 6.3 37 *L 0.00065 *D OAI211D0
*I *284:A1 I *C 6.5 35.6 *L 0.000617 *D CKND2D0

*CAP
1 *36:4 0.000668411
2 *36:5 0.000126268
3 *36:6 0.00011573
4 *36:7 0.000333483
5 *36:8 0.000279488
6 *36:9 0.000418276
7 *36:10 0.00152788
8 *36:11 0.000166975
9 *36:4 *50:15 0.000571008984
10 *36:4 *145:2 0.0013409

*RES
1 *36:10 *36:11 2.45935
2 *36:8 *36:10 22.8391991
3 *36:6 *36:8 4.42802
4 *36:5 *36:7 2.2743
5 *36:9 *36:11 5.62999
6 *36:7 *36:9 4.28618
7 *36:4 *36:5 1.36611
8 *285:B *36:4 8.55529
9 *280:A2 *36:7 1.49994
10 *211:Z *36:6 1.49994
11 *284:A1 *36:5 2.99988
*END

*D_NET *37 0.00673279

*CONN
*I *212:Z O *C 10.1 61.8 *L 0 *D DEL1
*I *279:D I *C 6.9 24.6 *L 0.000792 *D DFNCND1

*CAP
1 *279:D 0.000427535
2 *212:Z 0.000199938
3 *37:2 0.00074695
4 *37:3 0.000240691
5 *37:4 0.000280361
6 *37:5 0.000160129
7 *37:6 0.000100063
8 *37:7 0.000825068984
9 *37:8 1.42264e-06
10 *37:2 *140:3 0.000402786992
11 *279:D *2:3 0.00176629
12 *37:2 *1:6 0.00158155

*RES
1 *37:2 *37:6 1.44381
2 *37:5 *37:2 11.2774
3 *37:4 *37:8 11.5132
4 *37:3 *37:5 4.06887
5 *37:7 *37:8 0.256834
6 *37:6 *37:7 20.8831997
7 *212:Z *37:3 5.20869
8 *279:D *37:4 5.01304
*END

*D_NET *38 0.00565731

*CONN
*I *213:Z O *C 9.9 58.2 *L 0 *D DEL1
*I *289:A1 I *C 6.5 33.4 *L 0.000647 *D NR2D0
*I *285:A1 I *C 8.1 33.4 *L 0.00069 *D AOI21D0
*I *287:B I *C 6.7 31.8 *L 0.000726 *D OAI211D0

*CAP
1 *287:B 0.000269945
2 *38:4 0.000946691016
3 *38:5 0.000525848
4 *38:6 0.000416394
5 *38:7 0.000159407
6 *38:8 0.000691091
7 *38:9 0.000250847
8 *38:10 0.00078217
9 *38:11 7.80061e-07
10 *38:12 4.86816e-06
11 *38:13 0.000600459
12 *38:14 9.77821e-05
13 *38:15 0.000318843
14 *38:4 *284:A2 0.00031261
15 *38:5 *300:A2 0.00027958

*RES
1 *38:5 *38:9 4.35871
2 *38:11 *38:4 0.453651
3 *38:10 *38:12 3.20817
4 *38:6 *38:8 0.256827
5 *38:9 *38:10 6.28627
6 *287:B *38:15 4.76837
7 *38:12 *38:4 6.59797001
8 *38:13 *38:15 4.56117
9 *38:6 *38:5 3.51806
10 *38:7 *38:8 4.47006
11 *38:7 *38:14 3.58561
12 *38:11 *38:13 5.31232
13 *289:A1 *38:15 1.49999
14 *213:Z *38:14 1.49999
15 *285:A1 *38:13 2.99997
*END

*D_NET *39 0.00685718

*CONN
*I *214:Z O *C 9.1 61 *L 0 *D DEL1
*I *288:D I *C 6.9 13.8 *L 0.000792 *D DFNCND1

*CAP
1 *39:2 0.000577842
2 *39:3 0.000380342
3 *39:4 0.00187637
4 *39:5 0.000824332
5 *39:6 0.000306186
6 *39:7 7.02905e-05
7 *39:8 0.000313831
8 *39:6 *122:3 0.00185052
9 *39:4 *43:2 0.000657463047

*RES
1 *39:6 *39:8 4.81959
2 *39:3 *39:6 5.93599
3 *214:Z *39:3 4.75662
4 *39:5 *39:7 10.2068
5 *39:2 *39:4 5.40298
6 *39:7 *39:8 0.256835
7 *39:4 *39:5 29.4780006
8 *288:D *39:2 1.50008
*END

*D_NET *40 0.0100196

*CONN
*I *215:Z O *C 12.5 61 *L 0 *D DEL1
*I *311:CDN I *C 9.1 6.6 *L 0.00168 *D DFNCND1
*I *291:CDN I *C 14.7 8.2 *L 0.00168 *D DFNCND1
*I *293:CDN I *C 9.1 10.2 *L 0.00168 *D DFNCND1
*I *288:CDN I *C 9.3 13.8 *L 0.00168 *D DFNCND1
*I *286:CDN I *C 9.3 19 *L 0.00168 *D DFNCND1
*I *279:CDN I *C 9.3 24.6 *L 0.00168 *D DFNCND1
*I *276:CDN I *C 9.1 28.2 *L 0.00168 *D DFNCND1

*CAP
1 *276:CDN 5.77777e-05
2 *311:CDN 0.000160488
3 *215:Z 8.26192e-05
4 *40:8 0.00158828
5 *40:9 0.000323012
6 *40:10 1.98732e-06
7 *40:11 0.000420875
8 *40:12 0.000649902
9 *40:13 0.000745826
10 *40:14 0.000412078
11 *40:15 0.00113624
12 *40:16 0.00015346
13 *40:17 0.000243859
14 *40:18 0.000428316
15 *40:19 0.000197714
16 *40:20 0.000366782
17 *40:21 0.000311112
18 *40:22 0.000354252
19 *40:23 0.000392326
20 *40:14 *304:A1 0.000776885
21 *40:8 *27:2 0.000462689023
22 *40:9 *56:2 0.000753023047

*RES
1 *40:8 *40:22 20.0167999
2 *40:8 *40:21 0.616362
3 *215:Z *40:10 1.75685
4 *40:10 *40:22 5.62942
5 *40:12 *40:19 3.92205
6 *40:14 *40:19 4.60836
7 *311:CDN *40:15 2.47583
8 *40:11 *40:13 8.59761
9 *276:CDN *40:13 3.565
10 *40:9 *40:21 5.74945
11 *40:12 *40:18 2.98285
12 *40:20 *40:23 4.55766
13 *40:15 *40:20 2.85121
14 *40:17 *40:23 5.9431
15 *40:15 *40:16 9.09271
16 *40:14 *40:17 1.99753
17 *40:9 *40:11 3.51736
18 *40:13 *40:18 4.09279
19 *293:CDN *40:20 1.49998
20 *286:CDN *40:19 1.49998
21 *279:CDN *40:18 1.49998
22 *288:CDN *40:17 2.99995
23 *291:CDN *40:16 2.99995
*END

*D_NET *41 0.00719289

*CONN
*I *216:Z O *C 9.9 57.4 *L 0 *D DEL1
*I *311:D I *C 6.7 6.6 *L 0.000792 *D DFNCND1

*CAP
1 *216:Z 0.000104841
2 *41:2 3.8084e-05
3 *41:3 0.000557161
4 *41:4 0.00239984016
5 *41:5 2.6732e-06
6 *41:6 0.000436574
7 *41:7 0.00045049
8 *41:8 0.000298703
9 *41:2 *269:CDN 0.000272630996
10 *216:Z *56:7 0.000868825938
11 *41:2 *52:2 0.000491736992
12 *216:Z *21:12 0.000752412031
13 *41:3 *122:5 0.000518944023

*RES
1 *41:3 *41:6 7.72903
2 *41:7 *41:8 3.00789
3 *41:6 *41:8 3.90427
4 *41:5 *41:7 4.05123
5 *41:4 *41:5 0.257019
6 *41:2 *41:4 41.6931
7 *216:Z *41:2 3.00025
8 *311:D *41:3 1.50013
*END

*D_NET *42 0.00663567

*CONN
*I *217:Z O *C 13.3 58.2 *L 0 *D DEL1
*I *235:I I *C 11.1 19 *L 0.00104 *D INVD1

*CAP
1 *217:Z 0.000240996
2 *42:2 0.000297156
3 *42:3 0.000627785
4 *42:4 0.000476939
5 *42:5 0.000871521016
6 *42:7 0.000641749
7 *42:9 3.35124e-06
8 *42:10 0.000653238
9 *42:11 0.000388983
10 *42:12 0.000576878
11 *42:13 0.000820348
12 *42:14 4.01882e-05
13 *42:15 0.000227206
14 *217:Z *35:8 0.000364705
15 *42:2 *44:7 0.000404586992

*RES
1 *42:13 *42:14 8.63035965
2 *42:4 *42:11 3.33528
3 *42:2 *42:4 2.34182
4 *42:3 *42:8 4.05035
5 *42:8 *42:10 0.256793
6 *42:6 *42:7 3.85598
7 *42:7 *42:9 0.256793
8 *42:14 *42:15 2.34577
9 *42:11 *42:12 2.79325
10 *42:9 *42:10 4.77477
11 *42:5 *42:13 2.84527
12 *235:I *42:12 7.04404
13 *217:Z *42:15 6.69453
14 *42:2 *42:3 0.256793
15 *42:5 *42:6 6.84703
*END

*D_NET *43 0.00674144

*CONN
*I *218:Z O *C 9.7 54.6 *L 0 *D DEL1
*I *228:I I *C 7.3 8.2 *L 0.00382 *D BUFFD12

*CAP
1 *228:I 0.000204276
2 *218:Z 0.000474232
3 *43:2 0.00322662
4 *43:3 0.000340264
5 *43:4 0.000205064
6 *43:5 0.000531
7 *43:6 0.000365373
8 *43:2 *27:2 0.00051114
9 *43:2 *39:4 0.000657463047
10 *43:2 *44:4 0.000226061992

*RES
1 *43:4 *43:5 7.34877
2 *218:Z *43:4 5.33686
3 *228:I *43:3 2.01073
4 *43:5 *43:6 2.05574
5 *43:3 *43:2 5.40319
6 *43:2 *43:6 38.8143997
*END

*D_NET *44 0.00597218

*CONN
*I *219:Z O *C 13.1 54.6 *L 0 *D DEL1
*I *229:I I *C 8.3 15 *L 0.00373 *D CKBD12
*I *304:A1 I *C 9.7 11.8 *L 0.000711 *D OAI211D0

*CAP
1 *304:A1 0.00046209
2 *44:3 0.000234964
3 *44:4 0.000404197
4 *44:5 0.000333046
5 *44:6 0.000375348
6 *44:7 0.00182143
7 *44:9 0.00044786
8 *44:7 *42:2 0.000404586992
9 *44:4 *43:2 0.000226061992
10 *44:3 *35:6 0.000485733008
11 *304:A1 *40:14 0.000776885

*RES
1 *44:8 *44:9 0.25673
2 *304:A1 *44:5 6.47941
3 *44:7 *44:8 30.3701
4 *44:3 *44:9 8.10598
5 *44:4 *44:7 4.81762
6 *44:4 *44:5 3.71053
7 *44:5 *44:6 4.36626
8 *219:Z *44:3 3.19522
9 *229:I *44:6 1.50006
*END

*D_NET *45 0.00832931

*CONN
*I *220:Z O *C 12.7 51 *L 0 *D DEL1
*I *309:I I *C 8.9 26.2 *L 0.0113 *D INVD12
*I *300:A2 I *C 9.3 51.4 *L 0.000606 *D CKND2D0
*I *266:B2 I *C 11.1 47.8 *L 0.000674 *D AOI32D0
*I *301:A2 I *C 8.7 39 *L 0.000606 *D CKND2D0
*I *306:A2 I *C 8.1 29.8 *L 0.000606 *D CKND2D0
*I *303:A2 I *C 6.3 17.4 *L 0.000606 *D CKND2D0
*I *302:A2 I *C 6.3 11.8 *L 0.000606 *D CKND2D0

*CAP
1 *302:A2 0.000815666
2 *306:A2 2.48343e-05
3 *266:B2 0.000159672
4 *300:A2 0.000337822
5 *309:I 5.13116e-06
6 *45:8 0.000743924
7 *45:9 0.000294631
8 *45:10 0.000459879
9 *45:11 0.000676586
10 *45:12 0.000222835
11 *45:13 0.000633921
12 *45:14 0.0008826
13 *45:15 0.000181301
14 *45:16 0.000222808
15 *45:17 0.000212438
16 *45:18 0.000478558
17 *45:19 3.6174e-05
18 *45:20 0.00044299
19 *45:21 0.000391827
20 *300:A2 *38:5 0.00027958
21 *45:8 *21:6 0.000434235
22 *45:9 *84:21 0.000391891992

*RES
1 *306:A2 *45:16 1.99161
2 *266:B2 *45:18 2.78718
3 *45:15 *45:21 4.03692
4 *45:14 *45:20 3.15338
5 *302:A2 *45:20 9.28390026
6 *300:A2 *45:21 5.94552
7 *45:11 *45:13 5.29614
8 *45:9 *45:12 3.03736
9 *45:12 *45:19 1.78918
10 *45:11 *45:19 5.78558
11 *45:18 *45:21 6.91589
12 *309:I *45:10 0.507005
13 *45:13 *45:16 1.3353
14 *45:10 *45:16 4.81761
15 *45:8 *45:18 2.3452
16 *45:14 *45:17 6.09383
17 *45:10 *45:17 3.95787
18 *45:8 *45:9 8.11109
19 *303:A2 *45:20 1.50005
20 *301:A2 *45:19 1.50005
21 *220:Z *45:15 1.50005
*END

*D_NET *46 0.0050707

*CONN
*I *221:Z O *C 15.5 43.8 *L 0 *D DEL1
*I *299:A2 I *C 6.3 21 *L 0.000664 *D NR2D0
*I *295:A2 I *C 8.1 21 *L 0.000671 *D AOI21D0

*CAP
1 *295:A2 7.6097e-05
2 *299:A2 0.000493699
3 *221:Z 9.7859e-07
4 *46:4 0.00152695
5 *46:5 0.000712274
6 *46:6 0.000432607
7 *46:7 0.000282347
8 *46:8 0.00122725
9 *221:Z *51:8 0.000318497988

*RES
1 *46:5 *46:7 1.89963
2 *46:3 *46:5 6.18342
3 *46:3 *46:4 0.452056
4 *46:7 *46:8 9.75234
5 *46:4 *46:6 12.0284004
6 *221:Z *46:6 5.04438
7 *295:A2 *46:8 3.25543
8 *299:A2 *46:8 5.78606
*END

*D_NET *47 0.00497195

*CONN
*I *222:Z O *C 12.3 39.4 *L 0 *D DEL1
*I *308:A2 I *C 10.9 11.8 *L 0.000996 *D NR2D1
*I *305:A2 I *C 10.9 13.8 *L 0.000671 *D AOI21D0

*CAP
1 *308:A2 0.00033681
2 *47:3 0.000542664
3 *47:4 0.00105991992
4 *47:5 0.000591249
5 *47:6 0.000525019
6 *47:7 0.000653807
7 *47:8 3.0697e-05
8 *47:9 0.000475399
9 *47:10 0.000756395

*RES
1 *47:8 *47:10 4.96244
2 *47:7 *47:9 2.76481
3 *47:5 *47:6 4.2971
4 *47:3 *47:4 7.36921978
5 *222:Z *47:3 7.257
6 *47:8 *47:9 0.256825
7 *47:5 *47:7 4.50962
8 *47:4 *47:6 3.63682
9 *308:A2 *47:10 3.66212
10 *305:A2 *47:10 1.50002
*END

*D_NET *48 0.0127332

*CONN
*I *223:Z O *C 11.5 17.8 *L 0 *D DEL1
*I *298:A2 I *C 10.9 6.6 *L 0.000664 *D NR2D0
*I *297:B I *C 7.1 11.8 *L 0.00072 *D AOI21D0
*I *275:A2 I *C 10.9 33.4 *L 0.000664 *D NR2D0
*I *262:A2 I *C 13.9 47.8 *L 0.000664 *D NR2D0
*I *260:A2 I *C 13.1 51.4 *L 0.000664 *D NR2D0
*I *265:B I *C 7.5 51.4 *L 0.00072 *D AOI21D0
*I *268:A2 I *C 6.9 44.2 *L 0.000664 *D NR2D0
*I *273:B I *C 6.7 39 *L 0.00072 *D AOI21D0
*I *281:B I *C 6.7 29.8 *L 0.00072 *D AOI21D0
*I *283:A2 I *C 7.7 22.6 *L 0.000883 *D NR2XD0
*I *290:B I *C 7.7 17.4 *L 0.00072 *D AOI21D0
*I *292:A2 I *C 7.7 11.8 *L 0.000996 *D NR2D1

*CAP
1 *290:B 6.39052e-05
2 *260:A2 1.22341e-05
3 *262:A2 0.000141134
4 *275:A2 7.93675e-06
5 *297:B 5.91761e-05
6 *48:13 0.00024608
7 *48:14 3.2405e-05
8 *48:15 0.000280233
9 *48:16 0.0013475
10 *48:17 0.000715377
11 *48:18 0.000256526
12 *48:19 0.000299129
13 *48:20 0.000544367
14 *48:21 2.24738e-05
15 *48:22 0.00066313
16 *48:23 0.000432882
17 *48:24 0.000602412
18 *48:25 0.00022116
19 *48:26 0.000710648
20 *48:27 9.17867e-05
21 *48:28 0.000669155
22 *48:29 0.000216163
23 *48:30 0.000450483
24 *48:31 0.000668024
25 *48:32 0.000444088
26 *48:33 0.000658791
27 *48:34 0.000438392
28 *48:35 0.000144527
29 *48:36 0.000375495
30 *48:37 2.99787e-05
31 *290:B *74:3 0.00106302
32 *48:13 *2:3 0.000421523984
33 *48:14 *296:C 0.000403052969

*RES
1 *48:16 *48:29 8.21494
2 *48:21 *48:30 1.49878
3 *48:32 *48:34 0.390327
4 *48:30 *48:33 16.0077991
5 *260:A2 *48:17 2.21983
6 *48:22 *48:24 1.17098
7 *48:15 *48:16 4.16951
8 *48:18 *48:26 3.15339
9 *48:27 *48:34 4.97019
10 *297:B *48:29 3.64973
11 *48:22 *48:35 5.0127
12 *48:19 *48:26 3.13947
13 *262:A2 *48:17 5.71739
14 *48:20 *48:29 1.59208
15 *48:13 *48:23 3.71104
16 *265:B *48:33 5.3847
17 *48:14 *48:20 4.54567
18 *298:A2 *48:15 4.17098
19 *48:28 *48:37 3
20 *48:13 *48:28 3.54836
21 *48:18 *48:35 3.17318
22 *290:B *48:14 3.85149
23 *48:21 *48:24 4.3422
24 *48:17 *48:31 2.24988
25 *48:31 *48:33 4.90962
26 *48:32 *48:37 8.55617
27 *48:23 *48:25 1.1402
28 *275:A2 *48:26 1.99169
29 *48:19 *48:36 5.0127
30 *48:25 *48:36 2.75183
31 *268:A2 *48:30 1.5
32 *292:A2 *48:29 1.5
33 *283:A2 *48:28 1.5
34 *223:Z *48:27 1.5
35 *281:B *48:25 3
36 *273:B *48:24 3
37 *48:14 *48:34 1.5
*END

*D_NET *49 0.000301371

*CONN
*I *224:I I *C 7.3 640.4 *L 0.0054 *D CKND6
*I *225:ZN O *C 8.5 640.4 *L 0 *D CKND1

*CAP
1 *225:ZN 4.36142e-05
2 *49:2 0.000257755996

*RES
1 *225:ZN *49:2 3.00002
2 *224:I *49:2 4.17163992
*END

*D_NET *50 0.0556102

*CONN
*I *311:CPN I *C 5.7 6.6 *L 0.000701 *D DFNCND1
*I *224:ZN O *C 6.3 640.6 *L 0 *D CKND6
*I *293:CPN I *C 5.7 10.2 *L 0.000701 *D DFNCND1
*I *291:CPN I *C 11.3 8.2 *L 0.000701 *D DFNCND1
*I *288:CPN I *C 5.9 13.8 *L 0.000701 *D DFNCND1
*I *286:CPN I *C 5.9 19 *L 0.000701 *D DFNCND1
*I *279:CPN I *C 5.9 24.6 *L 0.000701 *D DFNCND1
*I *276:CPN I *C 5.7 28.2 *L 0.000701 *D DFNCND1
*I *271:CPN I *C 12.7 35.4 *L 0.000701 *D DFNCND1
*I *269:CPN I *C 5.9 40.6 *L 0.000701 *D DFNCND1
*I *264:CPN I *C 5.9 46.2 *L 0.000701 *D DFNCND1
*I *263:CPN I *C 5.9 53.4 *L 0.000701 *D DFNCND1
*I *261:CPN I *C 15.7 46.2 *L 0.000701 *D DFNCND1
*I *259:CPN I *C 15.7 53.4 *L 0.000701 *D DFNCND1

*CAP
1 *261:CPN 0.000916223
2 *271:CPN 4.1565e-05
3 *276:CPN 4.6781e-05
4 *291:CPN 7.661e-05
5 *293:CPN 6.8949e-05
6 *311:CPN 0.000268298
7 *50:14 3.1948e-05
8 *50:15 0.00152258
9 *50:16 0.0106822
10 *50:17 0.000865367
11 *50:18 0.000698129
12 *50:19 0.000395438
13 *50:20 7.4165e-05
14 *50:21 9.1932e-05
15 *50:22 0.00069927
16 *50:23 0.000564143
17 *50:24 0.000383539
18 *50:25 0.000639449
19 *50:26 0.00118305
20 *50:28 0.000156806
21 *50:29 4.6455e-05
22 *50:30 1.8582e-05
23 *50:31 0.00654216
24 *50:32 0.00649294
25 *50:33 0.00656433
26 *50:34 0.00616922
27 *50:35 0.00251395
28 *50:36 0.00053627
29 *50:27 *73 1.8123e-05
30 *50:27 *73:2 8.8264e-05
31 *50:31 *73:3 0.000500022
32 *50:31 *73:4 0.000297943
33 *50:31 *73:2 0.000255905
34 *50:32 *73:3 0.000255012
35 *50:32 *73:4 0.000480462
36 *50:32 *73:5 0.000277137
37 *50:33 *73:4 0.000237643
38 *50:33 *73:5 0.000806317
39 *50:34 *73:6 0.000208132
40 *50:34 *73:5 0.000416562
41 *50:35 *73:3 0.000289439
42 *50:35 *73:2 0.00021321
43 *50:35 *73:7 0.00010785988
44 *50:34 *3:2 0.000828937969
45 *276:CPN *138:3 0.000335885
46 *50:14 *155:2 0.000337576992
47 *50:15 *36:4 0.000571008984
48 *50:16 *15:13 0.000603775039
49 *261:CPN *68:7 0.000190607988

*RES
1 *50:33 *50:34 97.6438
2 *50:18 *50:24 3.85599
3 *50:31 *50:35 97.6408
4 *50:15 *50:23 5.42192
5 *50:34 *50:16 97.6393
6 *50:32 *50:33 97.6393
7 *261:CPN *50:21 9.35688
8 *50:20 *50:36 2.99927
9 *276:CPN *50:18 1.9712
10 *50:15 *50:18 7.17559
11 *224:ZN *50:27 2.99927
12 *50:24 *50:25 5.26995
13 *50:26 *50:16 46.987
14 *291:CPN *50:30 2.99927
15 *50:14 *50:22 7.17857
16 *271:CPN *50:29 2.99927
17 *50:22 *50:23 5.26995
18 *50:17 *50:30 6.76884
19 *311:CPN *50:17 3.26746
20 *50:15 *50:29 8.2573
21 *50:31 *50:32 97.6453018
22 *50:21 *50:26 10.9467
23 *50:17 *50:19 2.29899
24 *50:27 *50:35 40.7456
25 *50:14 *50:26 1.89075
26 *50:19 *50:36 6.23097
27 *293:CPN *50:19 1.96524
28 *50:28 *50:36 6.96551
29 *286:CPN *50:25 1.50038
30 *279:CPN *50:24 1.50038
31 *269:CPN *50:23 1.50038
32 *264:CPN *50:22 1.50038
33 *263:CPN *50:14 1.50038
34 *259:CPN *50:21 1.50038
35 *288:CPN *50:20 1.50038
36 *50:25 *50:28 1.50038
*END

*D_NET *51 0.0122061

*CONN
*I *191:I I *C 6.5 76.6 *L 0.00105 *D DEL1
*I *291:Q O *C 15.5 7.8 *L 0 *D DFNCND1

*CAP
1 *291:Q 0.00093968
2 *51:2 0.00344486
3 *51:3 0.000148024
4 *51:4 6.79255e-05
5 *51:5 0.000358018
6 *51:6 0.000268119
7 *51:7 0.000511839
8 *51:8 0.000343632
9 *51:9 2.63481e-07
10 *51:10 0.00345345
11 *51:11 0.000209204
12 *51:12 4.76901e-05
13 *51:13 0.00104296
14 *51:14 0.000302635
15 *51:8 *221:Z 0.000318497988
16 *51:3 *160:2 0.000444263008
17 *51:2 *155:3 0.000304995

*RES
1 *51:12 *51:14 3.07888
2 *291:Q *51:9 8.23539
3 *51:3 *51:4 1.7139
4 *51:7 *51:8 2.92718
5 *51:8 *51:11 2.1804
6 *51:9 *51:10 0.452085
7 *51:5 *51:6 3.32541
8 *51:2 *51:13 5.53236
9 *51:3 *51:5 3.31934
10 *51:10 *51:11 24.8556004
11 *51:6 *51:7 3.856
12 *51:2 *51:12 24.8124
13 *191:I *51:14 4.5
14 *51:4 *51:13 5.76712
*END

*D_NET *52 0.0071731

*CONN
*I *219:I I *C 9.9 55 *L 0.00105 *D DEL1
*I *293:Q O *C 9.9 10.6 *L 0 *D DFNCND1

*CAP
1 *219:I 0.000240618
2 *52:2 0.0016385
3 *52:3 0.00144409
4 *52:4 0.000198915
5 *52:5 0.000242919
6 *52:6 1.97515e-06
7 *52:3 *1:2 0.00231754
8 *52:2 *41:2 0.000491736992
9 *52:2 *269:CDN 0.000596791992

*RES
1 *52:4 *52:5 5.05288
2 *52:3 *52:2 13.2291
3 *219:I *52:4 9.39817
4 *293:Q *52:3 3.90252
5 *52:6 *52:2 33.5065994
6 *52:5 *52:6 0.256658
*END

*D_NET *53 0.00131533

*CONN
*I *232:ZN O *C 13.1 15 *L 0 *D INVD1
*I *231:I I *C 12.7 21 *L 0.0113 *D INVD12
*I *230:I I *C 12.7 13.8 *L 0.0113 *D INVD12

*CAP
1 *230:I 0.000180033
2 *231:I 0.000344174
3 *53:3 0.000507525977
4 *53:4 0.000283606

*RES
1 *231:I *53:3 3.57399
2 *53:3 *53:4 4.84897995
3 *232:ZN *53:4 1.95392
4 *230:I *53:4 2.70195
*END

*D_NET *54 0.000820312

*CONN
*I *288:Q O *C 10.1 14.2 *L 0 *D DFNCND1
*I *232:I I *C 12.7 15.4 *L 0.00104 *D INVD1

*CAP
1 *232:I 0.000139903
2 *54:2 0.000680408984

*RES
1 *232:I *54:2 8.56945038
2 *288:Q *54:2 1.49994
*END

*D_NET *55 0.00122596

*CONN
*I *235:ZN O *C 11.5 18.6 *L 0 *D INVD1
*I *234:I I *C 12.7 19 *L 0.0113 *D INVD12
*I *233:I I *C 12.7 24.6 *L 0.0113 *D INVD12

*CAP
1 *233:I 8.73738e-05
2 *234:I 3.39305e-05
3 *235:ZN 3.0965e-05
4 *55:3 0.00107369992

*RES
1 *234:I *55:3 0.759206
2 *233:I *55:3 10.6473999
3 *235:ZN *55:3 0.737435
*END

*D_NET *56 0.0069652

*CONN
*I *217:I I *C 10.1 58.6 *L 0.00105 *D DEL1
*I *286:Q O *C 10.1 18.6 *L 0 *D DFNCND1

*CAP
1 *217:I 0.000108698
2 *286:Q 0.000858465
3 *56:2 0.000848117
4 *56:3 0.000142822
5 *56:4 0.000342574
6 *56:5 0.000385042
7 *56:6 0.000424563
8 *56:7 6.68852e-05
9 *56:8 0.000374038
10 *56:9 0.000561123
11 *56:2 *40:9 0.000753023047
12 *56:7 *216:Z 0.000868825938
13 *286:Q *122:2 0.00123102

*RES
1 *56:7 *56:8 9.69147
2 *56:3 *56:5 3.33532
3 *56:3 *56:4 2.02282
4 *56:5 *56:6 4.48361
5 *56:2 *56:4 2.99923
6 *286:Q *56:6 8.11932
7 *56:8 *56:9 11.4125004
8 *56:2 *56:9 9.95755
9 *217:I *56:7 4.49998
*END

*D_NET *57 0.00179318

*CONN
*I *238:ZN O *C 12.1 25 *L 0 *D INVD1
*I *237:I I *C 15.5 28.2 *L 0.0113 *D INVD12
*I *236:I I *C 12.3 22.6 *L 0.0113 *D INVD12

*CAP
1 *238:ZN 0.000212823
2 *57:3 0.000852006953
3 *57:4 0.000728343

*RES
1 *57:3 *57:4 4.6224
2 *237:I *57:3 6.57407999
3 *236:I *57:4 3.00005
4 *238:ZN *57:4 5.43262
*END

*D_NET *58 0.000374234

*CONN
*I *279:Q O *C 10.1 25 *L 0 *D DFNCND1
*I *238:I I *C 11.7 24.6 *L 0.00104 *D INVD1

*CAP
1 *238:I 0.000374233984

*RES
1 *238:I *279:Q 4.87958
*END

*D_NET *59 0.00242276

*CONN
*I *241:ZN O *C 11.7 28.6 *L 0 *D INVD1
*I *240:I I *C 12.3 29.8 *L 0.0113 *D INVD12
*I *239:I I *C 12.3 17.4 *L 0.0113 *D INVD12

*CAP
1 *239:I 0.000245147
2 *241:ZN 0.000449441
3 *59:3 5.84069e-06
4 *59:4 0.000710147969
5 *59:5 0.000272378
6 *59:6 0.000355372
7 *59:8 0.000384445

*RES
1 *59:6 *59:8 2.46843
2 *59:3 *59:4 0.454152
3 *241:ZN *240:I 5.02504015
4 *59:7 *59:8 0.256788
5 *59:5 *59:6 2.26877
6 *241:ZN *59:5 2.95854
7 *59:4 *59:7 4.42589
8 *239:I *59:3 2.64011
*END

*D_NET *60 0.000377705

*CONN
*I *276:Q O *C 9.9 28.6 *L 0 *D DFNCND1
*I *241:I I *C 11.3 28.2 *L 0.00104 *D INVD1

*CAP
1 *241:I 0.000377705

*RES
1 *241:I *276:Q 4.63414
*END

*D_NET *61 0.00244138

*CONN
*I *244:ZN O *C 10.1 33 *L 0 *D INVD1
*I *243:I I *C 12.7 22.6 *L 0.0113 *D INVD12
*I *242:I I *C 12.7 31.8 *L 0.0113 *D INVD12

*CAP
1 *242:I 0.000415796
2 *243:I 0.00100469008
3 *61:3 0.000218292
4 *61:4 0.000402152
5 *61:5 0.00040045

*RES
1 *61:3 *61:4 2.55996
2 *242:I *61:5 8.97690964
3 *242:I *61:3 2.78378
4 *243:I *61:4 7.71905
5 *244:ZN *61:5 1.50003
*END

*D_NET *62 0.000518985

*CONN
*I *271:Q O *C 8.5 35.8 *L 0 *D DFNCND1
*I *244:I I *C 9.7 33.4 *L 0.00104 *D INVD1

*CAP
1 *244:I 0.000518984961

*RES
1 *244:I *271:Q 7.75285
*END

*D_NET *63 0.00242968

*CONN
*I *247:ZN O *C 8.9 36.6 *L 0 *D INVD1
*I *246:I I *C 12.5 26.2 *L 0.0113 *D INVD12
*I *245:I I *C 12.7 33.4 *L 0.0113 *D INVD12

*CAP
1 *245:I 9.20633e-06
2 *246:I 0.00122133008
3 *247:ZN 0.000675305
4 *63:3 0.000379006
5 *63:4 0.000144841

*RES
1 *246:I *63:3 10.4041996
2 *247:ZN *63:4 6.69504
3 *245:I *63:3 2.01619
4 *63:3 *63:4 5.0254
*END

*D_NET *64 0.00142294

*CONN
*I *179:I I *C 7.7 37 *L 0.00072 *D BUFFD1
*I *269:Q O *C 10.1 40.2 *L 0 *D DFNCND1

*CAP
1 *179:I 0.000633902
2 *64:2 0.000789036953

*RES
1 *179:I *64:2 7.34102011
2 *269:Q *64:2 6.22423
*END

*D_NET *65 0.00356155

*CONN
*I *250:ZN O *C 10.5 43.8 *L 0 *D INVD1
*I *249:I I *C 12.7 37 *L 0.0113 *D INVD12
*I *248:I I *C 12.7 29.8 *L 0.0113 *D INVD12

*CAP
1 *248:I 0.000350717
2 *250:ZN 0.00010829
3 *65:3 5.95192e-05
4 *65:4 0.00119797
5 *65:5 0.000302751
6 *65:6 0.000752179
7 *65:7 0.000539548
8 *65:8 0.000250562

*RES
1 *65:7 *65:8 5.23973
2 *65:5 *65:8 4.97264
3 *65:4 *65:5 6.57373
4 *65:6 *65:8 2.67088
5 *65:3 *65:6 5.01326
6 *248:I *65:4 9.47181034
7 *250:ZN *65:3 1.30307
8 *249:I *65:7 2.99998
*END

*D_NET *66 0.000731393

*CONN
*I *264:Q O *C 10.1 46.6 *L 0 *D DFNCND1
*I *313:I0 I *C 8.7 44.2 *L 0.000706 *D MUX2ND0
*I *250:I I *C 10.1 44.2 *L 0.00104 *D INVD1

*CAP
1 *313:I0 0.000385705
2 *66:3 0.00034569

*RES
1 *313:I0 *66:3 7.71377993
2 *264:Q *66:3 4.56122
3 *250:I *66:3 1.50001
*END

*D_NET *67 0.00218075

*CONN
*I *253:ZN O *C 9.7 47.4 *L 0 *D INVD1
*I *252:I I *C 12.5 39 *L 0.0113 *D INVD12
*I *251:I I *C 12.5 37 *L 0.0113 *D INVD12

*CAP
1 *251:I 0.000374487
2 *253:ZN 0.000310248
3 *67:3 0.00137129
4 *67:5 0.000124731

*RES
1 *67:3 *67:5 4.82949
2 *67:3 *67:4 8.09477043
3 *251:I *67:5 6.09245
4 *253:ZN *67:4 3.29579
5 *252:I *67:5 1.49998
*END

*D_NET *68 0.00622655

*CONN
*I *194:Z O *C 15.3 76.2 *L 0 *D DEL2
*I *300:A1 I *C 8.9 51.2 *L 0.000617 *D CKND2D0
*I *278:A2 I *C 8.5 49.8 *L 0.000606 *D CKND2D0
*I *270:A1 I *C 7.5 49.8 *L 0.000711 *D OAI211D0
*I *253:I I *C 9.3 47.8 *L 0.00104 *D INVD1

*CAP
1 *194:Z 2.08177e-06
2 *253:I 0.000236841
3 *68:5 5.96666e-05
4 *68:6 0.00124307
5 *68:7 0.00209890016
6 *68:8 0.000164363
7 *68:9 0.000274665
8 *68:10 0.000188192
9 *68:11 0.000836133
10 *68:12 0.000932023
11 *68:7 *261:CPN 0.000190607988

*RES
1 *68:8 *68:12 2.35901
2 *68:8 *68:9 1.84254
3 *68:7 *68:12 7.94005
4 *68:5 *68:6 10.797
5 *270:A1 *68:11 7.1324
6 *194:Z *68:5 0.334906
7 *68:9 *68:11 3.29924
8 *68:7 *68:10 18.1392002
9 *253:I *68:11 4.03881
10 *68:6 *68:10 2.34241
11 *278:A2 *68:9 1.49988
12 *300:A1 *68:8 3.00004
*END

*D_NET *69 0.00036544

*CONN
*I *256:ZN O *C 12.1 43.8 *L 0 *D INVD1
*I *255:I I *C 12.1 42.6 *L 0.0113 *D INVD12
*I *254:I I *C 12.7 42.6 *L 0.0113 *D INVD12

*CAP
1 *254:I 4.50318e-05
2 *255:I 2.38688e-05
3 *256:ZN 0.000296539004

*RES
1 *255:I *256:ZN 4.53249979
2 *255:I *254:I 0.784003
*END

*D_NET *70 0.000756218

*CONN
*I *261:Q O *C 11.5 46.6 *L 0 *D DFNCND1
*I *266:B1 I *C 11.3 47.8 *L 0.000712 *D AOI32D0
*I *256:I I *C 11.7 44.2 *L 0.00104 *D INVD1

*CAP
1 *256:I 0.000361786
2 *266:B1 4.73334e-06
3 *70:3 0.000389698008

*RES
1 *266:B1 *70:3 3.18833
2 *256:I *70:3 4.09328985
3 *261:Q *70:3 1.50001
*END

*D_NET *71 0.000725764

*CONN
*I *259:Q O *C 11.5 53.8 *L 0 *D DFNCND1
*I *258:I I *C 11.7 57 *L 0.00382 *D BUFFD12

*CAP
1 *258:I 7.85696e-05
2 *259:Q 0.000647191992

*RES
1 *259:Q *258:I 6.82466
*END

*D_NET *72 0.000879411

*CONN
*I *225:I I *C 8.9 640.4 *L 0.000942 *D CKND1
*P *72 I *C 5 648 *L 0.5

*CAP
1 *225:I 0.000569652969
2 *72 0.000290629
3 *72:2 1.91319e-05

*RES
1 *72 *72:2 7.03403
2 *225:I *72:2 8.33390999
*END

*D_NET *73 0.0351119

*CONN
*I *178:I I *C 7.9 213.4 *L 0.00072 *D BUFFD1
*P *73 I *C 8 648 *L 0.5

*CAP
1 *73 0.000765001
2 *73:2 0.00254674
3 *73:3 0.00709076
4 *73:4 0.00712675
5 *73:5 0.0131036
6 *73:6 1.59958e-06
7 *73:7 2.53934e-05
8 *73 *50:27 1.8123e-05
9 *73:2 *50:27 8.8264e-05
10 *73:3 *50:31 0.000500022
11 *73:4 *50:31 0.000297943
12 *73:2 *50:31 0.000255905
13 *73:3 *50:32 0.000255012
14 *73:4 *50:32 0.000480462
15 *73:5 *50:32 0.000277137
16 *73:4 *50:33 0.000237643
17 *73:5 *50:33 0.000806317
18 *73:6 *50:34 0.000208132
19 *73:5 *50:34 0.000416562
20 *73:3 *50:35 0.000289439
21 *73:2 *50:35 0.00021321
22 *73:7 *50:35 0.00010785988

*RES
1 *73:2 *73:7 36.3473
2 *73:3 *73:2 97.6408
3 *73:6 *73:5 85.8643
4 *73:3 *73:4 97.6453018
5 *178:I *73:6 2.99927
6 *73 *73:7 10.0661
7 *73:4 *73:5 97.6393
*END

*D_NET *74 0.0120929

*CONN
*I *192:I I *C 7.1 75 *L 0.00105 *D DEL1
*P *74 I *C 0 5 *L 0.5

*CAP
1 *74 0.000245451
2 *74:2 0.000556467
3 *74:3 0.000518457
4 *74:4 0.000715863
5 *74:5 0.00274031
6 *74:7 1.83984e-06
7 *74:8 0.00020004
8 *74:9 0.000930748
9 *74 *75 0.000910732969
10 *74:2 *2:2 0.00138108
11 *74:3 *290:B 0.00106302
12 *74:2 *140:2 0.00226214
13 *74:2 *188:I 0.000566762969

*RES
1 *74:6 *74:8 0.256569
2 *74:5 *74:7 0.256569
3 *74:4 *74:9 16.7522
4 *74 *74:9 3.73157
5 *74:7 *74:8 4.55903
6 *74:3 *74:4 6.83013
7 *74:2 *74:5 47.9044991
8 *192:I *74:2 9.0625
9 *74:3 *74:6 19.2558
*END

*D_NET *75 0.00716036

*CONN
*I *195:I I *C 5.9 73 *L 0.00105 *D DEL1
*P *75 I *C 0 6 *L 0.5

*CAP
1 *195:I 7.26992e-05
2 *75 9.27044e-05
3 *75:2 2.41968e-05
4 *75:3 0.000471851
5 *75:4 0.00121335
6 *75:5 3.85679e-05
7 *75:6 0.00178373
8 *75:7 0.000219622
9 *75:8 0.00166177
10 *75:4 *9:3 0.000294995996
11 *75 *74 0.000910732969
12 *195:I *138:2 0.000376147969

*RES
1 *75:7 *75:8 21.5254
2 *75:5 *75:6 33.0922012
3 *75:3 *75:5 2.99989
4 *75:2 *75:4 19.2637
5 *75 *75:8 1.21844
6 *75:6 *75:7 2.23187
7 *75:3 *75:4 6.65672
8 *195:I *75:2 1.25934
*END

*D_NET *76 0.00375642

*CONN
*P *168 I *C 0 14 *L 0.5
*P *76 O *C 21.6 25 *L 0.5

*CAP
1 *168 0.000386919
2 *76 7.37133e-05
3 *76:2 0.00142166
4 *76:3 0.00037835
5 *76:4 0.000432648
6 *76:5 0.000554108
7 *76:6 0.000287868
8 *76:7 0.000221118

*RES
1 *76:5 *76:6 6.87848
2 *76:2 *76:3 2.28024
3 *168 *76:5 3.73816
4 *76 *76:2 13.8253002
5 *76:6 *76:7 3.51371
6 *76:4 *76:7 4.0584
7 *76:3 *76:4 4.90961
*END

*D_NET *77 0.00440435

*CONN
*P *169 I *C 0 13 *L 0.5
*P *77 O *C 21.6 24 *L 0.5

*CAP
1 *169 0.000101347
2 *77 7.33402e-05
3 *77:2 0.00240558
4 *77:3 0.000770512
5 *77:4 0.000467057
6 *77:5 0.000586501

*RES
1 *77 *77:2 22.4365005
2 *77:4 *77:5 4.18767
3 *77:2 *77:4 5.3955
4 *169 *77:3 2.05481
5 *77:3 *77:5 6.99566
*END

*D_NET *78 0.00405496

*CONN
*P *170 I *C 0 12 *L 0.5
*P *78 O *C 21.6 23 *L 0.5

*CAP
1 *170 0.000141609
2 *78 7.37041e-05
3 *78:2 0.000603786
4 *78:3 0.00056128
5 *78:4 1.58058e-05
6 *78:5 0.000496879
7 *78:6 0.000412862
8 *78:7 0.00100274
9 *78:8 0.000207923
10 *78:9 0.000538375

*RES
1 *78:7 *78:8 3.28751
2 *78 *78:3 6.7999
3 *78:8 *78:9 5.13491
4 *78:6 *78:7 9.09762955
5 *78:4 *78:5 4.35502
6 *78:3 *78:4 0.328584
7 *78:5 *78:6 2.86564
8 *78:2 *78:9 7.58339
9 *170 *78:2 3.55473
*END

*D_NET *79 0.00427678

*CONN
*P *171 I *C 0 11 *L 0.5
*P *79 O *C 21.6 22 *L 0.5

*CAP
1 *171 0.000171295
2 *79 7.37122e-05
3 *79:2 0.000353562
4 *79:3 0.000509833
5 *79:4 3.56329e-05
6 *79:5 0.000919092
7 *79:6 0.000234925
8 *79:7 0.000359295
9 *79:8 0.00161942

*RES
1 *79:6 *79:7 4.71455
2 *79 *79:2 4.39638
3 *79:7 *79:8 16.1511993
4 *79:3 *79:4 0.134314
5 *79:2 *79:3 4.35498
6 *79:5 *79:6 1.88976
7 *79:4 *79:5 6.65409
8 *171 *79:8 3.78051
*END

*D_NET *80 0.00442212

*CONN
*P *172 I *C 0 10 *L 0.5
*P *80 O *C 21.6 21 *L 0.5

*CAP
1 *172 8.48763e-05
2 *80 6.57126e-05
3 *80:2 8.81764e-05
4 *80:3 0.000453446
5 *80:4 3.53748e-05
6 *80:5 0.000717743
7 *80:6 0.00121915
8 *80:7 0.000492893
9 *80:8 0.00126475

*RES
1 *80:7 *80:8 10.1875
2 *172 *80:6 1.85966
3 *80 *80:2 2.24976
4 *80:6 *80:8 12.6438999
5 *80:3 *80:4 0.133508
6 *80:2 *80:3 4.74532
7 *80:5 *80:7 5.41981
8 *80:4 *80:5 5.52592
*END

*D_NET *81 0.00389021

*CONN
*P *173 I *C 0 9 *L 0.5
*P *81 O *C 21.6 20 *L 0.5

*CAP
1 *173 8.95667e-05
2 *81 9.84525e-05
3 *81:2 0.000134854
4 *81:3 0.000629543
5 *81:4 0.000599233
6 *81:5 0.000417742
7 *81:6 0.000893146016
8 *81:7 0.000791777
9 *81:8 0.000235896

*RES
1 *81:7 *81:8 1.84941
2 *81:4 *81:7 7.06116
3 *81 *81:2 3.39007
4 *81:5 *81:8 4.26363
5 *81:5 *81:6 9.56235027
6 *81:2 *81:3 6.5016
7 *173 *81:6 1.85962
8 *81:3 *81:4 3.97925
*END

*D_NET *82 0.00413136

*CONN
*P *174 I *C 0 8 *L 0.5
*P *82 O *C 21.6 19 *L 0.5

*CAP
1 *174 0.000197921
2 *82 0.000100375
3 *82:2 0.000342051
4 *82:3 0.000462924
5 *82:4 2.41136e-05
6 *82:5 0.000689373
7 *82:6 0.000475779
8 *82:7 0.000491909
9 *82:8 0.000288423
10 *82:9 0.000769367969
11 *82:10 0.000289128

*RES
1 *82:6 *82:7 4.90964
2 *82:5 *82:6 3.18284
3 *82 *82:2 4.71346
4 *82:8 *82:10 3.87323
5 *82:4 *82:5 4.7586
6 *82:2 *82:3 4.94037
7 *82:9 *82:10 3.90408
8 *82:7 *82:9 7.8062501
9 *82:3 *82:4 0.133527
10 *174 *82:8 3.0305
*END

*D_NET *83 0.0033581

*CONN
*P *175 I *C 0 7 *L 0.5
*P *83 O *C 21.6 18 *L 0.5

*CAP
1 *175 0.00011237
2 *83 6.57084e-05
3 *83:2 0.000606426
4 *83:3 4.7522e-05
5 *83:4 0.000365221
6 *83:5 5.65291e-05
7 *83:6 0.00125326
8 *83:7 0.000494343
9 *83:8 0.000356711

*RES
1 *83:7 *83:8 2.73742
2 *83:5 *83:6 13.4231005
3 *83:4 *83:5 0.133543
4 *83:2 *83:3 0.749847
5 *175 *83:6 1.66437
6 *83 *83:7 6.3863
7 *83:3 *83:4 4.74528
8 *83:2 *83:8 8.2899
*END

*D_NET *84 0.0132792

*CONN
*P *84 O *C 21.6 5 *L 0.5
*I *296:C I *C 7.9 15.4 *L 0.000698 *D OAI211D0
*I *304:C I *C 10.3 11.8 *L 0.000698 *D OAI211D0
*I *309:ZN O *C 10.5 25.8 *L 0 *D INVD12
*I *315:S I *C 11.5 21 *L 0.00146 *D MUX2ND0
*I *316:S I *C 13.7 6.6 *L 0.00146 *D MUX2ND0
*I *317:A2 I *C 14.5 6.8 *L 0.000661 *D XNR2D0
*I *312:S I *C 12.9 49.8 *L 0.00146 *D MUX2ND0
*I *266:A3 I *C 12.1 47.8 *L 0.000695 *D AOI32D0
*I *313:S I *C 8.9 44.2 *L 0.00146 *D MUX2ND0
*I *314:S I *C 11.9 31.8 *L 0.00146 *D MUX2ND0
*I *280:C I *C 7.3 37 *L 0.000698 *D OAI211D0
*I *270:C I *C 8.1 49.8 *L 0.000698 *D OAI211D0
*I *287:C I *C 7.1 31.8 *L 0.000698 *D OAI211D0

*CAP
1 *270:C 6.03094e-05
2 *314:S 0.000192939
3 *266:A3 0.000212492
4 *316:S 5.53313e-05
5 *296:C 0.000283456
6 *84 5.66447e-05
7 *84:14 0.000725513
8 *84:15 0.000516284
9 *84:16 7.43329e-05
10 *84:17 0.000160338
11 *84:18 0.000160232
12 *84:19 0.000748498
13 *84:20 0.000126741
14 *84:21 0.000274496
15 *84:22 0.000381091
16 *84:23 0.000280152
17 *84:24 0.00022821
18 *84:25 0.000549584
19 *84:26 0.000916292
20 *84:27 0.000773621
21 *84:28 0.00138826
22 *84:30 0.000527787
23 *84:31 0.000866151
24 *84:32 0.000608581
25 *84:34 0.000602776
26 *84:35 0.000341499
27 *84:36 0.000834947
28 *84:37 5.91443e-05
29 *84:38 0.000359336
30 *84:39 0.000119263
31 *84:21 *45:9 0.000391891992
32 *296:C *48:14 0.000403052969

*RES
1 *84:21 *84:22 5.65619
2 *84:14 *84:29 1.56121
3 *84:25 *84:32 0.58553
4 *312:S *84:38 6.39788
5 *314:S *84:16 4.19094
6 *84:15 *84:29 0.846703
7 *84:26 *84:36 6.4474
8 *84:34 *84:38 3.03763
9 *84:19 *84:37 4.97992
10 *84:23 *84:34 3.54607
11 *84:18 *84:35 2.86608
12 *84:18 *84:31 6.22062
13 *84:24 *84:32 4.25772
14 *84:15 *84:37 4.54931
15 *84:24 *84:30 1.60031
16 *84:20 *84:27 4.4248
17 *270:C *84:23 1.75684
18 *84:17 *84:28 6.88571
19 *84:35 *84:36 6.17543
20 *84:25 *84:39 5.27597
21 *84:19 *84:31 3.54285
22 *296:C *84:35 5.48662
23 *84:22 *84:30 6.06322
24 *84:21 *84:27 1.65319
25 *316:S *84:15 3.24617
26 *266:A3 *84:38 4.04322
27 *84:28 *84:39 6.72807
28 *84:16 *84:39 1.9017
29 *84:20 *84:34 1.92119
30 *84:17 *84:26 4.27299
31 *84:14 *84:33 8.13510036
32 *84 *84:33 1.50001
33 *287:C *84:32 1.50001
34 *304:C *84:31 1.50001
35 *280:C *84:30 1.50001
36 *317:A2 *84:29 1.50001
37 *309:ZN *84:28 1.50001
38 *313:S *84:27 3.00002
39 *315:S *84:26 3.00002
*END

*D_NET *85 0.00367861

*CONN
*I *257:Z O *C 13.1 40.2 *L 0 *D BUFFD12
*P *85 O *C 21.6 17 *L 0.5

*CAP
1 *85 8.51805e-05
2 *85:2 0.000836951
3 *85:3 8.31968e-05
4 *85:4 0.000795387
5 *85:5 0.00151159
6 *85:6 0.000366301

*RES
1 *85:3 *85:4 10.8493996
2 *85:2 *85:3 8.33025
3 *85 *85:5 4.42777
4 *85:5 *85:6 9.64487
5 *257:Z *85:2 2.2662
6 *85:4 *85:6 3.57519
*END

*D_NET *86 0.00415798

*CONN
*P *86 O *C 21.6 16 *L 0.5
*I *255:ZN O *C 10.5 43 *L 0 *D INVD12

*CAP
1 *86 9.58653e-05
2 *86:2 0.000633443
3 *86:3 2.63807e-05
4 *86:4 7.11619e-05
5 *86:5 0.00333114

*RES
1 *86:2 *86:4 5.46827
2 *86 *86:3 2.05476
3 *86:4 *86:5 26.2907009
4 *86:3 *86:5 8.13521
5 *255:ZN *86:2 1.49995
*END

*D_NET *87 0.00440773

*CONN
*I *251:ZN O *C 10.9 36.6 *L 0 *D INVD12
*P *87 O *C 21.6 15 *L 0.5

*CAP
1 *87 7.37142e-05
2 *87:2 0.000504646
3 *87:3 0.00105684992
4 *87:4 4.37996e-05
5 *87:5 0.000245494
6 *87:6 0.00051508
7 *87:7 0.00021158
8 *87:8 0.00105179
9 *87:9 0.000491181
10 *87:10 0.000213595

*RES
1 *87:9 *87:10 4.83133
2 *87:7 *87:9 2.40407
3 *87:7 *87:8 7.62633
4 *87:4 *87:10 3.1546
5 *87:4 *87:5 3.93389
6 *87:2 *87:6 8.00325
7 *87:5 *87:6 0.133518
8 *87:3 *87:8 9.86497021
9 *87 *87:3 2.08541
10 *251:ZN *87:2 1.50001
*END

*D_NET *88 0.00257669

*CONN
*I *248:ZN O *C 14.3 29.4 *L 0 *D INVD12
*P *88 O *C 21.6 14 *L 0.5

*CAP
1 *88 0.000514667
2 *88:2 0.000565594
3 *88:3 6.95728e-05
4 *88:4 0.00110185
5 *88:5 0.000324998

*RES
1 *88:2 *88:3 6.37884
2 *88 *88:5 7.18221
3 *88:3 *88:4 12.2669001
4 *88:4 *88:5 2.29817
5 *248:ZN *88:2 1.50004
*END

*D_NET *89 0.00239455

*CONN
*P *89 O *C 21.6 13 *L 0.5
*I *246:ZN O *C 14.1 25.8 *L 0 *D INVD12

*CAP
1 *89 6.30885e-05
2 *89:2 0.00055867
3 *89:3 7.83435e-05
4 *89:4 0.00169447

*RES
1 *89:2 *89:3 5.98847
2 *89:3 *89:4 14.1127005
3 *89 *89:4 5.40338
4 *246:ZN *89:2 1.50008
*END

*D_NET *90 0.00192204

*CONN
*P *90 O *C 21.6 12 *L 0.5
*I *243:ZN O *C 14.3 22.2 *L 0 *D INVD12

*CAP
1 *90 6.3144e-05
2 *90:2 0.000476915
3 *90:3 2.87106e-05
4 *90:4 0.000633517969
5 *90:5 0.000534848
6 *90:6 0.000184908

*RES
1 *90:2 *90:3 5.01268
2 *90:5 *90:6 5.22395
3 *90:3 *90:6 2.90303
4 *90:4 *90:5 3.78494
5 *90 *90:4 6.18408012
6 *243:ZN *90:2 1.49997
*END

*D_NET *91 0.00153203

*CONN
*I *239:ZN O *C 13.9 17.8 *L 0 *D INVD12
*P *91 O *C 21.6 11 *L 0.5

*CAP
1 *91 0.000299373
2 *91:2 0.000762688984
3 *91:3 0.000208912
4 *91:4 0.000261049

*RES
1 *91 *91:3 3.39004
2 *91:2 *91:4 5.62898
3 *239:ZN *91:2 6.5315299
4 *91:3 *91:4 2.34179
*END

*D_NET *92 0.00340379

*CONN
*I *315:I0 I *C 11.3 21 *L 0.000706 *D MUX2ND0
*I *236:ZN O *C 10.7 22.2 *L 0 *D INVD12
*P *92 O *C 21.6 10 *L 0.5

*CAP
1 *92 0.000140008
2 *236:ZN 0.000370287
3 *92:3 0.0015499
4 *92:4 0.000318801
5 *92:5 4.78202e-05
6 *92:6 0.000479763
7 *92:7 0.000497217

*RES
1 *92:3 *92:5 11.0198002
2 *92:3 *92:4 4.84823
3 *92:6 *92:7 3.70365
4 *92:5 *92:7 5.49342
5 *92 *92:6 1.2253
6 *236:ZN *92:4 7.08999
7 *315:I0 *92:4 2.99994
*END

*D_NET *93 0.0044992

*CONN
*P *93 O *C 21.6 9 *L 0.5
*I *307:A2 I *C 6.3 15.4 *L 0.000606 *D CKND2D0
*I *303:A1 I *C 6.7 17.6 *L 0.000617 *D CKND2D0
*I *296:A1 I *C 7.3 15.4 *L 0.000711 *D OAI211D0
*I *234:ZN O *C 14.3 18.6 *L 0 *D INVD12

*CAP
1 *234:ZN 7.05361e-05
2 *296:A1 0.000289874
3 *307:A2 3.85291e-05
4 *93 7.10034e-05
5 *93:5 8.45149e-05
6 *93:6 0.000758044
7 *93:7 0.000111869
8 *93:8 0.00025884
9 *93:9 0.000564873
10 *93:10 0.00070139
11 *93:11 0.0012759
12 *93:12 0.000273831

*RES
1 *234:ZN *93:10 2.99994
2 *93:8 *93:10 2.17744
3 *93:6 *93:9 4.86549
4 *93:8 *93:9 3.54875
5 *307:A2 *93:5 1.75677
6 *93:7 *93:10 6.0497
7 *93:7 *93:11 11.5351
8 *93:11 *93:12 2.14717
9 *296:A1 *93:5 7.02163
10 *93 *93:12 1.81098
11 *93:5 *93:6 2.42579
12 *303:A1 *93:6 1.49997
*END

*D_NET *94 0.00208475

*CONN
*I *316:I0 I *C 13.5 6.6 *L 0.000706 *D MUX2ND0
*I *230:ZN O *C 14.3 14.2 *L 0 *D INVD12
*P *94 O *C 21.6 8 *L 0.5

*CAP
1 *94 0.0001311
2 *316:I0 0.000229035
3 *94:3 0.00047672
4 *94:4 0.000797291016
5 *94:5 0.0004506

*RES
1 *94:4 *94:5 9.32699966
2 *94:3 *94:4 3.88018
3 *316:I0 *94:4 4.78789
4 *230:ZN *94:3 3.96372
5 *94 *94:5 2.24977
*END

*D_NET *95 0.00112475

*CONN
*I *226:Z O *C 14.1 10.6 *L 0 *D BUFFD12
*P *95 O *C 21.6 7 *L 0.5

*CAP
1 *95 4.70887e-05
2 *95:2 0.00103521
3 *95:3 4.24446e-05

*RES
1 *95:2 *95:3 8.48285007
2 *95 *95:3 2.05483
3 *226:Z *95:2 3.57365
*END

*D_NET *96 0.00317203

*CONN
*P *96 O *C 21.6 6 *L 0.5
*I *317:A1 I *C 15.7 6.6 *L 0.00136 *D XNR2D0
*I *310:A1 I *C 10.9 10.4 *L 0.000617 *D CKND2D0
*I *304:A2 I *C 9.3 11.8 *L 0.00065 *D OAI211D0
*I *228:Z O *C 9.3 7.8 *L 0 *D BUFFD12
*I *227:I I *C 12.1 11.8 *L 0.00382 *D BUFFD12

*CAP
1 *227:I 5.09379e-05
2 *228:Z 0.000316179
3 *304:A2 7.70555e-05
4 *310:A1 7.36156e-05
5 *96 5.07063e-05
6 *96:6 0.000534605
7 *96:7 0.000575038
8 *96:8 9.91541e-05
9 *96:9 0.000759031016
10 *96:10 0.000145714
11 *96:11 0.000489991

*RES
1 *96:9 *96:10 1.02068
2 *96:8 *96:9 4.15157
3 *96:6 *96:10 2.93377
4 *310:A1 *96:10 4.50001
5 *96:7 *96:11 2.08546
6 *96:7 *96:8 5.49296
7 *228:Z *96:6 3.28795
8 *227:I *96:9 4.97906
9 *304:A2 *96:6 3.92661
10 *96 *96:11 6.96420002
11 *317:A1 *96:7 1.50004
*END

*D_NET *97 0.00427006

*CONN
*I *257:I I *C 15.1 40.6 *L 0.00382 *D BUFFD12
*I *258:Z O *C 13.7 57.4 *L 0 *D BUFFD12
*P *97 O *C 21.6 37 *L 0.5
*I *312:I0 I *C 13.1 49.8 *L 0.000706 *D MUX2ND0
*I *267:B2 I *C 14.7 50 *L 0.000739 *D MOAI22D0
*I *267:A2 I *C 15.5 49.8 *L 0.000697 *D MOAI22D0

*CAP
1 *258:Z 0.00117367
2 *267:A2 0.000158403
3 *267:B2 0.00025495
4 *312:I0 0.000288559
5 *97 0.000300303
6 *97:6 4.2069e-05
7 *97:7 0.00136215
8 *97:8 0.000100537
9 *97:9 0.000368914
10 *97:10 0.00022053

*RES
1 *97:6 *97:7 5.85449
2 *267:A2 *97:8 6.49209
3 *267:B2 *97:10 5.85177
4 *97:8 *97:9 1.67584
5 *97:7 *97:10 10.0889
6 *312:I0 *97:9 5.7598
7 *257:I *97:7 3.19508
8 *97 *97:6 4.9828
9 *258:Z *97:9 11.8642998
10 *97:8 *97:10 1.50005
*END

*D_NET *98 0.00140111

*CONN
*I *254:ZN O *C 14.3 43 *L 0 *D INVD12
*P *98 O *C 21.6 36 *L 0.5

*CAP
1 *98 7.29399e-05
2 *98:2 0.000688876953
3 *98:3 2.08235e-05
4 *98:4 0.000546928
5 *98:5 7.15524e-05

*RES
1 *98:2 *98:3 7.80158997
2 *254:ZN *98:2 1.69517
3 *98:4 *98:5 5.49704
4 *98:3 *98:5 2.5068
5 *98 *98:4 0.206658
*END

*D_NET *99 0.00122277

*CONN
*I *252:ZN O *C 14.1 39.4 *L 0 *D INVD12
*P *99 O *C 21.6 35 *L 0.5

*CAP
1 *252:ZN 0.00064011
2 *99 8.57094e-05
3 *99:2 0.000496948

*RES
1 *99 *99:2 2.05485
2 *252:ZN *99:2 12.8879995
*END

*D_NET *100 0.00100188

*CONN
*I *249:ZN O *C 14.3 36.6 *L 0 *D INVD12
*P *100 O *C 21.6 34 *L 0.5

*CAP
1 *100 5.10008e-05
2 *100:2 0.000916463047
3 *100:3 3.44154e-05

*RES
1 *100:2 *100:3 8.13510036
2 *100 *100:3 2.05475
3 *249:ZN *100:2 3.70496
*END

*D_NET *101 0.000663093

*CONN
*I *245:ZN O *C 14.3 33 *L 0 *D INVD12
*P *101 O *C 21.6 33 *L 0.5

*CAP
1 *101 5.07119e-05
2 *101:2 0.000612383008

*RES
1 *245:ZN *101:2 3.00002
2 *101 *101:2 8.13510036
*END

*D_NET *102 0.00126

*CONN
*I *314:I0 I *C 11.7 31.8 *L 0.000706 *D MUX2ND0
*I *242:ZN O *C 14.3 32.2 *L 0 *D INVD12
*P *102 O *C 21.6 32 *L 0.5

*CAP
1 *102 0.000367624
2 *242:ZN 8.22809e-05
3 *102:3 0.000477235
4 *102:4 0.000332867

*RES
1 *102:3 *102:4 4.27787
2 *242:ZN *102:4 3.00004
3 *102 *102:4 8.33024979
4 *314:I0 *102:3 3.00004
*END

*D_NET *103 0.00298032

*CONN
*I *240:ZN O *C 10.7 29.4 *L 0 *D INVD12
*P *103 O *C 21.6 31 *L 0.5
*I *306:A1 I *C 7.7 29.6 *L 0.000617 *D CKND2D0
*I *294:A2 I *C 8.5 31.8 *L 0.000606 *D CKND2D0
*I *287:A1 I *C 6.5 31.8 *L 0.000711 *D OAI211D0

*CAP
1 *240:ZN 0.000310622
2 *294:A2 1.17275e-05
3 *103 0.000134353
4 *103:5 0.000209316
5 *103:6 0.000787769
6 *103:7 0.000426173
7 *103:8 0.000203555
8 *103:9 0.000896806016

*RES
1 *306:A1 *103:9 6.9445
2 *240:ZN *103:8 4.90652
3 *103:7 *103:8 1.95145
4 *103:5 *103:6 2.34174
5 *294:A2 *103:7 3.27122
6 *103 *103:5 2.80452
7 *103:7 *103:9 0.993879
8 *103:6 *103:8 8.29109955
9 *287:A1 *103:9 6.21946
*END

*D_NET *104 0.00102717

*CONN
*I *237:ZN O *C 13.9 28.6 *L 0 *D INVD12
*P *104 O *C 21.6 30 *L 0.5

*CAP
1 *237:ZN 0.000355918
2 *104 0.000671245

*RES
1 *104 *237:ZN 13.0866
*END

*D_NET *105 0.0013152

*CONN
*I *233:ZN O *C 14.3 25 *L 0 *D INVD12
*P *105 O *C 21.6 29 *L 0.5

*CAP
1 *105 0.000193182
2 *233:ZN 0.000605575977
3 *105:2 0.000492472
4 *105:3 2.39699e-05

*RES
1 *105:2 *105:3 6.79988003
2 *233:ZN *105:2 5.36055
3 *105 *105:3 3.03035
*END

*D_NET *106 0.00185193

*CONN
*I *231:ZN O *C 14.3 21.4 *L 0 *D INVD12
*P *106 O *C 21.6 28 *L 0.5

*CAP
1 *106 5.41642e-05
2 *106:2 0.000901155
3 *106:3 0.000896617

*RES
1 *106:2 *106:3 8.07624
2 *106:3 *106:4 8.40668011
3 *106 *106:4 0.206524
4 *231:ZN *106:2 1.50006
*END

*D_NET *107 0.00493493

*CONN
*P *107 O *C 21.6 27 *L 0.5
*I *310:A2 I *C 10.5 10.2 *L 0.000606 *D CKND2D0
*I *229:Z O *C 10.7 15 *L 0 *D CKBD12
*I *226:I I *C 12.1 10.2 *L 0.00382 *D BUFFD12
*I *302:A1 I *C 5.9 11.6 *L 0.000617 *D CKND2D0

*CAP
1 *226:I 0.00029559
2 *310:A2 0.000205256
3 *107 6.86724e-05
4 *107:5 0.00072122
5 *107:6 0.000631714
6 *107:7 0.000154092
7 *107:8 0.000853864
8 *107:9 0.000224688
9 *107:10 0.000340384
10 *107:11 0.000875231953
11 *107:12 3.60056e-05
12 *107:13 0.000207085
13 *107:15 0.000321139

*RES
1 *107:6 *107:9 5.0174
2 *107:11 *107:12 0.372954
3 *107 *107:10 1.66437
4 *302:A1 *107:8 4.0842
5 *107:8 *107:13 6.82948
6 *107:5 *107:12 8.94651985
7 *107:14 *107:15 3.5305
8 *226:I *107:13 5.82474
9 *310:A2 *107:7 2.62965
10 *107:6 *107:7 1.00747
11 *107:11 *107:14 8.30122
12 *107:5 *107:9 1.39093
13 *107:10 *107:15 5.23896
14 *229:Z *107:9 1.50001
15 *107:7 *107:13 1.50001
*END

*D_NET *108 0.00299544

*CONN
*I *227:Z O *C 14.1 11.4 *L 0 *D BUFFD12
*P *108 O *C 21.6 26 *L 0.5

*CAP
1 *108 7.33427e-05
2 *108:2 0.000752045
3 *108:3 0.00160753
4 *108:4 0.000279414
5 *108:5 0.000283093

*RES
1 *108:2 *108:4 7.70223
2 *108:4 *108:5 3.5294
3 *108:3 *108:5 14.7335997
4 *108 *108:3 2.47568
5 *227:Z *108:2 1.49998
*END

*D_NET *117 0.00373673

*CONN
*I *221:I I *C 12.3 44.2 *L 0.00105 *D DEL1
*I *279:QN O *C 10.5 25 *L 0 *D DFNCND1

*CAP
1 *279:QN 0.00040204
2 *117:2 0.000666071
3 *117:3 0.00116717008
4 *117:4 0.00032129
5 *117:5 0.000641049
6 *117:6 0.000539105

*RES
1 *117:5 *117:6 3.32597
2 *221:I *117:2 7.6545
3 *279:QN *117:6 4.06996
4 *117:4 *117:5 4.2834
5 *117:2 *117:3 8.05778027
6 *117:3 *117:4 2.34346
*END

*D_NET *118 0.000446759

*CONN
*I *289:A2 I *C 6.9 33.4 *L 0.000664 *D NR2D0
*I *285:A2 I *C 7.7 33.4 *L 0.000671 *D AOI21D0
*I *271:QN O *C 8.1 35.8 *L 0 *D DFNCND1

*CAP
1 *289:A2 8.91295e-06
2 *285:A2 4.14146e-06
3 *271:QN 0.000118473
4 *118:3 3.99697e-05
5 *118:4 0.000275264004

*RES
1 *271:QN *118:4 4.3303299
2 *285:A2 *118:3 0.491602
3 *289:A2 *118:3 0.491602
4 *118:3 *118:4 1.49998
*END

*D_NET *119 0.00498466

*CONN
*I *222:I I *C 9.1 39 *L 0.00105 *D DEL1
*I *288:QN O *C 10.5 14.2 *L 0 *D DFNCND1

*CAP
1 *119:2 0.000965349
2 *119:3 0.00190819
3 *119:4 0.000568745
4 *119:5 5.21196e-06
5 *119:6 4.07057e-05
6 *119:7 0.000732354
7 *119:8 0.00069686
8 *119:9 6.72605e-05

*RES
1 *119:8 *119:9 6.16667
2 *119:6 *119:7 4.74664
3 *119:5 *119:7 0.451961
4 *119:4 *119:6 0.451961
5 *119:3 *119:4 3.84874
6 *119:2 *119:5 5.66313
7 *222:I *119:3 17.1609001
8 *119:2 *119:9 2.67092
9 *288:QN *119:8 1.4999
*END

*D_NET *120 0.00123129

*CONN
*I *274:A2 I *C 11.9 49.8 *L 0.000606 *D CKND2D0
*I *272:A2 I *C 10.5 49.8 *L 0.00069 *D OR2D0
*I *261:QN O *C 11.1 46.6 *L 0 *D DFNCND1

*CAP
1 *274:A2 0.000168608
2 *261:QN 0.000631232031
3 *120:3 0.000431455

*RES
1 *272:A2 *120:3 3.51081
2 *274:A2 *120:3 4.51876
3 *261:QN *120:3 6.77158022
*END

*D_NET *121 0.00446191

*CONN
*I *197:Z O *C 13.7 75.4 *L 0 *D DEL1
*I *282:A2 I *C 6.9 47.8 *L 0.000664 *D NR2D0
*I *277:A2 I *C 7.7 47.8 *L 0.000671 *D AOI21D0

*CAP
1 *197:Z 8.90321e-05
2 *282:A2 5.94965e-05
3 *277:A2 6.40196e-05
4 *121:3 0.00124115
5 *121:4 0.000130475
6 *121:5 0.00253353
7 *121:6 0.000344221

*RES
1 *121:3 *121:5 8.52557
2 *277:A2 *121:3 4.40916
3 *121:5 *121:6 28.6352997
4 *121:4 *121:6 3.00003
5 *197:Z *121:4 2.80166
6 *282:A2 *277:A2 0.996223
*END

*D_NET *122 0.00889417

*CONN
*I *193:I I *C 12.7 73 *L 0.00105 *D DEL1
*I *311:QN O *C 10.3 7 *L 0 *D DFNCND1

*CAP
1 *122:2 0.00166716
2 *122:3 0.000474284
3 *122:4 8.55429e-05
4 *122:5 0.000128123
5 *122:6 0.00209181
6 *122:7 9.60761e-05
7 *122:8 0.000312295
8 *122:9 0.000438375
9 *122:5 *41:3 0.000518944023
10 *122:2 *286:Q 0.00123102
11 *122:3 *39:6 0.00185052

*RES
1 *122:8 *122:9 3.64701
2 *122:2 *122:8 1.65398
3 *122:5 *122:9 5.17791
4 *122:7 *122:2 25.1884
5 *122:6 *122:7 2.25403
6 *122:4 *122:3 3.84263
7 *122:3 *122:6 36.0117989
8 *311:QN *122:5 1.50013
9 *193:I *122:4 3.00025
*END

*D_NET *123 0.000498875

*CONN
*I *306:ZN O *C 7.5 29.4 *L 0 *D CKND2D0
*I *281:A2 I *C 6.1 29.8 *L 0.000671 *D AOI21D0

*CAP
1 *306:ZN 0.000169974
2 *281:A2 0.000328900977

*RES
1 *281:A2 *306:ZN 7.67188
*END

*D_NET *124 0.0016566

*CONN
*I *308:ZN O *C 11.3 11.6 *L 0 *D NR2D1
*I *307:A1 I *C 5.9 15.2 *L 0.000617 *D CKND2D0
*I *305:B I *C 11.5 13.8 *L 0.00072 *D AOI21D0
*I *296:A2 I *C 6.9 15.4 *L 0.00065 *D OAI211D0

*CAP
1 *308:ZN 0.000277056
2 *307:A1 0.000351835
3 *124:4 0.000166775
4 *124:5 4.74194e-05
5 *124:6 0.000813516016

*RES
1 *124:4 *124:5 0.780616
2 *296:A2 *124:6 3.84239
3 *124:4 *124:6 5.98842
4 *308:ZN *124:5 3.5058
5 *307:A1 *124:6 6.86966991
6 *305:B *124:5 3.00003
*END

*D_NET *125 0.000890648

*CONN
*I *310:ZN O *C 11.1 10.6 *L 0 *D CKND2D0
*I *308:A1 I *C 11.3 11.8 *L 0.00093 *D NR2D1
*I *305:A1 I *C 11.3 13.8 *L 0.00069 *D AOI21D0
*I *304:B I *C 9.9 11.8 *L 0.000726 *D OAI211D0

*CAP
1 *310:ZN 0.000259125
2 *125:4 0.000279113
3 *125:5 0.000352406992

*RES
1 *125:4 *125:5 4.6185
2 *305:A1 *125:5 4.9963398
3 *310:ZN *125:5 3.06454
4 *308:A1 *125:5 1.49998
5 *304:B *125:4 2.99997
*END

*D_NET *126 0.00119075

*CONN
*I *316:I1 I *C 12.5 6.8 *L 0.001 *D MUX2ND0
*I *305:ZN O *C 11.5 14.2 *L 0 *D AOI21D0

*CAP
1 *316:I1 0.000673606953
2 *305:ZN 0.000248567
3 *126:2 0.000268569

*RES
1 *305:ZN *126:2 5.28962
2 *316:I1 *126:2 6.02981997
*END

*D_NET *127 0.000855965

*CONN
*I *304:ZN O *C 9.3 12.4 *L 0 *D OAI211D0
*I *297:A1 I *C 6.9 11.8 *L 0.00069 *D AOI21D0

*CAP
1 *297:A1 0.000657546016
2 *127:2 0.000198423

*RES
1 *297:A1 *127:2 10.1542997
2 *304:ZN *127:2 2.99999
*END

*D_NET *128 1.9071e-05

*CONN
*I *303:ZN O *C 6.9 17.8 *L 0 *D CKND2D0
*I *290:A2 I *C 7.1 17.4 *L 0.000671 *D AOI21D0

*CAP
1 *303:ZN 1.90709998e-05

*RES
1 *303:ZN *290:A2 0.25793
*END

*D_NET *129 0.000378573

*CONN
*I *302:ZN O *C 5.7 11.4 *L 0 *D CKND2D0
*I *297:A2 I *C 6.5 11.8 *L 0.000671 *D AOI21D0

*CAP
1 *302:ZN 4.90279e-05
2 *297:A2 7.1053e-05
3 *129:2 0.000258491016

*RES
1 *297:A2 *129:2 5.28060007
2 *302:ZN *129:2 4.49998
*END

*D_NET *130 7.633e-05

*CONN
*I *301:ZN O *C 8.1 39.4 *L 0 *D CKND2D0
*I *273:A2 I *C 7.3 39 *L 0.000671 *D AOI21D0

*CAP
1 *273:A2 7.633e-05

*RES
1 *273:A2 *301:ZN 1.00163
*END

*D_NET *131 0.000651733

*CONN
*I *300:ZN O *C 8.7 51 *L 0 *D CKND2D0
*I *265:A2 I *C 6.9 51.4 *L 0.000671 *D AOI21D0

*CAP
1 *300:ZN 9.86917e-05
2 *265:A2 0.000158565
3 *131:2 0.000394471992

*RES
1 *300:ZN *131:2 5.63070011
2 *265:A2 *131:2 3.74515
*END

*D_NET *132 0.000435873

*CONN
*I *298:ZN O *C 11.3 6.8 *L 0 *D NR2D0
*I *291:D I *C 12.3 8.2 *L 0.000792 *D DFNCND1

*CAP
1 *298:ZN 0.000435873008

*RES
1 *298:ZN *291:D 5.59079
*END

*D_NET *133 0.00050998

*CONN
*I *176:I I *C 8.5 11.8 *L 0.000643 *D CKBD0
*I *297:ZN O *C 7.1 11.4 *L 0 *D AOI21D0

*CAP
1 *133:2 0.000509980039

*RES
1 *176:I *133:2 7.99620008
2 *297:ZN *133:2 3.00004
*END

*D_NET *134 0.00179288

*CONN
*I *307:ZN O *C 5.7 15 *L 0 *D CKND2D0
*I *299:A1 I *C 6.7 21 *L 0.000647 *D NR2D0
*I *296:B I *C 7.5 15.4 *L 0.000726 *D OAI211D0
*I *295:A1 I *C 8.5 21 *L 0.00069 *D AOI21D0

*CAP
1 *295:A1 0.000167577
2 *134:4 0.00109745
3 *134:5 0.000491964
4 *134:6 3.58867e-05

*RES
1 *296:B *134:4 5.48995
2 *299:A1 *134:5 3.00001
3 *134:4 *134:6 6.77046
4 *295:A1 *134:5 7.04792023
5 *307:ZN *134:4 5.63266
6 *134:5 *134:6 1.50001
*END

*D_NET *135 0.000305898

*CONN
*I *296:ZN O *C 6.9 16 *L 0 *D OAI211D0
*I *290:A1 I *C 7.5 17.4 *L 0.00069 *D AOI21D0

*CAP
1 *296:ZN 0.000305898008

*RES
1 *296:ZN *290:A1 5.96081
*END

*D_NET *136 0.000142141

*CONN
*I *315:I1 I *C 10.3 21.2 *L 0.001 *D MUX2ND0
*I *295:ZN O *C 8.7 21.4 *L 0 *D AOI21D0

*CAP
1 *295:ZN 0.000142140996

*RES
1 *295:ZN *315:I1 1.48652
*END

*D_NET *137 0.00334235

*CONN
*I *299:ZN O *C 6.7 21.2 *L 0 *D NR2D0
*I *295:B I *C 8.7 21 *L 0.00072 *D AOI21D0
*I *294:A1 I *C 8.1 32 *L 0.000617 *D CKND2D0
*I *287:A2 I *C 6.1 31.8 *L 0.00065 *D OAI211D0

*CAP
1 *299:ZN 0.000409232
2 *295:B 0.000541784
3 *137:4 0.000303328
4 *137:5 0.000193276
5 *137:6 0.000472404
6 *137:7 0.000516035
7 *137:8 0.000906292969

*RES
1 *137:4 *137:5 2.14777
2 *295:B *137:8 8.69509983
3 *137:6 *137:7 5.49971
4 *137:5 *137:8 5.37553
5 *137:4 *137:6 2.86476
6 *299:ZN *137:8 8.56946
7 *287:A2 *137:7 1.50004
8 *294:A1 *137:6 2.99995
*END

*D_NET *138 0.00905059

*CONN
*I *187:I I *C 5.9 82.2 *L 0.00105 *D DEL1
*I *292:ZN O *C 8.1 11.6 *L 0 *D NR2D1

*CAP
1 *138:2 0.0025915
2 *138:3 0.00191376
3 *138:4 6.65126e-05
4 *138:6 0.000350041
5 *138:7 0.000138522
6 *138:9 7.65963e-05
7 *138:10 0.000645077
8 *138:11 0.000196177
9 *138:2 *195:I 0.000376147969
10 *138:2 *9:3 0.00190637
11 *138:2 *155:4 0.000454001992
12 *138:3 *276:CPN 0.000335885

*RES
1 *138:9 *138:10 16.3318
2 *138:7 *138:9 0.256737
3 *138:6 *138:8 4.81729
4 *138:3 *138:11 6.70802
5 *138:8 *138:10 0.256737
6 *138:5 *138:6 0.451996
7 *138:4 *138:2 24.8416
8 *187:I *138:4 3.42187
9 *138:3 *138:5 25.3395996
10 *138:2 *138:7 7.42255
11 *292:ZN *138:11 1.49982
*END

*D_NET *139 0.000526126

*CONN
*I *177:I I *C 7.3 21 *L 0.000643 *D CKBD0
*I *290:ZN O *C 7.7 17.8 *L 0 *D AOI21D0

*CAP
1 *177:I 9.40658e-05
2 *290:ZN 0.000432058008

*RES
1 *177:I *290:ZN 9.32186
*END

*D_NET *140 0.0053174

*CONN
*I *213:I I *C 6.7 58.6 *L 0.00105 *D DEL1
*I *294:ZN O *C 7.9 32.2 *L 0 *D CKND2D0

*CAP
1 *213:I 8.99273e-05
2 *294:ZN 0.000135369
3 *140:2 0.00111828992
4 *140:3 0.00019296
5 *140:4 4.34108e-05
6 *140:2 *74:2 0.00226214
7 *213:I *2:2 0.00107253
8 *140:3 *37:2 0.000402786992

*RES
1 *140:4 *140:2 4.55358
2 *294:ZN *140:4 3.19491
3 *140:3 *140:2 37.618
4 *213:I *140:3 5.86633
*END

*D_NET *141 0.000359999

*CONN
*I *287:ZN O *C 6.1 31.2 *L 0 *D OAI211D0
*I *281:A1 I *C 6.5 29.8 *L 0.00069 *D AOI21D0

*CAP
1 *287:ZN 0.000116199
2 *281:A1 0.0002438

*RES
1 *287:ZN *281:A1 7.9483
*END

*D_NET *142 0.000582451

*CONN
*I *314:I1 I *C 10.7 32 *L 0.001 *D MUX2ND0
*I *285:ZN O *C 8.3 33 *L 0 *D AOI21D0

*CAP
1 *314:I1 0.000242079
2 *142:2 0.00034037

*RES
1 *314:I1 *142:2 2.57881
2 *285:ZN *142:2 4.22669983
*END

*D_NET *143 0.00484244

*CONN
*I *211:I I *C 6.5 64.2 *L 0.00105 *D DEL1
*I *289:ZN O *C 6.5 33.2 *L 0 *D NR2D0

*CAP
1 *289:ZN 0.000229709
2 *143:2 0.000435821
3 *143:3 0.00215088016
4 *143:4 0.000528046
5 *143:6 0.00048305
6 *143:7 0.00062503
7 *143:8 2.88819e-06
8 *143:9 0.00038705

*RES
1 *143:5 *143:6 0.256935
2 *143:2 *143:3 20.7882996
3 *289:ZN *143:7 6.0973
4 *143:6 *143:8 4.248
5 *143:5 *143:7 4.071
6 *143:4 *143:9 3.48925
7 *143:8 *143:9 0.256935
8 *143:3 *143:4 6.2946
9 *211:I *143:2 3.00012
*END

*D_NET *144 0.0101596

*CONN
*I *188:I I *C 6.9 80.2 *L 0.00105 *D DEL1
*I *283:ZN O *C 8.1 22.4 *L 0 *D NR2XD0

*CAP
1 *188:I 0.000108323
2 *283:ZN 0.000190124
3 *144:2 5.52348e-05
4 *144:3 0.00293102
5 *144:4 0.000799182
6 *144:5 0.000969493
7 *144:6 0.000130104
8 *144:7 0.000228319
9 *144:8 0.000583297
10 *144:9 0.000105013
11 *144:10 0.000338251
12 *144:11 0.000101167
13 *144:12 0.000188424
14 *144:13 0.000163871
15 *144:14 0.000258642
16 *188:I *2:2 0.000902611953
17 *144:3 *145:3 0.00113429
18 *188:I *155:3 0.000405497031
19 *188:I *74:2 0.000566762969

*RES
1 *144:4 *144:6 8.46209
2 *144:2 *144:3 24.1432991
3 *144:8 *144:14 3.38005
4 *144:4 *144:9 4.28152
5 *188:I *144:7 4.49998
6 *144:13 *144:14 2.55852
7 *144:10 *144:11 5.29498
8 *283:ZN *144:5 4.72765
9 *144:5 *144:13 9.49618
10 *144:9 *144:11 2.53236
11 *144:10 *144:12 4.64991
12 *144:2 *144:7 3.257
13 *144:8 *144:12 9.13442
14 *144:3 *144:6 3.257
*END

*D_NET *145 0.00592888

*CONN
*I *210:I I *C 10.3 62.2 *L 0.00105 *D DEL1
*I *281:ZN O *C 6.7 29.4 *L 0 *D AOI21D0

*CAP
1 *145:2 0.000614819
2 *145:3 7.00107e-05
3 *145:4 0.000502632
4 *145:5 9.88836e-05
5 *145:6 0.000618766016
6 *145:7 0.000285953
7 *145:8 1.00649e-05
8 *145:10 0.000151871
9 *145:11 0.00024999
10 *145:12 0.000338317
11 *145:13 0.000250896
12 *145:2 *36:4 0.0013409
13 *145:3 *144:3 0.00113429
14 *145:4 *2:2 0.0002615

*RES
1 *145:5 *145:6 7.25608
2 *145:6 *145:8 0.452142
3 *145:9 *145:11 5.02881
4 *145:9 *145:10 0.256774
5 *145:7 *145:10 4.40776
6 *145:12 *145:13 2.73449
7 *145:3 *145:4 5.01367
8 *145:7 *145:8 10.9060001
9 *145:2 *145:13 5.58596
10 *145:4 *145:5 3.46936
11 *145:11 *145:12 3.42576
12 *281:ZN *145:2 3.5108
13 *210:I *145:3 3.00008
*END

*D_NET *146 0.00231439

*CONN
*I *284:ZN O *C 6.3 35.8 *L 0 *D CKND2D0
*I *282:A1 I *C 6.5 47.8 *L 0.000647 *D NR2D0
*I *280:B I *C 6.9 37 *L 0.000726 *D OAI211D0
*I *277:A1 I *C 8.1 47.8 *L 0.00069 *D AOI21D0

*CAP
1 *284:ZN 0.000223507
2 *282:A1 0.0001056
3 *146:4 7.04783e-05
4 *146:5 7.24699e-05
5 *146:6 0.000451748
6 *146:7 0.000118165
7 *146:8 0.000733258047
8 *146:9 0.000539166

*RES
1 *146:8 *146:9 1.60214
2 *277:A1 *146:5 4.50004
3 *146:7 *146:8 8.35902977
4 *146:6 *146:7 3.51052
5 *282:A1 *146:6 2.99994
6 *146:5 *146:6 1.56158
7 *146:4 *146:9 3.93666
8 *284:ZN *146:9 6.03879
9 *280:B *146:4 2.99994
*END

*D_NET *147 0.000367783

*CONN
*I *280:ZN O *C 6.3 37.6 *L 0 *D OAI211D0
*I *273:A1 I *C 6.9 39 *L 0.00069 *D AOI21D0

*CAP
1 *280:ZN 0.00031726
2 *273:A1 5.05215e-05

*RES
1 *280:ZN *273:A1 6.40688
*END

*D_NET *148 0.00131297

*CONN
*I *282:ZN O *C 6.5 47.6 *L 0 *D NR2D0
*I *278:A1 I *C 8.9 50 *L 0.000617 *D CKND2D0
*I *277:B I *C 8.3 47.8 *L 0.00072 *D AOI21D0
*I *270:A2 I *C 7.1 49.8 *L 0.00065 *D OAI211D0

*CAP
1 *282:ZN 6.33303e-05
2 *278:A1 0.000242561
3 *277:B 0.0001818
4 *270:A2 9.60278e-05
5 *148:4 0.00044073
6 *148:5 0.000288514

*RES
1 *278:A1 *148:5 6.50032997
2 *282:ZN *148:4 1.92651
3 *148:4 *148:5 3.28716
4 *277:B *148:5 5.49973
5 *270:A2 *148:4 3.47423
*END

*D_NET *149 0.00100004

*CONN
*I *313:I1 I *C 7.7 44 *L 0.001 *D MUX2ND0
*I *277:ZN O *C 8.3 47.4 *L 0 *D AOI21D0

*CAP
1 *313:I1 0.000102388
2 *149:3 0.000897656016

*RES
1 *313:I1 *149:3 3.06745
2 *149:2 *149:3 7.28417015
3 *277:ZN *149:2 2.99999
*END

*D_NET *150 0.00460196

*CONN
*I *180:I I *C 13.3 55 *L 0.00072 *D BUFFD1
*I *275:ZN O *C 11.3 33.2 *L 0 *D NR2D0

*CAP
1 *180:I 0.000365761
2 *275:ZN 0.000351215
3 *150:2 0.000783024
4 *150:3 0.000616072
5 *150:4 0.000889519
6 *150:5 4.52033e-05
7 *150:6 0.00140398
8 *150:7 0.000147178

*RES
1 *150:5 *150:6 6.69849
2 *180:I *150:2 3.18477
3 *150:6 *150:7 6.13496
4 *150:4 *150:5 5.98817
5 *150:3 *150:4 4.0404
6 *150:2 *150:7 9.73676968
7 *275:ZN *150:3 3.88811
*END

*D_NET *151 0.000591281

*CONN
*I *274:ZN O *C 11.3 50.2 *L 0 *D CKND2D0
*I *266:A2 I *C 11.9 47.8 *L 0.0007 *D AOI32D0

*CAP
1 *274:ZN 0.000299932988
2 *266:A2 0.000291347

*RES
1 *274:ZN *266:A2 8.01403
*END

*D_NET *152 0.00391562

*CONN
*I *207:I I *C 9.9 64.2 *L 0.00105 *D DEL1
*I *273:ZN O *C 6.7 39.4 *L 0 *D AOI21D0

*CAP
1 *273:ZN 9.61064e-05
2 *152:2 0.000550746
3 *152:3 0.000508809
4 *152:4 0.00040244
5 *152:6 0.000325631
6 *152:7 0.00118412008
7 *152:8 0.000132569
8 *152:9 0.000715206

*RES
1 *152:8 *152:9 5.98963
2 *152:6 *152:7 11.6618004
3 *152:5 *152:7 0.256775
4 *273:ZN *152:2 1.23049
5 *152:3 *152:9 5.58961
6 *152:3 *152:4 2.9441
7 *152:2 *152:5 6.34819
8 *152:4 *152:6 2.92826
9 *207:I *152:8 2.99997
*END

*D_NET *153 0.00114215

*CONN
*I *278:ZN O *C 9.1 50.2 *L 0 *D CKND2D0
*I *274:A1 I *C 11.5 50 *L 0.000617 *D CKND2D0
*I *272:A1 I *C 10.1 50 *L 0.000633 *D OR2D0
*I *270:B I *C 7.7 49.8 *L 0.000726 *D OAI211D0

*CAP
1 *278:ZN 3.47918e-05
2 *274:A1 0.000127668
3 *272:A1 9.51326e-05
4 *270:B 0.000338391016
5 *153:4 0.000282718
6 *153:5 0.000263443

*RES
1 *274:A1 *153:4 7.68170977
2 *270:B *153:5 6.18325
3 *153:4 *153:5 1.20167
4 *278:ZN *153:5 2.99996
5 *278:ZN *272:A1 1.29205
*END

*D_NET *154 0.000918658

*CONN
*I *270:ZN O *C 7.1 49.2 *L 0 *D OAI211D0
*I *265:A1 I *C 7.3 51.4 *L 0.00069 *D AOI21D0

*CAP
1 *270:ZN 0.000181002
2 *154:2 0.000472627031
3 *154:3 0.000265027

*RES
1 *154:2 *154:3 6.47811985
2 *265:A1 *154:3 4.71338
3 *270:ZN *154:2 4.92116
*END

*D_NET *155 0.00695318

*CONN
*I *181:I I *C 6.9 85.8 *L 0.00103 *D DEL2
*I *268:ZN O *C 6.5 44 *L 0 *D NR2D0

*CAP
1 *268:ZN 2.8467e-05
2 *155:2 0.00113087
3 *155:3 0.00231462
4 *155:4 0.00114709
5 *155:5 9.62438e-05
6 *155:6 0.000477475
7 *155:7 0.000256344
8 *155:2 *50:14 0.000337576992
9 *155:3 *188:I 0.000405497031
10 *155:3 *51:2 0.000304995
11 *155:4 *138:2 0.000454001992

*RES
1 *155:3 *155:6 4.8212
2 *155:2 *155:5 12.3981
3 *181:I *155:7 5.8663
4 *268:ZN *155:2 0.983273
5 *155:4 *155:5 0.452215
6 *155:4 *155:6 15.1833
7 *155:3 *155:7 22.7621994
*END

*D_NET *156 0.00160547

*CONN
*I *272:Z O *C 11.1 50 *L 0 *D OR2D0
*I *267:B1 I *C 14.3 49.8 *L 0.000689 *D MOAI22D0
*I *267:A1 I *C 15.3 49.8 *L 0.000721 *D MOAI22D0
*I *266:A1 I *C 11.5 47.8 *L 0.000719 *D AOI32D0

*CAP
1 *272:Z 0.000258738
2 *267:A1 0.000314507
3 *266:A1 0.000240009
4 *156:4 0.000344261
5 *156:5 0.000447952969

*RES
1 *266:A1 *156:5 4.00684
2 *272:Z *156:5 3.64571
3 *156:4 *156:5 3.1776
4 *267:A1 *156:4 6.84011984
5 *267:B1 *156:4 5.16589
*END

*D_NET *157 0.000630202

*CONN
*I *312:I1 I *C 14.1 50 *L 0.001 *D MUX2ND0
*I *267:ZN O *C 15.1 49.2 *L 0 *D MOAI22D0

*CAP
1 *267:ZN 0.000135303
2 *157:2 0.000494896992

*RES
1 *312:I1 *157:2 3.25685
2 *267:ZN *157:2 6.16098022
*END

*D_NET *158 0.000484396

*CONN
*I *266:ZN O *C 12.3 48.4 *L 0 *D AOI32D0
*I *262:A1 I *C 14.3 47.8 *L 0.000647 *D NR2D0

*CAP
1 *266:ZN 0.000349426016
2 *262:A1 0.000134972

*RES
1 *266:ZN *262:A1 5.83082
*END

*D_NET *159 0.00247274

*CONN
*I *206:I I *C 6.9 67.8 *L 0.00105 *D DEL1
*I *265:ZN O *C 7.5 51 *L 0 *D AOI21D0

*CAP
1 *206:I 1.45737e-05
2 *265:ZN 0.000333379
3 *159:2 0.00172398
4 *159:3 0.000400802

*RES
1 *159:2 *159:3 12.4428997
2 *206:I *159:3 5.84571
3 *265:ZN *159:2 3.67747
*END

*D_NET *160 0.0060605

*CONN
*I *182:I I *C 10.7 83.8 *L 0.00103 *D DEL2
*I *262:ZN O *C 14.3 47.6 *L 0 *D NR2D0

*CAP
1 *182:I 6.30991e-05
2 *262:ZN 6.67086e-06
3 *160:2 0.000824948
4 *160:3 4.19899e-05
5 *160:4 0.00299435
6 *160:5 0.000582924
7 *160:6 8.64928e-05
8 *160:7 0.000281547
9 *160:8 0.000272683
10 *160:4 *35:2 0.000461551992
11 *160:2 *51:3 0.000444263008

*RES
1 *160:4 *160:6 5.02673
2 *160:2 *160:3 10.3022
3 *182:I *160:4 22.1779995
4 *262:ZN *160:2 0.491709
5 *160:7 *160:8 3.70964
6 *160:3 *160:5 2.47851
7 *160:6 *160:8 5.44975
8 *160:5 *160:7 6.16413
*END

*D_NET *161 0.00553481

*CONN
*I *185:I I *C 12.7 80.2 *L 0.00105 *D DEL1
*I *260:ZN O *C 13.5 51.2 *L 0 *D NR2D0

*CAP
1 *185:I 6.25451e-05
2 *260:ZN 2.25438e-05
3 *161:2 0.0012531
4 *161:3 0.00104153
5 *161:4 0.000953492
6 *161:5 0.00112266
7 *161:6 0.000827235
8 *161:2 *32:2 0.000251711016

*RES
1 *161:3 *161:2 11.213
2 *185:I *161:5 10.1614
3 *260:ZN *161:6 1.99161
4 *161:6 *161:2 6.47916
5 *161:3 *161:4 14.0587997
6 *161:4 *161:5 3.34995
*END

*D_NET *162 0.000289708

*CONN
*I *312:ZN O *C 13.5 50 *L 0 *D MUX2ND0
*I *260:A1 I *C 13.5 51.4 *L 0.000647 *D NR2D0

*CAP
1 *260:A1 0.000289707988

*RES
1 *312:ZN *260:A1 4.55285
*END

*D_NET *163 0.000562384

*CONN
*I *313:ZN O *C 8.3 44 *L 0 *D MUX2ND0
*I *268:A1 I *C 6.5 44.2 *L 0.000647 *D NR2D0

*CAP
1 *313:ZN 7.03484e-05
2 *268:A1 0.000435343008
3 *163:2 5.66906e-05

*RES
1 *313:ZN *163:2 3.00002
2 *268:A1 *163:2 5.45335007
*END

*D_NET *164 0.000291795

*CONN
*I *314:ZN O *C 11.3 32 *L 0 *D MUX2ND0
*I *275:A1 I *C 11.3 33.4 *L 0.000647 *D NR2D0

*CAP
1 *275:A1 0.00029179498

*RES
1 *314:ZN *275:A1 4.36935
*END

*D_NET *165 0.000931505

*CONN
*I *315:ZN O *C 10.9 21.2 *L 0 *D MUX2ND0
*I *283:A1 I *C 8.1 22.6 *L 0.000774 *D NR2XD0

*CAP
1 *315:ZN 9.68804e-05
2 *165:2 0.000474696016
3 *165:3 0.000359932

*RES
1 *165:2 *165:3 4.03697
2 *315:ZN *165:3 5.1592598
3 *283:A1 *165:2 1.50001
*END

*D_NET *166 0.00160212

*CONN
*I *316:ZN O *C 13.1 6.8 *L 0 *D MUX2ND0
*I *292:A1 I *C 8.1 11.8 *L 0.00093 *D NR2D1

*CAP
1 *316:ZN 0.000717281016
2 *292:A1 0.000517042
3 *166:2 0.000367796

*RES
1 *316:ZN *166:2 7.81057
2 *292:A1 *166:2 8.8885498
*END

*D_NET *167 0.000780251

*CONN
*I *317:ZN O *C 14.1 6.8 *L 0 *D XNR2D0
*I *298:A1 I *C 11.3 6.6 *L 0.000647 *D NR2D0

*CAP
1 *167:2 0.000556604023
2 *167:3 0.000223644

*RES
1 *167:2 *167:3 6.12419987
2 *298:A1 *167:2 4.17095
3 *317:ZN *167:3 1.50003
*END

