*SPEF "IEEE 1481-1998"
*DESIGN "bus_slave_c"
*DATE "Thu Apr  2 21:18:56 2026"
*VENDOR "Cadence Design Systems, Inc."
*PROGRAM "Innovus"
*VERSION "21.16-s078_1"
*DESIGN_FLOW "COUPLING C" "PIN_CAP NONE" "NAME_SCOPE LOCAL"
*DIVIDER /
*DELIMITER :
*BUS_DELIMITER []
*T_UNIT 1 NS
*C_UNIT 1 PF
*R_UNIT 1 OHM
*L_UNIT 1 HENRY

// MMMC spef file for corner 'RC_TYP'

*NAME_MAP

*1 FE_PDN36_n_58
*2 FE_PDN35_n_65
*3 FE_PHN80_BUS_RST_N
*4 FE_PHN79_FE_OFN12_debug_cnt_c_7
*5 FE_PHN78_n_78
*6 FE_PHN77_n_84
*7 FE_PHN76_n_89
*8 FE_PHN75_n_72
*9 FE_PHN74_n_65
*10 FE_PHN73_n_92
*11 FE_PHN72_n_58
*12 FE_PHN71_n_64
*13 FE_PHN70_n_71
*14 FE_PHN69_n_78
*15 FE_PHN68_BUS_RST_N
*16 FE_PHN67_FE_OFN32_debug_cnt_c_0
*17 FE_PHN66_CHC_START
*18 FE_PHN65_n_35
*19 FE_PHN64_FE_OFN6_debug_cnt_c_9
*20 FE_PHN63_CHC_RD
*21 FE_PHN62_FE_OFN12_debug_cnt_c_7
*22 FE_PHN61_n_20
*23 FE_PHN60_BUS_RST_N
*24 FE_PHN59_BUS_RST_N
*25 FE_PHN58_BUS_RST_N
*26 FE_PHN57_BUS_RST_N
*27 FE_PHN56_BUS_RST_N
*28 FE_PHN55_BUS_RST_N
*29 FE_PHN54_n_92
*30 FE_PHN53_n_89
*31 FE_PHN52_n_88
*32 FE_PHN51_n_80
*33 FE_PHN50_n_84
*34 FE_PHN49_n_78
*35 FE_PHN48_n_72
*36 FE_PHN47_n_70
*37 FE_PHN46_n_71
*38 FE_PHN45_n_67
*39 FE_PHN44_n_64
*40 FE_PHN43_BUS_RST_N
*41 FE_PHN42_CHC_RD
*42 FE_PHN41_FE_OFN24_debug_cnt_c_3
*43 FE_PHN40_FE_OFN32_debug_cnt_c_0
*44 FE_PHN39_FE_OFN30_debug_cnt_c_1
*45 FE_PHN38_n_35
*46 FE_PHN37_n_0
*47 FE_PHN36_n_6
*48 FE_PHN35_CHC_START
*49 CTS_2
*50 CTS_1
*51 FE_OFN32_debug_cnt_c_0
*52 FE_OFN30_debug_cnt_c_1
*53 FE_OFN28_debug_cnt_c_2
*54 FE_OFN27_debug_cnt_c_2
*55 FE_OFN25_debug_cnt_c_3
*56 FE_OFN24_debug_cnt_c_3
*57 FE_OFN22_debug_cnt_c_4
*58 FE_OFN21_debug_cnt_c_4
*59 FE_OFN19_debug_cnt_c_5
*60 FE_OFN18_debug_cnt_c_5
*61 FE_OFN16_debug_cnt_c_6
*62 FE_OFN15_debug_cnt_c_6
*63 FE_OFN13_debug_cnt_c_7
*64 FE_OFN12_debug_cnt_c_7
*65 FE_OFN10_debug_cnt_c_8
*66 FE_OFN9_debug_cnt_c_8
*67 FE_OFN7_debug_cnt_c_9
*68 FE_OFN6_debug_cnt_c_9
*69 FE_OFN4_debug_cnt_c_10
*70 FE_OFN3_debug_cnt_c_10
*71 FE_OFN1_debug_cnt_c_11
*72 BUS_CLK
*73 BUS_RST_N
*74 CHC_START
*75 CHC_RD
*76 CHC_RDATA[7]
*77 CHC_RDATA[6]
*78 CHC_RDATA[5]
*79 CHC_RDATA[4]
*80 CHC_RDATA[3]
*81 CHC_RDATA[2]
*82 CHC_RDATA[1]
*83 CHC_RDATA[0]
*84 sram_c_re
*85 sram_c_addr[11]
*86 sram_c_addr[10]
*87 sram_c_addr[9]
*88 sram_c_addr[8]
*89 sram_c_addr[7]
*90 sram_c_addr[6]
*91 sram_c_addr[5]
*92 sram_c_addr[4]
*93 sram_c_addr[3]
*94 sram_c_addr[2]
*95 sram_c_addr[1]
*96 sram_c_addr[0]
*97 debug_cnt_c[11]
*98 debug_cnt_c[10]
*99 debug_cnt_c[9]
*100 debug_cnt_c[8]
*101 debug_cnt_c[7]
*102 debug_cnt_c[6]
*103 debug_cnt_c[5]
*104 debug_cnt_c[4]
*105 debug_cnt_c[3]
*106 debug_cnt_c[2]
*107 debug_cnt_c[1]
*108 debug_cnt_c[0]
*109 UNCONNECTED
*110 UNCONNECTED0
*111 UNCONNECTED1
*112 UNCONNECTED2
*113 UNCONNECTED3
*114 UNCONNECTED4
*115 UNCONNECTED5
*116 UNCONNECTED6
*117 n_0
*118 n_3
*119 n_6
*120 n_18
*121 n_20
*122 n_35
*123 n_47
*124 n_48
*125 n_49
*126 n_50
*127 n_51
*128 n_52
*129 n_53
*130 n_54
*131 n_55
*132 n_57
*133 n_58
*134 n_60
*135 n_61
*136 n_62
*137 n_63
*138 n_64
*139 n_65
*140 n_67
*141 n_68
*142 n_69
*143 n_70
*144 n_71
*145 n_72
*146 n_74
*147 n_75
*148 n_76
*149 n_77
*150 n_78
*151 n_79
*152 n_80
*153 n_81
*154 n_82
*155 n_84
*156 n_85
*157 n_86
*158 n_87
*159 n_88
*160 n_89
*161 n_92
*162 n_106
*163 n_107
*164 n_108
*165 n_109
*166 n_110
*167 n_111
*168 sram_c_dout[7]
*169 sram_c_dout[6]
*170 sram_c_dout[5]
*171 sram_c_dout[4]
*172 sram_c_dout[3]
*173 sram_c_dout[2]
*174 sram_c_dout[1]
*175 sram_c_dout[0]
*176 FE_PDC36_n_58
*177 FE_PDC35_n_65
*178 FE_PHC80_BUS_RST_N
*179 FE_PHC79_FE_OFN12_debug_cnt_c_7
*180 FE_PHC78_n_78
*181 FE_PHC77_n_84
*182 FE_PHC76_n_89
*183 FE_PHC75_n_72
*184 FE_PHC74_n_65
*185 FE_PHC73_n_92
*186 FE_PHC72_n_58
*187 FE_PHC71_n_64
*188 FE_PHC70_n_71
*189 FE_PHC69_n_78
*190 FE_PHC68_BUS_RST_N
*191 FE_PHC67_FE_OFN32_debug_cnt_c_0
*192 FE_PHC66_CHC_START
*193 FE_PHC65_n_35
*194 FE_PHC64_FE_OFN6_debug_cnt_c_9
*195 FE_PHC63_CHC_RD
*196 FE_PHC62_FE_OFN12_debug_cnt_c_7
*197 FE_PHC61_n_20
*198 FE_PHC60_BUS_RST_N
*199 FE_PHC59_BUS_RST_N
*200 FE_PHC58_BUS_RST_N
*201 FE_PHC57_BUS_RST_N
*202 FE_PHC56_BUS_RST_N
*203 FE_PHC55_BUS_RST_N
*204 FE_PHC54_n_92
*205 FE_PHC53_n_89
*206 FE_PHC52_n_88
*207 FE_PHC51_n_80
*208 FE_PHC50_n_84
*209 FE_PHC49_n_78
*210 FE_PHC48_n_72
*211 FE_PHC47_n_70
*212 FE_PHC46_n_71
*213 FE_PHC45_n_67
*214 FE_PHC44_n_64
*215 FE_PHC43_BUS_RST_N
*216 FE_PHC42_CHC_RD
*217 FE_PHC41_FE_OFN24_debug_cnt_c_3
*218 FE_PHC40_FE_OFN32_debug_cnt_c_0
*219 FE_PHC39_FE_OFN30_debug_cnt_c_1
*220 FE_PHC38_n_35
*221 FE_PHC37_n_0
*222 FE_PHC36_n_6
*223 FE_PHC35_CHC_START
*224 CTS_ccl_a_inv_00001
*225 CTS_cmf_inv_00047
*226 FE_OFC34_debug_cnt_c_1
*227 FE_OFC33_debug_cnt_c_0
*228 FE_OFC32_debug_cnt_c_0
*229 FE_OFC30_debug_cnt_c_1
*230 FE_OFC29_debug_cnt_c_2
*231 FE_OFC28_debug_cnt_c_2
*232 FE_OFC27_debug_cnt_c_2
*233 FE_OFC26_debug_cnt_c_3
*234 FE_OFC25_debug_cnt_c_3
*235 FE_OFC24_debug_cnt_c_3
*236 FE_OFC23_debug_cnt_c_4
*237 FE_OFC22_debug_cnt_c_4
*238 FE_OFC21_debug_cnt_c_4
*239 FE_OFC20_debug_cnt_c_5
*240 FE_OFC19_debug_cnt_c_5
*241 FE_OFC18_debug_cnt_c_5
*242 FE_OFC17_debug_cnt_c_6
*243 FE_OFC16_debug_cnt_c_6
*244 FE_OFC15_debug_cnt_c_6
*245 FE_OFC14_debug_cnt_c_7
*246 FE_OFC13_debug_cnt_c_7
*247 FE_OFC12_debug_cnt_c_7
*248 FE_OFC11_debug_cnt_c_8
*249 FE_OFC10_debug_cnt_c_8
*250 FE_OFC9_debug_cnt_c_8
*251 FE_OFC8_debug_cnt_c_9
*252 FE_OFC7_debug_cnt_c_9
*253 FE_OFC6_debug_cnt_c_9
*254 FE_OFC5_debug_cnt_c_10
*255 FE_OFC4_debug_cnt_c_10
*256 FE_OFC3_debug_cnt_c_10
*257 FE_OFC2_debug_cnt_c_11
*258 FE_OFC1_debug_cnt_c_11
*259 cnt_c_reg\[11\]
*260 p95792A__2398
*261 cnt_c_reg\[10\]
*262 p95821A__6260
*263 cnt_c_reg\[9\]
*264 cnt_c_reg\[8\]
*265 p95850A__4319
*266 p95810A__8428
*267 p95771A__5526
*268 p95879A__6783
*269 cnt_c_reg\[7\]
*270 p95856A306__1617
*271 cnt_c_reg\[6\]
*272 p95752A__2802
*273 p95906A__1705
*274 p95856A__5122
*275 p95934A__8246
*276 cnt_c_reg\[5\]
*277 p95858A__7098
*278 p95742A__6131
*279 cnt_c_reg\[4\]
*280 p95912A__1881
*281 p95962A__7482
*282 p95716A__4733
*283 p95991A__6161
*284 p95705A__9315
*285 p95914A__9945
*286 cnt_c_reg\[3\]
*287 p95969A__2883
*288 cnt_c_reg\[2\]
*289 p95679A__1666
*290 p96017A__7410
*291 cnt_c_reg\[0\]
*292 p96050A__6417
*293 cnt_c_reg\[1\]
*294 p95668A__5477
*295 p95971A__2398
*296 p96026A__5107
*297 p96073A__4319
*298 p96118A__8428
*299 p95642A__5526
*300 p96142A317__3680
*301 p96142A316__1617
*302 p96142A315__2802
*303 p96142A318__1705
*304 p96082A__5122
*305 p96028A__8246
*306 p96142A__7098
*307 p95632A__6131
*308 p95604A__1881
*309 p23609A
*310 p95591A__5115
*311 chc_rd_s_reg
*312 g2
*313 g367
*314 g368
*315 g369
*316 g370
*317 g371


*PORTS

*72 I *C 5 648
*73 I *C 8 648
*74 I *C 0 5
*75 I *C 0 6
*76 O *C 21.6 25
*77 O *C 21.6 24
*78 O *C 21.6 23
*79 O *C 21.6 22
*80 O *C 21.6 21
*81 O *C 21.6 20
*82 O *C 21.6 19
*83 O *C 21.6 18
*84 O *C 21.6 5
*85 O *C 21.6 17
*86 O *C 21.6 16
*87 O *C 21.6 15
*88 O *C 21.6 14
*89 O *C 21.6 13
*90 O *C 21.6 12
*91 O *C 21.6 11
*92 O *C 21.6 10
*93 O *C 21.6 9
*94 O *C 21.6 8
*95 O *C 21.6 7
*96 O *C 21.6 6
*168 I *C 0 14
*169 I *C 0 13
*170 I *C 0 12
*171 I *C 0 11
*172 I *C 0 10
*173 I *C 0 9
*174 I *C 0 8
*175 I *C 0 7
*97 O *C 21.6 37
*98 O *C 21.6 36
*99 O *C 21.6 35
*100 O *C 21.6 34
*101 O *C 21.6 33
*102 O *C 21.6 32
*103 O *C 21.6 31
*104 O *C 21.6 30
*105 O *C 21.6 29
*106 O *C 21.6 28
*107 O *C 21.6 27
*108 O *C 21.6 26


*D_NET *1 0.0137217

*CONN
*I *186:I I *C 6.7 78.6 *L 0.00105 *D DEL1
*I *176:Z O *C 9.1 11.4 *L 0 *D CKBD0

*CAP
1 *186:I 2.59836e-05
2 *1:2 0.00158004
3 *1:3 0.00335204
4 *1:4 3.73898e-05
5 *1:5 0.000122706
6 *1:6 0.000128384
7 *1:7 0.00239412
8 *1:8 0.000162551
9 *1:9 9.46254e-06
10 *1:6 *37:2 0.00186011
11 *1:2 *52:3 0.00279091
12 *1:3 *2:2 0.000527720977
13 *1:3 *143:3 0.000730305

*RES
1 *1:7 *1:8 0.356483
2 *1:6 *1:7 30.6191998
3 *1:2 *1:9 13.6337
4 *1:4 *1:3 26.818
5 *186:I *1:4 0.40554
6 *1:8 *1:9 3.30599
7 *1:5 *1:2 1.28764
8 *176:Z *1:5 0.948907
9 *1:3 *1:6 3.00698
*END

*D_NET *2 0.0131142

*CONN
*I *184:I I *C 6.9 83.8 *L 0.00105 *D DEL1
*I *177:Z O *C 7.9 21.4 *L 0 *D CKBD0

*CAP
1 *184:I 7.18049e-05
2 *2:2 0.00380415
3 *2:3 0.000325067
4 *2:4 4.22006e-05
5 *2:5 3.08233e-05
6 *2:6 0.000131652
7 *2:7 5.74671e-06
8 *2:8 0.00122689
9 *2:2 *1:3 0.000527720977
10 *2:3 *48:13 0.000503970977
11 *2:2 *213:I 0.00128481992
12 *2:3 *279:D 0.00213236
13 *2:2 *145:4 0.000301135996
14 *2:2 *74:2 0.00163865
15 *2:2 *188:I 0.00108716

*RES
1 *2:5 *2:8 13.3692
2 *2:4 *2:6 17.8209
3 *2:2 *2:5 1.35197
4 *177:Z *2:3 1.70069
5 *2:6 *2:7 0.200322
6 *2:3 *2:7 14.5544
7 *184:I *2:2 26.7924004
8 *2:4 *2:8 1.46398
*END

*D_NET *3 0.0066644

*CONN
*I *178:Z O *C 8.5 213 *L 0 *D BUFFD1
*I *190:I I *C 7.9 132.6 *L 0.00104 *D DEL0

*CAP
1 *190:I 4.8229e-05
2 *3:2 0.00568469
3 *3:4 1.90834e-06
4 *3:2 *50:34 0.00092958

*RES
1 *190:I *3:2 1.49956
2 *3:3 *3:4 1.21985
3 *178:Z *3:3 1.49956
4 *3:2 *3:4 63.649601
*END

*D_NET *4 0.00539584

*CONN
*I *179:Z O *C 8.3 36.6 *L 0 *D BUFFD1
*I *196:I I *C 5.9 71.4 *L 0.00105 *D DEL1

*CAP
1 *196:I 0.000237338
2 *179:Z 0.000226083
3 *4:2 2.7389e-07
4 *4:3 0.00163176
5 *4:2 *11:4 0.00163548
6 *4:2 *17:2 0.00166489

*RES
1 *4:2 *4:3 27.9521008
2 *179:Z *4:3 6.67155
3 *196:I *4:2 2.32493
*END

*D_NET *5 0.00544818

*CONN
*I *180:Z O *C 13.9 54.6 *L 0 *D BUFFD1
*I *189:I I *C 12.7 78.6 *L 0.00105 *D DEL1

*CAP
1 *189:I 1.04696e-05
2 *180:Z 0.000587668
3 *5:2 0.000130788
4 *5:3 0.00359228
5 *189:I *161:2 0.00112695

*RES
1 *5:2 *5:3 25.5384007
2 *189:I *5:2 2.35915
3 *180:Z *5:3 5.24282
*END

*D_NET *6 0.00389174

*CONN
*I *181:Z O *C 12.1 86.2 *L 0 *D DEL2
*I *208:I I *C 6.9 65.8 *L 0.00105 *D DEL1

*CAP
1 *208:I 2.94937e-06
2 *6:2 0.00140713
3 *6:3 0.00184083
4 *6:4 0.000640829

*RES
1 *6:2 *6:4 4.97168
2 *208:I *6:3 0.95948
3 *6:3 *6:4 11.1430998
4 *181:Z *6:2 10.1323
*END

*D_NET *7 0.00255996

*CONN
*I *182:Z O *C 15.9 83.4 *L 0 *D DEL2
*I *205:I I *C 12.7 65.8 *L 0.00105 *D DEL1

*CAP
1 *182:Z 6.92524e-05
2 *7:2 3.19823e-05
3 *7:3 0.00167409
4 *7:4 7.39272e-05
5 *7:5 0.000710687

*RES
1 *7:4 *7:5 4.22817
2 *7:2 *7:3 14.5335999
3 *182:Z *7:2 1.15673
4 *7:3 *7:4 0.200032
5 *205:I *7:5 2.25003
*END

*D_NET *8 0.0035726

*CONN
*I *183:I I *C 12.7 82.2 *L 0.00105 *D DEL1
*I *210:Z O *C 13.5 61.8 *L 0 *D DEL1

*CAP
1 *210:Z 6.63553e-06
2 *183:I 1.52291e-06
3 *8:2 0.00356442

*RES
1 *210:Z *8:2 0.407301
2 *183:I *8:2 22.1334
*END

*D_NET *9 0.00989666

*CONN
*I *184:Z O *C 10.1 83.4 *L 0 *D DEL1
*I *286:D I *C 6.9 19 *L 0.000792 *D DFNCND1

*CAP
1 *286:D 0.000216423
2 *9:2 0.000614455
3 *9:3 0.00212039
4 *9:4 0.000651728
5 *9:5 0.000257838
6 *9:6 0.000602193
7 *9:7 0.000203255
8 *9:8 0.000249328
9 *9:9 6.42572e-05
10 *9:2 *11:2 0.00237856
11 *9:3 *138:2 0.00220321016
12 *9:3 *75:4 0.000334993008

*RES
1 *9:3 *9:7 43.145401
2 *184:Z *9:5 2.18176
3 *286:D *9:8 4.10018
4 *9:5 *9:2 3.719
5 *9:4 *9:7 5.44058
6 *9:6 *9:9 1.53197
7 *9:2 *9:6 2.61364
8 *9:4 *9:9 4.03369
9 *9:3 *9:8 0.749857
*END

*D_NET *10 0.00211397

*CONN
*I *185:Z O *C 15.9 79.8 *L 0 *D DEL1
*I *204:I I *C 12.7 67.8 *L 0.00105 *D DEL1

*CAP
1 *185:Z 1.006e-06
2 *10:2 5.27208e-05
3 *10:3 0.00206026

*RES
1 *10:2 *10:3 10.3739004
2 *185:Z *10:2 0.25691
3 *204:I *10:3 6.07466
*END

*D_NET *11 0.00874383

*CONN
*I *186:Z O *C 9.9 79 *L 0 *D DEL1
*I *293:D I *C 6.7 10.2 *L 0.000792 *D DFNCND1

*CAP
1 *186:Z 4.31063e-05
2 *11:2 0.000198713
3 *11:3 0.000106149
4 *11:4 0.00385399
5 *11:4 *4:2 0.00163548
6 *11:2 *9:2 0.00237856
7 *11:4 *17:2 0.000527896992

*RES
1 *11:2 *11:4 5.90943
2 *11:3 *11:4 57.9847984
3 *186:Z *11:2 1.36079
4 *293:D *11:3 0.750292
*END

*D_NET *12 0.00460433

*CONN
*I *187:Z O *C 9.1 82.6 *L 0 *D DEL1
*I *214:I I *C 5.9 60.6 *L 0.00105 *D DEL1

*CAP
1 *214:I 8.26968e-05
2 *187:Z 7.95462e-05
3 *12:2 4.58652e-05
4 *12:3 0.00182722
5 *12:4 2.89969e-06
6 *12:5 0.000785006
7 *12:6 0.000926449
8 *12:7 0.000854626

*RES
1 *12:2 *12:3 11.0472002
2 *12:6 *12:7 5.86343
3 *12:4 *12:5 3.68673
4 *12:3 *12:4 0.200089
5 *187:Z *12:2 0.814852
6 *214:I *12:6 1.54087
7 *12:5 *12:7 5.10067
*END

*D_NET *13 0.00462784

*CONN
*I *188:Z O *C 10.1 79.8 *L 0 *D DEL1
*I *212:I I *C 6.9 62.2 *L 0.00105 *D DEL1

*CAP
1 *212:I 8.50423e-05
2 *188:Z 0.000131406
3 *13:2 0.000414459
4 *13:3 0.000913643
5 *13:4 0.000776039
6 *13:5 0.00207260984
7 *13:6 5.93304e-05
8 *13:7 0.000175303

*RES
1 *13:5 *13:7 12.8374996
2 *13:4 *13:5 3.64639
3 *13:2 *13:6 3.02857
4 *188:Z *13:6 1.50008
5 *13:2 *13:3 4.4076
6 *13:3 *13:7 1.55239
7 *212:I *13:4 1.6421
*END

*D_NET *14 0.00259414

*CONN
*I *189:Z O *C 15.9 79 *L 0 *D DEL1
*I *209:I I *C 12.7 60.6 *L 0.00105 *D DEL1

*CAP
1 *189:Z 5.06218e-05
2 *14:2 3.0602e-05
3 *14:3 0.00182984
4 *14:4 0.000683073

*RES
1 *14:2 *14:3 14.2947998
2 *209:I *14:4 6.17153
3 *189:Z *14:2 0.779348
4 *14:3 *14:4 0.200235
*END

*D_NET *15 0.0098585

*CONN
*I *190:Z O *C 10.3 133 *L 0 *D DEL0
*I *198:I I *C 9.3 73 *L 0.00105 *D DEL1
*I *202:I I *C 9.3 71.4 *L 0.00105 *D DEL1
*I *203:I I *C 9.3 69.4 *L 0.00105 *D DEL1
*I *215:I I *C 9.3 60.6 *L 0.00105 *D DEL1
*I *200:I I *C 5.9 69.4 *L 0.00105 *D DEL1
*I *201:I I *C 12.7 69.4 *L 0.00105 *D DEL1
*I *199:I I *C 12.7 71.4 *L 0.00105 *D DEL1

*CAP
1 *199:I 0.000114631
2 *201:I 5.25997e-05
3 *215:I 0.000428235
4 *190:Z 6.76282e-05
5 *15:8 0.00125741
6 *15:9 0.000250807
7 *15:10 6.91617e-05
8 *15:11 6.82416e-05
9 *15:12 0.00024935
10 *15:13 0.000701202
11 *15:14 0.00502496
12 *15:15 0.000425935
13 *15:16 0.00035363
14 *15:18 6.68615e-05
15 *15:19 6.87017e-05
16 *15:13 *50:16 0.000659157969

*RES
1 *201:I *15:16 2.25029
2 *15:17 *15:19 2.62737
3 *15:14 *15:19 46.8919983
4 *15:9 *15:12 1.35161
5 *15:15 *15:16 3.02019
6 *15:11 *15:12 1.38524
7 *15:8 *15:9 6.75446
8 *199:I *15:18 2.25029
9 *190:Z *15:17 1.49972
10 *15:16 *15:18 3.06384
11 *215:I *15:8 3.87165
12 *15:13 *15:15 3.60405
13 *15:9 *15:10 0.578852
14 *15:11 *15:14 1.92974
15 *200:I *15:13 1.49972
16 *202:I *15:12 1.49972
17 *198:I *15:11 1.49972
18 *203:I *15:10 1.49972
19 *15:10 *15:15 0.74986
*END

*D_NET *16 0.00411656

*CONN
*I *191:Z O *C 9.7 76.2 *L 0 *D DEL1
*I *218:I I *C 6.5 55 *L 0.00105 *D DEL1

*CAP
1 *191:Z 0.000121021
2 *16:2 0.000418979
3 *16:3 0.000683026
4 *16:4 0.00127494
5 *16:6 0.00161859

*RES
1 *16:2 *16:4 7.72557
2 *16:2 *16:5 2.64848
3 *191:Z *16:5 1.50004
4 *16:4 *16:6 9.2541399
5 *16:3 *16:6 5.48702
6 *218:I *16:3 1.50004
*END

*D_NET *17 0.00696751

*CONN
*I *192:Z O *C 10.3 75.4 *L 0 *D DEL1
*I *223:I I *C 8.3 17.4 *L 0.00105 *D DEL1

*CAP
1 *223:I 0.00014781
2 *192:Z 5.15377e-05
3 *17:2 0.00337752
4 *17:3 0.000190019
5 *17:4 8.4161e-05
6 *17:5 0.000349168
7 *17:6 0.000574542
8 *17:2 *4:2 0.00166489
9 *17:2 *11:4 0.000527896992

*RES
1 *17:3 *17:5 6.49165
2 *192:Z *17:3 1.8906
3 *17:2 *17:5 45.3026009
4 *17:4 *17:6 4.81326
5 *223:I *17:4 1.97839
6 *17:2 *17:6 0.75002
*END

*D_NET *18 0.00315673

*CONN
*I *193:Z O *C 15.9 72.6 *L 0 *D DEL1
*I *220:I I *C 9.5 51.4 *L 0.00105 *D DEL1

*CAP
1 *193:Z 0.000159864
2 *18:2 0.000203092
3 *18:3 0.00279379

*RES
1 *18:2 *18:3 17.1678009
2 *193:Z *18:2 1.54032
3 *220:I *18:3 9.29591
*END

*D_NET *19 0.0040404

*CONN
*I *194:I I *C 10.1 76.6 *L 0.00103 *D DEL2
*I *263:Q O *C 10.1 53.8 *L 0 *D DFNCND1

*CAP
1 *263:Q 0.000399272
2 *194:I 5.2298e-05
3 *19:2 0.00358885

*RES
1 *194:I *19:2 2.25005
2 *263:Q *19:2 23.8414001
*END

*D_NET *20 0.00418321

*CONN
*I *195:Z O *C 9.1 72.6 *L 0 *D DEL1
*I *216:I I *C 6.7 57 *L 0.00105 *D DEL1

*CAP
1 *216:I 6.24561e-05
2 *20:2 0.000239389
3 *20:3 0.00345406
4 *20:4 0.000427284

*RES
1 *20:3 *20:4 19.3120003
2 *20:2 *20:4 3.09529
3 *216:I *20:3 1.34727
4 *195:Z *20:2 0.749955
*END

*D_NET *21 0.00820725

*CONN
*I *196:Z O *C 9.1 71.8 *L 0 *D DEL1
*I *301:A1 I *C 8.3 39.2 *L 0.000617 *D CKND2D0
*I *247:I I *C 8.5 37 *L 0.00104 *D INVD1
*I *280:A1 I *C 6.7 37 *L 0.000711 *D OAI211D0
*I *284:A2 I *C 6.9 35.4 *L 0.000606 *D CKND2D0

*CAP
1 *284:A2 0.000401415
2 *21:5 0.000322844
3 *21:6 0.00072302
4 *21:8 0.000264521
5 *21:9 5.7792e-05
6 *21:10 0.000215288
7 *21:11 0.000395453
8 *21:12 0.00193432
9 *284:A2 *38:5 0.000368835
10 *21:12 *216:Z 0.000899868047
11 *21:6 *45:9 0.000518517031
12 *21:5 *28:5 0.00210537

*RES
1 *280:A1 *21:11 3.2965
2 *196:Z *21:5 1.96892
3 *21:10 *21:12 1.77746
4 *21:9 *21:11 1.21885
5 *21:8 *21:9 1.84876
6 *21:7 *21:8 3.93192
7 *21:6 *21:10 5.18899
8 *21:6 *21:7 0.200122
9 *284:A2 *21:11 4.50511
10 *21:5 *21:12 25.8173008
11 *247:I *21:9 0.750063
12 *301:A1 *21:8 0.750063
*END

*D_NET *22 0.00537249

*CONN
*I *197:I I *C 10.5 75 *L 0.00105 *D DEL1
*I *264:QN O *C 10.5 46.6 *L 0 *D DFNCND1

*CAP
1 *264:QN 0.000137575
2 *197:I 9.03915e-05
3 *22:2 0.000219715
4 *22:3 0.00245801
5 *22:4 4.29078e-05
6 *22:5 0.000493702
7 *22:6 8.57031e-05
8 *264:QN *38:4 0.000396530977
9 *264:QN *45:9 0.0004696
10 *197:I *160:4 0.000978322969

*RES
1 *22:3 *22:4 0.598364
2 *22:2 *22:3 20.9927006
3 *22:4 *22:5 4.99832
4 *197:I *22:6 2.24995
5 *22:2 *22:6 1.06283
6 *264:QN *22:5 1.15957
*END

*D_NET *23 0.00459

*CONN
*I *198:Z O *C 12.5 72.6 *L 0 *D DEL1
*I *263:CDN I *C 9.3 53.4 *L 0.00168 *D DFNCND1

*CAP
1 *263:CDN 0.000662494
2 *23:2 0.000536047
3 *23:3 0.000591162
4 *23:4 0.000682849
5 *23:5 0.00200891
6 *23:6 0.000108546

*RES
1 *23:2 *23:3 3.57538
2 *198:Z *23:2 3.9448
3 *263:CDN *23:5 5.06327
4 *23:5 *23:6 10.1594
5 *23:4 *23:6 0.627677
6 *23:3 *23:4 3.5264
*END

*D_NET *24 0.00466453

*CONN
*I *199:Z O *C 15.9 71.8 *L 0 *D DEL1
*I *261:CDN I *C 12.3 46.2 *L 0.00168 *D DFNCND1

*CAP
1 *261:CDN 0.000625659
2 *24:2 0.000254727
3 *24:3 0.000960442
4 *24:5 0.00106139008
5 *24:6 0.000560098
6 *24:7 0.000394983
7 *24:8 0.000634227
8 *24:9 0.000173019

*RES
1 *24:6 *24:8 4.16163
2 *261:CDN *24:2 4.83524
3 *24:6 *24:7 2.34561
4 *24:4 *24:5 6.37295008
5 *24:3 *24:9 4.07946
6 *24:3 *24:4 2.57345
7 *24:2 *24:8 3.03448
8 *24:5 *24:7 0.200127
9 *199:Z *24:9 0.750039
*END

*D_NET *25 0.00424312

*CONN
*I *200:Z O *C 9.1 69 *L 0 *D DEL1
*I *264:CDN I *C 9.3 46.2 *L 0.00168 *D DFNCND1

*CAP
1 *264:CDN 0.000836243
2 *25:3 0.000904325
3 *25:4 0.00178611
4 *25:5 0.000716461

*RES
1 *200:Z *25:4 10.5150003
2 *25:3 *25:5 6.66654
3 *25:3 *25:4 0.200076
4 *264:CDN *25:2 4.94992
5 *25:2 *25:5 2.18865
*END

*D_NET *26 0.0034773

*CONN
*I *201:Z O *C 15.9 69 *L 0 *D DEL1
*I *259:CDN I *C 12.3 53.4 *L 0.00168 *D DFNCND1

*CAP
1 *201:Z 0.000423533
2 *26:2 0.000293931
3 *26:3 1.78419e-06
4 *26:4 0.000215868
5 *26:5 0.000514766
6 *26:6 4.27285e-05
7 *26:7 0.000779248
8 *26:8 0.00120543

*RES
1 *26:6 *26:7 3.99108
2 *26:4 *26:7 1.42923
3 *26:2 *26:3 1.87643
4 *259:CDN *26:8 4.34806
5 *201:Z *26:2 2.77519
6 *26:5 *26:6 0.356497
7 *26:3 *26:5 3.39982
8 *26:4 *26:8 4.5172801
*END

*D_NET *27 0.00527913

*CONN
*I *202:Z O *C 12.5 71.8 *L 0 *D DEL1
*I *271:CDN I *C 9.3 35.4 *L 0.00168 *D DFNCND1

*CAP
1 *271:CDN 0.00012416
2 *202:Z 0.000149867
3 *27:2 0.00083515
4 *27:3 0.000452987
5 *27:4 5.27107e-05
6 *27:5 0.000827899
7 *27:6 0.000584114
8 *27:7 0.000212544
9 *27:8 0.000977751016
10 *27:2 *40:8 0.00050013
11 *27:2 *43:2 0.000561838984

*RES
1 *27:2 *27:5 3.80147
2 *27:7 *27:8 12.0017996
3 *27:4 *27:6 5.57621
4 *271:CDN *27:3 0.969506
5 *27:6 *27:7 0.200164
6 *27:5 *27:8 7.19657
7 *27:2 *27:3 6.08166
8 *202:Z *27:4 1.8566
*END

*D_NET *28 0.0054999

*CONN
*I *203:Z O *C 12.5 69 *L 0 *D DEL1
*I *269:CDN I *C 9.3 40.6 *L 0.00168 *D DFNCND1

*CAP
1 *269:CDN 9.91075e-05
2 *28:2 0.000200628
3 *28:3 0.000329057
4 *28:4 0.000827916953
5 *28:5 0.000768465
6 *28:7 0.000186946
7 *28:5 *21:5 0.00210537
8 *269:CDN *41:2 0.000295795
9 *269:CDN *52:2 0.000686617031

*RES
1 *28:5 *28:7 1.78533
2 *28:3 *28:5 12.7784
3 *269:CDN *28:4 1.50008
4 *28:4 *28:6 14.3579998
5 *28:6 *28:7 0.200244
6 *28:2 *28:3 1.89816
7 *203:Z *28:2 2.25987
*END

*D_NET *29 0.00250688

*CONN
*I *204:Z O *C 15.9 68.2 *L 0 *D DEL1
*I *259:D I *C 14.7 53.4 *L 0.000792 *D DFNCND1

*CAP
1 *259:D 0.000554997
2 *29:2 0.000412135
3 *29:3 1.89197e-06
4 *29:4 0.000361274
5 *29:5 0.000568788
6 *29:6 0.000607796016

*RES
1 *29:3 *29:6 3.18802
2 *29:3 *29:5 0.356498
3 *29:4 *29:5 3.40327001
4 *204:Z *29:2 2.82913
5 *259:D *29:6 3.15307
6 *29:2 *29:4 1.877
*END

*D_NET *30 0.00349363

*CONN
*I *205:Z O *C 15.9 65.4 *L 0 *D DEL1
*I *261:D I *C 14.7 46.2 *L 0.000792 *D DFNCND1

*CAP
1 *261:D 0.00110242
2 *30:2 0.000405592
3 *30:3 0.000543749
4 *30:4 0.000257946
5 *30:5 0.000862557
6 *30:6 0.000321381

*RES
1 *30:4 *30:5 4.40874
2 *205:Z *30:6 1.49995
3 *30:2 *30:5 2.70205
4 *261:D *30:3 6.71729994
5 *30:4 *30:6 3.11737
6 *30:2 *30:3 2.6631
*END

*D_NET *31 0.0034257

*CONN
*I *206:Z O *C 10.1 68.2 *L 0 *D DEL1
*I *263:D I *C 6.9 53.4 *L 0.000792 *D DFNCND1

*CAP
1 *263:D 0.000168962
2 *206:Z 0.000249922
3 *31:2 0.000551619
4 *31:3 0.0024552

*RES
1 *206:Z *31:2 4.84147
2 *31:2 *31:3 12.7390003
3 *263:D *31:3 3.29322
*END

*D_NET *32 0.00522835

*CONN
*I *207:Z O *C 13.1 64.6 *L 0 *D DEL1
*I *269:D I *C 6.9 40.6 *L 0.000792 *D DFNCND1

*CAP
1 *269:D 8.35346e-05
2 *32:2 0.000250868
3 *32:3 0.00144216
4 *32:4 0.000524732
5 *32:5 0.00090286
6 *32:7 0.00104024
7 *32:8 0.000677233
8 *32:2 *161:3 0.000306708984

*RES
1 *269:D *32:5 0.950498
2 *32:6 *32:7 6.91588
3 *32:5 *32:8 5.32783
4 *32:4 *32:8 4.17702
5 *32:2 *32:7 1.23266
6 *32:2 *32:3 8.30335999
7 *32:3 *32:4 2.99036
8 *207:Z *32:6 0.750059
*END

*D_NET *33 0.00407008

*CONN
*I *208:Z O *C 10.1 65.4 *L 0 *D DEL1
*I *264:D I *C 6.9 46.2 *L 0.000792 *D DFNCND1

*CAP
1 *264:D 6.7597e-05
2 *33:2 0.000508159
3 *33:3 0.000198484
4 *33:4 0.000932568
5 *33:5 0.00227644984
6 *33:6 8.6841e-05

*RES
1 *33:3 *33:5 2.31296
2 *33:3 *33:4 5.97967
3 *33:2 *33:6 1.84458
4 *33:2 *33:5 12.1567001
5 *208:Z *33:6 1.49992
6 *264:D *33:4 0.950113
*END

*D_NET *34 0.00334418

*CONN
*I *209:Z O *C 15.9 61 *L 0 *D DEL1
*I *271:D I *C 11.7 35.4 *L 0.000792 *D DFNCND1

*CAP
1 *271:D 0.000697033
2 *209:Z 3.6867e-06
3 *34:2 0.000318914
4 *34:3 0.000227374
5 *34:4 0.00178969
6 *34:5 0.000307498

*RES
1 *34:2 *34:3 3.27388
2 *209:Z *34:2 0.395977
3 *34:3 *34:4 1.88035
4 *34:4 *34:5 15.8332996
5 *271:D *34:5 6.22716
*END

*D_NET *35 0.00718573

*CONN
*I *183:Z O *C 15.9 82.6 *L 0 *D DEL1
*I *276:D I *C 6.7 28.2 *L 0.000792 *D DFNCND1

*CAP
1 *35:2 0.000162762
2 *35:3 0.000146345
3 *35:4 0.00081606
4 *35:5 0.00104288
5 *35:6 0.00144417
6 *35:8 0.000300117
7 *35:9 0.000564115
8 *35:11 1.05776e-05
9 *35:12 0.0012365
10 *35:8 *217:Z 0.000396708984
11 *35:6 *44:3 0.000531961016
12 *35:2 *160:4 0.000533525

*RES
1 *35:9 *35:10 0.200202
2 *35:7 *35:9 4.64704
3 *35:4 *35:2 2.0008
4 *35:11 *35:12 0.200202
5 *35:7 *35:8 0.200202
6 *35:6 *35:10 16.0592995
7 *35:3 *35:4 4.98202
8 *183:Z *35:3 1.55383
9 *35:8 *35:11 3.74233
10 *35:2 *35:12 13.9311
11 *35:5 *35:6 6.22023
12 *276:D *35:5 0.750084
*END

*D_NET *36 0.00591762

*CONN
*I *211:Z O *C 9.7 64.6 *L 0 *D DEL1
*I *285:B I *C 8.3 33.4 *L 0.00072 *D AOI21D0
*I *280:A2 I *C 6.3 37 *L 0.00065 *D OAI211D0
*I *284:A1 I *C 6.5 35.6 *L 0.000617 *D CKND2D0

*CAP
1 *36:4 0.000591188
2 *36:5 0.000137144
3 *36:6 0.000109992
4 *36:7 0.00031086
5 *36:8 0.000257184
6 *36:9 0.000226025
7 *36:10 0.00121047
8 *36:11 8.71627e-05
9 *36:4 *50:15 0.000644070977
10 *36:4 *289:ZN 0.000789362031
11 *36:4 *145:2 0.00155416

*RES
1 *36:10 *36:11 1.96258
2 *36:8 *36:10 17.5279007
3 *36:6 *36:8 3.09525
4 *36:5 *36:7 1.79997
5 *36:9 *36:11 4.05541
6 *36:7 *36:9 2.97784
7 *36:4 *36:5 1.08105
8 *285:B *36:4 5.03189
9 *280:A2 *36:7 0.749943
10 *211:Z *36:6 0.749943
11 *284:A1 *36:5 1.49989
*END

*D_NET *37 0.00730092

*CONN
*I *212:Z O *C 10.1 61.8 *L 0 *D DEL1
*I *279:D I *C 6.9 24.6 *L 0.000792 *D DFNCND1

*CAP
1 *279:D 0.000438308
2 *212:Z 0.000207451
3 *37:2 0.000753745938
4 *37:3 0.000228959
5 *37:4 0.000215008
6 *37:5 0.000176535
7 *37:6 9.11488e-05
8 *37:7 0.000746477
9 *37:8 1.48368e-06
10 *37:2 *140:3 0.000449333984
11 *279:D *2:3 0.00213236
12 *37:2 *1:6 0.00186011

*RES
1 *37:2 *37:6 1.13671
2 *37:5 *37:2 8.89481
3 *37:4 *37:8 8.51791
4 *37:3 *37:5 2.80499
5 *37:7 *37:8 0.200123
6 *37:6 *37:7 16.4557991
7 *212:Z *37:3 3.26424
8 *279:D *37:4 3.10731
*END

*D_NET *38 0.00579724

*CONN
*I *213:Z O *C 9.9 58.2 *L 0 *D DEL1
*I *289:A1 I *C 6.5 33.4 *L 0.000647 *D NR2D0
*I *285:A1 I *C 8.1 33.4 *L 0.00069 *D AOI21D0
*I *287:B I *C 6.7 31.8 *L 0.000726 *D OAI211D0

*CAP
1 *287:B 0.000268536
2 *38:4 0.000488721
3 *38:5 0.000921387031
4 *38:6 0.00022938
5 *38:7 0.000100736
6 *38:8 0.000600508
7 *38:9 0.000263179
8 *38:10 0.00079294
9 *38:11 9.84163e-07
10 *38:12 4.44279e-06
11 *38:13 0.000604993
12 *38:14 9.8585e-05
13 *38:15 0.000318461
14 *38:4 *264:QN 0.000396530977
15 *38:5 *284:A2 0.000368835
16 *38:4 *300:A2 0.000339015

*RES
1 *38:4 *38:9 3.42045
2 *38:11 *38:5 0.357707
3 *38:10 *38:12 2.54994
4 *38:6 *38:8 0.200116
5 *38:9 *38:10 4.10842
6 *287:B *38:15 2.91548
7 *38:12 *38:5 5.28821993
8 *38:13 *38:15 2.7503
9 *38:6 *38:4 2.76523
10 *38:7 *38:8 3.58248
11 *38:7 *38:14 1.96904
12 *38:11 *38:13 4.16547
13 *289:A1 *38:15 0.750031
14 *213:Z *38:14 0.750031
15 *285:A1 *38:13 1.49998
*END

*D_NET *39 0.00709202

*CONN
*I *214:Z O *C 9.1 61 *L 0 *D DEL1
*I *288:D I *C 6.9 13.8 *L 0.000792 *D DFNCND1

*CAP
1 *39:2 0.000565729
2 *39:3 0.00038124
3 *39:4 0.00179784
4 *39:5 0.000833725
5 *39:6 0.000319982
6 *39:7 5.99692e-05
7 *39:8 0.000322423
8 *39:6 *122:3 0.00210050016
9 *39:4 *43:2 0.000710614063

*RES
1 *39:6 *39:8 3.75019
2 *39:3 *39:6 4.29502
3 *214:Z *39:3 2.90716
4 *39:5 *39:7 8.1777
5 *39:2 *39:4 3.87597
6 *39:7 *39:8 0.199982
7 *39:4 *39:5 23.1555004
8 *288:D *39:2 0.750109
*END

*D_NET *40 0.0105276

*CONN
*I *215:Z O *C 12.5 61 *L 0 *D DEL1
*I *311:CDN I *C 9.1 6.6 *L 0.00168 *D DFNCND1
*I *291:CDN I *C 14.7 8.2 *L 0.00168 *D DFNCND1
*I *293:CDN I *C 9.1 10.2 *L 0.00168 *D DFNCND1
*I *288:CDN I *C 9.3 13.8 *L 0.00168 *D DFNCND1
*I *286:CDN I *C 9.3 19 *L 0.00168 *D DFNCND1
*I *279:CDN I *C 9.3 24.6 *L 0.00168 *D DFNCND1
*I *276:CDN I *C 9.1 28.2 *L 0.00168 *D DFNCND1

*CAP
1 *276:CDN 3.42475e-05
2 *311:CDN 0.000151853
3 *215:Z 8.20352e-05
4 *40:8 0.00157613
5 *40:9 0.000192185
6 *40:10 2.23667e-06
7 *40:11 0.000250771
8 *40:12 0.000533193
9 *40:13 0.000190261
10 *40:14 0.000354861
11 *40:15 0.00118623
12 *40:16 0.000151709
13 *40:17 0.00024726
14 *40:18 0.000275471
15 *40:19 4.65371e-05
16 *40:20 0.000405847
17 *40:21 0.000307362
18 *40:22 0.000365371
19 *40:23 0.000392451
20 *40:14 *304:A1 0.000892759063
21 *40:8 *27:2 0.00050013
22 *276:CDN *119:4 0.00147748
23 *40:9 *56:2 0.000911305

*RES
1 *40:8 *40:22 15.5847998
2 *40:8 *40:21 0.49083
3 *215:Z *40:10 0.950032
4 *40:10 *40:22 3.59894
5 *40:12 *40:19 3.11311
6 *40:14 *40:19 3.58111
7 *311:CDN *40:15 1.53147
8 *40:11 *40:13 6.68304
9 *276:CDN *40:13 1.93883
10 *40:9 *40:21 4.1302
11 *40:12 *40:18 2.37306
12 *40:20 *40:23 2.7212
13 *40:15 *40:20 2.24964
14 *40:17 *40:23 3.81083
15 *40:15 *40:16 6.35082
16 *40:14 *40:17 1.59591
17 *40:9 *40:11 2.80729
18 *40:13 *40:18 3.20966
19 *293:CDN *40:20 0.750037
20 *286:CDN *40:19 0.750037
21 *279:CDN *40:18 0.750037
22 *288:CDN *40:17 1.50007
23 *291:CDN *40:16 1.50007
*END

*D_NET *41 0.00755242

*CONN
*I *216:Z O *C 9.9 57.4 *L 0 *D DEL1
*I *311:D I *C 6.7 6.6 *L 0.000792 *D DFNCND1

*CAP
1 *216:Z 0.000105636
2 *41:2 4.10828e-05
3 *41:3 0.000551329
4 *41:4 0.00235552
5 *41:5 2.65978e-06
6 *41:6 0.000445261
7 *41:7 0.000459854
8 *41:8 0.000313422
9 *41:2 *269:CDN 0.000295795
10 *216:Z *56:7 0.000971257969
11 *41:2 *52:2 0.000553005977
12 *216:Z *21:12 0.000899868047
13 *41:3 *122:5 0.000557765

*RES
1 *41:3 *41:6 5.28372
2 *41:7 *41:8 2.39111
3 *41:6 *41:8 3.12738
4 *41:5 *41:7 3.24975
5 *41:4 *41:5 0.2003
6 *41:2 *41:4 32.7352982
7 *216:Z *41:2 1.5
8 *311:D *41:3 0.749751
*END

*D_NET *42 0.00668286

*CONN
*I *217:Z O *C 13.3 58.2 *L 0 *D DEL1
*I *235:I I *C 11.1 19 *L 0.00104 *D INVD1

*CAP
1 *217:Z 0.00023473
2 *42:2 0.000302995
3 *42:3 0.000625934
4 *42:4 0.000477529
5 *42:5 0.000857042031
6 *42:7 0.000628994
7 *42:9 2.78553e-06
8 *42:10 0.000650939
9 *42:11 0.000394526
10 *42:12 0.000606279
11 *42:13 0.00082831
12 *42:14 4.00175e-05
13 *42:15 0.000210733
14 *217:Z *35:8 0.000396708984
15 *42:2 *44:7 0.000425357031

*RES
1 *42:13 *42:14 6.45535994
2 *42:4 *42:11 2.67007
3 *42:2 *42:4 1.87556
4 *42:3 *42:8 3.24856
5 *42:8 *42:10 0.200055
6 *42:6 *42:7 3.09283
7 *42:7 *42:9 0.200055
8 *42:14 *42:15 1.87891
9 *42:11 *42:12 2.23302
10 *42:9 *42:10 3.81947
11 *42:5 *42:13 1.81508
12 *235:I *42:12 4.27356
13 *217:Z *42:15 3.98958
14 *42:2 *42:3 0.200055
15 *42:5 *42:6 5.48256
*END

*D_NET *43 0.00686608

*CONN
*I *218:Z O *C 9.7 54.6 *L 0 *D DEL1
*I *228:I I *C 7.3 8.2 *L 0.00382 *D BUFFD12

*CAP
1 *228:I 0.000212662
2 *218:Z 0.000472711
3 *43:2 0.00317539
4 *43:3 0.000374351
5 *43:4 0.00018892
6 *43:5 0.000569714
7 *43:6 0.00035652
8 *43:2 *27:2 0.000561838984
9 *43:2 *39:4 0.000710614063
10 *43:2 *44:4 0.000243315

*RES
1 *43:4 *43:5 5.42783
2 *218:Z *43:4 3.35739
3 *228:I *43:3 1.15092
4 *43:5 *43:6 1.63989
5 *43:3 *43:2 3.87582
6 *43:2 *43:6 30.6362991
*END

*D_NET *44 0.00613708

*CONN
*I *219:Z O *C 13.1 54.6 *L 0 *D DEL1
*I *229:I I *C 8.3 15 *L 0.00373 *D CKBD12
*I *304:A1 I *C 9.7 11.8 *L 0.000711 *D OAI211D0

*CAP
1 *304:A1 0.0004641
2 *44:3 0.000251477
3 *44:4 0.000396002
4 *44:5 0.000339644
5 *44:6 0.000369734
6 *44:7 0.00178942
7 *44:9 0.000433273
8 *44:7 *42:2 0.000425357031
9 *44:4 *43:2 0.000243315
10 *44:3 *35:6 0.000531961016
11 *304:A1 *40:14 0.000892759063

*RES
1 *44:8 *44:9 0.200021
2 *304:A1 *44:5 4.2755
3 *44:7 *44:8 23.8771992
4 *44:3 *44:9 6.04435
5 *44:4 *44:7 3.40692
6 *44:4 *44:5 2.91943
7 *44:5 *44:6 2.59408
8 *219:Z *44:3 1.65628
9 *229:I *44:6 0.75017
*END

*D_NET *45 0.00872039

*CONN
*I *220:Z O *C 12.7 51 *L 0 *D DEL1
*I *309:I I *C 8.9 26.2 *L 0.0113 *D INVD12
*I *300:A2 I *C 9.3 51.4 *L 0.000606 *D CKND2D0
*I *266:B2 I *C 11.1 47.8 *L 0.000674 *D AOI32D0
*I *301:A2 I *C 8.7 39 *L 0.000606 *D CKND2D0
*I *306:A2 I *C 8.1 29.8 *L 0.000606 *D CKND2D0
*I *303:A2 I *C 6.3 17.4 *L 0.000606 *D CKND2D0
*I *302:A2 I *C 6.3 11.8 *L 0.000606 *D CKND2D0

*CAP
1 *302:A2 0.000846814
2 *306:A2 2.51539e-05
3 *266:B2 0.000165289
4 *300:A2 0.000357701
5 *309:I 5.00581e-06
6 *45:8 0.000422943
7 *45:9 0.000668435
8 *45:10 0.000276387
9 *45:11 0.000655539
10 *45:12 0.000204115
11 *45:13 0.000381801
12 *45:14 0.000908742031
13 *45:15 0.00019036
14 *45:16 0.000203463
15 *45:17 0.000216082
16 *45:18 0.000260316
17 *45:19 9.17963e-06
18 *45:20 0.000422041
19 *45:21 0.000310499
20 *300:A2 *38:4 0.000339015
21 *45:8 *119:3 0.000414491016
22 *45:9 *264:QN 0.0004696
23 *45:9 *21:6 0.000518517031
24 *45:10 *84:21 0.000448906016

*RES
1 *306:A2 *45:16 1.13384
2 *266:B2 *45:18 1.7465
3 *45:15 *45:21 2.7818
4 *45:14 *45:20 2.5227
5 *302:A2 *45:20 6.50333023
6 *300:A2 *45:21 3.38742
7 *45:11 *45:13 4.1404
8 *45:10 *45:12 2.38616
9 *45:12 *45:19 1.40365
10 *45:11 *45:19 4.55698
11 *45:18 *45:21 4.90657
12 *309:I *45:8 0.395146
13 *45:13 *45:16 1.07221
14 *45:8 *45:16 3.40706
15 *45:9 *45:18 1.85129
16 *45:14 *45:17 4.84832
17 *45:8 *45:17 2.66897
18 *45:9 *45:10 5.57699
19 *303:A2 *45:20 0.750003
20 *301:A2 *45:19 0.750003
21 *220:Z *45:15 0.750003
*END

*D_NET *46 0.00519027

*CONN
*I *221:Z O *C 15.5 43.8 *L 0 *D DEL1
*I *299:A2 I *C 6.3 21 *L 0.000664 *D NR2D0
*I *295:A2 I *C 8.1 21 *L 0.000671 *D AOI21D0

*CAP
1 *295:A2 7.7649e-05
2 *299:A2 0.000543364
3 *221:Z 9.17203e-07
4 *46:4 0.00146607
5 *46:5 0.000719199
6 *46:6 0.000424061
7 *46:7 0.000271626
8 *46:8 0.00130985
9 *221:Z *51:8 0.000377518008

*RES
1 *46:5 *46:7 1.51118
2 *46:3 *46:5 4.95774
3 *46:3 *46:4 0.356348
4 *46:7 *46:8 7.27532
5 *46:4 *46:6 9.62639999
6 *221:Z *46:6 3.58596
7 *295:A2 *46:8 1.70051
8 *299:A2 *46:8 3.67071
*END

*D_NET *47 0.00524467

*CONN
*I *222:Z O *C 12.3 39.4 *L 0 *D DEL1
*I *308:A2 I *C 10.9 11.8 *L 0.000996 *D NR2D1
*I *305:A2 I *C 10.9 13.8 *L 0.000671 *D AOI21D0

*CAP
1 *308:A2 0.000246386
2 *47:3 0.000493182
3 *47:4 0.000838583984
4 *47:5 0.000571647
5 *47:6 0.000322062
6 *47:7 0.000436701
7 *47:8 0.000562101
8 *47:9 3.14013e-05
9 *47:10 0.000466516
10 *47:4 *275:A2 0.000197933008
11 *47:3 *107:5 0.000404525977
12 *47:4 *314:S 0.000673623984

*RES
1 *47:9 *47:3 3.93051
2 *47:8 *47:10 2.21353
3 *47:6 *47:7 3.35827
4 *47:5 *47:4 5.86337996
5 *222:Z *47:5 4.40952
6 *47:9 *47:10 0.20014
7 *47:6 *47:8 3.56951
8 *47:4 *47:7 2.9053
9 *308:A2 *47:3 2.43899
10 *305:A2 *47:3 0.750011
*END

*D_NET *48 0.0131971

*CONN
*I *223:Z O *C 11.5 17.8 *L 0 *D DEL1
*I *298:A2 I *C 10.9 6.6 *L 0.000664 *D NR2D0
*I *297:B I *C 7.1 11.8 *L 0.00072 *D AOI21D0
*I *275:A2 I *C 10.9 33.4 *L 0.000664 *D NR2D0
*I *262:A2 I *C 13.9 47.8 *L 0.000664 *D NR2D0
*I *260:A2 I *C 13.1 51.4 *L 0.000664 *D NR2D0
*I *265:B I *C 7.5 51.4 *L 0.00072 *D AOI21D0
*I *268:A2 I *C 6.9 44.2 *L 0.000664 *D NR2D0
*I *273:B I *C 6.7 39 *L 0.00072 *D AOI21D0
*I *281:B I *C 6.7 29.8 *L 0.00072 *D AOI21D0
*I *283:A2 I *C 7.7 22.6 *L 0.000883 *D NR2XD0
*I *290:B I *C 7.7 17.4 *L 0.00072 *D AOI21D0
*I *292:A2 I *C 7.7 11.8 *L 0.000996 *D NR2D1

*CAP
1 *290:B 5.95643e-05
2 *260:A2 1.49015e-05
3 *262:A2 0.000141041
4 *275:A2 4.08118e-06
5 *297:B 5.59017e-05
6 *48:13 0.000244724
7 *48:14 3.5726e-05
8 *48:15 0.000291626
9 *48:16 0.00137159
10 *48:17 0.000761694
11 *48:18 0.000252008
12 *48:19 0.000292966
13 *48:20 0.000575969
14 *48:21 2.84636e-05
15 *48:22 0.000657844
16 *48:23 0.000421575
17 *48:24 0.000609289
18 *48:25 0.000244096
19 *48:26 0.000603973
20 *48:27 7.44658e-05
21 *48:28 0.000680699
22 *48:29 0.000214712
23 *48:30 0.000454329
24 *48:31 0.000653616
25 *48:32 0.000451713
26 *48:33 0.000618414
27 *48:34 0.000409018
28 *48:35 0.000124947
29 *48:36 0.000386854
30 *48:37 3.23564e-05
31 *290:B *74:3 0.00126386
32 *48:13 *2:3 0.000503970977
33 *48:14 *296:C 0.0004632
34 *275:A2 *47:4 0.000197933008

*RES
1 *48:16 *48:29 6.10954
2 *48:21 *48:30 1.19083
3 *48:32 *48:34 0.312652
4 *48:30 *48:33 11.1297998
5 *260:A2 *48:17 1.31752
6 *48:22 *48:24 0.937786
7 *48:15 *48:16 3.26187
8 *48:18 *48:26 2.52278
9 *48:27 *48:34 3.51899
10 *297:B *48:29 2.01483
11 *48:22 *48:35 3.56332
12 *48:19 *48:26 2.48729
13 *262:A2 *48:17 4.07551
14 *48:20 *48:29 1.27235
15 *48:13 *48:23 2.97198
16 *265:B *48:33 2.95092
17 *48:14 *48:20 3.5966
18 *298:A2 *48:15 2.43787
19 *48:28 *48:37 1.50008
20 *48:13 *48:28 2.83883
21 *48:18 *48:35 2.05338
22 *290:B *48:14 2.17668
23 *48:21 *48:24 3.4621
24 *48:17 *48:31 1.35318
25 *48:31 *48:33 3.92912
26 *48:32 *48:37 6.29601
27 *48:23 *48:25 0.915878
28 *275:A2 *48:26 1.13377
29 *48:19 *48:36 3.56332
30 *48:25 *48:36 1.73428
31 *268:A2 *48:30 0.749957
32 *292:A2 *48:29 0.749957
33 *283:A2 *48:28 0.749957
34 *223:Z *48:27 0.749957
35 *281:B *48:25 1.50008
36 *273:B *48:24 1.50008
37 *48:14 *48:34 0.749957
*END

*D_NET *49 0.000301571

*CONN
*I *224:I I *C 7.3 640.4 *L 0.0054 *D CKND6
*I *225:ZN O *C 8.5 640.4 *L 0 *D CKND1

*CAP
1 *225:ZN 4.32119e-05
2 *49:2 0.000258361016

*RES
1 *225:ZN *49:2 1.50001
2 *224:I *49:2 2.43870997
*END

*D_NET *50 0.0553219

*CONN
*I *311:CPN I *C 5.7 6.6 *L 0.000701 *D DFNCND1
*I *224:ZN O *C 6.3 640.6 *L 0 *D CKND6
*I *293:CPN I *C 5.7 10.2 *L 0.000701 *D DFNCND1
*I *291:CPN I *C 11.3 8.2 *L 0.000701 *D DFNCND1
*I *288:CPN I *C 5.9 13.8 *L 0.000701 *D DFNCND1
*I *286:CPN I *C 5.9 19 *L 0.000701 *D DFNCND1
*I *279:CPN I *C 5.9 24.6 *L 0.000701 *D DFNCND1
*I *276:CPN I *C 5.7 28.2 *L 0.000701 *D DFNCND1
*I *271:CPN I *C 12.7 35.4 *L 0.000701 *D DFNCND1
*I *269:CPN I *C 5.9 40.6 *L 0.000701 *D DFNCND1
*I *264:CPN I *C 5.9 46.2 *L 0.000701 *D DFNCND1
*I *263:CPN I *C 5.9 53.4 *L 0.000701 *D DFNCND1
*I *261:CPN I *C 15.7 46.2 *L 0.000701 *D DFNCND1
*I *259:CPN I *C 15.7 53.4 *L 0.000701 *D DFNCND1

*CAP
1 *261:CPN 0.000942522
2 *271:CPN 4.17553e-05
3 *276:CPN 4.49427e-05
4 *291:CPN 7.36296e-05
5 *293:CPN 6.8689e-05
6 *311:CPN 0.000259775
7 *50:14 1.03591e-05
8 *50:15 0.00145968
9 *50:16 0.0104444
10 *50:17 0.000886583
11 *50:18 0.000668563
12 *50:19 0.000417234
13 *50:20 7.13984e-05
14 *50:21 9.08417e-05
15 *50:22 0.000644338
16 *50:23 0.000524491
17 *50:24 0.000374682
18 *50:25 0.000637007
19 *50:26 0.00112739
20 *50:28 0.000160965
21 *50:29 5.78518e-05
22 *50:30 1.75308e-05
23 *50:31 0.00631302
24 *50:32 0.00630122
25 *50:33 0.00636115
26 *50:34 0.00598073
27 *50:35 0.00242228
28 *50:36 0.000536444
29 *50:27 *73 2.0442e-05
30 *50:27 *73:2 9.8517e-05
31 *50:31 *73:3 0.000565792
32 *50:31 *73:4 0.000305571
33 *50:31 *73:2 0.000303819
34 *50:32 *73:3 0.000305743
35 *50:32 *73:4 0.000545321
36 *50:32 *73:5 0.000280247
37 *50:33 *73:4 0.000283099
38 *50:33 *73:5 0.000883708
39 *50:34 *73:6 0.000245712
40 *50:34 *73:5 0.000464577
41 *50:35 *73:3 0.000289402
42 *50:35 *73:2 0.000245895
43 *50:35 *73:7 0.000129134982
44 *50:34 *3:2 0.00092958
45 *50:15 *143:2 0.000216261992
46 *276:CPN *138:3 0.000370651016
47 *50:14 *155:2 0.000379359023
48 *50:15 *36:4 0.000644070977
49 *50:16 *15:13 0.000659157969
50 *261:CPN *68:7 0.000216144004

*RES
1 *50:33 *50:34 78.2353
2 *50:18 *50:24 3.0776
3 *50:31 *50:35 78.2317
4 *50:15 *50:23 4.33228
5 *50:34 *50:16 78.2281
6 *50:32 *50:33 78.2293
7 *261:CPN *50:21 6.98489
8 *50:20 *50:36 1.49941
9 *276:CPN *50:18 1.12097
10 *50:15 *50:18 5.72544
11 *224:ZN *50:27 1.49941
12 *50:24 *50:25 4.22006
13 *50:26 *50:16 37.1879
14 *291:CPN *50:30 1.49941
15 *50:14 *50:22 5.73857
16 *271:CPN *50:29 1.49941
17 *50:22 *50:23 4.22006
18 *50:17 *50:30 4.96977
19 *311:CPN *50:17 2.16435
20 *50:15 *50:29 6.15401
21 *50:31 *50:32 78.2365036
22 *50:21 *50:26 8.29687
23 *50:17 *50:19 1.83128
24 *50:27 *50:35 32.1895
25 *50:14 *50:26 1.06248
26 *50:19 *50:36 4.08158
27 *293:CPN *50:19 1.11739
28 *50:28 *50:36 5.12854
29 *286:CPN *50:25 0.749703
30 *279:CPN *50:24 0.749703
31 *269:CPN *50:23 0.749703
32 *264:CPN *50:22 0.749703
33 *263:CPN *50:14 0.749703
34 *259:CPN *50:21 0.749703
35 *288:CPN *50:20 0.749703
36 *50:25 *50:28 0.749703
*END

*D_NET *51 0.0126214

*CONN
*I *191:I I *C 6.5 76.6 *L 0.00105 *D DEL1
*I *291:Q O *C 15.5 7.8 *L 0 *D DFNCND1

*CAP
1 *291:Q 0.000989581
2 *51:2 0.0035995
3 *51:3 0.000154833
4 *51:4 6.64591e-05
5 *51:5 0.000362779
6 *51:6 0.000272482
7 *51:7 0.000517172
8 *51:8 0.000329165
9 *51:9 7.14023e-07
10 *51:10 0.00339496
11 *51:11 0.000215305
12 *51:12 5.32771e-05
13 *51:13 0.00108444
14 *51:14 0.000309776
15 *51:8 *221:Z 0.000377518008
16 *51:3 *160:2 0.000537567031
17 *51:2 *155:3 0.000355851992

*RES
1 *51:12 *51:14 2.00048
2 *291:Q *51:9 6.1123
3 *51:3 *51:4 1.34874
4 *51:7 *51:8 2.34458
5 *51:8 *51:11 1.7147
6 *51:9 *51:10 0.356546
7 *51:5 *51:6 2.57235
8 *51:2 *51:13 3.97728
9 *51:3 *51:5 2.64889
10 *51:10 *51:11 19.9034004
11 *51:6 *51:7 3.0929
12 *51:2 *51:12 19.6267
13 *191:I *51:14 2.25013
14 *51:4 *51:13 4.10392
*END

*D_NET *52 0.00773172

*CONN
*I *219:I I *C 9.9 55 *L 0.00105 *D DEL1
*I *293:Q O *C 9.9 10.6 *L 0 *D DFNCND1

*CAP
1 *219:I 0.000256833
2 *52:2 0.00153769
3 *52:3 0.00148398
4 *52:4 0.000198127
5 *52:5 0.000222271
6 *52:6 2.27597e-06
7 *52:3 *1:2 0.00279091
8 *52:2 *41:2 0.000553005977
9 *52:2 *269:CDN 0.000686617031

*RES
1 *52:4 *52:5 3.97221
2 *52:3 *52:2 10.0883
3 *219:I *52:4 5.67637
4 *293:Q *52:3 2.21484
5 *52:6 *52:2 26.4153004
6 *52:5 *52:6 0.200324
*END

*D_NET *53 0.00133058

*CONN
*I *232:ZN O *C 13.1 15 *L 0 *D INVD1
*I *231:I I *C 12.7 21 *L 0.0113 *D INVD12
*I *230:I I *C 12.7 13.8 *L 0.0113 *D INVD12

*CAP
1 *230:I 0.000186614
2 *231:I 0.000347025
3 *53:3 0.000506555039
4 *53:4 0.000290383

*RES
1 *231:I *53:3 2.40211
2 *53:3 *53:4 3.85798001
3 *232:ZN *53:4 1.1086
4 *230:I *53:4 1.70982
*END

*D_NET *54 0.00085605

*CONN
*I *288:Q O *C 10.1 14.2 *L 0 *D DFNCND1
*I *232:I I *C 12.7 15.4 *L 0.00104 *D INVD1

*CAP
1 *232:I 0.000149023
2 *54:2 0.000707031016

*RES
1 *232:I *54:2 5.48504019
2 *288:Q *54:2 0.749992
*END

*D_NET *55 0.00133229

*CONN
*I *235:ZN O *C 11.5 18.6 *L 0 *D INVD1
*I *234:I I *C 12.7 19 *L 0.0113 *D INVD12
*I *233:I I *C 12.7 24.6 *L 0.0113 *D INVD12

*CAP
1 *233:I 9.43297e-05
2 *234:I 3.36111e-05
3 *235:ZN 3.0207e-05
4 *55:3 0.00117415

*RES
1 *234:I *55:3 0.592094
2 *233:I *55:3 7.49826002
3 *235:ZN *55:3 0.575733
*END

*D_NET *56 0.00740693

*CONN
*I *217:I I *C 10.1 58.6 *L 0.00105 *D DEL1
*I *286:Q O *C 10.1 18.6 *L 0 *D DFNCND1

*CAP
1 *217:I 0.000110282
2 *286:Q 0.000839047
3 *56:2 0.000900037969
4 *56:3 0.000140784
5 *56:4 0.000330364
6 *56:5 0.000370741
7 *56:6 0.000415541
8 *56:7 6.44248e-05
9 *56:8 0.000361732
10 *56:9 0.000545297
11 *56:2 *40:9 0.000911305
12 *56:7 *216:Z 0.000971257969
13 *286:Q *122:2 0.00144611

*RES
1 *56:7 *56:8 7.18128
2 *56:3 *56:5 2.67001
3 *56:3 *56:4 1.58918
4 *56:5 *56:6 3.54814
5 *56:2 *56:4 2.39594
6 *286:Q *56:6 6.027
7 *56:8 *56:9 9.11742973
8 *56:2 *56:9 6.98471
9 *217:I *56:7 2.25
*END

*D_NET *57 0.00186627

*CONN
*I *238:ZN O *C 12.1 25 *L 0 *D INVD1
*I *237:I I *C 15.5 28.2 *L 0.0113 *D INVD12
*I *236:I I *C 12.3 22.6 *L 0.0113 *D INVD12

*CAP
1 *238:ZN 0.00023076
2 *57:3 0.000857306016
3 *57:4 0.000778201

*RES
1 *57:3 *57:4 3.25064
2 *237:I *57:3 4.81378984
3 *236:I *57:4 1.49998
4 *238:ZN *57:4 3.39748
*END

*D_NET *58 0.000390602

*CONN
*I *279:Q O *C 10.1 25 *L 0 *D DFNCND1
*I *238:I I *C 11.7 24.6 *L 0.00104 *D INVD1

*CAP
1 *238:I 0.000390601992

*RES
1 *238:I *279:Q 2.97499
*END

*D_NET *59 0.00254035

*CONN
*I *241:ZN O *C 11.7 28.6 *L 0 *D INVD1
*I *240:I I *C 12.3 29.8 *L 0.0113 *D INVD12
*I *239:I I *C 12.3 17.4 *L 0.0113 *D INVD12

*CAP
1 *239:I 0.000247688
2 *241:ZN 0.00046275
3 *59:3 7.03958e-06
4 *59:4 0.000762543047
5 *59:5 0.000285167
6 *59:6 0.000360205
7 *59:8 0.000414951

*RES
1 *59:6 *59:8 1.94321
2 *59:3 *59:4 0.358072
3 *241:ZN *240:I 3.1044
4 *59:7 *59:8 0.200093
5 *59:5 *59:6 1.80972
6 *241:ZN *59:5 1.91258
7 *59:4 *59:7 3.46728992
8 *239:I *59:3 1.66592
*END

*D_NET *60 0.000411985

*CONN
*I *276:Q O *C 9.9 28.6 *L 0 *D DFNCND1
*I *241:I I *C 11.3 28.2 *L 0.00104 *D INVD1

*CAP
1 *241:I 0.000411985

*RES
1 *241:I *276:Q 2.78339
*END

*D_NET *61 0.00253476

*CONN
*I *244:ZN O *C 10.1 33 *L 0 *D INVD1
*I *243:I I *C 12.7 22.6 *L 0.0113 *D INVD12
*I *242:I I *C 12.7 31.8 *L 0.0113 *D INVD12

*CAP
1 *242:I 0.000462889
2 *243:I 0.00100762
3 *61:3 0.000239101
4 *61:4 0.000423666
5 *61:5 0.000401464

*RES
1 *61:3 *61:4 2.02248
2 *242:I *61:5 5.77538013
3 *242:I *61:3 1.75643
4 *243:I *61:4 5.73317
5 *244:ZN *61:5 0.750035
*END

*D_NET *62 0.000539073

*CONN
*I *271:Q O *C 8.5 35.8 *L 0 *D DFNCND1
*I *244:I I *C 9.7 33.4 *L 0.00104 *D INVD1

*CAP
1 *244:I 0.000539073008

*RES
1 *244:I *271:Q 4.81089
*END

*D_NET *63 0.00257728

*CONN
*I *247:ZN O *C 8.9 36.6 *L 0 *D INVD1
*I *246:I I *C 12.5 26.2 *L 0.0113 *D INVD12
*I *245:I I *C 12.7 33.4 *L 0.0113 *D INVD12

*CAP
1 *245:I 9.32583e-06
2 *246:I 0.00130313
3 *247:ZN 0.00069719
4 *63:3 0.000413359
5 *63:4 0.000154264

*RES
1 *246:I *63:3 7.7582798
2 *247:ZN *63:4 4.44714
3 *245:I *63:3 1.15197
4 *63:3 *63:4 3.51559
*END

*D_NET *64 0.00154029

*CONN
*I *179:I I *C 7.7 37 *L 0.00072 *D BUFFD1
*I *269:Q O *C 10.1 40.2 *L 0 *D DFNCND1

*CAP
1 *179:I 0.000651821
2 *64:2 0.000888459063

*RES
1 *179:I *64:2 4.50503016
2 *269:Q *64:2 4.4312
*END

*D_NET *65 0.00363356

*CONN
*I *250:ZN O *C 10.5 43.8 *L 0 *D INVD1
*I *249:I I *C 12.7 37 *L 0.0113 *D INVD12
*I *248:I I *C 12.7 29.8 *L 0.0113 *D INVD12

*CAP
1 *248:I 0.000374504
2 *250:ZN 0.000110161
3 *65:3 6.84207e-05
4 *65:4 0.00118622992
5 *65:5 0.000298535
6 *65:6 0.000753406
7 *65:7 0.000596219
8 *65:8 0.000246079

*RES
1 *65:7 *65:8 3.69096
2 *65:5 *65:8 3.51962
3 *65:4 *65:5 5.27043
4 *65:6 *65:8 1.68779
5 *65:3 *65:6 3.56377
6 *248:I *65:4 5.75259018
7 *250:ZN *65:3 1.01936
8 *249:I *65:7 1.50003
*END

*D_NET *66 0.000751063

*CONN
*I *264:Q O *C 10.1 46.6 *L 0 *D DFNCND1
*I *313:I0 I *C 8.7 44.2 *L 0.000706 *D MUX2ND0
*I *250:I I *C 10.1 44.2 *L 0.00104 *D INVD1

*CAP
1 *313:I0 0.000396227969
2 *66:3 0.000354837

*RES
1 *313:I0 *66:3 4.3604002
2 *264:Q *66:3 2.7504
3 *250:I *66:3 0.749976
*END

*D_NET *67 0.00227635

*CONN
*I *253:ZN O *C 9.7 47.4 *L 0 *D INVD1
*I *252:I I *C 12.5 39 *L 0.0113 *D INVD12
*I *251:I I *C 12.5 37 *L 0.0113 *D INVD12

*CAP
1 *251:I 0.000419552
2 *253:ZN 0.000333581
3 *67:3 0.00137216
4 *67:5 0.000151045

*RES
1 *67:3 *67:5 2.96032
2 *67:3 *67:4 6.46454
3 *251:I *67:5 3.88873
4 *253:ZN *67:4 2.15698
5 *252:I *67:5 0.749968
*END

*D_NET *68 0.00644414

*CONN
*I *194:Z O *C 15.3 76.2 *L 0 *D DEL2
*I *300:A1 I *C 8.9 51.2 *L 0.000617 *D CKND2D0
*I *278:A2 I *C 8.5 49.8 *L 0.000606 *D CKND2D0
*I *270:A1 I *C 7.5 49.8 *L 0.000711 *D OAI211D0
*I *253:I I *C 9.3 47.8 *L 0.00104 *D INVD1

*CAP
1 *194:Z 1.9989e-06
2 *253:I 0.000252195
3 *68:5 6.46978e-05
4 *68:6 0.00126587
5 *68:7 0.0021833
6 *68:8 0.000178735
7 *68:9 0.000253028
8 *68:10 0.000215482
9 *68:11 0.000877318
10 *68:12 0.000935319
11 *68:7 *261:CPN 0.000216144004

*RES
1 *68:8 *68:12 1.43287
2 *68:8 *68:9 1.46983
3 *68:7 *68:12 5.90755
4 *68:5 *68:6 8.18906
5 *270:A1 *68:11 4.33812
6 *194:Z *68:5 0.258032
7 *68:9 *68:11 2.17511
8 *68:7 *68:10 13.9180002
9 *253:I *68:11 2.32781
10 *68:6 *68:10 1.41928
11 *278:A2 *68:9 0.750097
12 *300:A1 *68:8 1.49998
*END

*D_NET *69 0.000396108

*CONN
*I *256:ZN O *C 12.1 43.8 *L 0 *D INVD1
*I *255:I I *C 12.1 42.6 *L 0.0113 *D INVD12
*I *254:I I *C 12.7 42.6 *L 0.0113 *D INVD12

*CAP
1 *254:I 4.34976e-05
2 *255:I 2.48793e-05
3 *256:ZN 0.000327731992

*RES
1 *255:I *256:ZN 2.70325994
2 *255:I *254:I 0.610642
*END

*D_NET *70 0.000797582

*CONN
*I *261:Q O *C 11.5 46.6 *L 0 *D DFNCND1
*I *266:B1 I *C 11.3 47.8 *L 0.000712 *D AOI32D0
*I *256:I I *C 11.7 44.2 *L 0.00104 *D INVD1

*CAP
1 *256:I 0.000368834
2 *266:B1 5.48975e-06
3 *70:3 0.00042326

*RES
1 *266:B1 *70:3 2.08036
2 *256:I *70:3 2.81017995
3 *261:Q *70:3 0.750013
*END

*D_NET *71 0.000753703

*CONN
*I *259:Q O *C 11.5 53.8 *L 0 *D DFNCND1
*I *258:I I *C 11.7 57 *L 0.00382 *D BUFFD12

*CAP
1 *258:I 7.66196e-05
2 *259:Q 0.000677085

*RES
1 *259:Q *258:I 4.53289
*END

*D_NET *72 0.00088064

*CONN
*I *225:I I *C 8.9 640.4 *L 0.000942 *D CKND1
*P *72 I *C 5 648 *L 0.5

*CAP
1 *225:I 0.000574926953
2 *72 0.000285652
3 *72:2 2.00547e-05

*RES
1 *72 *72:2 4.7292
2 *225:I *72:2 6.22492981
*END

*D_NET *73 0.034966

*CONN
*I *178:I I *C 7.9 213.4 *L 0.00072 *D BUFFD1
*P *73 I *C 8 648 *L 0.5

*CAP
1 *73 0.000770879
2 *73:2 0.00243157
3 *73:3 0.00688396
4 *73:4 0.00698241
5 *73:5 0.0129041
6 *73:6 1.96904e-06
7 *73:7 2.42192e-05
8 *73 *50:27 2.0442e-05
9 *73:2 *50:27 9.8517e-05
10 *73:3 *50:31 0.000565792
11 *73:4 *50:31 0.000305571
12 *73:2 *50:31 0.000303819
13 *73:3 *50:32 0.000305743
14 *73:4 *50:32 0.000545321
15 *73:5 *50:32 0.000280247
16 *73:4 *50:33 0.000283099
17 *73:5 *50:33 0.000883708
18 *73:6 *50:34 0.000245712
19 *73:5 *50:34 0.000464577
20 *73:3 *50:35 0.000289402
21 *73:2 *50:35 0.000245895
22 *73:7 *50:35 0.000129134982

*RES
1 *73:2 *73:7 29.1154
2 *73:3 *73:2 78.2317
3 *73:6 *73:5 68.3447
4 *73:3 *73:4 78.2365036
5 *178:I *73:6 1.49941
6 *73 *73:7 8.06169
7 *73:4 *73:5 78.2293
*END

*D_NET *74 0.0133847

*CONN
*I *192:I I *C 7.1 75 *L 0.00105 *D DEL1
*P *74 I *C 0 5 *L 0.5

*CAP
1 *74 0.000239726
2 *74:2 0.000630834
3 *74:3 0.000518248
4 *74:4 0.000619098
5 *74:5 0.00279695
6 *74:7 5.12145e-07
7 *74:8 0.000193505
8 *74:9 0.00101994
9 *74 *75 0.00108705
10 *74:2 *2:2 0.00163865
11 *74:3 *290:B 0.00126386
12 *74:2 *140:2 0.002738
13 *74:2 *188:I 0.000638411992

*RES
1 *74:6 *74:8 0.200401
2 *74:5 *74:7 0.200401
3 *74:4 *74:9 12.5123
4 *74 *74:9 2.98785
5 *74:7 *74:8 3.60949
6 *74:3 *74:4 5.47043
7 *74:2 *74:5 37.2052994
8 *192:I *74:2 5.83036
9 *74:3 *74:6 14.6474
*END

*D_NET *75 0.00774145

*CONN
*I *195:I I *C 5.9 73 *L 0.00105 *D DEL1
*P *75 I *C 0 6 *L 0.5

*CAP
1 *195:I 7.54845e-05
2 *75 9.64356e-05
3 *75:2 2.37703e-05
4 *75:3 0.000465345
5 *75:4 0.00134847
6 *75:5 4.20403e-05
7 *75:6 0.00175383
8 *75:7 0.000226675
9 *75:8 0.00181138
10 *75:4 *9:3 0.000334993008
11 *75 *74 0.00108705
12 *195:I *138:2 0.000476008008

*RES
1 *75:7 *75:8 16.809
2 *75:5 *75:6 26.0583992
3 *75:3 *75:5 1.49982
4 *75:2 *75:4 14.836
5 *75 *75:8 0.972975
6 *75:6 *75:7 1.78054
7 *75:3 *75:4 4.7766
8 *195:I *75:2 0.982518
*END

*D_NET *76 0.00379764

*CONN
*P *168 I *C 0 14 *L 0.5
*P *76 O *C 21.6 25 *L 0.5

*CAP
1 *168 0.000400816
2 *76 8.24189e-05
3 *76:2 0.00140513
4 *76:3 0.000373308
5 *76:4 0.000435658
6 *76:5 0.000583064
7 *76:6 0.000295541
8 *76:7 0.000221699

*RES
1 *76:5 *76:6 5.02378
2 *76:2 *76:3 1.83165
3 *168 *76:5 2.53725
4 *76 *76:2 10.6182003
5 *76:6 *76:7 2.81446
6 *76:4 *76:7 2.79794
7 *76:3 *76:4 3.92917
*END

*D_NET *77 0.00459393

*CONN
*P *169 I *C 0 13 *L 0.5
*P *77 O *C 21.6 24 *L 0.5

*CAP
1 *169 0.000103704
2 *77 8.11678e-05
3 *77:2 0.00242118
4 *77:3 0.000838204
5 *77:4 0.000502191
6 *77:5 0.000647495

*RES
1 *77 *77:2 17.4748001
2 *77:4 *77:5 3.34185
3 *77:2 *77:4 3.78128
4 *169 *77:3 1.19723
5 *77:3 *77:5 5.02944
*END

*D_NET *78 0.00417374

*CONN
*P *170 I *C 0 12 *L 0.5
*P *78 O *C 21.6 23 *L 0.5

*CAP
1 *170 0.000150718
2 *78 8.24221e-05
3 *78:2 0.000630998
4 *78:3 0.000557446
5 *78:4 1.54206e-05
6 *78:5 0.000500009
7 *78:6 0.00040163
8 *78:7 0.00103437992
9 *78:8 0.00022741
10 *78:9 0.000573324

*RES
1 *78:7 *78:8 2.15276
2 *78 *78:3 4.99179
3 *78:8 *78:9 4.1151
4 *78:6 *78:7 7.23429012
5 *78:4 *78:5 3.48225
6 *78:3 *78:4 0.268791
7 *78:5 *78:6 2.30057
8 *78:2 *78:9 5.13761
9 *170 *78:2 1.94722
*END

*D_NET *79 0.00453264

*CONN
*P *171 I *C 0 11 *L 0.5
*P *79 O *C 21.6 22 *L 0.5

*CAP
1 *171 0.000182053
2 *79 8.24087e-05
3 *79:2 0.000350446
4 *79:3 0.000543255
5 *79:4 3.21813e-05
6 *79:5 0.000918424
7 *79:6 0.000224208
8 *79:7 0.00036894
9 *79:8 0.00183073

*RES
1 *79:6 *79:7 3.77279
2 *79 *79:2 3.07237
3 *79:7 *79:8 12.1920004
4 *79:3 *79:4 0.113109
5 *79:2 *79:3 3.48221
6 *79:5 *79:6 1.51916
7 *79:4 *79:5 5.31335
8 *171 *79:8 2.12508
*END

*D_NET *80 0.00464184

*CONN
*P *172 I *C 0 10 *L 0.5
*P *80 O *C 21.6 21 *L 0.5

*CAP
1 *172 8.61611e-05
2 *80 7.12082e-05
3 *80:2 8.94601e-05
4 *80:3 0.000456641
5 *80:4 3.29263e-05
6 *80:5 0.000708547
7 *80:6 0.00128751
8 *80:7 0.000505463
9 *80:8 0.00140392

*RES
1 *80:7 *80:8 8.00308
2 *172 *80:6 1.04081
3 *80 *80:2 1.35325
4 *80:6 *80:8 9.59496975
5 *80:3 *80:4 0.112441
6 *80:2 *80:3 3.79474
7 *80:5 *80:7 3.86238
8 *80:4 *80:5 4.4199
*END

*D_NET *81 0.0039926

*CONN
*P *173 I *C 0 9 *L 0.5
*P *81 O *C 21.6 20 *L 0.5

*CAP
1 *173 9.3716e-05
2 *81 0.000101129
3 *81:2 0.000137378
4 *81:3 0.000635582
5 *81:4 0.00062806
6 *81:5 0.000425367
7 *81:6 0.00089139
8 *81:7 0.000836017
9 *81:8 0.000243974

*RES
1 *81:7 *81:8 1.47495
2 *81:4 *81:7 5.1843
3 *81 *81:2 2.26934
4 *81:5 *81:8 2.96089
5 *81:5 *81:6 7.65824986
6 *81:2 *81:3 5.20136
7 *173 *81:6 1.04083
8 *81:3 *81:4 3.1565
*END

*D_NET *82 0.00429801

*CONN
*P *174 I *C 0 8 *L 0.5
*P *82 O *C 21.6 19 *L 0.5

*CAP
1 *174 0.000194534
2 *82 0.000104168
3 *82:2 0.00035407
4 *82:3 0.000468119
5 *82:4 2.32099e-05
6 *82:5 0.000720271
7 *82:6 0.000483764
8 *82:7 0.000492342
9 *82:8 0.000300268
10 *82:9 0.00086228
11 *82:10 0.000294979

*RES
1 *82:6 *82:7 3.92918
2 *82:5 *82:6 2.54645
3 *82 *82:2 3.31907
4 *82:8 *82:10 2.64815
5 *82:4 *82:5 3.79487
6 *82:2 *82:3 3.95109
7 *82:9 *82:10 3.12714
8 *82:7 *82:9 5.65305996
9 *82:3 *82:4 0.112482
10 *174 *82:8 1.97861
*END

*D_NET *83 0.00346034

*CONN
*P *175 I *C 0 7 *L 0.5
*P *83 O *C 21.6 18 *L 0.5

*CAP
1 *175 0.000123752
2 *83 7.12023e-05
3 *83:2 0.000616609
4 *83:3 4.89273e-05
5 *83:4 0.000378131
6 *83:5 5.19296e-05
7 *83:6 0.00126938
8 *83:7 0.000503781
9 *83:8 0.000396629

*RES
1 *83:7 *83:8 2.1829
2 *83:5 *83:6 10.7392998
3 *83:4 *83:5 0.112414
4 *83:2 *83:3 0.603201
5 *175 *83:6 0.884399
6 *83 *83:7 4.20831
7 *83:3 *83:4 3.79487
8 *83:2 *83:8 6.17769
*END

*D_NET *84 0.0139599

*CONN
*P *84 O *C 21.6 5 *L 0.5
*I *296:C I *C 7.9 15.4 *L 0.000698 *D OAI211D0
*I *304:C I *C 10.3 11.8 *L 0.000698 *D OAI211D0
*I *309:ZN O *C 10.5 25.8 *L 0 *D INVD12
*I *315:S I *C 11.5 21 *L 0.00146 *D MUX2ND0
*I *316:S I *C 13.7 6.6 *L 0.00146 *D MUX2ND0
*I *317:A2 I *C 14.5 6.8 *L 0.000661 *D XNR2D0
*I *312:S I *C 12.9 49.8 *L 0.00146 *D MUX2ND0
*I *266:A3 I *C 12.1 47.8 *L 0.000695 *D AOI32D0
*I *313:S I *C 8.9 44.2 *L 0.00146 *D MUX2ND0
*I *314:S I *C 11.9 31.8 *L 0.00146 *D MUX2ND0
*I *280:C I *C 7.3 37 *L 0.000698 *D OAI211D0
*I *270:C I *C 8.1 49.8 *L 0.000698 *D OAI211D0
*I *287:C I *C 7.1 31.8 *L 0.000698 *D OAI211D0

*CAP
1 *270:C 5.84443e-05
2 *314:S 0.000193072
3 *266:A3 0.000242685
4 *316:S 4.79268e-05
5 *296:C 0.000290259
6 *84 5.74017e-05
7 *84:14 7.00963e-05
8 *84:15 0.000638977
9 *84:16 0.000731795
10 *84:17 0.000554868
11 *84:18 5.74324e-05
12 *84:19 0.000131806
13 *84:20 0.000118498
14 *84:21 0.000270282
15 *84:22 0.00035594
16 *84:23 0.000306403
17 *84:24 0.000231677
18 *84:25 0.000551142
19 *84:26 0.000867404
20 *84:27 0.000797369
21 *84:28 0.00100476
22 *84:30 0.000546528
23 *84:31 0.000665363
24 *84:32 0.000634393
25 *84:34 0.000616746
26 *84:35 0.000311923
27 *84:36 0.00072439
28 *84:37 5.83063e-05
29 *84:38 0.000385637
30 *84:39 9.63135e-05
31 *84:21 *45:10 0.000448906016
32 *296:C *48:14 0.0004632
33 *314:S *47:4 0.000673623984
34 *84:14 *119:8 0.000494703008
35 *84:15 *310:A2 0.000261653984

*RES
1 *84:21 *84:22 4.49194
2 *84:16 *84:29 1.25042
3 *84:25 *84:32 0.46893
4 *312:S *84:38 3.76051
5 *314:S *84:18 2.43949
6 *84:17 *84:29 0.672398
7 *84:26 *84:36 4.64442
8 *84:34 *84:38 2.41164
9 *84:15 *84:37 3.52623
10 *84:23 *84:34 2.38323
11 *84:14 *84:35 1.84408
12 *84:14 *84:31 4.85021
13 *84:24 *84:32 3.37254
14 *84:17 *84:37 3.14566
15 *84:24 *84:30 1.27975
16 *84:20 *84:27 3.52206
17 *270:C *84:23 0.950074
18 *84:19 *84:28 4.54394
19 *84:35 *84:36 4.01366
20 *84:25 *84:39 3.75653
21 *84:15 *84:31 2.79591
22 *296:C *84:35 3.45091
23 *84:22 *84:30 3.93122
24 *84:21 *84:27 1.30408
25 *316:S *84:17 1.69298
26 *266:A3 *84:38 2.29913
27 *84:28 *84:39 4.8689
28 *84:18 *84:39 1.07091
29 *84:20 *84:34 1.08452
30 *84:19 *84:26 3.38633
31 *84:16 *84:33 6.06388998
32 *84 *84:33 0.750029
33 *287:C *84:32 0.750029
34 *304:C *84:31 0.750029
35 *280:C *84:30 0.750029
36 *317:A2 *84:29 0.750029
37 *309:ZN *84:28 0.750029
38 *313:S *84:27 1.49997
39 *315:S *84:26 1.49997
*END

*D_NET *85 0.00379807

*CONN
*I *257:Z O *C 13.1 40.2 *L 0 *D BUFFD12
*P *85 O *C 21.6 17 *L 0.5

*CAP
1 *85 9.78817e-05
2 *85:2 0.00086057
3 *85:3 8.04853e-05
4 *85:4 0.00079899
5 *85:5 0.0015945
6 *85:6 0.000365615

*RES
1 *85:3 *85:4 8.24100018
2 *85:2 *85:3 6.22023
3 *85 *85:5 2.63793
4 *85:5 *85:6 7.7233
5 *257:Z *85:2 1.35166
6 *85:4 *85:6 2.85824
*END

*D_NET *86 0.00422234

*CONN
*P *86 O *C 21.6 16 *L 0.5
*I *255:ZN O *C 10.5 43 *L 0 *D INVD12

*CAP
1 *86 9.92389e-05
2 *86:2 0.000637854
3 *86:3 2.98285e-05
4 *86:4 7.33842e-05
5 *86:5 0.00338202

*RES
1 *86:2 *86:4 3.92365
2 *86 *86:3 1.19709
3 *86:4 *86:5 20.6075001
4 *86:3 *86:5 6.06377
5 *255:ZN *86:2 0.749952
*END

*D_NET *87 0.00466902

*CONN
*I *251:ZN O *C 10.9 36.6 *L 0 *D INVD12
*P *87 O *C 21.6 15 *L 0.5

*CAP
1 *87 8.24223e-05
2 *87:2 0.000531678
3 *87:3 0.0011564
4 *87:4 4.08141e-05
5 *87:5 0.000248573
6 *87:6 0.000520243
7 *87:7 0.00021307
8 *87:8 0.00114107
9 *87:9 0.00050071
10 *87:10 0.000234033

*RES
1 *87:9 *87:10 3.87461
2 *87:7 *87:9 1.92009
3 *87:7 *87:8 6.09296
4 *87:4 *87:10 2.05549
5 *87:4 *87:5 3.14767
6 *87:2 *87:6 5.92734
7 *87:5 *87:6 0.112484
8 *87:3 *87:8 7.25567007
9 *87 *87:3 1.21884
10 *251:ZN *87:2 0.749968
*END

*D_NET *88 0.0026902

*CONN
*I *248:ZN O *C 14.3 29.4 *L 0 *D INVD12
*P *88 O *C 21.6 14 *L 0.5

*CAP
1 *88 0.000546625
2 *88:2 0.00057998
3 *88:3 7.08808e-05
4 *88:4 0.00114385
5 *88:5 0.000348854

*RES
1 *88:2 *88:3 4.65733
2 *88 *88:5 4.8305
3 *88:3 *88:4 9.37158012
4 *88:4 *88:5 1.83253
5 *248:ZN *88:2 0.75003
*END

*D_NET *89 0.00247026

*CONN
*P *89 O *C 21.6 13 *L 0.5
*I *246:ZN O *C 14.1 25.8 *L 0 *D INVD12

*CAP
1 *89 6.88569e-05
2 *89:2 0.000563981
3 *89:3 7.47205e-05
4 *89:4 0.00176271

*RES
1 *89:2 *89:3 4.34475
2 *89:3 *89:4 10.8487997
3 *89 *89:4 3.41938
4 *246:ZN *89:2 0.75006
*END

*D_NET *90 0.00197309

*CONN
*P *90 O *C 21.6 12 *L 0.5
*I *243:ZN O *C 14.3 22.2 *L 0 *D INVD12

*CAP
1 *90 7.0597e-05
2 *90:2 0.00049887
3 *90:3 3.00534e-05
4 *90:4 0.000654118008
5 *90:5 0.000533385
6 *90:6 0.00018606

*RES
1 *90:2 *90:3 3.56324
2 *90:5 *90:6 4.18901014
3 *90:3 *90:6 1.8706
4 *90:4 *90:5 3.02664
5 *90 *90:4 4.04449
6 *243:ZN *90:2 0.750028
*END

*D_NET *91 0.00157893

*CONN
*I *239:ZN O *C 13.9 17.8 *L 0 *D INVD12
*P *91 O *C 21.6 11 *L 0.5

*CAP
1 *91 0.00031294
2 *91:2 0.000789731953
3 *91:3 0.00021703
4 *91:4 0.000259231

*RES
1 *91 *91:3 2.26935
2 *91:2 *91:4 4.05399
3 *239:ZN *91:2 4.76953983
4 *91:3 *91:4 1.87547
*END

*D_NET *92 0.00359073

*CONN
*I *315:I0 I *C 11.3 21 *L 0.000706 *D MUX2ND0
*I *236:ZN O *C 10.7 22.2 *L 0 *D INVD12
*P *92 O *C 21.6 10 *L 0.5

*CAP
1 *92 0.000145988
2 *236:ZN 0.000395026
3 *92:3 0.00156764
4 *92:4 0.000369694
5 *92:5 4.99942e-05
6 *92:6 0.000506759
7 *92:7 0.000555629

*RES
1 *92:3 *92:5 8.36400032
2 *92:3 *92:4 3.77871
3 *92:6 *92:7 2.95578
4 *92:5 *92:7 3.87277
5 *92 *92:6 0.977859
6 *236:ZN *92:4 4.27593
7 *315:I0 *92:4 1.49997
*END

*D_NET *93 0.00477596

*CONN
*P *93 O *C 21.6 9 *L 0.5
*I *307:A2 I *C 6.3 15.4 *L 0.000606 *D CKND2D0
*I *303:A1 I *C 6.7 17.6 *L 0.000617 *D CKND2D0
*I *296:A1 I *C 7.3 15.4 *L 0.000711 *D OAI211D0
*I *234:ZN O *C 14.3 18.6 *L 0 *D INVD12

*CAP
1 *234:ZN 6.82564e-05
2 *296:A1 0.000316073
3 *307:A2 4.15329e-05
4 *93 7.04834e-05
5 *93:5 9.25748e-05
6 *93:6 0.000746211
7 *93:7 0.000130656
8 *93:8 0.000270754
9 *93:9 0.000593062
10 *93:10 0.000720267
11 *93:11 0.00145944
12 *93:12 0.000266679

*RES
1 *234:ZN *93:10 1.49995
2 *93:8 *93:10 1.74106
3 *93:6 *93:9 3.44147
4 *93:8 *93:9 2.83146
5 *307:A2 *93:5 0.950047
6 *93:7 *93:10 4.84498
7 *93:7 *93:11 8.56427956
8 *93:11 *93:12 1.71989
9 *296:A1 *93:5 3.80215
10 *93 *93:12 1.44703
11 *93:5 *93:6 1.93669
12 *303:A1 *93:6 0.749976
*END

*D_NET *94 0.00220395

*CONN
*I *316:I0 I *C 13.5 6.6 *L 0.000706 *D MUX2ND0
*I *230:ZN O *C 14.3 14.2 *L 0 *D INVD12
*P *94 O *C 21.6 8 *L 0.5

*CAP
1 *94 0.000138495
2 *316:I0 0.000250777
3 *94:3 0.000510257
4 *94:4 0.000840004063
5 *94:5 0.000464422

*RES
1 *94:4 *94:5 6.97333002
2 *94:3 *94:4 3.08243
3 *316:I0 *94:4 2.90378
4 *230:ZN *94:3 2.71576
5 *94 *94:5 1.35325
*END

*D_NET *95 0.0011857

*CONN
*I *226:Z O *C 14.1 10.6 *L 0 *D BUFFD12
*P *95 O *C 21.6 7 *L 0.5

*CAP
1 *95 4.65041e-05
2 *95:2 0.00109746
3 *95:3 4.17314e-05

*RES
1 *95:2 *95:3 6.33222008
2 *95 *95:3 1.19715
3 *226:Z *95:2 2.4026
*END

*D_NET *96 0.00331257

*CONN
*P *96 O *C 21.6 6 *L 0.5
*I *317:A1 I *C 15.7 6.6 *L 0.00136 *D XNR2D0
*I *310:A1 I *C 10.9 10.4 *L 0.000617 *D CKND2D0
*I *304:A2 I *C 9.3 11.8 *L 0.00065 *D OAI211D0
*I *228:Z O *C 9.3 7.8 *L 0 *D BUFFD12
*I *227:I I *C 12.1 11.8 *L 0.00382 *D BUFFD12

*CAP
1 *227:I 4.90413e-05
2 *228:Z 0.00033845
3 *304:A2 7.91338e-05
4 *310:A1 7.68162e-05
5 *96 5.24637e-05
6 *96:6 0.000572849
7 *96:7 0.000573522
8 *96:8 0.000122795
9 *96:9 0.000786955
10 *96:10 0.000150763
11 *96:11 0.000509771

*RES
1 *96:9 *96:10 0.814491
2 *96:8 *96:9 3.29457
3 *96:6 *96:10 1.89375
4 *310:A1 *96:10 2.25004
5 *96:7 *96:11 1.21888
6 *96:7 *96:8 3.91664
7 *228:Z *96:6 2.15383
8 *227:I *96:9 3.07016
9 *304:A2 *96:6 2.64309
10 *96 *96:11 5.12614012
11 *317:A1 *96:7 0.750039
*END

*D_NET *97 0.00448096

*CONN
*I *257:I I *C 15.1 40.6 *L 0.00382 *D BUFFD12
*I *258:Z O *C 13.7 57.4 *L 0 *D BUFFD12
*P *97 O *C 21.6 37 *L 0.5
*I *312:I0 I *C 13.1 49.8 *L 0.000706 *D MUX2ND0
*I *267:B2 I *C 14.7 50 *L 0.000739 *D MOAI22D0
*I *267:A2 I *C 15.5 49.8 *L 0.000697 *D MOAI22D0

*CAP
1 *258:Z 0.0012493
2 *267:A2 0.000175812
3 *267:B2 0.000290814
4 *312:I0 0.000305296
5 *97 0.000310151
6 *97:6 3.94156e-05
7 *97:7 0.00138951
8 *97:8 0.000109978
9 *97:9 0.000388537
10 *97:10 0.000222139

*RES
1 *97:6 *97:7 4.68874
2 *267:A2 *97:8 3.38659
3 *267:B2 *97:10 3.32066
4 *97:8 *97:9 1.3346
5 *97:7 *97:10 7.62977
6 *312:I0 *97:9 3.23678
7 *257:I *97:7 1.65633
8 *97 *97:6 3.5426
9 *258:Z *97:9 8.47111988
10 *97:8 *97:10 0.749961
*END

*D_NET *98 0.00143154

*CONN
*I *254:ZN O *C 14.3 43 *L 0 *D INVD12
*P *98 O *C 21.6 36 *L 0.5

*CAP
1 *98 7.6233e-05
2 *98:2 0.000698437969
3 *98:3 2.28603e-05
4 *98:4 0.000565539
5 *98:5 6.84637e-05

*RES
1 *98:2 *98:3 5.79300022
2 *254:ZN *98:2 0.906305
3 *98:4 *98:5 4.37507
4 *98:3 *98:5 1.5537
5 *98 *98:4 0.162734
*END

*D_NET *99 0.00123889

*CONN
*I *252:ZN O *C 14.1 39.4 *L 0 *D INVD12
*P *99 O *C 21.6 35 *L 0.5

*CAP
1 *252:ZN 0.000649826992
2 *99 8.55132e-05
3 *99:2 0.00050354

*RES
1 *99 *99:2 1.19719
2 *252:ZN *99:2 9.39739037
*END

*D_NET *100 0.00107296

*CONN
*I *249:ZN O *C 14.3 36.6 *L 0 *D INVD12
*P *100 O *C 21.6 34 *L 0.5

*CAP
1 *100 5.02425e-05
2 *100:2 0.000985821016
3 *100:3 3.68997e-05

*RES
1 *100:2 *100:3 6.06388998
2 *100 *100:3 1.19721
3 *249:ZN *100:2 2.49908
*END

*D_NET *101 0.000704658

*CONN
*I *245:ZN O *C 14.3 33 *L 0 *D INVD12
*P *101 O *C 21.6 33 *L 0.5

*CAP
1 *101 5.2466e-05
2 *101:2 0.000652193008

*RES
1 *245:ZN *101:2 1.49997
2 *101 *101:2 6.06388998
*END

*D_NET *102 0.00128709

*CONN
*I *314:I0 I *C 11.7 31.8 *L 0.000706 *D MUX2ND0
*I *242:ZN O *C 14.3 32.2 *L 0 *D INVD12
*P *102 O *C 21.6 32 *L 0.5

*CAP
1 *102 0.000382299
2 *242:ZN 7.6228e-05
3 *102:3 0.000489813008
4 *102:4 0.000338747

*RES
1 *102:3 *102:4 2.97171
2 *242:ZN *102:4 1.5
3 *102 *102:4 6.22018003
4 *314:I0 *102:3 1.5
*END

*D_NET *103 0.00308044

*CONN
*I *240:ZN O *C 10.7 29.4 *L 0 *D INVD12
*P *103 O *C 21.6 31 *L 0.5
*I *306:A1 I *C 7.7 29.6 *L 0.000617 *D CKND2D0
*I *294:A2 I *C 8.5 31.8 *L 0.000606 *D CKND2D0
*I *287:A1 I *C 6.5 31.8 *L 0.000711 *D OAI211D0

*CAP
1 *240:ZN 0.000346354
2 *294:A2 1.34458e-05
3 *103 0.000131644
4 *103:5 0.000213048
5 *103:6 0.000788345
6 *103:7 0.000426183
7 *103:8 0.000205712
8 *103:9 0.000955717969

*RES
1 *306:A1 *103:9 4.17014
2 *240:ZN *103:8 2.96994
3 *103:7 *103:8 1.56295
4 *103:5 *103:6 1.8755
5 *294:A2 *103:7 1.71133
6 *103 *103:5 1.8004
7 *103:7 *103:9 0.78178
8 *103:6 *103:8 6.63319016
9 *287:A1 *103:9 3.58653
*END

*D_NET *104 0.00105239

*CONN
*I *237:ZN O *C 13.9 28.6 *L 0 *D INVD12
*P *104 O *C 21.6 30 *L 0.5

*CAP
1 *237:ZN 0.000365456
2 *104 0.00068694

*RES
1 *104 *237:ZN 9.12685
*END

*D_NET *105 0.00134801

*CONN
*I *233:ZN O *C 14.3 25 *L 0 *D INVD12
*P *105 O *C 21.6 29 *L 0.5

*CAP
1 *105 0.000199561
2 *233:ZN 0.000618269023
3 *105:2 0.000505785
4 *105:3 2.43874e-05

*RES
1 *105:2 *105:3 4.99175978
2 *233:ZN *105:2 3.83172
3 *105 *105:3 1.97839
*END

*D_NET *106 0.00197043

*CONN
*I *231:ZN O *C 14.3 21.4 *L 0 *D INVD12
*P *106 O *C 21.6 28 *L 0.5

*CAP
1 *106 5.27359e-05
2 *106:2 0.000949882
3 *106:3 0.00096781

*RES
1 *106:2 *106:3 5.99468
2 *106:3 *106:4 6.2603302
3 *106 *106:4 0.162584
4 *231:ZN *106:2 0.749967
*END

*D_NET *107 0.00516545

*CONN
*P *107 O *C 21.6 27 *L 0.5
*I *310:A2 I *C 10.5 10.2 *L 0.000606 *D CKND2D0
*I *229:Z O *C 10.7 15 *L 0 *D CKBD12
*I *226:I I *C 12.1 10.2 *L 0.00382 *D BUFFD12
*I *302:A1 I *C 5.9 11.6 *L 0.000617 *D CKND2D0

*CAP
1 *226:I 0.000305219
2 *310:A2 0.000136441
3 *107 7.19873e-05
4 *107:5 0.000650306
5 *107:6 0.000383828
6 *107:7 8.53949e-05
7 *107:8 0.000869002
8 *107:9 1.13543e-05
9 *107:10 0.000350228
10 *107:11 0.000891138984
11 *107:12 3.28933e-05
12 *107:13 0.000206403
13 *107:15 0.000321876
14 *310:A2 *84:15 0.000261653984
15 *107:5 *47:3 0.000404525977
16 *107:5 *119:8 0.000183184004

*RES
1 *107:6 *107:9 3.88991
2 *107:11 *107:12 0.300547
3 *107 *107:10 0.884439
4 *302:A1 *107:8 2.36352
5 *107:8 *107:13 4.98622
6 *107:5 *107:12 6.71095991
7 *107:14 *107:15 2.82678
8 *226:I *107:13 3.74215
9 *310:A2 *107:7 1.6291
10 *107:6 *107:7 0.791049
11 *107:11 *107:14 6.2007
12 *107:5 *107:9 1.06548
13 *107:10 *107:15 3.74174
14 *229:Z *107:9 0.749986
15 *107:7 *107:13 0.749986
*END

*D_NET *108 0.00321103

*CONN
*I *227:Z O *C 14.1 11.4 *L 0 *D BUFFD12
*P *108 O *C 21.6 26 *L 0.5

*CAP
1 *108 8.1155e-05
2 *108:2 0.000791951
3 *108:3 0.00173807
4 *108:4 0.000305923
5 *108:5 0.000293935

*RES
1 *108:2 *108:4 5.70711
2 *108:4 *108:5 2.34362
3 *108:3 *108:5 11.2769003
4 *108 *108:3 1.53144
5 *227:Z *108:2 0.750061
*END

*D_NET *117 0.00394404

*CONN
*I *221:I I *C 12.3 44.2 *L 0.00105 *D DEL1
*I *279:QN O *C 10.5 25 *L 0 *D DFNCND1

*CAP
1 *279:QN 0.000416687
2 *117:2 0.000720562
3 *117:3 0.00126465
4 *117:4 0.000324272
5 *117:5 0.00065966
6 *117:6 0.000558214

*RES
1 *117:5 *117:6 2.65394
2 *221:I *117:2 5.16384
3 *279:QN *117:6 2.77808
4 *117:4 *117:5 3.39035
5 *117:2 *117:3 6.29719019
6 *117:3 *117:4 1.87678
*END

*D_NET *118 0.000484638

*CONN
*I *289:A2 I *C 6.9 33.4 *L 0.000664 *D NR2D0
*I *285:A2 I *C 7.7 33.4 *L 0.000671 *D AOI21D0
*I *271:QN O *C 8.1 35.8 *L 0 *D DFNCND1

*CAP
1 *289:A2 8.07338e-06
2 *285:A2 3.96007e-06
3 *271:QN 0.000119252
4 *118:3 3.95385e-05
5 *118:4 0.000313813008

*RES
1 *271:QN *118:4 2.96925998
2 *285:A2 *118:3 0.383798
3 *289:A2 *118:3 0.383798
4 *118:3 *118:4 0.750017
*END

*D_NET *119 0.0053617

*CONN
*I *222:I I *C 9.1 39 *L 0.00105 *D DEL1
*I *288:QN O *C 10.5 14.2 *L 0 *D DFNCND1

*CAP
1 *119:2 0.000516682
2 *119:3 0.00082927
3 *119:4 0.000307944
4 *119:5 4.59335e-06
5 *119:6 3.25963e-05
6 *119:7 0.000716575
7 *119:8 0.000325571
8 *119:9 5.86126e-05
9 *119:8 *84:14 0.000494703008
10 *119:8 *107:5 0.000183184004
11 *119:4 *276:CDN 0.00147748
12 *119:3 *45:8 0.000414491016

*RES
1 *119:8 *119:9 4.36789
2 *119:6 *119:7 3.75977
3 *119:5 *119:7 0.356332
4 *119:4 *119:6 0.356332
5 *119:3 *119:4 3.0339
6 *119:2 *119:5 4.41499
7 *222:I *119:3 12.5483999
8 *119:2 *119:9 1.68784
9 *288:QN *119:8 0.750001
*END

*D_NET *120 0.00130476

*CONN
*I *274:A2 I *C 11.9 49.8 *L 0.000606 *D CKND2D0
*I *272:A2 I *C 10.5 49.8 *L 0.00069 *D OR2D0
*I *261:QN O *C 11.1 46.6 *L 0 *D DFNCND1

*CAP
1 *274:A2 0.000191832
2 *261:QN 0.000671639063
3 *120:3 0.000441293

*RES
1 *272:A2 *120:3 1.90104
2 *274:A2 *120:3 2.69121
3 *261:QN *120:3 4.47734022
*END

*D_NET *121 0.00454739

*CONN
*I *197:Z O *C 13.7 75.4 *L 0 *D DEL1
*I *282:A2 I *C 6.9 47.8 *L 0.000664 *D NR2D0
*I *277:A2 I *C 7.7 47.8 *L 0.000671 *D AOI21D0

*CAP
1 *197:Z 9.18788e-05
2 *282:A2 7.29952e-05
3 *277:A2 6.60527e-05
4 *121:3 0.00122922
5 *121:4 0.000133891
6 *121:5 0.00259986
7 *121:6 0.000353511

*RES
1 *121:3 *121:5 6.37651
2 *277:A2 *121:3 2.62486
3 *121:5 *121:6 22.4866009
4 *121:4 *121:6 1.50011
5 *197:Z *121:4 1.76843
6 *282:A2 *277:A2 0.778192
*END

*D_NET *122 0.00933966

*CONN
*I *193:I I *C 12.7 73 *L 0.00105 *D DEL1
*I *311:QN O *C 10.3 7 *L 0 *D DFNCND1

*CAP
1 *122:2 0.00163111
2 *122:3 0.00050457
3 *122:4 4.57893e-05
4 *122:5 0.000125865
5 *122:6 0.00207668
6 *122:7 9.70607e-05
7 *122:8 0.000314219
8 *122:9 0.000439958
9 *122:5 *41:3 0.000557765
10 *122:2 *286:Q 0.00144611
11 *122:3 *39:6 0.00210050016

*RES
1 *122:8 *122:9 2.92719
2 *122:2 *122:8 1.31837
3 *122:5 *122:9 3.24166
4 *122:7 *122:2 20.1754
5 *122:6 *122:7 1.79844
6 *122:4 *122:3 2.62645
7 *122:3 *122:6 28.1161003
8 *311:QN *122:5 0.749923
9 *193:I *122:4 1.49985
*END

*D_NET *123 0.000523202

*CONN
*I *306:ZN O *C 7.5 29.4 *L 0 *D CKND2D0
*I *281:A2 I *C 6.1 29.8 *L 0.000671 *D AOI21D0

*CAP
1 *306:ZN 0.00018262
2 *281:A2 0.000340581016

*RES
1 *281:A2 *306:ZN 4.31711
*END

*D_NET *124 0.00168904

*CONN
*I *308:ZN O *C 11.3 11.6 *L 0 *D NR2D1
*I *307:A1 I *C 5.9 15.2 *L 0.000617 *D CKND2D0
*I *305:B I *C 11.5 13.8 *L 0.00072 *D AOI21D0
*I *296:A2 I *C 6.9 15.4 *L 0.00065 *D OAI211D0

*CAP
1 *308:ZN 0.000307394
2 *307:A1 0.00034793
3 *124:4 0.000153304
4 *124:5 6.22828e-05
5 *124:6 0.00081814

*RES
1 *124:4 *124:5 0.625225
2 *296:A2 *124:6 2.17055
3 *124:4 *124:6 4.34468985
4 *308:ZN *124:5 2.32681
5 *307:A1 *124:6 4.14501
6 *305:B *124:5 1.49998
*END

*D_NET *125 0.00091853

*CONN
*I *310:ZN O *C 11.1 10.6 *L 0 *D CKND2D0
*I *308:A1 I *C 11.3 11.8 *L 0.00093 *D NR2D1
*I *305:A1 I *C 11.3 13.8 *L 0.00069 *D AOI21D0
*I *304:B I *C 9.9 11.8 *L 0.000726 *D OAI211D0

*CAP
1 *310:ZN 0.000256523
2 *125:4 0.000294316
3 *125:5 0.000367691016

*RES
1 *125:4 *125:5 2.77936
2 *305:A1 *125:5 3.06982994
3 *310:ZN *125:5 2.00282
4 *308:A1 *125:5 0.749985
5 *304:B *125:4 1.50002
*END

*D_NET *126 0.00122568

*CONN
*I *316:I1 I *C 12.5 6.8 *L 0.001 *D MUX2ND0
*I *305:ZN O *C 11.5 14.2 *L 0 *D AOI21D0

*CAP
1 *316:I1 0.000705235
2 *305:ZN 0.000241341
3 *126:2 0.000279102

*RES
1 *305:ZN *126:2 3.77751
2 *316:I1 *126:2 4.33545017
*END

*D_NET *127 0.000895715

*CONN
*I *304:ZN O *C 9.3 12.4 *L 0 *D OAI211D0
*I *297:A1 I *C 6.9 11.8 *L 0.00069 *D AOI21D0

*CAP
1 *297:A1 0.000683696953
2 *127:2 0.000212021

*RES
1 *297:A1 *127:2 6.29728985
2 *304:ZN *127:2 1.50005
*END

*D_NET *128 1.9827e-05

*CONN
*I *303:ZN O *C 6.9 17.8 *L 0 *D CKND2D0
*I *290:A2 I *C 7.1 17.4 *L 0.000671 *D AOI21D0

*CAP
1 *303:ZN 1.98270007e-05

*RES
1 *303:ZN *290:A2 0.201701
*END

*D_NET *129 0.000397909

*CONN
*I *302:ZN O *C 5.7 11.4 *L 0 *D CKND2D0
*I *297:A2 I *C 6.5 11.8 *L 0.000671 *D AOI21D0

*CAP
1 *302:ZN 4.8904e-05
2 *297:A2 7.63885e-05
3 *129:2 0.00027262

*RES
1 *297:A2 *129:2 2.87515998
2 *302:ZN *129:2 2.24999
*END

*D_NET *130 7.7672e-05

*CONN
*I *301:ZN O *C 8.1 39.4 *L 0 *D CKND2D0
*I *273:A2 I *C 7.3 39 *L 0.000671 *D AOI21D0

*CAP
1 *273:A2 7.76719971e-05

*RES
1 *273:A2 *301:ZN 0.782495
*END

*D_NET *131 0.000676882

*CONN
*I *300:ZN O *C 8.7 51 *L 0 *D CKND2D0
*I *265:A2 I *C 6.9 51.4 *L 0.000671 *D AOI21D0

*CAP
1 *300:ZN 0.000108444
2 *265:A2 0.000171601
3 *131:2 0.000396833984

*RES
1 *300:ZN *131:2 3.58476996
2 *265:A2 *131:2 2.08202
*END

*D_NET *132 0.000463646

*CONN
*I *298:ZN O *C 11.3 6.8 *L 0 *D NR2D0
*I *291:D I *C 12.3 8.2 *L 0.000792 *D DFNCND1

*CAP
1 *298:ZN 0.000463645977

*RES
1 *298:ZN *291:D 3.54239
*END

*D_NET *133 0.000536863

*CONN
*I *176:I I *C 8.5 11.8 *L 0.000643 *D CKBD0
*I *297:ZN O *C 7.1 11.4 *L 0 *D AOI21D0

*CAP
1 *133:2 0.000536863047

*RES
1 *176:I *133:2 4.5827198
2 *297:ZN *133:2 1.5
*END

*D_NET *134 0.00188207

*CONN
*I *307:ZN O *C 5.7 15 *L 0 *D CKND2D0
*I *299:A1 I *C 6.7 21 *L 0.000647 *D NR2D0
*I *296:B I *C 7.5 15.4 *L 0.000726 *D OAI211D0
*I *295:A1 I *C 8.5 21 *L 0.00069 *D AOI21D0

*CAP
1 *295:A1 0.000184897
2 *134:4 0.00113809
3 *134:5 0.000523138
4 *134:6 3.59305e-05

*RES
1 *296:B *134:4 3.02885
2 *299:A1 *134:5 1.50001
3 *134:4 *134:6 4.97167015
4 *295:A1 *134:5 4.25053
5 *307:ZN *134:4 3.14667
6 *134:5 *134:6 0.749968
*END

*D_NET *135 0.000322558

*CONN
*I *296:ZN O *C 6.9 16 *L 0 *D OAI211D0
*I *290:A1 I *C 7.5 17.4 *L 0.00069 *D AOI21D0

*CAP
1 *296:ZN 0.000322557988

*RES
1 *296:ZN *290:A1 3.41323
*END

*D_NET *136 0.000148265

*CONN
*I *315:I1 I *C 10.3 21.2 *L 0.001 *D MUX2ND0
*I *295:ZN O *C 8.7 21.4 *L 0 *D AOI21D0

*CAP
1 *295:ZN 0.000148265

*RES
1 *295:ZN *315:I1 1.16087
*END

*D_NET *137 0.0035187

*CONN
*I *299:ZN O *C 6.7 21.2 *L 0 *D NR2D0
*I *295:B I *C 8.7 21 *L 0.00072 *D AOI21D0
*I *294:A1 I *C 8.1 32 *L 0.000617 *D CKND2D0
*I *287:A2 I *C 6.1 31.8 *L 0.00065 *D OAI211D0

*CAP
1 *299:ZN 0.000408386
2 *295:B 0.000578961
3 *137:4 0.00030597
4 *137:5 0.00019156
5 *137:6 0.000492867
6 *137:7 0.000579929
7 *137:8 0.000961023984

*RES
1 *137:4 *137:5 1.7201
2 *295:B *137:8 5.55149984
3 *137:6 *137:7 3.46537
4 *137:5 *137:8 3.85647
5 *137:4 *137:6 2.27148
6 *299:ZN *137:8 5.48509
7 *287:A2 *137:7 0.750015
8 *294:A1 *137:6 1.50003
*END

*D_NET *138 0.00979171

*CONN
*I *187:I I *C 5.9 82.2 *L 0.00105 *D DEL1
*I *292:ZN O *C 8.1 11.6 *L 0 *D NR2D1

*CAP
1 *138:2 0.00263381
2 *138:3 0.00203607
3 *138:4 6.61115e-05
4 *138:6 0.000349366
5 *138:7 0.000129731
6 *138:9 8.54828e-05
7 *138:10 0.000680768
8 *138:11 0.000202394
9 *138:2 *195:I 0.000476008008
10 *138:2 *9:3 0.00220321016
11 *138:2 *155:4 0.000558115
12 *138:3 *276:CPN 0.000370651016

*RES
1 *138:9 *138:10 12.8254
2 *138:7 *138:9 0.200072
3 *138:6 *138:8 3.86362
4 *138:3 *138:11 4.46941
5 *138:8 *138:10 0.200072
6 *138:5 *138:6 0.356475
7 *138:4 *138:2 19.6956
8 *187:I *138:4 1.83503
9 *138:3 *138:5 20.2971001
10 *138:2 *138:7 4.99561
11 *292:ZN *138:11 0.750116
*END

*D_NET *139 0.00051427

*CONN
*I *177:I I *C 7.3 21 *L 0.000643 *D CKBD0
*I *290:ZN O *C 7.7 17.8 *L 0 *D AOI21D0

*CAP
1 *177:I 9.0901e-05
2 *290:ZN 0.000423366992

*RES
1 *177:I *290:ZN 5.66017
*END

*D_NET *140 0.00592577

*CONN
*I *213:I I *C 6.7 58.6 *L 0.00105 *D DEL1
*I *294:ZN O *C 7.9 32.2 *L 0 *D CKND2D0

*CAP
1 *213:I 9.66889e-05
2 *294:ZN 0.00013447
3 *140:2 0.000996776016
4 *140:3 0.000184754
5 *140:4 4.09296e-05
6 *140:2 *74:2 0.002738
7 *213:I *2:2 0.00128481992
8 *140:3 *37:2 0.000449333984

*RES
1 *140:4 *140:2 3.14776
2 *294:ZN *140:4 1.65648
3 *140:3 *140:2 28.7194004
4 *213:I *140:3 3.34452
*END

*D_NET *141 0.00037759

*CONN
*I *287:ZN O *C 6.1 31.2 *L 0 *D OAI211D0
*I *281:A1 I *C 6.5 29.8 *L 0.00069 *D AOI21D0

*CAP
1 *287:ZN 0.000117619
2 *281:A1 0.000259972012

*RES
1 *287:ZN *281:A1 4.5338
*END

*D_NET *142 0.000575532

*CONN
*I *314:I1 I *C 10.7 32 *L 0.001 *D MUX2ND0
*I *285:ZN O *C 8.3 33 *L 0 *D AOI21D0

*CAP
1 *314:I1 0.000237741
2 *142:2 0.000337793008

*RES
1 *314:I1 *142:2 2.00664
2 *285:ZN *142:2 2.47714996
*END

*D_NET *143 0.00528492

*CONN
*I *211:I I *C 6.5 64.2 *L 0.00105 *D DEL1
*I *289:ZN O *C 6.5 33.2 *L 0 *D NR2D0

*CAP
1 *289:ZN 0.000123173
2 *143:2 0.000290058
3 *143:3 0.00021476
4 *143:4 0.00180625
5 *143:5 0.000234026
6 *143:7 0.000348351
7 *143:9 0.000272198
8 *143:3 *1:3 0.000730305
9 *289:ZN *145:2 0.000260189004
10 *289:ZN *36:4 0.000789362031
11 *143:2 *50:15 0.000216261992

*RES
1 *143:6 *143:2 0.200108
2 *143:3 *143:4 15.7812996
3 *289:ZN *143:7 3.51308
4 *143:2 *143:8 3.40737
5 *143:6 *143:7 3.25133
6 *143:5 *143:9 2.79814
7 *143:8 *143:9 0.200108
8 *143:4 *143:5 4.4999
9 *211:I *143:3 1.49997
*END

*D_NET *144 0.0107788

*CONN
*I *188:I I *C 6.9 80.2 *L 0.00105 *D DEL1
*I *283:ZN O *C 8.1 22.4 *L 0 *D NR2XD0

*CAP
1 *188:I 0.000106426
2 *283:ZN 0.000196319
3 *144:2 6.00861e-05
4 *144:3 0.00309571
5 *144:4 0.000827412
6 *144:5 0.000934594
7 *144:6 0.000124329
8 *144:7 0.00023836
9 *144:8 0.000552159
10 *144:9 0.000101135
11 *144:10 0.000356879
12 *144:11 0.000101277
13 *144:12 0.000184037
14 *144:13 0.000152908
15 *144:14 0.000248564
16 *188:I *2:2 0.00108716
17 *144:3 *145:3 0.00129231
18 *144:2 *155:3 0.000480818008
19 *188:I *74:2 0.000638411992

*RES
1 *144:4 *144:6 6.25306
2 *144:2 *144:3 18.9617004
3 *144:8 *144:14 2.70179
4 *144:4 *144:9 2.50504
5 *188:I *144:7 2.25014
6 *144:13 *144:14 2.0479
7 *144:10 *144:11 4.08885
8 *283:ZN *144:5 2.85947
9 *144:5 *144:13 7.15635
10 *144:9 *144:11 1.98974
11 *144:10 *144:12 3.64993
12 *144:2 *144:7 2.15726
13 *144:8 *144:12 7.30796
14 *144:3 *144:6 2.15726
*END

*D_NET *145 0.00635752

*CONN
*I *210:I I *C 10.3 62.2 *L 0.00105 *D DEL1
*I *281:ZN O *C 6.7 29.4 *L 0 *D AOI21D0

*CAP
1 *145:2 0.000616024
2 *145:3 7.28425e-05
3 *145:4 0.000503244
4 *145:5 9.5135e-05
5 *145:6 0.000653666992
6 *145:7 0.000247433
7 *145:8 7.78994e-06
8 *145:10 0.000145017
9 *145:11 0.000244062
10 *145:12 0.00019041
11 *145:13 0.000174112
12 *145:2 *36:4 0.00155416
13 *145:3 *144:3 0.00129231
14 *145:4 *2:2 0.000301135996
15 *145:2 *289:ZN 0.000260189004

*RES
1 *145:5 *145:6 5.7077
2 *145:6 *145:8 0.356507
3 *145:9 *145:11 4.03274
4 *145:9 *145:10 0.200101
5 *145:7 *145:10 3.50132
6 *145:12 *145:13 2.19019
7 *145:3 *145:4 3.56442
8 *145:7 *145:8 8.42249966
9 *145:2 *145:13 4.02451
10 *145:4 *145:5 2.29969
11 *145:11 *145:12 2.72225
12 *281:ZN *145:2 1.90103
13 *210:I *145:3 1.50005
*END

*D_NET *146 0.0023844

*CONN
*I *284:ZN O *C 6.3 35.8 *L 0 *D CKND2D0
*I *282:A1 I *C 6.5 47.8 *L 0.000647 *D NR2D0
*I *280:B I *C 6.9 37 *L 0.000726 *D OAI211D0
*I *277:A1 I *C 8.1 47.8 *L 0.00069 *D AOI21D0

*CAP
1 *284:ZN 0.000242953
2 *282:A1 0.000118548
3 *146:4 7.10512e-05
4 *146:5 7.87009e-05
5 *146:6 0.000435327
6 *146:7 0.00011953
7 *146:8 0.000748247031
8 *146:9 0.000570054

*RES
1 *146:8 *146:9 1.27986
2 *277:A1 *146:5 2.24998
3 *146:7 *146:8 6.69942999
4 *146:6 *146:7 2.35578
5 *282:A1 *146:6 1.49995
6 *146:5 *146:6 1.25062
7 *146:4 *146:9 2.23975
8 *284:ZN *146:9 3.47055
9 *280:B *146:4 1.49995
*END

*D_NET *147 0.000392079

*CONN
*I *280:ZN O *C 6.3 37.6 *L 0 *D OAI211D0
*I *273:A1 I *C 6.9 39 *L 0.00069 *D AOI21D0

*CAP
1 *280:ZN 0.000338763008
2 *273:A1 5.3315e-05

*RES
1 *280:ZN *273:A1 3.75343
*END

*D_NET *148 0.00130729

*CONN
*I *282:ZN O *C 6.5 47.6 *L 0 *D NR2D0
*I *278:A1 I *C 8.9 50 *L 0.000617 *D CKND2D0
*I *277:B I *C 8.3 47.8 *L 0.00072 *D AOI21D0
*I *270:A2 I *C 7.1 49.8 *L 0.00065 *D OAI211D0

*CAP
1 *282:ZN 6.86613e-05
2 *278:A1 0.000244511
3 *277:B 0.000187993
4 *270:A2 9.35401e-05
5 *148:4 0.000436527031
6 *148:5 0.000276057

*RES
1 *278:A1 *148:5 3.84949994
2 *282:ZN *148:4 1.08919
3 *148:4 *148:5 2.1785
4 *277:B *148:5 3.03515
5 *270:A2 *148:4 2.31066
*END

*D_NET *149 0.00107869

*CONN
*I *313:I1 I *C 7.7 44 *L 0.001 *D MUX2ND0
*I *277:ZN O *C 8.3 47.4 *L 0 *D AOI21D0

*CAP
1 *313:I1 0.000107887
2 *149:3 0.000970803984

*RES
1 *313:I1 *149:3 1.97003
2 *149:2 *149:3 4.86282015
3 *277:ZN *149:2 1.49997
*END

*D_NET *150 0.00478521

*CONN
*I *180:I I *C 13.3 55 *L 0.00072 *D BUFFD1
*I *275:ZN O *C 11.3 33.2 *L 0 *D NR2D0

*CAP
1 *180:I 0.000379241
2 *275:ZN 0.000357001
3 *150:2 0.000807226
4 *150:3 0.000629884
5 *150:4 0.000907608
6 *150:5 4.44109e-05
7 *150:6 0.00151824
8 *150:7 0.000141596

*RES
1 *150:5 *150:6 4.38831
2 *180:I *150:2 2.05987
3 *150:6 *150:7 4.90572
4 *150:4 *150:5 4.80152
5 *150:3 *150:4 3.22683
6 *150:2 *150:7 6.40033007
7 *275:ZN *150:3 2.64584
*END

*D_NET *151 0.000616188

*CONN
*I *274:ZN O *C 11.3 50.2 *L 0 *D CKND2D0
*I *266:A2 I *C 11.9 47.8 *L 0.0007 *D AOI32D0

*CAP
1 *274:ZN 0.00030816
2 *266:A2 0.000308028

*RES
1 *274:ZN *266:A2 5.01329
*END

*D_NET *152 0.00415524

*CONN
*I *207:I I *C 9.9 64.2 *L 0.00105 *D DEL1
*I *273:ZN O *C 6.7 39.4 *L 0 *D AOI21D0

*CAP
1 *273:ZN 9.56591e-05
2 *152:2 0.000559282
3 *152:3 0.000584356
4 *152:4 0.00044238
5 *152:6 0.000354479
6 *152:7 0.00125531008
7 *152:8 0.000121078
8 *152:9 0.000742728

*RES
1 *152:8 *152:9 4.34624
2 *152:6 *152:7 9.34467983
3 *152:5 *152:7 0.200052
4 *273:ZN *152:2 0.960761
5 *152:3 *152:9 3.9604
6 *152:3 *152:4 2.3182
7 *152:2 *152:5 4.63555
8 *152:4 *152:6 2.34558
9 *207:I *152:8 1.50003
*END

*D_NET *153 0.00118236

*CONN
*I *278:ZN O *C 9.1 50.2 *L 0 *D CKND2D0
*I *274:A1 I *C 11.5 50 *L 0.000617 *D CKND2D0
*I *272:A1 I *C 10.1 50 *L 0.000633 *D OR2D0
*I *270:B I *C 7.7 49.8 *L 0.000726 *D OAI211D0

*CAP
1 *278:ZN 4.10513e-05
2 *274:A1 0.000134199
3 *272:A1 9.35186e-05
4 *270:B 0.000351903008
5 *153:4 0.000297927
6 *153:5 0.000263759

*RES
1 *274:A1 *153:4 4.32651997
2 *270:B *153:5 3.58996
3 *153:4 *153:5 0.95963
4 *278:ZN *153:5 1.49998
5 *278:ZN *272:A1 1.00637
*END

*D_NET *154 0.000994269

*CONN
*I *270:ZN O *C 7.1 49.2 *L 0 *D OAI211D0
*I *265:A1 I *C 7.3 51.4 *L 0.00069 *D AOI21D0

*CAP
1 *270:ZN 0.000174855
2 *154:2 0.00054206
3 *154:3 0.000277353

*RES
1 *154:2 *154:3 4.16466999
2 *265:A1 *154:3 2.41965
3 *270:ZN *154:2 2.58449
*END

*D_NET *155 0.00735916

*CONN
*I *181:I I *C 6.9 85.8 *L 0.00103 *D DEL2
*I *268:ZN O *C 6.5 44 *L 0 *D NR2D0

*CAP
1 *268:ZN 2.82532e-05
2 *155:2 0.00116469
3 *155:3 0.00227186984
4 *155:4 0.0012265
5 *155:5 0.00010712
6 *155:6 0.00051972
7 *155:7 0.000266863
8 *155:2 *50:14 0.000379359023
9 *155:3 *144:2 0.000480818008
10 *155:3 *51:2 0.000355851992
11 *155:4 *138:2 0.000558115

*RES
1 *155:3 *155:6 3.35812
2 *155:2 *155:5 9.48133
3 *181:I *155:7 3.3446
4 *268:ZN *155:2 0.767463
5 *155:4 *155:5 0.356419
6 *155:4 *155:6 11.3305
7 *155:3 *155:7 17.7224998
*END

*D_NET *156 0.00168482

*CONN
*I *272:Z O *C 11.1 50 *L 0 *D OR2D0
*I *267:B1 I *C 14.3 49.8 *L 0.000689 *D MOAI22D0
*I *267:A1 I *C 15.3 49.8 *L 0.000721 *D MOAI22D0
*I *266:A1 I *C 11.5 47.8 *L 0.000719 *D AOI32D0

*CAP
1 *272:Z 0.00028203
2 *267:A1 0.000347947
3 *266:A1 0.000243139
4 *156:4 0.000347798
5 *156:5 0.000463903008

*RES
1 *266:A1 *156:5 2.30002
2 *272:Z *156:5 2.01313
3 *156:4 *156:5 2.51215
4 *267:A1 *156:4 4.07929993
5 *267:B1 *156:4 2.77794
*END

*D_NET *157 0.000689697

*CONN
*I *312:I1 I *C 14.1 50 *L 0.001 *D MUX2ND0
*I *267:ZN O *C 15.1 49.2 *L 0 *D MOAI22D0

*CAP
1 *267:ZN 0.000153519
2 *157:2 0.000536179023

*RES
1 *312:I1 *157:2 1.70013
2 *267:ZN *157:2 3.98283005
*END

*D_NET *158 0.000498973

*CONN
*I *266:ZN O *C 12.3 48.4 *L 0 *D AOI32D0
*I *262:A1 I *C 14.3 47.8 *L 0.000647 *D NR2D0

*CAP
1 *266:ZN 0.000365798008
2 *262:A1 0.000133174

*RES
1 *266:ZN *262:A1 3.73045
*END

*D_NET *159 0.00250979

*CONN
*I *206:I I *C 6.9 67.8 *L 0.00105 *D DEL1
*I *265:ZN O *C 7.5 51 *L 0 *D AOI21D0

*CAP
1 *206:I 1.7488e-05
2 *265:ZN 0.000325884
3 *159:2 0.00174441
4 *159:3 0.000422028

*RES
1 *159:2 *159:3 9.9718399
2 *206:I *159:3 3.74537
3 *265:ZN *159:2 2.49113
*END

*D_NET *160 0.00641936

*CONN
*I *182:I I *C 10.7 83.8 *L 0.00103 *D DEL2
*I *262:ZN O *C 14.3 47.6 *L 0 *D NR2D0

*CAP
1 *182:I 6.21143e-05
2 *262:ZN 5.98611e-06
3 *160:2 0.00085598
4 *160:3 4.54675e-05
5 *160:4 0.00220392984
6 *160:5 0.000569521
7 *160:6 8.47808e-05
8 *160:7 0.000280237
9 *160:8 0.000261909
10 *160:4 *197:I 0.000978322969
11 *160:4 *35:2 0.000533525
12 *160:2 *51:3 0.000537567031

*RES
1 *160:4 *160:6 3.54802
2 *160:2 *160:3 7.60425
3 *182:I *160:4 17.0884991
4 *262:ZN *160:2 0.383824
5 *160:7 *160:8 2.97177
6 *160:3 *160:5 1.53347
7 *160:6 *160:8 3.9102
8 *160:5 *160:7 4.46195
*END

*D_NET *161 0.00594631

*CONN
*I *185:I I *C 12.7 80.2 *L 0.00105 *D DEL1
*I *260:ZN O *C 13.5 51.2 *L 0 *D NR2D0

*CAP
1 *185:I 6.15035e-05
2 *260:ZN 2.14799e-05
3 *161:2 0.00104583
4 *161:3 0.000824185
5 *161:4 0.000619024
6 *161:5 0.00102831
7 *161:6 0.000912323
8 *161:2 *189:I 0.00112695
9 *161:3 *32:2 0.000306708984

*RES
1 *161:4 *161:3 8.39015
2 *185:I *161:2 7.65614
3 *260:ZN *161:6 1.13381
4 *161:6 *161:3 4.6548
5 *161:4 *161:5 10.1358004
6 *161:5 *161:2 2.60664
*END

*D_NET *162 0.000303526

*CONN
*I *312:ZN O *C 13.5 50 *L 0 *D MUX2ND0
*I *260:A1 I *C 13.5 51.4 *L 0.000647 *D NR2D0

*CAP
1 *260:A1 0.000303526016

*RES
1 *312:ZN *260:A1 2.72882
*END

*D_NET *163 0.000565784

*CONN
*I *313:ZN O *C 8.3 44 *L 0 *D MUX2ND0
*I *268:A1 I *C 6.5 44.2 *L 0.000647 *D NR2D0

*CAP
1 *313:ZN 6.92413e-05
2 *268:A1 0.000432658984
3 *163:2 6.38871e-05

*RES
1 *313:ZN *163:2 1.5
2 *268:A1 *163:2 3.44070005
*END

*D_NET *164 0.000294924

*CONN
*I *314:ZN O *C 11.3 32 *L 0 *D MUX2ND0
*I *275:A1 I *C 11.3 33.4 *L 0.000647 *D NR2D0

*CAP
1 *275:A1 0.000294923984

*RES
1 *314:ZN *275:A1 2.59649
*END

*D_NET *165 0.000956784

*CONN
*I *315:ZN O *C 10.9 21.2 *L 0 *D MUX2ND0
*I *283:A1 I *C 8.1 22.6 *L 0.000774 *D NR2XD0

*CAP
1 *315:ZN 0.000100961
2 *165:2 0.00048092
3 *165:3 0.000374903

*RES
1 *165:2 *165:3 2.78178
2 *315:ZN *165:3 3.20173001
3 *283:A1 *165:2 0.750015
*END

*D_NET *166 0.00167324

*CONN
*I *316:ZN O *C 13.1 6.8 *L 0 *D MUX2ND0
*I *292:A1 I *C 8.1 11.8 *L 0.00093 *D NR2D1

*CAP
1 *316:ZN 0.000744781016
2 *292:A1 0.000549605
3 *166:2 0.000378851

*RES
1 *316:ZN *166:2 5.33202
2 *292:A1 *166:2 6.20001984
*END

*D_NET *167 0.000809652

*CONN
*I *317:ZN O *C 14.1 6.8 *L 0 *D XNR2D0
*I *298:A1 I *C 11.3 6.6 *L 0.000647 *D NR2D0

*CAP
1 *167:2 0.000579473008
2 *167:3 0.00023018

*RES
1 *167:2 *167:3 4.3856101
2 *298:A1 *167:2 2.4378
3 *317:ZN *167:3 0.750029
*END

