*SPEF "IEEE 1481-1998"
*DESIGN "bus_slave_c"
*DATE "Thu Apr  2 21:18:56 2026"
*VENDOR "Cadence Design Systems, Inc."
*PROGRAM "Innovus"
*VERSION "21.16-s078_1"
*DESIGN_FLOW "COUPLING C" "PIN_CAP NONE" "NAME_SCOPE LOCAL"
*DIVIDER /
*DELIMITER :
*BUS_DELIMITER []
*T_UNIT 1 NS
*C_UNIT 1 PF
*R_UNIT 1 OHM
*L_UNIT 1 HENRY

// MMMC spef file for corner 'RC_BEST'

*NAME_MAP

*1 FE_PDN36_n_58
*2 FE_PDN35_n_65
*3 FE_PHN80_BUS_RST_N
*4 FE_PHN79_FE_OFN12_debug_cnt_c_7
*5 FE_PHN78_n_78
*6 FE_PHN77_n_84
*7 FE_PHN76_n_89
*8 FE_PHN75_n_72
*9 FE_PHN74_n_65
*10 FE_PHN73_n_92
*11 FE_PHN72_n_58
*12 FE_PHN71_n_64
*13 FE_PHN70_n_71
*14 FE_PHN69_n_78
*15 FE_PHN68_BUS_RST_N
*16 FE_PHN67_FE_OFN32_debug_cnt_c_0
*17 FE_PHN66_CHC_START
*18 FE_PHN65_n_35
*19 FE_PHN64_FE_OFN6_debug_cnt_c_9
*20 FE_PHN63_CHC_RD
*21 FE_PHN62_FE_OFN12_debug_cnt_c_7
*22 FE_PHN61_n_20
*23 FE_PHN60_BUS_RST_N
*24 FE_PHN59_BUS_RST_N
*25 FE_PHN58_BUS_RST_N
*26 FE_PHN57_BUS_RST_N
*27 FE_PHN56_BUS_RST_N
*28 FE_PHN55_BUS_RST_N
*29 FE_PHN54_n_92
*30 FE_PHN53_n_89
*31 FE_PHN52_n_88
*32 FE_PHN51_n_80
*33 FE_PHN50_n_84
*34 FE_PHN49_n_78
*35 FE_PHN48_n_72
*36 FE_PHN47_n_70
*37 FE_PHN46_n_71
*38 FE_PHN45_n_67
*39 FE_PHN44_n_64
*40 FE_PHN43_BUS_RST_N
*41 FE_PHN42_CHC_RD
*42 FE_PHN41_FE_OFN24_debug_cnt_c_3
*43 FE_PHN40_FE_OFN32_debug_cnt_c_0
*44 FE_PHN39_FE_OFN30_debug_cnt_c_1
*45 FE_PHN38_n_35
*46 FE_PHN37_n_0
*47 FE_PHN36_n_6
*48 FE_PHN35_CHC_START
*49 CTS_2
*50 CTS_1
*51 FE_OFN32_debug_cnt_c_0
*52 FE_OFN30_debug_cnt_c_1
*53 FE_OFN28_debug_cnt_c_2
*54 FE_OFN27_debug_cnt_c_2
*55 FE_OFN25_debug_cnt_c_3
*56 FE_OFN24_debug_cnt_c_3
*57 FE_OFN22_debug_cnt_c_4
*58 FE_OFN21_debug_cnt_c_4
*59 FE_OFN19_debug_cnt_c_5
*60 FE_OFN18_debug_cnt_c_5
*61 FE_OFN16_debug_cnt_c_6
*62 FE_OFN15_debug_cnt_c_6
*63 FE_OFN13_debug_cnt_c_7
*64 FE_OFN12_debug_cnt_c_7
*65 FE_OFN10_debug_cnt_c_8
*66 FE_OFN9_debug_cnt_c_8
*67 FE_OFN7_debug_cnt_c_9
*68 FE_OFN6_debug_cnt_c_9
*69 FE_OFN4_debug_cnt_c_10
*70 FE_OFN3_debug_cnt_c_10
*71 FE_OFN1_debug_cnt_c_11
*72 BUS_CLK
*73 BUS_RST_N
*74 CHC_START
*75 CHC_RD
*76 CHC_RDATA[7]
*77 CHC_RDATA[6]
*78 CHC_RDATA[5]
*79 CHC_RDATA[4]
*80 CHC_RDATA[3]
*81 CHC_RDATA[2]
*82 CHC_RDATA[1]
*83 CHC_RDATA[0]
*84 sram_c_re
*85 sram_c_addr[11]
*86 sram_c_addr[10]
*87 sram_c_addr[9]
*88 sram_c_addr[8]
*89 sram_c_addr[7]
*90 sram_c_addr[6]
*91 sram_c_addr[5]
*92 sram_c_addr[4]
*93 sram_c_addr[3]
*94 sram_c_addr[2]
*95 sram_c_addr[1]
*96 sram_c_addr[0]
*97 debug_cnt_c[11]
*98 debug_cnt_c[10]
*99 debug_cnt_c[9]
*100 debug_cnt_c[8]
*101 debug_cnt_c[7]
*102 debug_cnt_c[6]
*103 debug_cnt_c[5]
*104 debug_cnt_c[4]
*105 debug_cnt_c[3]
*106 debug_cnt_c[2]
*107 debug_cnt_c[1]
*108 debug_cnt_c[0]
*109 UNCONNECTED
*110 UNCONNECTED0
*111 UNCONNECTED1
*112 UNCONNECTED2
*113 UNCONNECTED3
*114 UNCONNECTED4
*115 UNCONNECTED5
*116 UNCONNECTED6
*117 n_0
*118 n_3
*119 n_6
*120 n_18
*121 n_20
*122 n_35
*123 n_47
*124 n_48
*125 n_49
*126 n_50
*127 n_51
*128 n_52
*129 n_53
*130 n_54
*131 n_55
*132 n_57
*133 n_58
*134 n_60
*135 n_61
*136 n_62
*137 n_63
*138 n_64
*139 n_65
*140 n_67
*141 n_68
*142 n_69
*143 n_70
*144 n_71
*145 n_72
*146 n_74
*147 n_75
*148 n_76
*149 n_77
*150 n_78
*151 n_79
*152 n_80
*153 n_81
*154 n_82
*155 n_84
*156 n_85
*157 n_86
*158 n_87
*159 n_88
*160 n_89
*161 n_92
*162 n_106
*163 n_107
*164 n_108
*165 n_109
*166 n_110
*167 n_111
*168 sram_c_dout[7]
*169 sram_c_dout[6]
*170 sram_c_dout[5]
*171 sram_c_dout[4]
*172 sram_c_dout[3]
*173 sram_c_dout[2]
*174 sram_c_dout[1]
*175 sram_c_dout[0]
*176 FE_PDC36_n_58
*177 FE_PDC35_n_65
*178 FE_PHC80_BUS_RST_N
*179 FE_PHC79_FE_OFN12_debug_cnt_c_7
*180 FE_PHC78_n_78
*181 FE_PHC77_n_84
*182 FE_PHC76_n_89
*183 FE_PHC75_n_72
*184 FE_PHC74_n_65
*185 FE_PHC73_n_92
*186 FE_PHC72_n_58
*187 FE_PHC71_n_64
*188 FE_PHC70_n_71
*189 FE_PHC69_n_78
*190 FE_PHC68_BUS_RST_N
*191 FE_PHC67_FE_OFN32_debug_cnt_c_0
*192 FE_PHC66_CHC_START
*193 FE_PHC65_n_35
*194 FE_PHC64_FE_OFN6_debug_cnt_c_9
*195 FE_PHC63_CHC_RD
*196 FE_PHC62_FE_OFN12_debug_cnt_c_7
*197 FE_PHC61_n_20
*198 FE_PHC60_BUS_RST_N
*199 FE_PHC59_BUS_RST_N
*200 FE_PHC58_BUS_RST_N
*201 FE_PHC57_BUS_RST_N
*202 FE_PHC56_BUS_RST_N
*203 FE_PHC55_BUS_RST_N
*204 FE_PHC54_n_92
*205 FE_PHC53_n_89
*206 FE_PHC52_n_88
*207 FE_PHC51_n_80
*208 FE_PHC50_n_84
*209 FE_PHC49_n_78
*210 FE_PHC48_n_72
*211 FE_PHC47_n_70
*212 FE_PHC46_n_71
*213 FE_PHC45_n_67
*214 FE_PHC44_n_64
*215 FE_PHC43_BUS_RST_N
*216 FE_PHC42_CHC_RD
*217 FE_PHC41_FE_OFN24_debug_cnt_c_3
*218 FE_PHC40_FE_OFN32_debug_cnt_c_0
*219 FE_PHC39_FE_OFN30_debug_cnt_c_1
*220 FE_PHC38_n_35
*221 FE_PHC37_n_0
*222 FE_PHC36_n_6
*223 FE_PHC35_CHC_START
*224 CTS_ccl_a_inv_00001
*225 CTS_cmf_inv_00047
*226 FE_OFC34_debug_cnt_c_1
*227 FE_OFC33_debug_cnt_c_0
*228 FE_OFC32_debug_cnt_c_0
*229 FE_OFC30_debug_cnt_c_1
*230 FE_OFC29_debug_cnt_c_2
*231 FE_OFC28_debug_cnt_c_2
*232 FE_OFC27_debug_cnt_c_2
*233 FE_OFC26_debug_cnt_c_3
*234 FE_OFC25_debug_cnt_c_3
*235 FE_OFC24_debug_cnt_c_3
*236 FE_OFC23_debug_cnt_c_4
*237 FE_OFC22_debug_cnt_c_4
*238 FE_OFC21_debug_cnt_c_4
*239 FE_OFC20_debug_cnt_c_5
*240 FE_OFC19_debug_cnt_c_5
*241 FE_OFC18_debug_cnt_c_5
*242 FE_OFC17_debug_cnt_c_6
*243 FE_OFC16_debug_cnt_c_6
*244 FE_OFC15_debug_cnt_c_6
*245 FE_OFC14_debug_cnt_c_7
*246 FE_OFC13_debug_cnt_c_7
*247 FE_OFC12_debug_cnt_c_7
*248 FE_OFC11_debug_cnt_c_8
*249 FE_OFC10_debug_cnt_c_8
*250 FE_OFC9_debug_cnt_c_8
*251 FE_OFC8_debug_cnt_c_9
*252 FE_OFC7_debug_cnt_c_9
*253 FE_OFC6_debug_cnt_c_9
*254 FE_OFC5_debug_cnt_c_10
*255 FE_OFC4_debug_cnt_c_10
*256 FE_OFC3_debug_cnt_c_10
*257 FE_OFC2_debug_cnt_c_11
*258 FE_OFC1_debug_cnt_c_11
*259 cnt_c_reg\[11\]
*260 p95792A__2398
*261 cnt_c_reg\[10\]
*262 p95821A__6260
*263 cnt_c_reg\[9\]
*264 cnt_c_reg\[8\]
*265 p95850A__4319
*266 p95810A__8428
*267 p95771A__5526
*268 p95879A__6783
*269 cnt_c_reg\[7\]
*270 p95856A306__1617
*271 cnt_c_reg\[6\]
*272 p95752A__2802
*273 p95906A__1705
*274 p95856A__5122
*275 p95934A__8246
*276 cnt_c_reg\[5\]
*277 p95858A__7098
*278 p95742A__6131
*279 cnt_c_reg\[4\]
*280 p95912A__1881
*281 p95962A__7482
*282 p95716A__4733
*283 p95991A__6161
*284 p95705A__9315
*285 p95914A__9945
*286 cnt_c_reg\[3\]
*287 p95969A__2883
*288 cnt_c_reg\[2\]
*289 p95679A__1666
*290 p96017A__7410
*291 cnt_c_reg\[0\]
*292 p96050A__6417
*293 cnt_c_reg\[1\]
*294 p95668A__5477
*295 p95971A__2398
*296 p96026A__5107
*297 p96073A__4319
*298 p96118A__8428
*299 p95642A__5526
*300 p96142A317__3680
*301 p96142A316__1617
*302 p96142A315__2802
*303 p96142A318__1705
*304 p96082A__5122
*305 p96028A__8246
*306 p96142A__7098
*307 p95632A__6131
*308 p95604A__1881
*309 p23609A
*310 p95591A__5115
*311 chc_rd_s_reg
*312 g2
*313 g367
*314 g368
*315 g369
*316 g370
*317 g371


*PORTS

*72 I *C 5 648
*73 I *C 8 648
*74 I *C 0 5
*75 I *C 0 6
*76 O *C 21.6 25
*77 O *C 21.6 24
*78 O *C 21.6 23
*79 O *C 21.6 22
*80 O *C 21.6 21
*81 O *C 21.6 20
*82 O *C 21.6 19
*83 O *C 21.6 18
*84 O *C 21.6 5
*85 O *C 21.6 17
*86 O *C 21.6 16
*87 O *C 21.6 15
*88 O *C 21.6 14
*89 O *C 21.6 13
*90 O *C 21.6 12
*91 O *C 21.6 11
*92 O *C 21.6 10
*93 O *C 21.6 9
*94 O *C 21.6 8
*95 O *C 21.6 7
*96 O *C 21.6 6
*168 I *C 0 14
*169 I *C 0 13
*170 I *C 0 12
*171 I *C 0 11
*172 I *C 0 10
*173 I *C 0 9
*174 I *C 0 8
*175 I *C 0 7
*97 O *C 21.6 37
*98 O *C 21.6 36
*99 O *C 21.6 35
*100 O *C 21.6 34
*101 O *C 21.6 33
*102 O *C 21.6 32
*103 O *C 21.6 31
*104 O *C 21.6 30
*105 O *C 21.6 29
*106 O *C 21.6 28
*107 O *C 21.6 27
*108 O *C 21.6 26


*D_NET *1 0.0155508

*CONN
*I *186:I I *C 6.7 78.6 *L 0.00105 *D DEL1
*I *176:Z O *C 9.1 11.4 *L 0 *D CKBD0

*CAP
1 *186:I 2.72744e-05
2 *1:2 0.000758504
3 *1:3 0.00251005
4 *1:4 3.99334e-05
5 *1:5 0.000128086
6 *1:6 0.000127395
7 *1:7 0.00251395984
8 *1:8 0.000165833
9 *1:9 1.11246e-05
10 *1:5 *80:2 0.00107173
11 *1:3 *212:I 0.00111626008
12 *1:6 *37:2 0.00218524
13 *1:2 *52:3 0.00336679
14 *1:3 *2:2 0.00064624
15 *1:3 *143:3 0.000882406016

*RES
1 *1:7 *1:8 0.285844
2 *1:6 *1:7 24.0785007
3 *1:2 *1:9 10.5424
4 *1:4 *1:3 20.9015
5 *186:I *1:4 0.327361
6 *1:8 *1:9 2.64791
7 *1:5 *1:2 0.656927
8 *176:Z *1:5 0.388718
9 *1:3 *1:6 2.04096
*END

*D_NET *2 0.0148367

*CONN
*I *184:I I *C 6.9 83.8 *L 0.00105 *D DEL1
*I *177:Z O *C 7.9 21.4 *L 0 *D CKBD0

*CAP
1 *184:I 6.9972e-05
2 *2:2 0.0034978
3 *2:3 0.000330379
4 *2:4 3.92825e-05
5 *2:5 3.25575e-05
6 *2:6 0.000120196
7 *2:8 0.00117234
8 *2:2 *1:3 0.00064624
9 *2:2 *212:I 0.000632323984
10 *2:3 *48:13 0.000586573008
11 *2:2 *213:I 0.00151543
12 *2:2 *37:2 0.00256614
13 *2:2 *145:4 0.000346425
14 *2:2 *74:2 0.00195662
15 *2:2 *188:I 0.00132441

*RES
1 *2:5 *2:8 10.268
2 *2:4 *2:6 13.7343
3 *2:2 *2:5 0.706378
4 *177:Z *2:3 0.610565
5 *2:6 *2:7 0.159474
6 *2:3 *2:7 11.1474
7 *184:I *2:2 21.0711002
8 *2:4 *2:8 0.798654
*END

*D_NET *3 0.00680427

*CONN
*I *178:Z O *C 8.5 213 *L 0 *D BUFFD1
*I *190:I I *C 7.9 132.6 *L 0.00104 *D DEL0

*CAP
1 *190:I 4.36742e-05
2 *3:2 0.0056565
3 *3:4 2.0715e-06
4 *3:2 *50:34 0.00110208

*RES
1 *190:I *3:2 0.449813
2 *3:3 *3:4 0.604948
3 *178:Z *3:3 0.449813
4 *3:2 *3:4 51.0900002
*END

*D_NET *4 0.00581048

*CONN
*I *179:Z O *C 8.3 36.6 *L 0 *D BUFFD1
*I *196:I I *C 5.9 71.4 *L 0.00105 *D DEL1

*CAP
1 *196:I 0.000234454
2 *179:Z 0.000249711
3 *4:2 7.67678e-07
4 *4:3 0.00157218
5 *4:2 *11:4 0.00186876
6 *4:2 *17:2 0.00188461

*RES
1 *4:2 *4:3 22.2194004
2 *179:Z *4:3 4.23462
3 *196:I *4:2 1.8871
*END

*D_NET *5 0.00610352

*CONN
*I *180:Z O *C 13.9 54.6 *L 0 *D BUFFD1
*I *189:I I *C 12.7 78.6 *L 0.00105 *D DEL1

*CAP
1 *189:I 1.25999e-05
2 *180:Z 0.000634578
3 *5:2 0.000133415
4 *5:3 0.00395089
5 *189:I *161:2 0.00137205

*RES
1 *5:2 *5:3 19.9421005
2 *189:I *5:2 1.1414
3 *180:Z *5:3 3.45159
*END

*D_NET *6 0.00422435

*CONN
*I *181:Z O *C 12.1 86.2 *L 0 *D DEL2
*I *208:I I *C 6.9 65.8 *L 0.00105 *D DEL1

*CAP
1 *208:I 2.55073e-06
2 *6:2 0.00144201
3 *6:3 0.0021431
4 *6:4 0.0006367

*RES
1 *6:2 *6:4 3.63857
2 *208:I *6:3 0.393731
3 *6:3 *6:4 8.43529987
4 *181:Z *6:2 7.8113
*END

*D_NET *7 0.00267477

*CONN
*I *182:Z O *C 15.9 83.4 *L 0 *D DEL2
*I *205:I I *C 12.7 65.8 *L 0.00105 *D DEL1

*CAP
1 *182:Z 6.80396e-05
2 *7:2 3.20926e-05
3 *7:3 0.00175412
4 *7:4 7.96293e-05
5 *7:5 0.00074086

*RES
1 *7:4 *7:5 3.02355
2 *7:2 *7:3 11.3697004
3 *182:Z *7:2 0.939263
4 *7:3 *7:4 0.159435
5 *205:I *7:5 0.675041
*END

*D_NET *8 0.00396014

*CONN
*I *183:I I *C 12.7 82.2 *L 0.00105 *D DEL1
*I *210:Z O *C 13.5 61.8 *L 0 *D DEL1

*CAP
1 *210:Z 5.24804e-06
2 *183:I 1.68902e-06
3 *8:2 0.00395322

*RES
1 *210:Z *8:2 0.328143
2 *183:I *8:2 16.5935001
*END

*D_NET *9 0.0106995

*CONN
*I *184:Z O *C 10.1 83.4 *L 0 *D DEL1
*I *286:D I *C 6.9 19 *L 0.000792 *D DFNCND1

*CAP
1 *286:D 0.000226438
2 *9:2 0.000357957
3 *9:3 0.000444522
4 *9:4 0.00210581
5 *9:5 0.000205006
6 *9:6 0.000576812
7 *9:7 0.000193181
8 *9:8 0.000257125
9 *9:9 1.20497e-05
10 *9:2 *12:3 0.000501187969
11 *9:2 *160:4 0.000212845
12 *9:3 *11:2 0.00270424
13 *9:4 *138:2 0.0025449
14 *9:4 *75:2 0.000357448008

*RES
1 *9:4 *9:7 34.392601
2 *184:Z *9:5 1.38125
3 *286:D *9:8 2.54838
4 *9:5 *9:3 3.00862
5 *9:2 *9:7 4.01779
6 *9:6 *9:9 0.856981
7 *9:3 *9:6 2.1086
8 *9:2 *9:9 2.88004
9 *9:4 *9:8 0.225135
*END

*D_NET *10 0.00220161

*CONN
*I *185:Z O *C 15.9 79.8 *L 0 *D DEL1
*I *204:I I *C 12.7 67.8 *L 0.00105 *D DEL1

*CAP
1 *185:Z 9.23575e-07
2 *10:2 3.9021e-05
3 *10:3 0.00216166

*RES
1 *10:2 *10:3 7.99118996
2 *185:Z *10:2 0.204486
3 *204:I *10:3 3.37592
*END

*D_NET *11 0.00935324

*CONN
*I *186:Z O *C 9.9 79 *L 0 *D DEL1
*I *293:D I *C 6.7 10.2 *L 0.000792 *D DFNCND1

*CAP
1 *186:Z 4.44426e-05
2 *11:2 0.000217868
3 *11:3 0.000100402
4 *11:4 0.00343056
5 *11:4 *80:2 0.00039458
6 *11:4 *4:2 0.00186876
7 *11:2 *9:3 0.00270424
8 *11:4 *17:2 0.000592347031

*RES
1 *11:2 *11:4 4.39692
2 *11:3 *11:4 45.7173996
3 *186:Z *11:2 0.717125
4 *293:D *11:3 0.225322
*END

*D_NET *12 0.00501377

*CONN
*I *187:Z O *C 9.1 82.6 *L 0 *D DEL1
*I *214:I I *C 5.9 60.6 *L 0.00105 *D DEL1

*CAP
1 *214:I 7.77403e-05
2 *187:Z 6.73708e-05
3 *12:2 4.60523e-05
4 *12:3 0.00135642
5 *12:4 1.13837e-06
6 *12:5 0.000645994
7 *12:6 0.000542671
8 *12:7 0.000553227
9 *12:6 *75:2 0.000537679023
10 *12:3 *15:8 0.000310685996
11 *12:3 *9:2 0.000501187969
12 *214:I *155:2 0.000373595

*RES
1 *12:2 *12:3 8.52698994
2 *12:6 *12:7 4.27104
3 *12:4 *12:5 2.97786
4 *12:3 *12:4 0.159517
5 *187:Z *12:2 0.656022
6 *214:I *12:6 0.865502
7 *12:5 *12:7 3.71338
*END

*D_NET *13 0.00519336

*CONN
*I *188:Z O *C 10.1 79.8 *L 0 *D DEL1
*I *212:I I *C 6.9 62.2 *L 0.00105 *D DEL1

*CAP
1 *212:I 8.12978e-05
2 *188:Z 0.000150683
3 *13:2 0.000267936
4 *13:3 0.000774893
5 *13:4 0.000249475
6 *13:5 0.00129253992
7 *13:6 6.04112e-05
8 *13:7 0.000179814
9 *13:2 *188:I 0.000167687988
10 *212:I *2:2 0.000632323984
11 *212:I *143:3 0.000220023008
12 *212:I *1:3 0.00111626008

*RES
1 *13:5 *13:7 9.78734016
2 *13:4 *13:5 2.89307
3 *13:2 *13:6 2.06392
4 *188:Z *13:6 0.44997
5 *13:2 *13:3 3.54361
6 *13:3 *13:7 0.866936
7 *212:I *13:4 0.942205
*END

*D_NET *14 0.00268493

*CONN
*I *189:Z O *C 15.9 79 *L 0 *D DEL1
*I *209:I I *C 12.7 60.6 *L 0.00105 *D DEL1

*CAP
1 *189:Z 4.90465e-05
2 *14:2 3.16457e-05
3 *14:3 0.00189744
4 *14:4 0.000706803

*RES
1 *14:2 *14:3 11.1736002
2 *209:I *14:4 3.4626
3 *189:Z *14:2 0.631857
4 *14:3 *14:4 0.159413
*END

*D_NET *15 0.0102798

*CONN
*I *190:Z O *C 10.3 133 *L 0 *D DEL0
*I *198:I I *C 9.3 73 *L 0.00105 *D DEL1
*I *202:I I *C 9.3 71.4 *L 0.00105 *D DEL1
*I *203:I I *C 9.3 69.4 *L 0.00105 *D DEL1
*I *215:I I *C 9.3 60.6 *L 0.00105 *D DEL1
*I *200:I I *C 5.9 69.4 *L 0.00105 *D DEL1
*I *201:I I *C 12.7 69.4 *L 0.00105 *D DEL1
*I *199:I I *C 12.7 71.4 *L 0.00105 *D DEL1

*CAP
1 *199:I 0.000127534
2 *201:I 5.24735e-05
3 *215:I 0.000481711
4 *190:Z 6.49965e-05
5 *15:8 0.00124776
6 *15:9 0.000251458
7 *15:10 5.13979e-05
8 *15:11 4.8248e-05
9 *15:12 0.00023978
10 *15:13 0.000709814
11 *15:14 0.00503492031
12 *15:15 0.000403116
13 *15:16 0.000377533
14 *15:18 6.26148e-05
15 *15:19 5.57003e-05
16 *15:13 *50:16 0.000760056953
17 *15:8 *12:3 0.000310685996

*RES
1 *201:I *15:16 0.675284
2 *15:17 *15:19 1.74291
3 *15:14 *15:19 37.5363998
4 *15:9 *15:12 1.08882
5 *15:15 *15:16 2.44053
6 *15:11 *15:12 1.11516
7 *15:8 *15:9 5.39769
8 *199:I *15:18 0.675284
9 *190:Z *15:17 0.450189
10 *15:16 *15:18 1.71427
11 *215:I *15:8 2.36034
12 *15:13 *15:15 2.5316
13 *15:9 *15:10 0.463363
14 *15:11 *15:14 1.17588
15 *200:I *15:13 0.450189
16 *202:I *15:12 0.450189
17 *198:I *15:11 0.450189
18 *203:I *15:10 0.450189
19 *15:10 *15:15 0.225095
*END

*D_NET *16 0.00444617

*CONN
*I *191:Z O *C 9.7 76.2 *L 0 *D DEL1
*I *218:I I *C 6.5 55 *L 0.00105 *D DEL1

*CAP
1 *191:Z 0.000127609
2 *16:2 0.000433955
3 *16:3 0.000778969
4 *16:4 0.00135313
5 *16:6 0.00175248

*RES
1 *16:2 *16:4 5.84934
2 *16:2 *16:5 1.7531
3 *191:Z *16:5 0.450041
4 *16:4 *16:6 7.07457018
5 *16:3 *16:6 3.63066
6 *218:I *16:3 0.450041
*END

*D_NET *17 0.00721834

*CONN
*I *192:Z O *C 10.3 75.4 *L 0 *D DEL1
*I *223:I I *C 8.3 17.4 *L 0.00105 *D DEL1

*CAP
1 *223:I 0.000159776
2 *192:Z 5.52368e-05
3 *17:2 0.0033241
4 *17:3 0.000197513
5 *17:4 8.76992e-05
6 *17:5 0.00032503
7 *17:6 0.000592033
8 *17:2 *4:2 0.00188461
9 *17:2 *11:4 0.000592347031

*RES
1 *17:3 *17:5 4.85679
2 *192:Z *17:3 0.762728
3 *17:2 *17:5 36.2481003
4 *17:4 *17:6 3.51054
5 *223:I *17:4 0.83629
6 *17:2 *17:6 0.225113
*END

*D_NET *18 0.00323924

*CONN
*I *193:Z O *C 15.9 72.6 *L 0 *D DEL1
*I *220:I I *C 9.5 51.4 *L 0.00105 *D DEL1

*CAP
1 *193:Z 0.000156697
2 *18:2 0.000220459
3 *18:3 0.00286208

*RES
1 *18:2 *18:3 13.5
2 *193:Z *18:2 1.251
3 *220:I *18:3 5.98865
*END

*D_NET *19 0.00423436

*CONN
*I *194:I I *C 10.1 76.6 *L 0.00103 *D DEL2
*I *263:Q O *C 10.1 53.8 *L 0 *D DFNCND1

*CAP
1 *263:Q 0.000444738
2 *194:I 6.1608e-05
3 *19:2 0.00372805

*RES
1 *194:I *19:2 0.675008
2 *263:Q *19:2 17.7374992
*END

*D_NET *20 0.00471904

*CONN
*I *195:Z O *C 9.1 72.6 *L 0 *D DEL1
*I *216:I I *C 6.7 57 *L 0.00105 *D DEL1

*CAP
1 *216:I 6.27245e-05
2 *20:2 0.000265838
3 *20:3 0.00396398
4 *20:4 0.00042649

*RES
1 *20:3 *20:4 14.9561996
2 *20:2 *20:4 2.12147
3 *216:I *20:3 0.708375
4 *195:Z *20:2 0.225019
*END

*D_NET *21 0.00914692

*CONN
*I *196:Z O *C 9.1 71.8 *L 0 *D DEL1
*I *301:A1 I *C 8.3 39.2 *L 0.000617 *D CKND2D0
*I *247:I I *C 8.5 37 *L 0.00104 *D INVD1
*I *280:A1 I *C 6.7 37 *L 0.000711 *D OAI211D0
*I *284:A2 I *C 6.9 35.4 *L 0.000606 *D CKND2D0

*CAP
1 *284:A2 0.000419006
2 *21:5 0.000355299
3 *21:6 0.000814632
4 *21:8 0.000139699
5 *21:9 5.65747e-05
6 *21:10 0.000223647
7 *21:11 0.000432814
8 *21:12 0.00199764
9 *284:A2 *38:5 0.000425235977
10 *21:12 *216:Z 0.00109924992
11 *21:6 *45:9 0.000634957031
12 *21:5 *28:5 0.00254817016

*RES
1 *280:A1 *21:11 1.51694
2 *196:Z *21:5 0.829186
3 *21:10 *21:12 1.05227
4 *21:9 *21:11 0.604249
5 *21:8 *21:9 1.48366
6 *21:7 *21:8 3.16021
7 *21:6 *21:10 3.77432
8 *21:6 *21:7 0.159305
9 *284:A2 *21:11 2.85639
10 *21:5 *21:12 20.1938
11 *247:I *21:9 0.224937
12 *301:A1 *21:8 0.224937
*END

*D_NET *22 0.00596125

*CONN
*I *197:I I *C 10.5 75 *L 0.00105 *D DEL1
*I *264:QN O *C 10.5 46.6 *L 0 *D DFNCND1

*CAP
1 *264:QN 0.000148539
2 *197:I 9.81735e-05
3 *22:2 0.000256785
4 *22:3 0.00253899
5 *22:4 4.06409e-05
6 *22:5 0.000519421
7 *22:6 8.6822e-05
8 *264:QN *38:4 0.00050505
9 *264:QN *266:B2 0.00056907
10 *197:I *160:4 0.00119777

*RES
1 *22:3 *22:4 0.478168
2 *22:2 *22:3 16.8752003
3 *22:4 *22:5 3.98268
4 *197:I *22:6 0.674895
5 *22:2 *22:6 0.477911
6 *264:QN *22:5 0.551812
*END

*D_NET *23 0.00492464

*CONN
*I *198:Z O *C 12.5 72.6 *L 0 *D DEL1
*I *263:CDN I *C 9.3 53.4 *L 0.00168 *D DFNCND1

*CAP
1 *263:CDN 0.000671366
2 *23:2 0.000569367
3 *23:3 0.000664338
4 *23:4 0.00074775
5 *23:5 0.00215212016
6 *23:6 0.000119699

*RES
1 *23:2 *23:3 2.84462
2 *198:Z *23:2 2.0403
3 *263:CDN *23:5 2.94955
4 *23:5 *23:6 8.15721035
5 *23:4 *23:6 0.507461
6 *23:3 *23:4 2.82234
*END

*D_NET *24 0.00486558

*CONN
*I *199:Z O *C 15.9 71.8 *L 0 *D DEL1
*I *261:CDN I *C 12.3 46.2 *L 0.00168 *D DFNCND1

*CAP
1 *261:CDN 0.000686135
2 *24:2 0.000285706
3 *24:3 0.000977481
4 *24:5 0.00107435
5 *24:6 0.000593134
6 *24:7 0.000412822
7 *24:8 0.000654725
8 *24:9 0.00018123

*RES
1 *24:6 *24:8 3.34503
2 *261:CDN *24:2 3.11714
3 *24:6 *24:7 1.89662
4 *24:4 *24:5 5.1552
5 *24:3 *24:9 2.533
6 *24:3 *24:4 2.07731
7 *24:2 *24:8 2.45158
8 *24:5 *24:7 0.159448
9 *199:Z *24:9 0.224974
*END

*D_NET *25 0.00466691

*CONN
*I *200:Z O *C 9.1 69 *L 0 *D DEL1
*I *264:CDN I *C 9.3 46.2 *L 0.00168 *D DFNCND1

*CAP
1 *264:CDN 0.000913421
2 *25:3 0.000935728
3 *25:4 0.00206189984
4 *25:5 0.000755888

*RES
1 *200:Z *25:4 7.95843983
2 *25:3 *25:5 5.38108
3 *25:3 *25:4 0.159446
4 *264:CDN *25:2 3.59536
5 *25:2 *25:5 1.76277
*END

*D_NET *26 0.00379487

*CONN
*I *201:Z O *C 15.9 69 *L 0 *D DEL1
*I *259:CDN I *C 12.3 53.4 *L 0.00168 *D DFNCND1

*CAP
1 *201:Z 0.000467503
2 *26:2 0.000311325
3 *26:3 1.89983e-06
4 *26:4 0.00022418
5 *26:5 0.000523362
6 *26:6 3.90911e-05
7 *26:7 0.000874191
8 *26:8 0.00135332

*RES
1 *26:6 *26:7 3.19401
2 *26:4 *26:7 1.15446
3 *26:2 *26:3 1.51729
4 *259:CDN *26:8 2.34006
5 *201:Z *26:2 1.85022
6 *26:5 *26:6 0.285934
7 *26:3 *26:5 2.75127
8 *26:4 *26:8 3.23867989
*END

*D_NET *27 0.00547937

*CONN
*I *202:Z O *C 12.5 71.8 *L 0 *D DEL1
*I *271:CDN I *C 9.3 35.4 *L 0.00168 *D DFNCND1

*CAP
1 *271:CDN 0.000143049
2 *202:Z 0.000145216
3 *27:2 0.000913618
4 *27:3 0.000437901
5 *27:4 5.2257e-05
6 *27:5 0.00082702
7 *27:6 0.000498658
8 *27:7 0.000176911
9 *27:8 0.000922344063
10 *27:2 *40:8 0.000557869961
11 *27:3 *122:2 0.000173357988
12 *27:2 *43:2 0.000631147031

*RES
1 *27:2 *27:5 2.67964
2 *27:7 *27:8 9.70666981
3 *27:4 *27:6 4.12862
4 *271:CDN *27:3 0.399754
5 *27:6 *27:7 0.159517
6 *27:5 *27:8 5.43586
7 *27:2 *27:3 4.11751
8 *202:Z *27:4 0.735969
*END

*D_NET *28 0.0060824

*CONN
*I *203:Z O *C 12.5 69 *L 0 *D DEL1
*I *269:CDN I *C 9.3 40.6 *L 0.00168 *D DFNCND1

*CAP
1 *269:CDN 0.000101579
2 *28:2 0.000202453
3 *28:3 0.000331684
4 *28:4 0.000767039
5 *28:5 0.000783452969
6 *28:7 0.000188215
7 *28:5 *21:5 0.00254817016
8 *269:CDN *41:2 0.000344992031
9 *269:CDN *52:2 0.000814827969

*RES
1 *28:5 *28:7 1.44225
2 *28:3 *28:5 9.84817
3 *269:CDN *28:4 0.450014
4 *28:4 *28:6 11.1290998
5 *28:6 *28:7 0.159458
6 *28:2 *28:3 1.53361
7 *203:Z *28:2 1.0656
*END

*D_NET *29 0.00262566

*CONN
*I *204:Z O *C 15.9 68.2 *L 0 *D DEL1
*I *259:D I *C 14.7 53.4 *L 0.000792 *D DFNCND1

*CAP
1 *259:D 0.000614824
2 *29:2 0.000421487
3 *29:3 2.16243e-06
4 *29:4 0.000367955
5 *29:5 0.000577994
6 *29:6 0.000641242969

*RES
1 *29:3 *29:6 2.56994
2 *29:3 *29:5 0.285913
3 *29:4 *29:5 2.75391006
4 *204:Z *29:2 1.90373
5 *259:D *29:6 2.14994
6 *29:2 *29:4 1.51768
*END

*D_NET *30 0.00368816

*CONN
*I *205:Z O *C 15.9 65.4 *L 0 *D DEL1
*I *261:D I *C 14.7 46.2 *L 0.000792 *D DFNCND1

*CAP
1 *261:D 0.00119309
2 *30:2 0.000406108
3 *30:3 0.000591074
4 *30:4 0.000255567
5 *30:5 0.000915968
6 *30:6 0.000326368

*RES
1 *30:4 *30:5 3.5521
2 *205:Z *30:6 0.450019
3 *30:2 *30:5 2.1825
4 *261:D *30:3 5.02256012
5 *30:4 *30:6 2.13805
6 *30:2 *30:3 2.1402
*END

*D_NET *31 0.0037552

*CONN
*I *206:Z O *C 10.1 68.2 *L 0 *D DEL1
*I *263:D I *C 6.9 53.4 *L 0.000792 *D DFNCND1

*CAP
1 *263:D 0.000167384
2 *206:Z 0.000265318
3 *31:2 0.000648318
4 *31:3 0.00267419

*RES
1 *206:Z *31:2 2.76693
2 *31:2 *31:3 9.80764008
3 *263:D *31:3 1.89655
*END

*D_NET *32 0.00560191

*CONN
*I *207:Z O *C 13.1 64.6 *L 0 *D DEL1
*I *269:D I *C 6.9 40.6 *L 0.000792 *D DFNCND1

*CAP
1 *269:D 8.83444e-05
2 *32:2 0.000300681
3 *32:3 0.00154103
4 *32:4 0.000462462
5 *32:5 0.00089586
6 *32:7 0.00111085
7 *32:8 0.000662242
8 *32:7 *217:Z 0.000172041992
9 *32:2 *161:3 0.000368416992

*RES
1 *269:D *32:5 0.385401
2 *32:6 *32:7 5.15753
3 *32:5 *32:8 3.9184
4 *32:4 *32:8 2.98378
5 *32:2 *32:7 0.614727
6 *32:2 *32:3 6.67662001
7 *32:3 *32:4 2.41704
8 *207:Z *32:6 0.225047
*END

*D_NET *33 0.00435278

*CONN
*I *208:Z O *C 10.1 65.4 *L 0 *D DEL1
*I *264:D I *C 6.9 46.2 *L 0.000792 *D DFNCND1

*CAP
1 *264:D 6.73424e-05
2 *33:2 0.000586152
3 *33:3 0.000204153
4 *33:4 0.00092108
5 *33:5 0.00248776
6 *33:6 8.62849e-05

*RES
1 *33:3 *33:5 1.48861
2 *33:3 *33:4 4.803
3 *33:2 *33:6 1.11001
4 *33:2 *33:5 9.39134026
5 *208:Z *33:6 0.449964
6 *264:D *33:4 0.384475
*END

*D_NET *34 0.00350787

*CONN
*I *209:Z O *C 15.9 61 *L 0 *D DEL1
*I *271:D I *C 11.7 35.4 *L 0.000792 *D DFNCND1

*CAP
1 *271:D 0.000781074
2 *209:Z 3.23176e-06
3 *34:2 0.000342229
4 *34:3 0.00023426
5 *34:4 0.00184168
6 *34:5 0.000305415

*RES
1 *34:2 *34:3 2.2645
2 *209:Z *34:2 0.320035
3 *34:3 *34:4 1.52022
4 *34:4 *34:5 12.4179001
5 *271:D *34:5 4.24554
*END

*D_NET *35 0.00734028

*CONN
*I *183:Z O *C 15.9 82.6 *L 0 *D DEL1
*I *276:D I *C 6.7 28.2 *L 0.000792 *D DFNCND1

*CAP
1 *35:2 0.000165803
2 *35:3 0.000142887
3 *35:4 0.000826588
4 *35:5 0.00103571
5 *35:6 0.00141945
6 *35:8 0.00030347
7 *35:9 0.000554459
8 *35:11 9.70342e-06
9 *35:12 0.00124026
10 *35:8 *217:Z 0.000439485
11 *35:6 *44:3 0.000589549023
12 *35:2 *160:4 0.000612911992

*RES
1 *35:9 *35:10 0.159441
2 *35:7 *35:9 3.75985
3 *35:4 *35:2 1.23649
4 *35:11 *35:12 0.159441
5 *35:7 *35:8 0.159441
6 *35:6 *35:10 12.6044998
7 *35:3 *35:4 4.02949
8 *183:Z *35:3 0.873752
9 *35:8 *35:11 3.01496
10 *35:2 *35:12 10.8818
11 *35:5 *35:6 4.64783
12 *276:D *35:5 0.225025
*END

*D_NET *36 0.00639358

*CONN
*I *211:Z O *C 9.7 64.6 *L 0 *D DEL1
*I *285:B I *C 8.3 33.4 *L 0.00072 *D AOI21D0
*I *280:A2 I *C 6.3 37 *L 0.00065 *D OAI211D0
*I *284:A1 I *C 6.5 35.6 *L 0.000617 *D CKND2D0

*CAP
1 *36:4 0.00059169
2 *36:5 0.000154968
3 *36:6 0.000105526
4 *36:7 0.00029774
5 *36:8 0.000237171
6 *36:9 0.000222142
7 *36:10 0.00122967008
8 *36:11 7.82628e-05
9 *36:4 *50:15 0.000727868047
10 *36:4 *289:ZN 0.000909498984
11 *36:4 *145:2 0.00183907

*RES
1 *36:10 *36:11 1.58088
2 *36:8 *36:10 13.6555004
3 *36:6 *36:8 2.12138
4 *36:5 *36:7 1.44606
5 *36:9 *36:11 2.8965
6 *36:7 *36:9 2.0247
7 *36:4 *36:5 0.868471
8 *285:B *36:4 2.53624
9 *280:A2 *36:7 0.225036
10 *211:Z *36:6 0.225036
11 *284:A1 *36:5 0.450071
*END

*D_NET *37 0.00808502

*CONN
*I *212:Z O *C 10.1 61.8 *L 0 *D DEL1
*I *279:D I *C 6.9 24.6 *L 0.000792 *D DFNCND1

*CAP
1 *279:D 0.000438545
2 *212:Z 0.000205606
3 *37:2 0.000779453984
4 *37:3 0.000225671
5 *37:4 0.00017473
6 *37:5 0.00019219
7 *37:6 8.93574e-05
8 *37:7 0.000714633
9 *37:8 1.27263e-06
10 *37:2 *140:3 0.000512179023
11 *37:2 *2:2 0.00256614
12 *37:2 *1:6 0.00218524

*RES
1 *37:2 *37:6 0.910842
2 *37:5 *37:2 7.13258
3 *37:4 *37:8 6.40085
4 *37:3 *37:5 1.88548
5 *37:7 *37:8 0.159387
6 *37:6 *37:7 13.1889
7 *212:Z *37:3 1.87441
8 *279:D *37:4 1.74742
*END

*D_NET *38 0.00614203

*CONN
*I *213:Z O *C 9.9 58.2 *L 0 *D DEL1
*I *289:A1 I *C 6.5 33.4 *L 0.000647 *D NR2D0
*I *285:A1 I *C 8.1 33.4 *L 0.00069 *D AOI21D0
*I *287:B I *C 6.7 31.8 *L 0.000726 *D OAI211D0

*CAP
1 *287:B 0.000273165
2 *38:4 0.0004997
3 *38:5 0.000923775938
4 *38:6 0.000231582
5 *38:7 9.33432e-05
6 *38:8 0.000610818
7 *38:9 0.000307672
8 *38:10 0.00080826
9 *38:11 1.32502e-06
10 *38:12 5.04634e-06
11 *38:13 0.000632526
12 *38:14 0.000104564
13 *38:15 0.00030925
14 *38:4 *300:A2 0.000410744023
15 *38:4 *264:QN 0.00050505
16 *38:5 *284:A2 0.000425235977

*RES
1 *38:4 *38:9 2.73541
2 *38:11 *38:5 0.286719
3 *38:10 *38:12 2.05337
4 *38:6 *38:8 0.159448
5 *38:9 *38:10 2.54894
6 *287:B *38:15 1.59409
7 *38:12 *38:5 4.27734995
8 *38:13 *38:15 1.46094
9 *38:6 *38:4 2.21321
10 *38:7 *38:8 2.89754
11 *38:7 *38:14 0.829285
12 *38:11 *38:13 3.33078
13 *289:A1 *38:15 0.224976
14 *213:Z *38:14 0.224976
15 *285:A1 *38:13 0.450017
*END

*D_NET *39 0.00746731

*CONN
*I *214:Z O *C 9.1 61 *L 0 *D DEL1
*I *288:D I *C 6.9 13.8 *L 0.000792 *D DFNCND1

*CAP
1 *39:2 0.000555406
2 *39:3 0.000386792
3 *39:4 0.00170869
4 *39:5 0.000493613
5 *39:6 0.000246441
6 *39:7 4.94343e-05
7 *39:8 0.000140637
8 *39:6 *122:3 0.00241106016
9 *39:6 *150:2 0.000667514062
10 *39:4 *43:2 0.000807771016

*RES
1 *39:6 *39:8 2.98558
2 *39:3 *39:6 3.08772
3 *214:Z *39:3 1.5878
4 *39:5 *39:7 6.60639
5 *39:2 *39:4 2.7522
6 *39:7 *39:8 0.159507
7 *39:4 *39:5 18.3393993
8 *288:D *39:2 0.224989
*END

*D_NET *40 0.0113481

*CONN
*I *215:Z O *C 12.5 61 *L 0 *D DEL1
*I *311:CDN I *C 9.1 6.6 *L 0.00168 *D DFNCND1
*I *291:CDN I *C 14.7 8.2 *L 0.00168 *D DFNCND1
*I *293:CDN I *C 9.1 10.2 *L 0.00168 *D DFNCND1
*I *288:CDN I *C 9.3 13.8 *L 0.00168 *D DFNCND1
*I *286:CDN I *C 9.3 19 *L 0.00168 *D DFNCND1
*I *279:CDN I *C 9.3 24.6 *L 0.00168 *D DFNCND1
*I *276:CDN I *C 9.1 28.2 *L 0.00168 *D DFNCND1

*CAP
1 *276:CDN 3.23947e-05
2 *311:CDN 0.000157718
3 *215:Z 9.13268e-05
4 *40:8 0.00156678
5 *40:9 0.00017835
6 *40:10 2.10386e-06
7 *40:11 0.000231497
8 *40:12 0.000523886
9 *40:13 0.000144378
10 *40:14 0.000387111
11 *40:15 0.00127279
12 *40:16 0.000150091
13 *40:17 0.000241562
14 *40:18 0.000268027
15 *40:19 3.66502e-05
16 *40:20 0.0004426
17 *40:21 0.000306973
18 *40:22 0.000378863
19 *40:23 0.000435523
20 *40:14 *304:A1 0.001062
21 *40:8 *27:2 0.000557869961
22 *276:CDN *119:4 0.00179023
23 *40:9 *56:2 0.00108939008

*RES
1 *40:8 *40:22 12.2212
2 *40:8 *40:21 0.395712
3 *215:Z *40:10 0.384523
4 *40:10 *40:22 2.14416
5 *40:12 *40:19 2.505
6 *40:14 *40:19 2.8498
7 *311:CDN *40:15 0.856879
8 *40:11 *40:13 5.31899
9 *276:CDN *40:13 0.79907
10 *40:9 *40:21 2.94807
11 *40:12 *40:18 1.9118
12 *40:20 *40:23 1.42602
13 *40:15 *40:20 1.8042
14 *40:17 *40:23 2.29931
15 *40:15 *40:16 4.35955
16 *40:14 *40:17 1.28877
17 *40:9 *40:11 2.25791
18 *40:13 *40:18 2.56597
19 *293:CDN *40:20 0.225082
20 *286:CDN *40:19 0.225082
21 *279:CDN *40:18 0.225082
22 *288:CDN *40:17 0.449978
23 *291:CDN *40:16 0.449978
*END

*D_NET *41 0.00806887

*CONN
*I *216:Z O *C 9.9 57.4 *L 0 *D DEL1
*I *311:D I *C 6.7 6.6 *L 0.000792 *D DFNCND1

*CAP
1 *216:Z 0.000111361
2 *41:2 4.29299e-05
3 *41:3 0.000556148
4 *41:4 0.00227071
5 *41:5 2.46007e-06
6 *41:6 0.000453899
7 *41:7 0.000464675
8 *41:8 0.000339628
9 *41:2 *269:CDN 0.000344992031
10 *216:Z *56:7 0.00113113
11 *41:2 *52:2 0.000614576992
12 *216:Z *21:12 0.00109924992
13 *41:3 *122:5 0.000637107031

*RES
1 *41:3 *41:6 3.50801
2 *41:7 *41:8 1.92564
3 *41:6 *41:8 2.52854
4 *41:5 *41:7 2.62962
5 *41:4 *41:5 0.159347
6 *41:2 *41:4 25.9775009
7 *216:Z *41:2 0.449897
8 *311:D *41:3 0.225147
*END

*D_NET *42 0.00691212

*CONN
*I *217:Z O *C 13.3 58.2 *L 0 *D DEL1
*I *235:I I *C 11.1 19 *L 0.00104 *D INVD1

*CAP
1 *217:Z 0.000232843
2 *42:2 0.00031592
3 *42:3 0.000646387
4 *42:4 0.000482149
5 *42:5 0.00076061
6 *42:7 0.00064331
7 *42:9 2.79694e-06
8 *42:10 0.000669691
9 *42:11 0.000400317
10 *42:12 0.000645496
11 *42:13 0.000800427031
12 *42:14 3.69954e-05
13 *42:15 0.00019967
14 *217:Z *35:8 0.000439485
15 *217:Z *32:7 0.000172041992
16 *42:2 *44:7 0.000463986016

*RES
1 *42:13 *42:14 4.83554983
2 *42:4 *42:11 2.15827
3 *42:2 *42:4 1.5165
4 *42:3 *42:8 2.6285
5 *42:8 *42:10 0.159449
6 *42:6 *42:7 2.50255
7 *42:7 *42:9 0.159449
8 *42:14 *42:15 1.51923
9 *42:11 *42:12 1.80374
10 *42:9 *42:10 3.08612
11 *42:5 *42:13 1.08087
12 *235:I *42:12 2.30518
13 *217:Z *42:15 2.07785
14 *42:2 *42:3 0.159449
15 *42:5 *42:6 4.43239
*END

*D_NET *43 0.00704191

*CONN
*I *218:Z O *C 9.7 54.6 *L 0 *D DEL1
*I *228:I I *C 7.3 8.2 *L 0.00382 *D BUFFD12

*CAP
1 *228:I 0.0002141
2 *218:Z 0.000478949
3 *43:2 0.00305687
4 *43:3 0.000218531
5 *43:4 0.000176038
6 *43:5 0.000172446
7 *43:6 0.000250296
8 *43:2 *275:ZN 0.000537697969
9 *43:2 *27:2 0.000631147031
10 *43:3 *291:CPN 0.000222535
11 *43:2 *39:4 0.000807771016
12 *43:2 *44:4 0.00027553002

*RES
1 *43:4 *43:5 3.99501
2 *218:Z *43:4 1.94596
3 *228:I *43:3 0.545941
4 *43:5 *43:6 1.32075
5 *43:3 *43:2 2.75241
6 *43:2 *43:6 24.3890991
*END

*D_NET *44 0.00635345

*CONN
*I *219:Z O *C 13.1 54.6 *L 0 *D DEL1
*I *229:I I *C 8.3 15 *L 0.00373 *D CKBD12
*I *304:A1 I *C 9.7 11.8 *L 0.000711 *D OAI211D0

*CAP
1 *304:A1 0.000486614
2 *44:3 0.000247464
3 *44:4 0.000383336
4 *44:5 0.000337514
5 *44:6 0.000377651
6 *44:7 0.00174083
7 *44:9 0.000388994
8 *44:7 *42:2 0.000463986016
9 *44:4 *43:2 0.00027553002
10 *44:3 *35:6 0.000589549023
11 *304:A1 *40:14 0.001062

*RES
1 *44:8 *44:9 0.15941
2 *304:A1 *44:5 2.68918
3 *44:7 *44:8 18.9258995
4 *44:3 *44:9 4.50709
5 *44:4 *44:7 2.37325
6 *44:4 *44:5 2.33801
7 *44:5 *44:6 1.33448
8 *219:Z *44:3 0.576417
9 *229:I *44:6 0.224965
*END

*D_NET *45 0.00938096

*CONN
*I *220:Z O *C 12.7 51 *L 0 *D DEL1
*I *309:I I *C 8.9 26.2 *L 0.0113 *D INVD12
*I *300:A2 I *C 9.3 51.4 *L 0.000606 *D CKND2D0
*I *266:B2 I *C 11.1 47.8 *L 0.000674 *D AOI32D0
*I *301:A2 I *C 8.7 39 *L 0.000606 *D CKND2D0
*I *306:A2 I *C 8.1 29.8 *L 0.000606 *D CKND2D0
*I *303:A2 I *C 6.3 17.4 *L 0.000606 *D CKND2D0
*I *302:A2 I *C 6.3 11.8 *L 0.000606 *D CKND2D0

*CAP
1 *302:A2 0.000831701
2 *306:A2 2.56262e-05
3 *266:B2 0.00017652
4 *300:A2 0.000372451
5 *309:I 4.6204e-06
6 *45:8 0.000439026
7 *45:9 0.000679361
8 *45:10 0.000260706
9 *45:11 0.000715379
10 *45:12 0.00020191
11 *45:13 0.000393546
12 *45:14 0.000967405
13 *45:15 0.00019109
14 *45:16 0.000220465
15 *45:17 0.00021927
16 *45:18 0.000247464
17 *45:19 6.68703e-06
18 *45:20 0.000336669
19 *45:21 0.000326793
20 *45:8 *119:3 0.000479266992
21 *302:A2 *296:A1 0.000155382012
22 *266:B2 *264:QN 0.00056907
23 *45:9 *21:6 0.000634957031
24 *45:10 *84:21 0.000514860977
25 *300:A2 *38:4 0.000410744023

*RES
1 *306:A2 *45:16 0.536847
2 *266:B2 *45:18 1.02862
3 *45:15 *45:21 1.86778
4 *45:14 *45:20 2.0385
5 *302:A2 *45:20 4.48246002
6 *300:A2 *45:21 1.58619
7 *45:11 *45:13 3.3048
8 *45:10 *45:12 1.9093
9 *45:12 *45:19 1.12239
10 *45:11 *45:19 3.65198
11 *45:18 *45:21 3.51157
12 *309:I *45:8 0.320234
13 *45:13 *45:16 0.868094
14 *45:8 *45:16 2.37337
15 *45:9 *45:18 1.48517
16 *45:14 *45:17 3.90669
17 *45:8 *45:17 1.78413
18 *45:9 *45:10 3.7396
19 *303:A2 *45:20 0.225026
20 *301:A2 *45:19 0.225026
21 *220:Z *45:15 0.225026
*END

*D_NET *46 0.00537642

*CONN
*I *221:Z O *C 15.5 43.8 *L 0 *D DEL1
*I *299:A2 I *C 6.3 21 *L 0.000664 *D NR2D0
*I *295:A2 I *C 8.1 21 *L 0.000671 *D AOI21D0

*CAP
1 *295:A2 7.8366e-05
2 *299:A2 0.000606165
3 *221:Z 8.6238e-07
4 *46:4 0.00144913
5 *46:5 0.000725461
6 *46:6 0.000412461
7 *46:7 0.000206772
8 *46:8 0.00114296
9 *46:7 *80:3 0.000312936992
10 *221:Z *51:8 0.000441301992

*RES
1 *46:5 *46:7 1.21744
2 *46:3 *46:5 4.01084
3 *46:3 *46:4 0.28587
4 *46:7 *46:8 5.46512
5 *46:4 *46:6 7.78021002
6 *221:Z *46:6 2.51667
7 *295:A2 *46:8 0.610441
8 *299:A2 *46:8 2.17964
*END

*D_NET *47 0.00566301

*CONN
*I *222:Z O *C 12.3 39.4 *L 0 *D DEL1
*I *308:A2 I *C 10.9 11.8 *L 0.000996 *D NR2D1
*I *305:A2 I *C 10.9 13.8 *L 0.000671 *D AOI21D0

*CAP
1 *308:A2 0.000268865
2 *47:3 0.00049735
3 *47:4 0.000856966016
4 *47:5 0.000633712
5 *47:6 0.000312933
6 *47:7 0.000451295
7 *47:8 0.000586427
8 *47:9 3.76994e-05
9 *47:10 0.000477552
10 *47:4 *275:A2 0.00022943
11 *47:3 *107:5 0.000501169961
12 *47:4 *314:S 0.000809607031

*RES
1 *47:9 *47:3 3.15904
2 *47:8 *47:10 1.78938
3 *47:6 *47:7 2.67992
4 *47:5 *47:4 4.7245698
5 *222:Z *47:5 2.40121
6 *47:9 *47:10 0.159466
7 *47:6 *47:8 2.8649
8 *47:4 *47:7 2.34239
9 *308:A2 *47:3 1.57267
10 *305:A2 *47:3 0.224997
*END

*D_NET *48 0.0139859

*CONN
*I *223:Z O *C 11.5 17.8 *L 0 *D DEL1
*I *298:A2 I *C 10.9 6.6 *L 0.000664 *D NR2D0
*I *297:B I *C 7.1 11.8 *L 0.00072 *D AOI21D0
*I *275:A2 I *C 10.9 33.4 *L 0.000664 *D NR2D0
*I *262:A2 I *C 13.9 47.8 *L 0.000664 *D NR2D0
*I *260:A2 I *C 13.1 51.4 *L 0.000664 *D NR2D0
*I *265:B I *C 7.5 51.4 *L 0.00072 *D AOI21D0
*I *268:A2 I *C 6.9 44.2 *L 0.000664 *D NR2D0
*I *273:B I *C 6.7 39 *L 0.00072 *D AOI21D0
*I *281:B I *C 6.7 29.8 *L 0.00072 *D AOI21D0
*I *283:A2 I *C 7.7 22.6 *L 0.000883 *D NR2XD0
*I *290:B I *C 7.7 17.4 *L 0.00072 *D AOI21D0
*I *292:A2 I *C 7.7 11.8 *L 0.000996 *D NR2D1

*CAP
1 *290:B 5.87702e-05
2 *260:A2 1.78072e-05
3 *262:A2 0.000144501
4 *275:A2 3.60927e-06
5 *297:B 6.07705e-05
6 *48:13 0.000255584
7 *48:14 3.92236e-05
8 *48:15 0.000304918
9 *48:16 0.0014249
10 *48:17 0.000823674
11 *48:18 0.000286089
12 *48:19 0.000303896
13 *48:20 0.000619294
14 *48:21 3.16572e-05
15 *48:22 0.000673672
16 *48:23 0.000439461
17 *48:24 0.00064769
18 *48:25 0.000274217
19 *48:26 0.000618272
20 *48:27 7.15766e-05
21 *48:28 0.000706134
22 *48:29 0.000213795
23 *48:30 0.000476358
24 *48:31 0.000639058
25 *48:32 0.000449637
26 *48:33 0.000629187
27 *48:34 0.000411652
28 *48:35 0.000114279
29 *48:36 0.000372233
30 *48:37 3.43098e-05
31 *290:B *74:3 0.00148769
32 *48:13 *2:3 0.000586573008
33 *48:14 *296:C 0.00053599
34 *275:A2 *47:4 0.00022943

*RES
1 *48:16 *48:29 4.55049
2 *48:21 *48:30 0.958797
3 *48:32 *48:34 0.252681
4 *48:30 *48:33 7.71652985
5 *260:A2 *48:17 0.680095
6 *48:22 *48:24 0.758277
7 *48:15 *48:16 2.62548
8 *48:18 *48:26 2.03864
9 *48:27 *48:34 2.45946
10 *297:B *48:29 0.863659
11 *48:22 *48:35 2.49961
12 *48:19 *48:26 1.99931
13 *262:A2 *48:17 2.89935
14 *48:20 *48:29 1.02756
15 *48:13 *48:23 2.40282
16 *265:B *48:33 1.23844
17 *48:14 *48:20 2.88922
18 *298:A2 *48:15 1.2083
19 *48:28 *48:37 0.450021
20 *48:13 *48:28 2.29402
21 *48:18 *48:35 1.26352
22 *290:B *48:14 0.994709
23 *48:21 *48:24 2.79256
24 *48:17 *48:31 0.713887
25 *48:31 *48:33 3.1757
26 *48:32 *48:37 4.66376
27 *48:23 *48:25 0.741675
28 *275:A2 *48:26 0.536799
29 *48:19 *48:36 2.49961
30 *48:25 *48:36 1.01284
31 *268:A2 *48:30 0.22501
32 *292:A2 *48:29 0.22501
33 *283:A2 *48:28 0.22501
34 *223:Z *48:27 0.22501
35 *281:B *48:25 0.450021
36 *273:B *48:24 0.450021
37 *48:14 *48:34 0.22501
*END

*D_NET *49 0.000302079

*CONN
*I *224:I I *C 7.3 640.4 *L 0.0054 *D CKND6
*I *225:ZN O *C 8.5 640.4 *L 0 *D CKND1

*CAP
1 *225:ZN 4.24904e-05
2 *49:2 0.000259588984

*RES
1 *225:ZN *49:2 0.449996
2 *224:I *49:2 1.20908999
*END

*D_NET *50 0.055718

*CONN
*I *311:CPN I *C 5.7 6.6 *L 0.000701 *D DFNCND1
*I *224:ZN O *C 6.3 640.6 *L 0 *D CKND6
*I *293:CPN I *C 5.7 10.2 *L 0.000701 *D DFNCND1
*I *291:CPN I *C 11.3 8.2 *L 0.000701 *D DFNCND1
*I *288:CPN I *C 5.9 13.8 *L 0.000701 *D DFNCND1
*I *286:CPN I *C 5.9 19 *L 0.000701 *D DFNCND1
*I *279:CPN I *C 5.9 24.6 *L 0.000701 *D DFNCND1
*I *276:CPN I *C 5.7 28.2 *L 0.000701 *D DFNCND1
*I *271:CPN I *C 12.7 35.4 *L 0.000701 *D DFNCND1
*I *269:CPN I *C 5.9 40.6 *L 0.000701 *D DFNCND1
*I *264:CPN I *C 5.9 46.2 *L 0.000701 *D DFNCND1
*I *263:CPN I *C 5.9 53.4 *L 0.000701 *D DFNCND1
*I *261:CPN I *C 15.7 46.2 *L 0.000701 *D DFNCND1
*I *259:CPN I *C 15.7 53.4 *L 0.000701 *D DFNCND1

*CAP
1 *261:CPN 0.000996921
2 *271:CPN 4.31e-05
3 *276:CPN 4.6067e-05
4 *291:CPN 6.44938e-05
5 *293:CPN 6.91786e-05
6 *311:CPN 0.000260942
7 *50:14 1.17119e-05
8 *50:15 0.00148711
9 *50:16 0.0102339
10 *50:17 0.000731763
11 *50:18 0.000722861
12 *50:19 0.000434435
13 *50:20 7.3551e-05
14 *50:21 8.96354e-05
15 *50:22 0.000663677
16 *50:23 0.000547495
17 *50:24 0.000365725
18 *50:25 0.000657587
19 *50:26 0.00107438
20 *50:28 0.000174742
21 *50:29 7.3551e-05
22 *50:30 1.56159e-05
23 *50:31 0.00603915
24 *50:32 0.00606554
25 *50:33 0.00611942
26 *50:34 0.00576774
27 *50:35 0.00226853
28 *50:36 0.000545308
29 *50:27 *73 2.636e-05
30 *50:27 *73:2 0.000125586
31 *50:31 *73:3 0.000668576
32 *50:31 *73:4 0.000390665
33 *50:31 *73:2 0.000332321
34 *50:32 *73:3 0.000332933
35 *50:32 *73:4 0.000646808
36 *50:32 *73:5 0.000368813
37 *50:33 *73:4 0.000311714
38 *50:33 *73:5 0.00108373
39 *50:34 *73:6 0.000272667
40 *50:34 *73:5 0.000548364
41 *50:35 *73:3 0.0003885
42 *50:35 *73:2 0.000299571
43 *50:35 *73:7 0.000138250016
44 *50:34 *3:2 0.00110208
45 *50:15 *143:2 0.000214745996
46 *291:CPN *43:3 0.000222535
47 *276:CPN *138:3 0.00041481
48 *50:14 *155:3 0.00043291
49 *50:15 *36:4 0.000727868047
50 *50:16 *15:13 0.000760056953
51 *261:CPN *68:7 0.00026424

*RES
1 *50:33 *50:34 63.2669
2 *50:18 *50:24 2.48395
3 *50:31 *50:35 63.2631
4 *50:15 *50:23 3.49858
5 *50:34 *50:16 63.2592
6 *50:32 *50:33 63.2611
7 *261:CPN *50:21 5.24111
8 *50:20 *50:36 0.449872
9 *276:CPN *50:18 0.522277
10 *50:15 *50:18 4.6194
11 *224:ZN *50:27 0.449872
12 *50:24 *50:25 3.41169
13 *50:26 *50:16 29.6887
14 *291:CPN *50:30 0.449872
15 *50:14 *50:22 4.63581
16 *271:CPN *50:29 0.449872
17 *50:22 *50:23 3.41169
18 *50:17 *50:30 3.63663
19 *311:CPN *50:17 1.36893
20 *50:15 *50:29 4.59044
21 *50:31 *50:32 63.2678986
22 *50:21 *50:26 6.31945
23 *50:17 *50:19 1.47608
24 *50:27 *50:35 25.6485
25 *50:14 *50:26 0.477869
26 *50:19 *50:36 2.53512
27 *293:CPN *50:19 0.519381
28 *50:28 *50:36 3.76503
29 *286:CPN *50:25 0.224936
30 *279:CPN *50:24 0.224936
31 *269:CPN *50:23 0.224936
32 *264:CPN *50:22 0.224936
33 *263:CPN *50:14 0.224936
34 *259:CPN *50:21 0.224936
35 *288:CPN *50:20 0.224936
36 *50:25 *50:28 0.224936
*END

*D_NET *51 0.0132091

*CONN
*I *191:I I *C 6.5 76.6 *L 0.00105 *D DEL1
*I *291:Q O *C 15.5 7.8 *L 0 *D DFNCND1

*CAP
1 *291:Q 0.00103856
2 *51:2 0.00391905
3 *51:3 0.000155303
4 *51:4 7.07444e-05
5 *51:5 0.000361317
6 *51:6 0.000290871
7 *51:7 0.000529238
8 *51:8 0.000311443
9 *51:9 8.97013e-07
10 *51:10 0.0032866
11 *51:11 0.00021935
12 *51:12 5.25052e-05
13 *51:13 0.00113209
14 *51:14 0.00032119
15 *51:8 *221:Z 0.000441301992
16 *51:3 *160:2 0.000654613008
17 *51:2 *155:4 0.000423996016

*RES
1 *51:12 *51:14 1.23011
2 *291:Q *51:9 4.54698
3 *51:3 *51:4 1.08034
4 *51:7 *51:8 1.8955
5 *51:8 *51:11 1.37301
6 *51:9 *51:10 0.285798
7 *51:5 *51:6 2.04208
8 *51:2 *51:13 2.83318
9 *51:3 *51:5 2.12998
10 *51:10 *51:11 16.0911007
11 *51:6 *51:7 2.50245
12 *51:2 *51:12 15.7628
13 *191:I *51:14 0.674964
14 *51:4 *51:13 2.90954
*END

*D_NET *52 0.00854508

*CONN
*I *219:I I *C 9.9 55 *L 0.00105 *D DEL1
*I *293:Q O *C 9.9 10.6 *L 0 *D DFNCND1

*CAP
1 *219:I 0.000268337
2 *52:2 0.00149346
3 *52:3 0.00111154
4 *52:4 0.00021786
5 *52:5 0.00020854
6 *52:6 1.54963e-06
7 *52:3 *80:2 0.000447573984
8 *52:3 *1:2 0.00336679
9 *52:2 *41:2 0.000614576992
10 *52:2 *269:CDN 0.000814827969

*RES
1 *52:4 *52:5 3.17922
2 *52:3 *52:2 7.75144
3 *219:I *52:4 3.04448
4 *293:Q *52:3 1.02431
5 *52:6 *52:2 21.1763
6 *52:5 *52:6 0.159624
*END

*D_NET *53 0.00136734

*CONN
*I *232:ZN O *C 13.1 15 *L 0 *D INVD1
*I *231:I I *C 12.7 21 *L 0.0113 *D INVD12
*I *230:I I *C 12.7 13.8 *L 0.0113 *D INVD12

*CAP
1 *230:I 0.000187982
2 *231:I 0.000360198
3 *53:3 0.000510988008
4 *53:4 0.000308176

*RES
1 *231:I *53:3 1.55699
2 *53:3 *53:4 3.10865998
3 *232:ZN *53:4 0.512813
4 *230:I *53:4 0.999869
*END

*D_NET *54 0.000907576

*CONN
*I *288:Q O *C 10.1 14.2 *L 0 *D DFNCND1
*I *232:I I *C 12.7 15.4 *L 0.00104 *D INVD1

*CAP
1 *232:I 0.000155632
2 *54:2 0.000751942969

*RES
1 *232:I *54:2 3.28026009
2 *288:Q *54:2 0.224987
*END

*D_NET *55 0.00146634

*CONN
*I *235:ZN O *C 11.5 18.6 *L 0 *D INVD1
*I *234:I I *C 12.7 19 *L 0.0113 *D INVD12
*I *233:I I *C 12.7 24.6 *L 0.0113 *D INVD12

*CAP
1 *233:I 0.000100384
2 *234:I 3.30768e-05
3 *235:ZN 2.93972e-05
4 *55:3 0.00130348

*RES
1 *234:I *55:3 0.479709
2 *233:I *55:3 5.25108004
3 *235:ZN *55:3 0.46777
*END

*D_NET *56 0.00803381

*CONN
*I *217:I I *C 10.1 58.6 *L 0.00105 *D DEL1
*I *286:Q O *C 10.1 18.6 *L 0 *D DFNCND1

*CAP
1 *217:I 0.000120008
2 *286:Q 0.000837822
3 *56:2 0.000976987031
4 *56:3 0.000145009
5 *56:4 0.000337932
6 *56:5 0.000369328
7 *56:6 0.000403109
8 *56:7 7.84005e-05
9 *56:8 0.000355642
10 *56:9 0.000469672
11 *56:2 *40:9 0.00108939008
12 *56:7 *216:Z 0.00113113
13 *286:Q *122:2 0.00171937

*RES
1 *56:7 *56:8 5.36916
2 *56:3 *56:5 2.15824
3 *56:3 *56:4 1.27158
4 *56:5 *56:6 2.85093
5 *56:2 *56:4 1.93431
6 *286:Q *56:6 4.48104
7 *56:8 *56:9 7.32672024
8 *56:2 *56:9 4.84192
9 *217:I *56:7 0.67503
*END

*D_NET *57 0.00198707

*CONN
*I *238:ZN O *C 12.1 25 *L 0 *D INVD1
*I *237:I I *C 15.5 28.2 *L 0.0113 *D INVD12
*I *236:I I *C 12.3 22.6 *L 0.0113 *D INVD12

*CAP
1 *238:ZN 0.000258347
2 *57:3 0.000900382969
3 *57:4 0.00082835

*RES
1 *57:3 *57:4 2.24685
2 *237:I *57:3 3.51071
3 *236:I *57:4 0.449981
4 *238:ZN *57:4 1.96267
*END

*D_NET *58 0.000407186

*CONN
*I *279:Q O *C 10.1 25 *L 0 *D DFNCND1
*I *238:I I *C 11.7 24.6 *L 0.00104 *D INVD1

*CAP
1 *238:I 0.000407186016

*RES
1 *238:I *279:Q 1.64368
*END

*D_NET *59 0.00271509

*CONN
*I *241:ZN O *C 11.7 28.6 *L 0 *D INVD1
*I *240:I I *C 12.3 29.8 *L 0.0113 *D INVD12
*I *239:I I *C 12.3 17.4 *L 0.0113 *D INVD12

*CAP
1 *239:I 0.000245287
2 *241:ZN 0.000491414
3 *59:3 7.27475e-06
4 *59:4 0.000846803984
5 *59:5 0.000299802
6 *59:6 0.000375884
7 *59:8 0.000448631

*RES
1 *59:6 *59:8 1.55407
2 *59:3 *59:4 0.287027
3 *241:ZN *240:I 1.73899
4 *59:7 *59:8 0.159431
5 *59:5 *59:6 1.45666
6 *241:ZN *59:5 1.16062
7 *59:4 *59:7 2.77075005
8 *239:I *59:3 0.966693
*END

*D_NET *60 0.000404165

*CONN
*I *276:Q O *C 9.9 28.6 *L 0 *D DFNCND1
*I *241:I I *C 11.3 28.2 *L 0.00104 *D INVD1

*CAP
1 *241:I 0.000404165

*RES
1 *241:I *276:Q 1.48797
*END

*D_NET *61 0.00267332

*CONN
*I *244:ZN O *C 10.1 33 *L 0 *D INVD1
*I *243:I I *C 12.7 22.6 *L 0.0113 *D INVD12
*I *242:I I *C 12.7 31.8 *L 0.0113 *D INVD12

*CAP
1 *242:I 0.000507798
2 *243:I 0.00103804008
3 *61:3 0.000264076
4 *61:4 0.000459028
5 *61:5 0.000404382

*RES
1 *61:3 *61:4 1.62333
2 *242:I *61:5 3.50533
3 *242:I *61:3 1.0295
4 *243:I *61:4 4.2551198
5 *244:ZN *61:5 0.224975
*END

*D_NET *62 0.000552307

*CONN
*I *271:Q O *C 8.5 35.8 *L 0 *D DFNCND1
*I *244:I I *C 9.7 33.4 *L 0.00104 *D INVD1

*CAP
1 *244:I 0.000552306992

*RES
1 *244:I *271:Q 2.74269
*END

*D_NET *63 0.00278813

*CONN
*I *247:ZN O *C 8.9 36.6 *L 0 *D INVD1
*I *246:I I *C 12.5 26.2 *L 0.0113 *D INVD12
*I *245:I I *C 12.7 33.4 *L 0.0113 *D INVD12

*CAP
1 *245:I 8.68726e-06
2 *246:I 0.00141975
3 *247:ZN 0.000724877
4 *63:3 0.000468116
5 *63:4 0.000166704

*RES
1 *246:I *63:3 5.83979988
2 *247:ZN *63:4 2.82758
3 *245:I *63:3 0.550333
4 *63:3 *63:4 2.43693
*END

*D_NET *64 0.00168745

*CONN
*I *179:I I *C 7.7 37 *L 0.00072 *D BUFFD1
*I *269:Q O *C 10.1 40.2 *L 0 *D DFNCND1

*CAP
1 *179:I 0.000685478
2 *64:2 0.00100197992

*RES
1 *179:I *64:2 2.48953
2 *269:Q *64:2 3.15846992
*END

*D_NET *65 0.0037914

*CONN
*I *250:ZN O *C 10.5 43.8 *L 0 *D INVD1
*I *249:I I *C 12.7 37 *L 0.0113 *D INVD12
*I *248:I I *C 12.7 29.8 *L 0.0113 *D INVD12

*CAP
1 *248:I 0.000387688
2 *250:ZN 0.000113106
3 *65:3 7.45675e-05
4 *65:4 0.001209
5 *65:5 0.000303823
6 *65:6 0.000772074
7 *65:7 0.000689279
8 *65:8 0.000241874

*RES
1 *65:7 *65:8 2.57954
2 *65:5 *65:8 2.45951
3 *65:4 *65:5 4.26362991
4 *65:6 *65:8 0.983219
5 *65:3 *65:6 2.49998
6 *248:I *65:4 3.11406
7 *250:ZN *65:3 0.820444
8 *249:I *65:7 0.450005
*END

*D_NET *66 0.000780049

*CONN
*I *264:Q O *C 10.1 46.6 *L 0 *D DFNCND1
*I *313:I0 I *C 8.7 44.2 *L 0.000706 *D MUX2ND0
*I *250:I I *C 10.1 44.2 *L 0.00104 *D INVD1

*CAP
1 *313:I0 0.000408030977
2 *66:3 0.000372019

*RES
1 *313:I0 *66:3 1.99496996
2 *264:Q *66:3 1.46098
3 *250:I *66:3 0.224988
*END

*D_NET *67 0.00244634

*CONN
*I *253:ZN O *C 9.7 47.4 *L 0 *D INVD1
*I *252:I I *C 12.5 39 *L 0.0113 *D INVD12
*I *251:I I *C 12.5 37 *L 0.0113 *D INVD12

*CAP
1 *251:I 0.000478488
2 *253:ZN 0.000359873
3 *67:3 0.00141826
4 *67:5 0.000189707

*RES
1 *67:3 *67:5 1.62857
2 *67:3 *67:4 5.21881008
3 *251:I *67:5 2.3451
4 *253:ZN *67:4 1.35439
5 *252:I *67:5 0.224962
*END

*D_NET *68 0.00679694

*CONN
*I *194:Z O *C 15.3 76.2 *L 0 *D DEL2
*I *300:A1 I *C 8.9 51.2 *L 0.000617 *D CKND2D0
*I *278:A2 I *C 8.5 49.8 *L 0.000606 *D CKND2D0
*I *270:A1 I *C 7.5 49.8 *L 0.000711 *D OAI211D0
*I *253:I I *C 9.3 47.8 *L 0.00104 *D INVD1

*CAP
1 *194:Z 1.87667e-06
2 *253:I 0.000268364
3 *68:5 6.95452e-05
4 *68:6 0.00130631
5 *68:7 0.00236515
6 *68:8 0.000204269
7 *68:9 0.000220112
8 *68:10 0.000249561
9 *68:11 0.000908635
10 *68:12 0.000938878
11 *68:7 *261:CPN 0.00026424

*RES
1 *68:8 *68:12 0.774866
2 *68:8 *68:9 1.18603
3 *68:7 *68:12 4.39508
4 *68:5 *68:6 6.23666
5 *270:A1 *68:11 2.35492
6 *194:Z *68:5 0.205334
7 *68:9 *68:11 1.37043
8 *68:7 *68:10 10.8000002
9 *253:I *68:11 1.11747
10 *68:6 *68:10 0.763824
11 *278:A2 *68:9 0.224945
12 *300:A1 *68:8 0.450055
*END

*D_NET *69 0.000432019

*CONN
*I *256:ZN O *C 12.1 43.8 *L 0 *D INVD1
*I *255:I I *C 12.1 42.6 *L 0.0113 *D INVD12
*I *254:I I *C 12.7 42.6 *L 0.0113 *D INVD12

*CAP
1 *254:I 4.25692e-05
2 *255:I 2.72372e-05
3 *256:ZN 0.000362213984

*RES
1 *255:I *256:ZN 1.41251004
2 *255:I *254:I 0.493353
*END

*D_NET *70 0.000853982

*CONN
*I *261:Q O *C 11.5 46.6 *L 0 *D DFNCND1
*I *266:B1 I *C 11.3 47.8 *L 0.000712 *D AOI32D0
*I *256:I I *C 11.7 44.2 *L 0.00104 *D INVD1

*CAP
1 *256:I 0.000382317
2 *266:B1 6.24257e-06
3 *70:3 0.000465422969

*RES
1 *266:B1 *70:3 1.29161
2 *256:I *70:3 1.88352001
3 *261:Q *70:3 0.225007
*END

*D_NET *71 0.000811532

*CONN
*I *259:Q O *C 11.5 53.8 *L 0 *D DFNCND1
*I *258:I I *C 11.7 57 *L 0.00382 *D BUFFD12

*CAP
1 *258:I 7.68689e-05
2 *259:Q 0.000734666016

*RES
1 *259:Q *258:I 2.88754
*END

*D_NET *72 0.000860254

*CONN
*I *225:I I *C 8.9 640.4 *L 0.000942 *D CKND1
*P *72 I *C 5 648 *L 0.5

*CAP
1 *225:I 0.000560760039
2 *72 0.00027887
3 *72:2 2.06215e-05

*RES
1 *72 *72:2 3.06011
2 *225:I *72:2 4.65220022
*END

*D_NET *73 0.0358216

*CONN
*I *178:I I *C 7.9 213.4 *L 0.00072 *D BUFFD1
*P *73 I *C 8 648 *L 0.5

*CAP
1 *73 0.000772688
2 *73:2 0.00240081
3 *73:3 0.00682554
4 *73:4 0.00695104
5 *73:5 0.0129113
6 *73:6 1.97014e-06
7 *73:7 2.30506e-05
8 *73 *50:27 2.636e-05
9 *73:2 *50:27 0.000125586
10 *73:3 *50:31 0.000668576
11 *73:4 *50:31 0.000390665
12 *73:2 *50:31 0.000332321
13 *73:3 *50:32 0.000332933
14 *73:4 *50:32 0.000646808
15 *73:5 *50:32 0.000368813
16 *73:4 *50:33 0.000311714
17 *73:5 *50:33 0.00108373
18 *73:6 *50:34 0.000272667
19 *73:5 *50:34 0.000548364
20 *73:3 *50:35 0.0003885
21 *73:2 *50:35 0.000299571
22 *73:7 *50:35 0.000138250016

*RES
1 *73:2 *73:7 23.542
2 *73:3 *73:2 63.2631
3 *73:6 *73:5 54.8873
4 *73:3 *73:4 63.2678986
5 *178:I *73:6 0.449872
6 *73 *73:7 6.51736
7 *73:4 *73:5 63.2611
*END

*D_NET *74 0.0149766

*CONN
*I *192:I I *C 7.1 75 *L 0.00105 *D DEL1
*P *74 I *C 0 5 *L 0.5

*CAP
1 *74 0.000247095
2 *74:2 0.00070553
3 *74:3 0.000534477
4 *74:4 0.000489971
5 *74:5 0.00291091
6 *74:7 6.66265e-07
7 *74:8 0.000181935
8 *74:9 0.00114775
9 *74 *75 0.00128704
10 *74:2 *2:2 0.00195662
11 *74:3 *290:B 0.00148769
12 *74:2 *140:2 0.00329839
13 *74:2 *188:I 0.000728516016

*RES
1 *74:6 *74:8 0.159266
2 *74:5 *74:7 0.159266
3 *74:4 *74:9 9.54832
4 *74 *74:9 2.41501
5 *74:7 *74:8 2.90043
6 *74:3 *74:4 4.42265
7 *74:2 *74:5 29.4018002
8 *192:I *74:2 3.53839
9 *74:3 *74:6 11.324
*END

*D_NET *75 0.00836521

*CONN
*I *195:I I *C 5.9 73 *L 0.00105 *D DEL1
*P *75 I *C 0 6 *L 0.5

*CAP
1 *195:I 7.69793e-05
2 *75 0.000100532
3 *75:2 0.000928468
4 *75:3 2.29982e-05
5 *75:4 0.000462585
6 *75:5 4.80311e-05
7 *75:6 0.00173809
8 *75:7 0.00023883
9 *75:8 0.00202036
10 *75:2 *9:4 0.000357448008
11 *75:2 *12:6 0.000537679023
12 *75 *74 0.00128704
13 *195:I *138:2 0.000546154023

*RES
1 *75:7 *75:8 13.4044
2 *75:5 *75:6 20.6898994
3 *75:4 *75:5 0.449877
4 *75:3 *75:2 11.5531
5 *75 *75:8 0.785153
6 *75:6 *75:7 1.43676
7 *75:4 *75:2 3.49767
8 *195:I *75:3 0.796518
*END

*D_NET *76 0.00388544

*CONN
*P *168 I *C 0 14 *L 0.5
*P *76 O *C 21.6 25 *L 0.5

*CAP
1 *168 0.000412709
2 *76 8.57658e-05
3 *76:2 0.00141614
4 *76:3 0.000362273
5 *76:4 0.000454263
6 *76:5 0.000630548
7 *76:6 0.000299175
8 *76:7 0.000224603

*RES
1 *76:5 *76:6 3.66597
2 *76:2 *76:3 1.48329
3 *168 *76:5 1.66765
4 *76 *76:2 8.20256996
5 *76:6 *76:7 2.27568
6 *76:4 *76:7 1.8803
7 *76:3 *76:4 3.17572
*END

*D_NET *77 0.00494701

*CONN
*P *169 I *C 0 13 *L 0.5
*P *77 O *C 21.6 24 *L 0.5

*CAP
1 *169 0.000113592
2 *77 8.36437e-05
3 *77:2 0.00246252984
4 *77:3 0.000937666
5 *77:4 0.00061226
6 *77:5 0.00073735

*RES
1 *77 *77:2 13.7291002
2 *77:4 *77:5 2.6844
3 *77:2 *77:4 2.63915
4 *169 *77:3 0.587827
5 *77:3 *77:5 3.63443
*END

*D_NET *78 0.00437445

*CONN
*P *170 I *C 0 12 *L 0.5
*P *78 O *C 21.6 23 *L 0.5

*CAP
1 *170 0.000165937
2 *78 8.57598e-05
3 *78:2 0.000683459
4 *78:3 0.000566575
5 *78:4 1.33109e-05
6 *78:5 0.00050819
7 *78:6 0.000391355
8 *78:7 0.00107298008
9 *78:8 0.000260587
10 *78:9 0.000626286

*RES
1 *78:7 *78:8 1.34677
2 *78 *78:3 3.65342
3 *78:8 *78:9 3.32131
4 *78:6 *78:7 5.82741022
5 *78:4 *78:5 2.81314
6 *78:3 *78:4 0.21963
7 *78:5 *78:6 1.86241
8 *78:2 *78:9 3.37697
9 *170 *78:2 0.812722
*END

*D_NET *79 0.00486946

*CONN
*P *171 I *C 0 11 *L 0.5
*P *79 O *C 21.6 22 *L 0.5

*CAP
1 *171 0.000176659
2 *79 8.57662e-05
3 *79:2 0.000355446
4 *79:3 0.000577793
5 *79:4 3.27266e-05
6 *79:5 0.000933368
7 *79:6 0.00021319
8 *79:7 0.000381466
9 *79:8 0.00211304

*RES
1 *79:6 *79:7 3.04928
2 *79 *79:2 2.10393
3 *79:7 *79:8 9.35437012
4 *79:3 *79:4 0.0936351
5 *79:2 *79:3 2.81319
6 *79:5 *79:6 1.23053
7 *79:4 *79:5 4.28937
8 *171 *79:8 0.955477
*END

*D_NET *80 0.00502066

*CONN
*P *172 I *C 0 10 *L 0.5
*P *80 O *C 21.6 21 *L 0.5

*CAP
1 *172 9.26251e-05
2 *80 7.47593e-05
3 *80:2 0.000840512969
4 *80:3 0.000583543
5 *80:4 8.78669e-05
6 *80:5 0.000467717
7 *80:6 3.35384e-05
8 *80:7 0.000213941
9 *80:8 0.000399332
10 *80:2 *11:4 0.00039458
11 *80:3 *46:7 0.000312936992
12 *80:2 *52:3 0.000447573984
13 *80:2 *1:5 0.00107173

*RES
1 *80:7 *80:8 6.40346
2 *172 *80:2 0.461343
3 *80 *80:4 0.713972
4 *80:2 *80:8 7.34205008
5 *80:5 *80:6 0.0933217
6 *80:4 *80:5 3.06583
7 *80:3 *80:7 2.72985
8 *80:6 *80:3 3.57132
*END

*D_NET *81 0.00418144

*CONN
*P *173 I *C 0 9 *L 0.5
*P *81 O *C 21.6 20 *L 0.5

*CAP
1 *173 0.000102578
2 *81 0.000102883
3 *81:2 0.000142268
4 *81:3 0.000645382
5 *81:4 0.00067355
6 *81:5 0.000449792
7 *81:6 0.000909788047
8 *81:7 0.000896877
9 *81:8 0.000258311

*RES
1 *81:7 *81:8 1.1881
2 *81:4 *81:7 3.80182
3 *81 *81:2 1.45576
4 *81:5 *81:8 2.0115
5 *81:5 *81:6 6.19190979
6 *81:2 *81:3 4.20318
7 *173 *81:6 0.461351
8 *81:3 *81:4 2.53899
*END

*D_NET *82 0.00456363

*CONN
*P *174 I *C 0 8 *L 0.5
*P *82 O *C 21.6 19 *L 0.5

*CAP
1 *174 0.000206784
2 *82 0.000108311
3 *82:2 0.000376134
4 *82:3 0.000481192
5 *82:4 2.39439e-05
6 *82:5 0.000757141
7 *82:6 0.000491028
8 *82:7 0.000498259
9 *82:8 0.000305089
10 *82:9 0.00101040992
11 *82:10 0.000305351

*RES
1 *82:6 *82:7 3.17567
2 *82:5 *82:6 2.05772
3 *82 *82:2 2.30014
4 *82:8 *82:10 1.75868
5 *82:4 *82:5 3.05644
6 *82:2 *82:3 3.19223
7 *82:9 *82:10 2.52852
8 *82:7 *82:9 4.1276598
9 *82:3 *82:4 0.093278
10 *174 *82:8 1.2196
*END

*D_NET *83 0.00359103

*CONN
*P *175 I *C 0 7 *L 0.5
*P *83 O *C 21.6 18 *L 0.5

*CAP
1 *175 0.000127662
2 *83 7.47638e-05
3 *83:2 0.000631718
4 *83:3 5.05577e-05
5 *83:4 0.00039506
6 *83:5 5.1494e-05
7 *83:6 0.00127828
8 *83:7 0.000540472
9 *83:8 0.000440995

*RES
1 *83:7 *83:8 1.75313
2 *83:5 *83:6 8.67835999
3 *83:4 *83:5 0.0932246
4 *83:2 *83:3 0.488899
5 *175 *83:6 0.334893
6 *83 *83:7 2.63598
7 *83:3 *83:4 3.06582
8 *83:2 *83:8 4.60905
*END

*D_NET *84 0.0149317

*CONN
*P *84 O *C 21.6 5 *L 0.5
*I *296:C I *C 7.9 15.4 *L 0.000698 *D OAI211D0
*I *304:C I *C 10.3 11.8 *L 0.000698 *D OAI211D0
*I *309:ZN O *C 10.5 25.8 *L 0 *D INVD12
*I *315:S I *C 11.5 21 *L 0.00146 *D MUX2ND0
*I *316:S I *C 13.7 6.6 *L 0.00146 *D MUX2ND0
*I *317:A2 I *C 14.5 6.8 *L 0.000661 *D XNR2D0
*I *312:S I *C 12.9 49.8 *L 0.00146 *D MUX2ND0
*I *266:A3 I *C 12.1 47.8 *L 0.000695 *D AOI32D0
*I *313:S I *C 8.9 44.2 *L 0.00146 *D MUX2ND0
*I *314:S I *C 11.9 31.8 *L 0.00146 *D MUX2ND0
*I *280:C I *C 7.3 37 *L 0.000698 *D OAI211D0
*I *270:C I *C 8.1 49.8 *L 0.000698 *D OAI211D0
*I *287:C I *C 7.1 31.8 *L 0.000698 *D OAI211D0

*CAP
1 *270:C 6.18689e-05
2 *314:S 0.000201617
3 *266:A3 0.000283133
4 *316:S 6.31284e-05
5 *296:C 0.000281858
6 *84 5.83426e-05
7 *84:14 8.29012e-05
8 *84:15 0.000606048
9 *84:16 0.000754187
10 *84:17 0.00062686
11 *84:18 5.44541e-05
12 *84:19 0.000134081
13 *84:20 0.000120259
14 *84:21 0.000266792
15 *84:22 0.000357943
16 *84:23 0.000301064
17 *84:24 0.000237589
18 *84:25 0.000561165
19 *84:26 0.000935134
20 *84:27 0.000852563
21 *84:28 0.0010317
22 *84:30 0.000587818
23 *84:31 0.000734556
24 *84:32 0.000677378
25 *84:34 0.000641595
26 *84:35 0.000308888
27 *84:36 0.000606316
28 *84:37 5.83741e-05
29 *84:38 0.000404557
30 *84:39 9.64715e-05
31 *84:21 *45:10 0.000514860977
32 *296:C *48:14 0.00053599
33 *314:S *47:4 0.000809607031
34 *84:14 *119:8 0.000604898984
35 *296:C *296:A1 0.000177872012
36 *84:15 *310:A2 0.000299879023

*RES
1 *84:21 *84:22 3.6155
2 *84:16 *84:29 1.011
3 *84:25 *84:32 0.379109
4 *312:S *84:38 1.89223
5 *314:S *84:18 1.20328
6 *84:17 *84:29 0.541032
7 *84:26 *84:36 3.34016
8 *84:34 *84:38 1.94087
9 *84:15 *84:37 2.465
10 *84:23 *84:34 1.54293
11 *84:14 *84:35 1.10959
12 *84:14 *84:31 3.86705
13 *84:24 *84:32 2.71075
14 *84:17 *84:37 2.14198
15 *84:24 *84:30 1.03391
16 *84:20 *84:27 2.83831
17 *270:C *84:23 0.384421
18 *84:19 *84:28 2.88074
19 *84:35 *84:36 2.46969
20 *84:25 *84:39 2.64831
21 *84:15 *84:31 2.24278
22 *296:C *84:35 2.01055
23 *84:22 *84:30 2.40622
24 *84:21 *84:27 1.04591
25 *316:S *84:17 0.604297
26 *266:A3 *84:38 1.08124
27 *84:28 *84:39 3.52664
28 *84:18 *84:39 0.484183
29 *84:20 *84:34 0.494255
30 *84:19 *84:26 2.7164
31 *84:16 *84:33 4.52143002
32 *84 *84:33 0.224981
33 *287:C *84:32 0.224981
34 *304:C *84:31 0.224981
35 *280:C *84:30 0.224981
36 *317:A2 *84:29 0.224981
37 *309:ZN *84:28 0.224981
38 *313:S *84:27 0.450032
39 *315:S *84:26 0.450032
*END

*D_NET *85 0.00397431

*CONN
*I *257:Z O *C 13.1 40.2 *L 0 *D BUFFD12
*P *85 O *C 21.6 17 *L 0.5

*CAP
1 *85 0.000103154
2 *85:2 0.00088478
3 *85:3 7.84042e-05
4 *85:4 0.000821543
5 *85:5 0.00170196
6 *85:6 0.000384489

*RES
1 *85:3 *85:4 6.28289986
2 *85:2 *85:3 4.64775
3 *85 *85:5 1.36767
4 *85:5 *85:6 6.2412
5 *257:Z *85:2 0.70627
6 *85:4 *85:6 2.30873
*END

*D_NET *86 0.00430221

*CONN
*P *86 O *C 21.6 16 *L 0.5
*I *255:ZN O *C 10.5 43 *L 0 *D INVD12

*CAP
1 *86 0.00010843
2 *86:2 0.000629515
3 *86:3 3.31518e-05
4 *86:4 7.15298e-05
5 *86:5 0.00345956

*RES
1 *86:2 *86:4 2.78914
2 *86 *86:3 0.587789
3 *86:4 *86:5 16.2812004
4 *86:3 *86:5 4.52145
5 *255:ZN *86:2 0.225079
*END

*D_NET *87 0.00503272

*CONN
*I *251:ZN O *C 10.9 36.6 *L 0 *D INVD12
*P *87 O *C 21.6 15 *L 0.5

*CAP
1 *87 8.57533e-05
2 *87:2 0.000793821
3 *87:3 0.000574769
4 *87:4 4.00641e-05
5 *87:5 0.000250946
6 *87:6 0.000520145
7 *87:7 0.000220793
8 *87:8 0.00125387
9 *87:9 0.00051253
10 *87:10 0.000266042
11 *87:2 *93:7 0.000513963984

*RES
1 *87:9 *87:10 3.13491
2 *87:7 *87:9 1.55013
3 *87:7 *87:8 4.9003
4 *87:4 *87:10 1.27194
5 *87:4 *87:5 2.54389
6 *87:3 *87:6 4.3977
7 *87:5 *87:6 0.0932802
8 *87:2 *87:8 5.40513992
9 *87 *87:2 0.604136
10 *251:ZN *87:3 0.224994
*END

*D_NET *88 0.0028278

*CONN
*I *248:ZN O *C 14.3 29.4 *L 0 *D INVD12
*P *88 O *C 21.6 14 *L 0.5

*CAP
1 *88 0.000578494
2 *88:2 0.000595744
3 *88:3 7.41961e-05
4 *88:4 0.00120776
5 *88:5 0.000371589

*RES
1 *88:2 *88:3 3.38419
2 *88 *88:5 3.13157
3 *88:3 *88:4 7.19501019
4 *88:4 *88:5 1.47323
5 *248:ZN *88:2 0.224954
*END

*D_NET *89 0.00259821

*CONN
*P *89 O *C 21.6 13 *L 0.5
*I *246:ZN O *C 14.1 25.8 *L 0 *D INVD12

*CAP
1 *89 7.08683e-05
2 *89:2 0.000568126
3 *89:3 7.3573e-05
4 *89:4 0.00188565

*RES
1 *89:2 *89:3 3.13135
2 *89:3 *89:4 8.38403034
3 *89 *89:4 1.99955
4 *246:ZN *89:2 0.225029
*END

*D_NET *90 0.00203127

*CONN
*P *90 O *C 21.6 12 *L 0.5
*I *243:ZN O *C 14.3 22.2 *L 0 *D INVD12

*CAP
1 *90 7.59659e-05
2 *90:2 0.000513164
3 *90:3 3.35213e-05
4 *90:4 0.000674492031
5 *90:5 0.000538791
6 *90:6 0.000195334

*RES
1 *90:2 *90:3 2.49958
2 *90:5 *90:6 3.38902998
3 *90:3 *90:6 1.12976
4 *90:4 *90:5 2.44512
5 *90 *90:4 2.50495
6 *243:ZN *90:2 0.225001
*END

*D_NET *91 0.0016391

*CONN
*I *239:ZN O *C 13.9 17.8 *L 0 *D INVD12
*P *91 O *C 21.6 11 *L 0.5

*CAP
1 *91 0.000335218
2 *91:2 0.000823809063
3 *91:3 0.000215069
4 *91:4 0.000264999

*RES
1 *91 *91:3 1.45578
2 *91:2 *91:4 2.89524
3 *239:ZN *91:2 3.47056007
4 *91:3 *91:4 1.51641
*END

*D_NET *92 0.00388581

*CONN
*I *315:I0 I *C 11.3 21 *L 0.000706 *D MUX2ND0
*I *236:ZN O *C 10.7 22.2 *L 0 *D INVD12
*P *92 O *C 21.6 10 *L 0.5

*CAP
1 *92 0.00016025
2 *236:ZN 0.000429299
3 *92:3 0.00163761
4 *92:4 0.000441169
5 *92:5 5.18508e-05
6 *92:6 0.000547769
7 *92:7 0.000617886

*RES
1 *92:3 *92:5 6.37676001
2 *92:3 *92:4 3.01236
3 *92:6 *92:7 2.38058
4 *92:5 *92:7 2.71773
5 *92 *92:6 0.789116
6 *236:ZN *92:4 2.29291
7 *315:I0 *92:4 0.45002
*END

*D_NET *93 0.00510595

*CONN
*P *93 O *C 21.6 9 *L 0.5
*I *307:A2 I *C 6.3 15.4 *L 0.000606 *D CKND2D0
*I *303:A1 I *C 6.7 17.6 *L 0.000617 *D CKND2D0
*I *296:A1 I *C 7.3 15.4 *L 0.000711 *D OAI211D0
*I *234:ZN O *C 14.3 18.6 *L 0 *D INVD12

*CAP
1 *234:ZN 6.92514e-05
2 *296:A1 0.000341351
3 *307:A2 2.24734e-05
4 *93 7.32762e-05
5 *93:5 8.38133e-05
6 *93:6 0.000632988
7 *93:7 0.000142441
8 *93:8 0.000284796
9 *93:9 0.00045339
10 *93:10 0.000745407
11 *93:11 0.00113205
12 *93:12 0.000277524
13 *296:A1 *296:C 0.000177872012
14 *93:7 *87:2 0.000513963984
15 *296:A1 *302:A2 0.000155382012

*RES
1 *234:ZN *93:10 0.449954
2 *93:8 *93:10 1.40651
3 *93:6 *93:9 2.39946
4 *93:8 *93:9 2.27514
5 *307:A2 *93:5 0.384452
6 *93:7 *93:10 3.9173
7 *93:7 *93:11 6.4454999
8 *93:11 *93:12 1.39068
9 *296:A1 *93:5 1.54164
10 *93 *93:12 1.1684
11 *93:5 *93:6 1.56328
12 *303:A1 *93:6 0.225026
*END

*D_NET *94 0.00233361

*CONN
*I *316:I0 I *C 13.5 6.6 *L 0.000706 *D MUX2ND0
*I *230:ZN O *C 14.3 14.2 *L 0 *D INVD12
*P *94 O *C 21.6 8 *L 0.5

*CAP
1 *94 0.000144805
2 *316:I0 0.000282146
3 *94:3 0.00051571
4 *94:4 0.000919372969
5 *94:5 0.000471576

*RES
1 *94:4 *94:5 5.23788023
2 *94:3 *94:4 2.48139
3 *316:I0 *94:4 1.5729
4 *230:ZN *94:3 1.81115
5 *94 *94:5 0.713959
*END

*D_NET *95 0.00124184

*CONN
*I *226:Z O *C 14.1 10.6 *L 0 *D BUFFD12
*P *95 O *C 21.6 7 *L 0.5

*CAP
1 *95 4.71704e-05
2 *95:2 0.00115047
3 *95:3 4.41861e-05

*RES
1 *95:2 *95:3 4.73401022
2 *95 *95:3 0.587778
3 *226:Z *95:2 1.55768
*END

*D_NET *96 0.00352121

*CONN
*P *96 O *C 21.6 6 *L 0.5
*I *317:A1 I *C 15.7 6.6 *L 0.00136 *D XNR2D0
*I *310:A1 I *C 10.9 10.4 *L 0.000617 *D CKND2D0
*I *304:A2 I *C 9.3 11.8 *L 0.00065 *D OAI211D0
*I *228:Z O *C 9.3 7.8 *L 0 *D BUFFD12
*I *227:I I *C 12.1 11.8 *L 0.00382 *D BUFFD12

*CAP
1 *227:I 4.66333e-05
2 *228:Z 0.000378228
3 *304:A2 8.40834e-05
4 *310:A1 7.78076e-05
5 *96 5.17308e-05
6 *96:6 0.00060891
7 *96:7 0.000605874
8 *96:8 0.000149775
9 *96:9 0.000839361016
10 *96:10 0.000155359
11 *96:11 0.000523456

*RES
1 *96:9 *96:10 0.657199
2 *96:8 *96:9 2.65073
3 *96:6 *96:10 1.14781
4 *310:A1 *96:10 0.675
5 *96:7 *96:11 0.60414
6 *96:7 *96:8 2.77189
7 *228:Z *96:6 1.34793
8 *227:I *96:9 1.7132
9 *304:A2 *96:6 1.73461
10 *96 *96:11 3.76323009
11 *317:A1 *96:7 0.224981
*END

*D_NET *97 0.00478055

*CONN
*I *257:I I *C 15.1 40.6 *L 0.00382 *D BUFFD12
*I *258:Z O *C 13.7 57.4 *L 0 *D BUFFD12
*P *97 O *C 21.6 37 *L 0.5
*I *312:I0 I *C 13.1 49.8 *L 0.000706 *D MUX2ND0
*I *267:B2 I *C 14.7 50 *L 0.000739 *D MOAI22D0
*I *267:A2 I *C 15.5 49.8 *L 0.000697 *D MOAI22D0

*CAP
1 *258:Z 0.00141559
2 *267:A2 0.00020257
3 *267:B2 0.000301327
4 *312:I0 0.000329926
5 *97 0.000327442
6 *97:6 4.51235e-05
7 *97:7 0.00138935
8 *97:8 0.000108888
9 *97:9 0.000427237
10 *97:10 0.000233113

*RES
1 *97:6 *97:7 3.79095
2 *267:A2 *97:8 1.20938
3 *267:B2 *97:10 1.53547
4 *97:8 *97:9 1.07574
5 *97:7 *97:10 5.78781
6 *312:I0 *97:9 1.46368
7 *257:I *97:7 0.576342
8 *97 *97:6 2.4842
9 *258:Z *97:9 6.03179979
10 *97:8 *97:10 0.225033
*END

*D_NET *98 0.00148764

*CONN
*I *254:ZN O *C 14.3 43 *L 0 *D INVD12
*P *98 O *C 21.6 36 *L 0.5

*CAP
1 *98 8.28764e-05
2 *98:2 0.000697842031
3 *98:3 2.22232e-05
4 *98:4 0.000611665
5 *98:5 7.30266e-05

*RES
1 *98:2 *98:3 4.30077982
2 *254:ZN *98:2 0.351355
3 *98:4 *98:5 3.52549
4 *98:3 *98:5 0.873662
5 *98 *98:4 0.130396
*END

*D_NET *99 0.00130009

*CONN
*I *252:ZN O *C 14.1 39.4 *L 0 *D INVD12
*P *99 O *C 21.6 35 *L 0.5

*CAP
1 *252:ZN 0.000689123984
2 *99 9.28822e-05
3 *99:2 0.000518081

*RES
1 *99 *99:2 0.58775
2 *252:ZN *99:2 6.82594013
*END

*D_NET *100 0.00110456

*CONN
*I *249:ZN O *C 14.3 36.6 *L 0 *D INVD12
*P *100 O *C 21.6 34 *L 0.5

*CAP
1 *100 5.08698e-05
2 *100:2 0.00101794008
3 *100:3 3.57564e-05

*RES
1 *100:2 *100:3 4.52143002
2 *100 *100:3 0.587739
3 *249:ZN *100:2 1.63193
*END

*D_NET *101 0.00069422

*CONN
*I *245:ZN O *C 14.3 33 *L 0 *D INVD12
*P *101 O *C 21.6 33 *L 0.5

*CAP
1 *101 5.17249e-05
2 *101:2 0.000642493008

*RES
1 *245:ZN *101:2 0.450032
2 *101 *101:2 4.52143002
*END

*D_NET *102 0.00131254

*CONN
*I *314:I0 I *C 11.7 31.8 *L 0.000706 *D MUX2ND0
*I *242:ZN O *C 14.3 32.2 *L 0 *D INVD12
*P *102 O *C 21.6 32 *L 0.5

*CAP
1 *102 0.000392998
2 *242:ZN 7.47454e-05
3 *102:3 0.000501941016
4 *102:4 0.000342853

*RES
1 *102:3 *102:4 2.02
2 *242:ZN *102:4 0.449985
3 *102 *102:4 4.64778996
4 *314:I0 *102:3 0.449985
*END

*D_NET *103 0.003275

*CONN
*I *240:ZN O *C 10.7 29.4 *L 0 *D INVD12
*P *103 O *C 21.6 31 *L 0.5
*I *306:A1 I *C 7.7 29.6 *L 0.000617 *D CKND2D0
*I *294:A2 I *C 8.5 31.8 *L 0.000606 *D CKND2D0
*I *287:A1 I *C 6.5 31.8 *L 0.000711 *D OAI211D0

*CAP
1 *240:ZN 0.000403344
2 *294:A2 1.45437e-05
3 *103 0.000146804
4 *103:5 0.000217169
5 *103:6 0.000799758
6 *103:7 0.000442111
7 *103:8 0.000209619
8 *103:9 0.00104165992

*RES
1 *306:A1 *103:9 2.21194
2 *240:ZN *103:8 1.61505
3 *103:7 *103:8 1.2637
4 *103:5 *103:6 1.51642
5 *294:A2 *103:7 0.618475
6 *103 *103:5 1.07665
7 *103:7 *103:9 0.625918
8 *103:6 *103:8 5.36001015
9 *287:A1 *103:9 1.73872
*END

*D_NET *104 0.00107811

*CONN
*I *237:ZN O *C 13.9 28.6 *L 0 *D INVD12
*P *104 O *C 21.6 30 *L 0.5

*CAP
1 *237:ZN 0.000374241
2 *104 0.000703876953

*RES
1 *104 *237:ZN 6.23513
*END

*D_NET *105 0.00137904

*CONN
*I *233:ZN O *C 14.3 25 *L 0 *D INVD12
*P *105 O *C 21.6 29 *L 0.5

*CAP
1 *105 0.000209285
2 *233:ZN 0.000633131016
3 *105:2 0.000512495
4 *105:3 2.41331e-05

*RES
1 *105:2 *105:3 3.65340996
2 *233:ZN *105:2 2.7123
3 *105 *105:3 1.2194
*END

*D_NET *106 0.0021031

*CONN
*I *231:ZN O *C 14.3 21.4 *L 0 *D INVD12
*P *106 O *C 21.6 28 *L 0.5

*CAP
1 *106 5.75386e-05
2 *106:2 0.00100015
3 *106:3 0.00104541

*RES
1 *106:2 *106:3 4.45595
2 *106:3 *106:4 4.65927982
3 *106 *106:4 0.130317
4 *231:ZN *106:2 0.225016
*END

*D_NET *107 0.00547386

*CONN
*P *107 O *C 21.6 27 *L 0.5
*I *310:A2 I *C 10.5 10.2 *L 0.000606 *D CKND2D0
*I *229:Z O *C 10.7 15 *L 0 *D CKBD12
*I *226:I I *C 12.1 10.2 *L 0.00382 *D BUFFD12
*I *302:A1 I *C 5.9 11.6 *L 0.000617 *D CKND2D0

*CAP
1 *226:I 0.000325062
2 *310:A2 0.000142439
3 *107 7.63155e-05
4 *107:5 0.000646614
5 *107:6 0.000412849
6 *107:7 7.74953e-05
7 *107:8 0.000899653
8 *107:9 7.83197e-06
9 *107:10 0.000359645
10 *107:11 0.000931521016
11 *107:12 3.0077e-05
12 *107:13 0.000216467
13 *107:15 0.00032067
14 *310:A2 *84:15 0.000299879023
15 *107:5 *47:3 0.000501169961
16 *107:5 *119:8 0.000226161992

*RES
1 *107:6 *107:9 3.09196
2 *107:11 *107:12 0.243799
3 *107 *107:10 0.334915
4 *302:A1 *107:8 1.14573
5 *107:8 *107:13 3.63659
6 *107:5 *107:12 5.04342985
7 *107:14 *107:15 2.28523
8 *226:I *107:13 2.25429
9 *310:A2 *107:7 0.925173
10 *107:6 *107:7 0.632814
11 *107:11 *107:14 4.6334
12 *107:5 *107:9 0.841675
13 *107:10 *107:15 2.64277
14 *229:Z *107:9 0.225021
15 *107:7 *107:13 0.225021
*END

*D_NET *108 0.00350045

*CONN
*I *227:Z O *C 14.1 11.4 *L 0 *D BUFFD12
*P *108 O *C 21.6 26 *L 0.5

*CAP
1 *108 8.36443e-05
2 *108:2 0.000837234
3 *108:3 0.00192001
4 *108:4 0.000348113
5 *108:5 0.000311432

*RES
1 *108:2 *108:4 4.22858
2 *108:4 *108:5 1.49982
3 *108:3 *108:5 8.69764996
4 *108 *108:3 0.856812
5 *227:Z *108:2 0.224953
*END

*D_NET *117 0.004285

*CONN
*I *221:I I *C 12.3 44.2 *L 0.00105 *D DEL1
*I *279:QN O *C 10.5 25 *L 0 *D DFNCND1

*CAP
1 *279:QN 0.000438496
2 *117:2 0.000796356
3 *117:3 0.0014217
4 *117:4 0.000342805
5 *117:5 0.000690122
6 *117:6 0.000595493

*RES
1 *117:5 *117:6 2.13353
2 *221:I *117:2 3.38495
3 *279:QN *117:6 1.85671
4 *117:4 *117:5 2.72402
5 *117:2 *117:3 5.02255011
6 *117:3 *117:4 1.51743
*END

*D_NET *118 0.000534534

*CONN
*I *289:A2 I *C 6.9 33.4 *L 0.000664 *D NR2D0
*I *285:A2 I *C 7.7 33.4 *L 0.000671 *D AOI21D0
*I *271:QN O *C 8.1 35.8 *L 0 *D DFNCND1

*CAP
1 *289:A2 7.23892e-06
2 *285:A2 3.63033e-06
3 *271:QN 0.000128485
4 *118:3 3.90206e-05
5 *118:4 0.000356158008

*RES
1 *271:QN *118:4 2.00428009
2 *285:A2 *118:3 0.311823
3 *289:A2 *118:3 0.311823
4 *118:3 *118:4 0.224998
*END

*D_NET *119 0.00591519

*CONN
*I *222:I I *C 9.1 39 *L 0.00105 *D DEL1
*I *288:QN O *C 10.5 14.2 *L 0 *D DFNCND1

*CAP
1 *119:2 0.000510998
2 *119:3 0.000822463984
3 *119:4 0.00030489
4 *119:5 5.18315e-06
5 *119:6 2.77731e-05
6 *119:7 0.000757794
7 *119:8 0.000325898
8 *119:9 5.96376e-05
9 *119:8 *84:14 0.000604898984
10 *119:8 *107:5 0.000226161992
11 *119:4 *276:CDN 0.00179023
12 *119:3 *45:8 0.000479266992

*RES
1 *119:8 *119:9 3.10092
2 *119:6 *119:7 3.02198
3 *119:5 *119:7 0.28583
4 *119:4 *119:6 0.28583
5 *119:3 *119:4 2.43224
6 *119:2 *119:5 3.52006
7 *222:I *119:3 9.25502014
8 *119:2 *119:9 0.983176
9 *288:QN *119:8 0.224964
*END

*D_NET *120 0.00139888

*CONN
*I *274:A2 I *C 11.9 49.8 *L 0.000606 *D CKND2D0
*I *272:A2 I *C 10.5 49.8 *L 0.00069 *D OR2D0
*I *261:QN O *C 11.1 46.6 *L 0 *D DFNCND1

*CAP
1 *274:A2 0.000207999
2 *261:QN 0.000729996016
3 *120:3 0.000460888

*RES
1 *272:A2 *120:3 0.770828
2 *274:A2 *120:3 1.40257
3 *261:QN *120:3 2.83867002
*END

*D_NET *121 0.00465033

*CONN
*I *197:Z O *C 13.7 75.4 *L 0 *D DEL1
*I *282:A2 I *C 6.9 47.8 *L 0.000664 *D NR2D0
*I *277:A2 I *C 7.7 47.8 *L 0.000671 *D AOI21D0

*CAP
1 *197:Z 9.47593e-05
2 *282:A2 6.67576e-05
3 *277:A2 6.7957e-05
4 *121:3 0.0012049
5 *121:4 0.000146296
6 *121:5 0.00271063
7 *121:6 0.00035906

*RES
1 *121:3 *121:5 4.77429
2 *277:A2 *121:3 1.35784
3 *121:5 *121:6 17.8010006
4 *121:4 *121:6 0.450077
5 *197:Z *121:4 1.04493
6 *282:A2 *277:A2 0.630977
*END

*D_NET *122 0.00988133

*CONN
*I *193:I I *C 12.7 73 *L 0.00105 *D DEL1
*I *311:QN O *C 10.3 7 *L 0 *D DFNCND1

*CAP
1 *122:2 0.00153809
2 *122:3 0.000406738
3 *122:4 5.62266e-05
4 *122:5 0.000122981
5 *122:6 0.00197683
6 *122:7 8.48829e-05
7 *122:8 0.000308945
8 *122:9 0.000445741
9 *122:5 *41:3 0.000637107031
10 *122:2 *27:3 0.000173357988
11 *122:2 *286:Q 0.00171937
12 *122:3 *39:6 0.00241106016

*RES
1 *122:8 *122:9 2.369
2 *122:2 *122:8 1.06159
3 *122:5 *122:9 1.85736
4 *122:7 *122:2 16.3131
5 *122:6 *122:7 1.44879
6 *122:4 *122:3 1.74208
7 *122:3 *122:6 22.2205009
8 *311:QN *122:5 0.225134
9 *193:I *122:4 0.44993
*END

*D_NET *123 0.000564592

*CONN
*I *306:ZN O *C 7.5 29.4 *L 0 *D CKND2D0
*I *281:A2 I *C 6.1 29.8 *L 0.000671 *D AOI21D0

*CAP
1 *306:ZN 0.000196039
2 *281:A2 0.000368553984

*RES
1 *281:A2 *306:ZN 1.95558
*END

*D_NET *124 0.00175071

*CONN
*I *308:ZN O *C 11.3 11.6 *L 0 *D NR2D1
*I *307:A1 I *C 5.9 15.2 *L 0.000617 *D CKND2D0
*I *305:B I *C 11.5 13.8 *L 0.00072 *D AOI21D0
*I *296:A2 I *C 6.9 15.4 *L 0.00065 *D OAI211D0

*CAP
1 *308:ZN 0.000349864
2 *307:A1 0.000343383
3 *124:4 0.000144531
4 *124:5 7.0176e-05
5 *124:6 0.000842768047

*RES
1 *124:4 *124:5 0.505481
2 *296:A2 *124:6 0.990368
3 *124:4 *124:6 3.13140988
4 *308:ZN *124:5 1.48715
5 *307:A1 *124:6 2.20588
6 *305:B *124:5 0.450006
*END

*D_NET *125 0.000978715

*CONN
*I *310:ZN O *C 11.1 10.6 *L 0 *D CKND2D0
*I *308:A1 I *C 11.3 11.8 *L 0.00093 *D NR2D1
*I *305:A1 I *C 11.3 13.8 *L 0.00069 *D AOI21D0
*I *304:B I *C 9.9 11.8 *L 0.000726 *D OAI211D0

*CAP
1 *310:ZN 0.000256566
2 *125:4 0.000317808
3 *125:5 0.00040434

*RES
1 *125:4 *125:5 1.47716
2 *305:A1 *125:5 1.70678997
3 *310:ZN *125:5 1.23785
4 *308:A1 *125:5 0.22499
5 *304:B *125:4 0.450006
*END

*D_NET *126 0.00128052

*CONN
*I *316:I1 I *C 12.5 6.8 *L 0.001 *D MUX2ND0
*I *305:ZN O *C 11.5 14.2 *L 0 *D AOI21D0

*CAP
1 *316:I1 0.000752091016
2 *305:ZN 0.000244064
3 *126:2 0.000284368

*RES
1 *305:ZN *126:2 2.67494
2 *316:I1 *126:2 3.1054399
*END

*D_NET *127 0.000969784

*CONN
*I *304:ZN O *C 9.3 12.4 *L 0 *D OAI211D0
*I *297:A1 I *C 6.9 11.8 *L 0.00069 *D AOI21D0

*CAP
1 *297:A1 0.00073532
2 *127:2 0.000234459

*RES
1 *297:A1 *127:2 3.55315995
2 *304:ZN *127:2 0.45
*END

*D_NET *128 2.0007e-05

*CONN
*I *303:ZN O *C 6.9 17.8 *L 0 *D CKND2D0
*I *290:A2 I *C 7.1 17.4 *L 0.000671 *D AOI21D0

*CAP
1 *303:ZN 2.00069995e-05

*RES
1 *303:ZN *290:A2 0.16262
*END

*D_NET *129 0.000401397

*CONN
*I *302:ZN O *C 5.7 11.4 *L 0 *D CKND2D0
*I *297:A2 I *C 6.5 11.8 *L 0.000671 *D AOI21D0

*CAP
1 *302:ZN 4.99565e-05
2 *297:A2 7.95013e-05
3 *129:2 0.000271941016

*RES
1 *297:A2 *129:2 1.18045998
2 *302:ZN *129:2 0.674996
*END

*D_NET *130 7.7111e-05

*CONN
*I *301:ZN O *C 8.1 39.4 *L 0 *D CKND2D0
*I *273:A2 I *C 7.3 39 *L 0.000671 *D AOI21D0

*CAP
1 *273:A2 7.71109961e-05

*RES
1 *273:A2 *301:ZN 0.633848
*END

*D_NET *131 0.000679353

*CONN
*I *300:ZN O *C 8.7 51 *L 0 *D CKND2D0
*I *265:A2 I *C 6.9 51.4 *L 0.000671 *D AOI21D0

*CAP
1 *300:ZN 9.91466e-05
2 *265:A2 0.000172141
3 *131:2 0.000408061992

*RES
1 *300:ZN *131:2 2.1314199
2 *265:A2 *131:2 0.922056
*END

*D_NET *132 0.000479094

*CONN
*I *298:ZN O *C 11.3 6.8 *L 0 *D NR2D0
*I *291:D I *C 12.3 8.2 *L 0.000792 *D DFNCND1

*CAP
1 *298:ZN 0.000479093984

*RES
1 *298:ZN *291:D 2.09243
*END

*D_NET *133 0.000560998

*CONN
*I *176:I I *C 8.5 11.8 *L 0.000643 *D CKBD0
*I *297:ZN O *C 7.1 11.4 *L 0 *D AOI21D0

*CAP
1 *133:2 0.000560998008

*RES
1 *176:I *133:2 2.17280006
2 *297:ZN *133:2 0.450003
*END

*D_NET *134 0.00200436

*CONN
*I *307:ZN O *C 5.7 15 *L 0 *D CKND2D0
*I *299:A1 I *C 6.7 21 *L 0.000647 *D NR2D0
*I *296:B I *C 7.5 15.4 *L 0.000726 *D OAI211D0
*I *295:A1 I *C 8.5 21 *L 0.00069 *D AOI21D0

*CAP
1 *295:A1 0.000193882
2 *134:4 0.00118042008
3 *134:5 0.000596974
4 *134:6 3.30881e-05

*RES
1 *296:B *134:4 1.29871
2 *299:A1 *134:5 0.449986
3 *134:4 *134:6 3.63853002
4 *295:A1 *134:5 2.27525
5 *307:ZN *134:4 1.39548
6 *134:5 *134:6 0.225021
*END

*D_NET *135 0.000346853

*CONN
*I *296:ZN O *C 6.9 16 *L 0 *D OAI211D0
*I *290:A1 I *C 7.5 17.4 *L 0.00069 *D AOI21D0

*CAP
1 *296:ZN 0.000346852969

*RES
1 *296:ZN *290:A1 1.61267
*END

*D_NET *136 0.000147804

*CONN
*I *315:I1 I *C 10.3 21.2 *L 0.001 *D MUX2ND0
*I *295:ZN O *C 8.7 21.4 *L 0 *D AOI21D0

*CAP
1 *295:ZN 0.000147804004

*RES
1 *295:ZN *315:I1 0.941966
*END

*D_NET *137 0.00372862

*CONN
*I *299:ZN O *C 6.7 21.2 *L 0 *D NR2D0
*I *295:B I *C 8.7 21 *L 0.00072 *D AOI21D0
*I *294:A1 I *C 8.1 32 *L 0.000617 *D CKND2D0
*I *287:A2 I *C 6.1 31.8 *L 0.00065 *D OAI211D0

*CAP
1 *299:ZN 0.000424992
2 *295:B 0.000644606
3 *137:4 0.000325844
4 *137:5 0.000198447
5 *137:6 0.000520397
6 *137:7 0.000629106
7 *137:8 0.000985243047

*RES
1 *137:4 *137:5 1.39073
2 *295:B *137:8 3.31898999
3 *137:6 *137:7 2.02332
4 *137:5 *137:8 2.73775
5 *137:4 *137:6 1.82682
6 *299:ZN *137:8 3.2803
7 *287:A2 *137:7 0.22501
8 *294:A1 *137:6 0.450021
*END

*D_NET *138 0.010515

*CONN
*I *187:I I *C 5.9 82.2 *L 0.00105 *D DEL1
*I *292:ZN O *C 8.1 11.6 *L 0 *D NR2D1

*CAP
1 *138:2 0.002754
2 *138:3 0.00204099
3 *138:4 6.6607e-05
4 *138:6 0.000362115
5 *138:7 0.000118464
6 *138:9 8.94677e-05
7 *138:10 0.000703807
8 *138:11 0.000207553
9 *138:2 *195:I 0.000546154023
10 *138:2 *9:4 0.0025449
11 *138:2 *155:2 0.000666188984
12 *138:3 *276:CPN 0.00041481

*RES
1 *138:9 *138:10 10.26
2 *138:7 *138:9 0.159522
3 *138:6 *138:8 3.12633
4 *138:3 *138:11 2.85086
5 *138:8 *138:10 0.159522
6 *138:5 *138:6 0.285737
7 *138:4 *138:2 15.8405
8 *187:I *138:4 0.719728
9 *138:3 *138:5 16.4120007
10 *138:2 *138:7 3.25631
11 *292:ZN *138:11 0.224884
*END

*D_NET *139 0.000528433

*CONN
*I *177:I I *C 7.3 21 *L 0.000643 *D CKBD0
*I *290:ZN O *C 7.7 17.8 *L 0 *D AOI21D0

*CAP
1 *177:I 9.1075e-05
2 *290:ZN 0.000437355977

*RES
1 *177:I *290:ZN 3.05072
*END

*D_NET *140 0.00676493

*CONN
*I *213:I I *C 6.7 58.6 *L 0.00105 *D DEL1
*I *294:ZN O *C 7.9 32.2 *L 0 *D CKND2D0

*CAP
1 *213:I 0.000108757
2 *294:ZN 0.000142587
3 *140:2 0.000975821953
4 *140:3 0.000169285
5 *140:4 4.24963e-05
6 *140:2 *74:2 0.00329839
7 *213:I *2:2 0.00151543
8 *140:3 *37:2 0.000512179023

*RES
1 *140:4 *140:2 2.14332
2 *294:ZN *140:4 0.576323
3 *140:3 *140:2 22.4419994
4 *213:I *140:3 1.56015
*END

*D_NET *141 0.000407638

*CONN
*I *287:ZN O *C 6.1 31.2 *L 0 *D OAI211D0
*I *281:A1 I *C 6.5 29.8 *L 0.00069 *D AOI21D0

*CAP
1 *287:ZN 0.000121887
2 *281:A1 0.00028575

*RES
1 *287:ZN *281:A1 2.1287
*END

*D_NET *142 0.000601486

*CONN
*I *314:I1 I *C 10.7 32 *L 0.001 *D MUX2ND0
*I *285:ZN O *C 8.3 33 *L 0 *D AOI21D0

*CAP
1 *314:I1 0.000236079
2 *142:2 0.000365408984

*RES
1 *314:I1 *142:2 1.62472999
2 *285:ZN *142:2 1.24111
*END

*D_NET *143 0.00587363

*CONN
*I *211:I I *C 6.5 64.2 *L 0.00105 *D DEL1
*I *289:ZN O *C 6.5 33.2 *L 0 *D NR2D0

*CAP
1 *289:ZN 0.00013657
2 *143:2 0.000300598
3 *143:3 0.000145503
4 *143:4 0.00187634
5 *143:5 0.000241274
6 *143:7 0.000363415
7 *143:9 0.000287886
8 *143:3 *1:3 0.000882406016
9 *143:3 *212:I 0.000220023008
10 *289:ZN *145:2 0.000295374004
11 *289:ZN *36:4 0.000909498984
12 *143:2 *50:15 0.000214745996

*RES
1 *143:6 *143:2 0.159411
2 *143:3 *143:4 12.2046003
3 *289:ZN *143:7 1.68946
4 *143:2 *143:8 2.75691
5 *143:6 *143:7 2.62469
6 *143:5 *143:9 2.26359
7 *143:8 *143:9 0.159411
8 *143:4 *143:5 3.21875
9 *211:I *143:3 0.449925
*END

*D_NET *144 0.0117805

*CONN
*I *188:I I *C 6.9 80.2 *L 0.00105 *D DEL1
*I *283:ZN O *C 8.1 22.4 *L 0 *D NR2XD0

*CAP
1 *188:I 8.29897e-05
2 *283:ZN 0.000207397
3 *144:2 3.06913e-05
4 *144:3 0.00336347
5 *144:4 0.000886045
6 *144:5 0.000933981
7 *144:6 0.000122406
8 *144:7 0.000165004
9 *144:8 0.000532838
10 *144:9 0.000107471
11 *144:10 0.000383539
12 *144:11 0.000100645
13 *144:12 0.00017183
14 *144:13 0.000154791
15 *144:14 0.000236857
16 *188:I *2:2 0.00132441
17 *188:I *13:2 0.000167687988
18 *144:3 *145:3 0.00151089
19 *188:I *155:4 0.000569061992
20 *188:I *74:2 0.000728516016

*RES
1 *144:4 *144:6 4.64297
2 *144:2 *144:3 15.1753998
3 *144:8 *144:14 2.1822
4 *144:4 *144:9 1.25342
5 *188:I *144:7 0.674992
6 *144:13 *144:14 1.65518
7 *144:10 *144:11 3.2432
8 *283:ZN *144:5 1.5387
9 *144:5 *144:13 5.4055
10 *144:9 *144:11 1.59196
11 *144:10 *144:12 2.91439
12 *144:2 *144:7 1.36295
13 *144:8 *144:12 5.9052
14 *144:3 *144:6 1.36295
*END

*D_NET *145 0.00695066

*CONN
*I *210:I I *C 10.3 62.2 *L 0.00105 *D DEL1
*I *281:ZN O *C 6.7 29.4 *L 0 *D AOI21D0

*CAP
1 *145:2 0.000626616
2 *145:3 7.7868e-05
3 *145:4 0.00048681
4 *145:5 0.000110479
5 *145:6 0.000722509063
6 *145:7 0.000206384
7 *145:8 6.50462e-06
8 *145:10 0.000116609
9 *145:11 0.000237562
10 *145:12 0.000190354
11 *145:13 0.000177201
12 *145:2 *36:4 0.00183907
13 *145:3 *144:3 0.00151089
14 *145:4 *2:2 0.000346425
15 *145:2 *289:ZN 0.000295374004

*RES
1 *145:5 *145:6 4.57005
2 *145:6 *145:8 0.285953
3 *145:9 *145:11 3.26262
4 *145:9 *145:10 0.159441
5 *145:7 *145:10 2.80887
6 *145:12 *145:13 1.77087
7 *145:3 *145:4 2.50069
8 *145:7 *145:8 6.68100977
9 *145:2 *145:13 2.8734
10 *145:4 *145:5 1.46606
11 *145:11 *145:12 2.1919
12 *281:ZN *145:2 0.770799
13 *210:I *145:3 0.449981
*END

*D_NET *146 0.00248492

*CONN
*I *284:ZN O *C 6.3 35.8 *L 0 *D CKND2D0
*I *282:A1 I *C 6.5 47.8 *L 0.000647 *D NR2D0
*I *280:B I *C 6.9 37 *L 0.000726 *D OAI211D0
*I *277:A1 I *C 8.1 47.8 *L 0.00069 *D AOI21D0

*CAP
1 *284:ZN 0.000272429
2 *282:A1 0.000138997
3 *146:4 7.19694e-05
4 *146:5 8.09526e-05
5 *146:6 0.000435373
6 *146:7 0.000125707
7 *146:8 0.000756701016
8 *146:9 0.000602786

*RES
1 *146:8 *146:9 1.03343
2 *277:A1 *146:5 0.675005
3 *146:7 *146:8 5.41856003
4 *146:6 *146:7 1.52141
5 *282:A1 *146:6 0.450031
6 *146:5 *146:6 1.0111
7 *146:4 *146:9 1.04368
8 *284:ZN *146:9 1.65676
9 *280:B *146:4 0.450031
*END

*D_NET *147 0.000440847

*CONN
*I *280:ZN O *C 6.3 37.6 *L 0 *D OAI211D0
*I *273:A1 I *C 6.9 39 *L 0.00069 *D AOI21D0

*CAP
1 *280:ZN 0.000382011016
2 *273:A1 5.88333e-05

*RES
1 *280:ZN *273:A1 1.88037
*END

*D_NET *148 0.0013661

*CONN
*I *282:ZN O *C 6.5 47.6 *L 0 *D NR2D0
*I *278:A1 I *C 8.9 50 *L 0.000617 *D CKND2D0
*I *277:B I *C 8.3 47.8 *L 0.00072 *D AOI21D0
*I *270:A2 I *C 7.1 49.8 *L 0.00065 *D OAI211D0

*CAP
1 *282:ZN 7.37995e-05
2 *278:A1 0.000267636
3 *277:B 0.000213039
4 *270:A2 9.23997e-05
5 *148:4 0.000453148008
6 *148:5 0.000266081

*RES
1 *278:A1 *148:5 1.96712995
2 *282:ZN *148:4 0.498206
3 *148:4 *148:5 1.37882
4 *277:B *148:5 1.30321
5 *270:A2 *148:4 1.48891
*END

*D_NET *149 0.00115641

*CONN
*I *313:I1 I *C 7.7 44 *L 0.001 *D MUX2ND0
*I *277:ZN O *C 8.3 47.4 *L 0 *D AOI21D0

*CAP
1 *313:I1 0.000111212
2 *149:3 0.00104521

*RES
1 *313:I1 *149:3 1.21126
2 *149:2 *149:3 3.14007998
3 *277:ZN *149:2 0.450007
*END

*D_NET *150 0.00512325

*CONN
*I *180:I I *C 13.3 55 *L 0.00072 *D BUFFD1
*I *275:ZN O *C 11.3 33.2 *L 0 *D NR2D0

*CAP
1 *180:I 0.000406477
2 *275:ZN 0.000372028
3 *150:2 0.000641598
4 *150:3 0.000644113
5 *150:4 0.000936752969
6 *150:5 2.57291e-05
7 *150:6 0.000788553
8 *150:7 0.000102802
9 *150:2 *39:6 0.000667514062
10 *275:ZN *43:2 0.000537697969

*RES
1 *150:5 *150:6 2.75307
2 *180:I *150:2 1.2676
3 *150:6 *150:7 3.94721
4 *150:4 *150:5 3.88452
5 *150:3 *150:4 2.60505
6 *150:2 *150:7 4.01184988
7 *275:ZN *150:3 1.75059
*END

*D_NET *151 0.000666394

*CONN
*I *274:ZN O *C 11.3 50.2 *L 0 *D CKND2D0
*I *266:A2 I *C 11.9 47.8 *L 0.0007 *D AOI32D0

*CAP
1 *274:ZN 0.000328447
2 *266:A2 0.000337946016

*RES
1 *274:ZN *266:A2 2.88731
*END

*D_NET *152 0.00445472

*CONN
*I *207:I I *C 9.9 64.2 *L 0.00105 *D DEL1
*I *273:ZN O *C 6.7 39.4 *L 0 *D AOI21D0

*CAP
1 *273:ZN 9.40155e-05
2 *152:2 0.000597997
3 *152:3 0.000676271
4 *152:4 0.000493002
5 *152:6 0.000388273
6 *152:7 0.00134497
7 *152:8 0.000111419
8 *152:9 0.000748758

*RES
1 *152:8 *152:9 3.13284
2 *152:6 *152:7 7.55747986
3 *152:5 *152:7 0.159485
4 *273:ZN *152:2 0.780357
5 *152:3 *152:9 2.79277
6 *152:3 *152:4 1.8572
7 *152:2 *152:5 3.36775
8 *152:4 *152:6 1.89664
9 *207:I *152:8 0.449971
*END

*D_NET *153 0.00121306

*CONN
*I *278:ZN O *C 9.1 50.2 *L 0 *D CKND2D0
*I *274:A1 I *C 11.5 50 *L 0.000617 *D CKND2D0
*I *272:A1 I *C 10.1 50 *L 0.000633 *D OR2D0
*I *270:B I *C 7.7 49.8 *L 0.000726 *D OAI211D0

*CAP
1 *278:ZN 4.83929e-05
2 *274:A1 0.000150339
3 *272:A1 8.26435e-05
4 *270:B 0.000356741016
5 *153:4 0.000314173
6 *153:5 0.000260766

*RES
1 *274:A1 *153:4 1.96376002
2 *270:B *153:5 1.75491
3 *153:4 *153:5 0.774735
4 *278:ZN *153:5 0.450008
5 *278:ZN *272:A1 0.814408
*END

*D_NET *154 0.00108253

*CONN
*I *270:ZN O *C 7.1 49.2 *L 0 *D OAI211D0
*I *265:A1 I *C 7.3 51.4 *L 0.00069 *D AOI21D0

*CAP
1 *270:ZN 0.000174846
2 *154:2 0.000617708984
3 *154:3 0.00028998

*RES
1 *154:2 *154:3 2.55500007
2 *265:A1 *154:3 0.811654
3 *270:ZN *154:2 0.944285
*END

*D_NET *155 0.00794416

*CONN
*I *181:I I *C 6.9 85.8 *L 0.00103 *D DEL2
*I *268:ZN O *C 6.5 44 *L 0 *D NR2D0

*CAP
1 *268:ZN 2.71743e-05
2 *155:2 0.00134817
3 *155:3 0.00123475
4 *155:4 0.00222886984
5 *155:5 0.000125736
6 *155:6 0.000247255
7 *155:7 0.000266437
8 *155:3 *50:14 0.00043291
9 *155:4 *188:I 0.000569061992
10 *155:4 *51:2 0.000423996016
11 *155:2 *138:2 0.000666188984
12 *155:2 *214:I 0.000373595

*RES
1 *155:4 *155:6 2.31123
2 *155:3 *155:5 7.28574
3 *181:I *155:7 1.55994
4 *268:ZN *155:3 0.623593
5 *155:2 *155:5 0.285982
6 *155:2 *155:6 8.62386
7 *155:4 *155:7 13.9243002
*END

*D_NET *156 0.00179249

*CONN
*I *272:Z O *C 11.1 50 *L 0 *D OR2D0
*I *267:B1 I *C 14.3 49.8 *L 0.000689 *D MOAI22D0
*I *267:A1 I *C 15.3 49.8 *L 0.000721 *D MOAI22D0
*I *266:A1 I *C 11.5 47.8 *L 0.000719 *D AOI32D0

*CAP
1 *272:Z 0.000297755
2 *267:A1 0.000391877
3 *266:A1 0.000251687
4 *156:4 0.000356556
5 *156:5 0.000494610977

*RES
1 *266:A1 *156:5 1.09423
2 *272:Z *156:5 0.863164
3 *156:4 *156:5 2.01751
4 *267:A1 *156:4 2.13554001
5 *267:B1 *156:4 1.09954
*END

*D_NET *157 0.000725802

*CONN
*I *312:I1 I *C 14.1 50 *L 0.001 *D MUX2ND0
*I *267:ZN O *C 15.1 49.2 *L 0 *D MOAI22D0

*CAP
1 *267:ZN 0.00014988
2 *157:2 0.000575925

*RES
1 *312:I1 *157:2 0.60943
2 *267:ZN *157:2 2.44279003
*END

*D_NET *158 0.000515845

*CONN
*I *266:ZN O *C 12.3 48.4 *L 0 *D AOI32D0
*I *262:A1 I *C 14.3 47.8 *L 0.000647 *D NR2D0

*CAP
1 *266:ZN 0.000379871992
2 *262:A1 0.000135974

*RES
1 *266:ZN *262:A1 2.24703
*END

*D_NET *159 0.00263426

*CONN
*I *206:I I *C 6.9 67.8 *L 0.00105 *D DEL1
*I *265:ZN O *C 7.5 51 *L 0 *D AOI21D0

*CAP
1 *206:I 2.02645e-05
2 *265:ZN 0.000335997
3 *159:2 0.00181425
4 *159:3 0.000463729

*RES
1 *159:2 *159:3 8.06503963
2 *206:I *159:3 2.25057
3 *265:ZN *159:2 1.63169
*END

*D_NET *160 0.00701377

*CONN
*I *182:I I *C 10.7 83.8 *L 0.00103 *D DEL2
*I *262:ZN O *C 14.3 47.6 *L 0 *D NR2D0

*CAP
1 *182:I 5.90968e-05
2 *262:ZN 5.53139e-06
3 *160:2 0.000923996
4 *160:3 3.68441e-05
5 *160:4 0.00208332984
6 *160:5 0.000583625
7 *160:6 8.64358e-05
8 *160:7 0.000280702
9 *160:8 0.000276061
10 *160:4 *197:I 0.00119777
11 *160:4 *9:2 0.000212845
12 *160:4 *35:2 0.000612911992
13 *160:2 *51:3 0.000654613008

*RES
1 *160:4 *160:6 2.47575
2 *160:2 *160:3 5.68203
3 *182:I *160:4 13.3396997
4 *262:ZN *160:2 0.311835
5 *160:7 *160:8 2.40288
6 *160:3 *160:5 0.858361
7 *160:6 *160:8 2.77883
8 *160:5 *160:7 3.21626
*END

*D_NET *161 0.0065517

*CONN
*I *185:I I *C 12.7 80.2 *L 0.00105 *D DEL1
*I *260:ZN O *C 13.5 51.2 *L 0 *D NR2D0

*CAP
1 *185:I 6.10331e-05
2 *260:ZN 2.04421e-05
3 *161:2 0.00108948
4 *161:3 0.00083447
5 *161:4 0.000632704
6 *161:5 0.00112957
7 *161:6 0.00104354
8 *161:2 *189:I 0.00137205
9 *161:3 *32:2 0.000368416992

*RES
1 *161:4 *161:3 6.34262
2 *185:I *161:2 5.79542
3 *260:ZN *161:6 0.536783
4 *161:6 *161:3 3.34053
5 *161:4 *161:5 7.33958006
6 *161:5 *161:2 2.07546
*END

*D_NET *162 0.000333889

*CONN
*I *312:ZN O *C 13.5 50 *L 0 *D MUX2ND0
*I *260:A1 I *C 13.5 51.4 *L 0.000647 *D NR2D0

*CAP
1 *260:A1 0.000333889023

*RES
1 *312:ZN *260:A1 1.43748
*END

*D_NET *163 0.000579618

*CONN
*I *313:ZN O *C 8.3 44 *L 0 *D MUX2ND0
*I *268:A1 I *C 6.5 44.2 *L 0.000647 *D NR2D0

*CAP
1 *313:ZN 6.99076e-05
2 *268:A1 0.000439336016
3 *163:2 7.03769e-05

*RES
1 *313:ZN *163:2 0.449986
2 *268:A1 *163:2 2.00915003
*END

*D_NET *164 0.000309954

*CONN
*I *314:ZN O *C 11.3 32 *L 0 *D MUX2ND0
*I *275:A1 I *C 11.3 33.4 *L 0.000647 *D NR2D0

*CAP
1 *275:A1 0.000309953984

*RES
1 *314:ZN *275:A1 1.33645
*END

*D_NET *165 0.00099191

*CONN
*I *315:ZN O *C 10.9 21.2 *L 0 *D MUX2ND0
*I *283:A1 I *C 8.1 22.6 *L 0.000774 *D NR2XD0

*CAP
1 *315:ZN 0.000107396
2 *165:2 0.000478006992
3 *165:3 0.000406512

*RES
1 *165:2 *165:3 1.86775005
2 *315:ZN *165:3 1.81406
3 *283:A1 *165:2 0.225004
*END

*D_NET *166 0.00175833

*CONN
*I *316:ZN O *C 13.1 6.8 *L 0 *D MUX2ND0
*I *292:A1 I *C 8.1 11.8 *L 0.00093 *D NR2D1

*CAP
1 *316:ZN 0.000788162969
2 *292:A1 0.000588185
3 *166:2 0.000381977

*RES
1 *316:ZN *166:2 3.53939
2 *292:A1 *166:2 4.24324989
*END

*D_NET *167 0.000852409

*CONN
*I *317:ZN O *C 14.1 6.8 *L 0 *D XNR2D0
*I *298:A1 I *C 11.3 6.6 *L 0.000647 *D NR2D0

*CAP
1 *167:2 0.000614256016
2 *167:3 0.000238157

*RES
1 *167:2 *167:3 3.15411997
2 *298:A1 *167:2 1.20825
3 *317:ZN *167:3 0.224999
*END

